
     Program PWSCF v.6.7MaX starts on 11Mar2026 at  3:25:23 

     This program is part of the open-source Quantum ESPRESSO suite
     for quantum simulation of materials; please cite
         "P. Giannozzi et al., J. Phys.:Condens. Matter 21 395502 (2009);
         "P. Giannozzi et al., J. Phys.:Condens. Matter 29 465901 (2017);
          URL http://www.quantum-espresso.org", 
     in publications or presentations arising from this work. More details at
     http://www.quantum-espresso.org/quote

     Parallel version (MPI), running on     2 processors

     MPI processes distributed on     1 nodes
     R & G space division:  proc/nbgrp/npool/nimage =       2
     Waiting for input...
     Reading input from standard input

     Current dimensions of program PWSCF are:
     Max number of different atomic species (ntypx) = 10
     Max number of k-points (npk) =  40000
     Max angular momentum in pseudopotentials (lmaxx) =  3
     file H.UPF: wavefunction(s)  1S renormalized

     Subspace diagonalization in iterative solution of the eigenvalue problem:
     a serial algorithm will be used

     Message from routine setup:
     using ibrav=0 with symmetry is DISCOURAGED, use correct ibrav instead

     Parallelization info
     --------------------
     sticks:   dense  smooth     PW     G-vecs:    dense   smooth      PW
     Min        1014     507    147                30019    10593    1643
     Max        1015     508    148                30020    10594    1644
     Sum        2029    1015    295                60039    21187    3287



     bravais-lattice index     =            0
     lattice parameter (alat)  =       8.5655  a.u.
     unit-cell volume          =     444.3612 (a.u.)^3
     number of atoms/cell      =            9
     number of atomic types    =            4
     number of electrons       =        39.00
     number of Kohn-Sham states=           24
     kinetic-energy cutoff     =      50.0000  Ry
     charge density cutoff     =     400.0000  Ry
     scf convergence threshold =      1.0E-06
     mixing beta               =       0.4000
     number of iterations used =            6  local-TF  mixing
     energy convergence thresh.=      1.0E-04
     force convergence thresh. =      1.0E-03
     press convergence thresh. =      5.0E-01
     Exchange-correlation= SLA  PW   PBE  PBE
                           (   1   4   3   4   0   0   0)
     nstep                     =          100


     celldm(1)=   8.565455  celldm(2)=   0.000000  celldm(3)=   0.000000
     celldm(4)=   0.000000  celldm(5)=   0.000000  celldm(6)=   0.000000

     crystal axes: (cart. coord. in units of alat)
               a(1) = (   0.707107   0.707107  -0.000000 )  
               a(2) = (   0.000000   0.707107   0.707107 )  
               a(3) = (   0.707107   0.000000   0.707107 )  

     reciprocal axes: (cart. coord. in units 2 pi/alat)
               b(1) = (  0.707107  0.707107 -0.707107 )  
               b(2) = ( -0.707107  0.707107  0.707107 )  
               b(3) = (  0.707107 -0.707107  0.707107 )  


     PseudoPot. # 1 for H  read from file:
     /home/marco/ZOS_Cloud_Compute/pseudo/H.UPF
     MD5 check sum: 850d63dcbcc06c5de8b44e0ab9f952da
     Pseudo is Projector augmented-wave, Zval =  1.0
     Generated using "atomic" code by A. Dal Corso  v.5.1.2
     Shape of augmentation charge: PSQ
     Using radial grid of  929 points,  2 beta functions with: 
                l(1) =   0
                l(2) =   0
     Q(r) pseudized with 0 coefficients 


     PseudoPot. # 2 for Ru read from file:
     /home/marco/ZOS_Cloud_Compute/pseudo/Ru.UPF
     MD5 check sum: f5b0c0ac0209bb78060468064b042e80
     Pseudo is Ultrasoft + core correction, Zval =  8.0
     Generated by new atomic code, or converted to UPF format
     Using radial grid of  967 points,  4 beta functions with: 
                l(1) =   0
                l(2) =   0
                l(3) =   2
                l(4) =   2
     Q(r) pseudized with  8 coefficients,  rinner =    0.900   0.900   0.900
                                                       0.900   0.900

     PseudoPot. # 3 for Ta read from file:
     /home/marco/ZOS_Cloud_Compute/pseudo/Ta.UPF
     MD5 check sum: 395be6f3d7fb4652d9fb26f9961305c8
     Pseudo is Ultrasoft + core correction, Zval = 13.0
     Generated by new atomic code, or converted to UPF format
     Using radial grid of  921 points,  6 beta functions with: 
                l(1) =   0
                l(2) =   0
                l(3) =   1
                l(4) =   1
                l(5) =   2
                l(6) =   2
     Q(r) pseudized with  6 coefficients,  rinner =    1.000   1.000   1.000
                                                       1.000   1.000

     PseudoPot. # 4 for Ti read from file:
     /home/marco/ZOS_Cloud_Compute/pseudo/Ti.UPF
     MD5 check sum: 8e4df49b7f0d34bbd5052bf3f5ea0213
     Pseudo is Ultrasoft, Zval = 12.0
     Generated by new atomic code, or converted to UPF format
     Using radial grid of  851 points,  6 beta functions with: 
                l(1) =   0
                l(2) =   0
                l(3) =   1
                l(4) =   1
                l(5) =   2
                l(6) =   2
     Q(r) pseudized with  8 coefficients,  rinner =    1.000   1.000   1.000
                                                       1.000   1.000

     atomic species   valence    mass     pseudopotential
        H              1.00     1.00000     H ( 1.00)
        Ru             8.00     1.00000     Ru( 1.00)
        Ta            13.00     1.00000     Ta( 1.00)
        Ti            12.00     1.00000     Ti( 1.00)

     24 Sym. Ops. (no inversion) found



   Cartesian axes

     site n.     atom                  positions (alat units)
         1           Ta  tau(   1) = (   1.0606603   1.0606603   1.0606596  )
         2           Ti  tau(   2) = (   0.3535535   0.3535535   0.3535533  )
         3           H   tau(   3) = (   0.7071068   0.7071068   1.0345462  )
         4           H   tau(   4) = (   0.7071068   0.3796672   0.7071066  )
         5           H   tau(   5) = (   0.3796670   0.7071068   0.7071066  )
         6           H   tau(   6) = (   0.7071068   0.7071070   0.3796667  )
         7           H   tau(   7) = (   0.7071068   1.0345466   0.7071063  )
         8           H   tau(   8) = (   1.0345466   0.7071068   0.7071066  )
         9           Ru  tau(   9) = (  -0.0000000   0.0000000  -0.0000000  )

     number of k points=     3  Methfessel-Paxton smearing, width (Ry)=  0.0200
                       cart. coord. in units 2pi/alat
        k(    1) = (   0.0000000   0.0000000   0.0000000), wk =   0.2500000
        k(    2) = (  -0.3535534   0.3535534  -0.3535535), wk =   1.0000000
        k(    3) = (   0.0000000   0.0000000  -0.7071070), wk =   0.7500000

     Dense  grid:    60039 G-vectors     FFT dimensions: (  60,  60,  60)

     Smooth grid:    21187 G-vectors     FFT dimensions: (  40,  40,  40)

     Estimated max dynamical RAM per process >     129.45 MB

     Estimated total dynamical RAM >     258.90 MB

     Initial potential from superposition of free atoms

     starting charge   37.99812, renormalised to   39.00000
     Starting wfcs are   38 randomized atomic wfcs
     Checking if some PAW data can be deallocated... 

     total cpu time spent up to now is        6.3 secs

     Self-consistent Calculation

     iteration #  1     ecut=    50.00 Ry     beta= 0.40
     Davidson diagonalization with overlap
     ethr =  1.00E-02,  avg # of iterations =  2.0

     total cpu time spent up to now is        7.8 secs

     total energy              =    -315.50080507 Ry
     estimated scf accuracy    <       5.29310706 Ry

     iteration #  2     ecut=    50.00 Ry     beta= 0.40
     Davidson diagonalization with overlap
     ethr =  1.00E-02,  avg # of iterations =  1.7

     total cpu time spent up to now is        9.2 secs

     total energy              =    -315.94324836 Ry
     estimated scf accuracy    <       0.30442178 Ry

     iteration #  3     ecut=    50.00 Ry     beta= 0.40
     Davidson diagonalization with overlap
     ethr =  7.81E-04,  avg # of iterations =  6.0

     total cpu time spent up to now is       10.8 secs

     total energy              =    -315.98117479 Ry
     estimated scf accuracy    <       0.46637495 Ry

     iteration #  4     ecut=    50.00 Ry     beta= 0.40
     Davidson diagonalization with overlap
     ethr =  7.81E-04,  avg # of iterations =  1.0

     total cpu time spent up to now is       12.2 secs

     total energy              =    -315.91439772 Ry
     estimated scf accuracy    <       0.13261728 Ry

     iteration #  5     ecut=    50.00 Ry     beta= 0.40
     Davidson diagonalization with overlap
     ethr =  3.40E-04,  avg # of iterations =  4.3

     total cpu time spent up to now is       13.9 secs

     total energy              =    -315.93424017 Ry
     estimated scf accuracy    <       0.28653652 Ry

     iteration #  6     ecut=    50.00 Ry     beta= 0.40
     Davidson diagonalization with overlap
     ethr =  3.40E-04,  avg # of iterations =  2.0

     total cpu time spent up to now is       15.3 secs

     total energy              =    -315.95801577 Ry
     estimated scf accuracy    <       0.02099236 Ry

     iteration #  7     ecut=    50.00 Ry     beta= 0.40
     Davidson diagonalization with overlap
     ethr =  5.38E-05,  avg # of iterations =  5.3

     total cpu time spent up to now is       16.9 secs

     total energy              =    -315.95819564 Ry
     estimated scf accuracy    <       0.02904087 Ry

     iteration #  8     ecut=    50.00 Ry     beta= 0.40
     Davidson diagonalization with overlap
     ethr =  5.38E-05,  avg # of iterations =  1.3

     total cpu time spent up to now is       18.3 secs

     total energy              =    -315.95861608 Ry
     estimated scf accuracy    <       0.00560139 Ry

     iteration #  9     ecut=    50.00 Ry     beta= 0.40
     Davidson diagonalization with overlap
     ethr =  1.44E-05,  avg # of iterations =  4.3

     total cpu time spent up to now is       19.8 secs

     total energy              =    -315.96016487 Ry
     estimated scf accuracy    <       0.02581396 Ry

     iteration # 10     ecut=    50.00 Ry     beta= 0.40
     Davidson diagonalization with overlap
     ethr =  1.44E-05,  avg # of iterations =  1.3

     total cpu time spent up to now is       21.2 secs

     total energy              =    -315.95858275 Ry
     estimated scf accuracy    <       0.01290216 Ry

     iteration # 11     ecut=    50.00 Ry     beta= 0.40
     Davidson diagonalization with overlap
     ethr =  1.44E-05,  avg # of iterations =  4.0

     total cpu time spent up to now is       22.6 secs

     total energy              =    -315.95980912 Ry
     estimated scf accuracy    <       0.00059706 Ry

     iteration # 12     ecut=    50.00 Ry     beta= 0.40
     Davidson diagonalization with overlap
     ethr =  1.53E-06,  avg # of iterations =  3.0

     total cpu time spent up to now is       24.0 secs

     total energy              =    -315.95983817 Ry
     estimated scf accuracy    <       0.00018687 Ry

     iteration # 13     ecut=    50.00 Ry     beta= 0.40
     Davidson diagonalization with overlap
     ethr =  4.79E-07,  avg # of iterations =  4.0

     total cpu time spent up to now is       25.5 secs

     total energy              =    -315.95984250 Ry
     estimated scf accuracy    <       0.00004558 Ry

     iteration # 14     ecut=    50.00 Ry     beta= 0.40
     Davidson diagonalization with overlap
     ethr =  1.17E-07,  avg # of iterations =  5.0

     total cpu time spent up to now is       27.0 secs

     total energy              =    -315.95985446 Ry
     estimated scf accuracy    <       0.00012800 Ry

     iteration # 15     ecut=    50.00 Ry     beta= 0.40
     Davidson diagonalization with overlap
     ethr =  1.17E-07,  avg # of iterations =  1.7

     total cpu time spent up to now is       28.4 secs

     total energy              =    -315.95985095 Ry
     estimated scf accuracy    <       0.00009015 Ry

     iteration # 16     ecut=    50.00 Ry     beta= 0.40
     Davidson diagonalization with overlap
     ethr =  1.17E-07,  avg # of iterations =  1.3

     total cpu time spent up to now is       29.8 secs

     total energy              =    -315.95984597 Ry
     estimated scf accuracy    <       0.00004188 Ry

     iteration # 17     ecut=    50.00 Ry     beta= 0.40
     Davidson diagonalization with overlap
     ethr =  1.07E-07,  avg # of iterations =  3.0

     total cpu time spent up to now is       31.1 secs

     End of self-consistent calculation

          k = 0.0000 0.0000 0.0000 (  2685 PWs)   bands (ev):

   -54.7992 -43.3402 -21.3013 -21.3013 -21.3013 -19.6416 -19.6416 -19.6416
     2.1852   6.4318   6.4318   7.6966   7.6966   7.6966   9.8315   9.8315
     9.8315  13.8526  13.8526  15.7974  15.7974  15.7975  16.8285  16.8285

          k =-0.3536 0.3536-0.3536 (  2638 PWs)   bands (ev):

   -54.7991 -43.3400 -21.3109 -21.3000 -21.3000 -19.6550 -19.6480 -19.6480
     4.6131   5.1933   6.2206   6.2206   9.4281   9.4376   9.4376   9.6668
     9.6668  13.4562  13.8721  13.8721  14.0394  14.0394  15.1468  15.1468

          k = 0.0000 0.0000-0.7071 (  2650 PWs)   bands (ev):

   -54.7991 -43.3399 -21.3207 -21.3083 -21.3083 -19.6435 -19.6423 -19.6423
     4.4217   6.0832   6.3204   7.4823   8.5038   8.7970   8.7970   9.8144
     9.8144  12.2252  12.6541  13.8766  13.8766  14.2673  15.6351  15.6352

     the Fermi energy is    13.8939 ev

!    total energy              =    -315.95984876 Ry
     estimated scf accuracy    <       0.00000054 Ry
     smearing contrib. (-TS)   =      -0.01106890 Ry
     internal energy E=F+TS    =    -315.94877987 Ry

     The total energy is F=E-TS. E is the sum of the following terms:
     one-electron contribution =     -59.73304539 Ry
     hartree contribution      =      49.59340312 Ry
     xc contribution           =     -87.76602122 Ry
     ewald contribution        =    -218.04227521 Ry
     one-center paw contrib.   =      -0.00084116 Ry

     convergence has been achieved in  17 iterations

     Forces acting on atoms (cartesian axes, Ry/au):

     atom    1 type  3   force =     0.00000000    0.00000000    0.00000000
     atom    2 type  4   force =    -0.00000000    0.00000000    0.00000000
     atom    3 type  1   force =     0.00000000    0.00000000   -0.01156151
     atom    4 type  1   force =     0.00000000    0.01156151    0.00000000
     atom    5 type  1   force =     0.01156151    0.00000000    0.00000000
     atom    6 type  1   force =     0.00000000    0.00000000    0.01156151
     atom    7 type  1   force =     0.00000000   -0.01156151   -0.00000000
     atom    8 type  1   force =    -0.01156151    0.00000000   -0.00000000
     atom    9 type  2   force =    -0.00000000   -0.00000000    0.00000000

     Total force =     0.028320     Total SCF correction =     0.000102


     Computing stress (Cartesian axis) and pressure

          total   stress  (Ry/bohr**3)                   (kbar)     P=       75.28
   0.00051176  -0.00000000  -0.00000000           75.28       -0.00       -0.00
  -0.00000000   0.00051176  -0.00000000           -0.00       75.28       -0.00
  -0.00000000  -0.00000000   0.00051176           -0.00       -0.00       75.28


     BFGS Geometry Optimization
     Energy error            =      0.0E+00
     Gradient error          =      1.2E-02
     Cell gradient error     =      5.1E-04


     number of scf cycles    =   1
     number of bfgs steps    =   0

     enthalpy new            =    -315.9598487618 Ry

     new trust radius        =       0.0539391232 bohr
     new conv_thr            =       0.0000010000 Ry

     new unit-cell volume =    461.63583 a.u.^3 (    68.40737 Ang^3 )
     density =      0.21847 g/cm^3

CELL_PARAMETERS (angstrom)
   3.246068499   3.246068499  -0.000000000
  -0.000000000   3.246068499   3.246067512
   3.246068499  -0.000000000   3.246067512

ATOMIC_POSITIONS (angstrom)
Ta            4.8691032555        4.8691032555        4.8691002555
Ti            1.6230347561        1.6230347561        1.6230337561
H             3.2460684994        3.2460684994        4.7430265566
H             3.2460684994        1.7491094648        3.2460675122
H             1.7491084520        3.2460684994        3.2460675122
H             3.2460684994        3.2460695122        1.7491074549
H             3.2460684994        4.7430285468        3.2460664994
H             4.7430285468        3.2460684994        3.2460675122
Ru           -0.0000000000       -0.0000000000        0.0000000000



     Writing output data file ./tmp/TaTiH6Ru.save/
     NEW-OLD atomic charge density approx. for the potential
