
     Program PWSCF v.6.7MaX starts on 18Jan2026 at 11:24:17 

     This program is part of the open-source Quantum ESPRESSO suite
     for quantum simulation of materials; please cite
         "P. Giannozzi et al., J. Phys.:Condens. Matter 21 395502 (2009);
         "P. Giannozzi et al., J. Phys.:Condens. Matter 29 465901 (2017);
          URL http://www.quantum-espresso.org", 
     in publications or presentations arising from this work. More details at
     http://www.quantum-espresso.org/quote

     Parallel version (MPI), running on     2 processors

     MPI processes distributed on     1 nodes
     R & G space division:  proc/nbgrp/npool/nimage =       2
     Waiting for input...
     Reading input from standard input

     Current dimensions of program PWSCF are:
     Max number of different atomic species (ntypx) = 10
     Max number of k-points (npk) =  40000
     Max angular momentum in pseudopotentials (lmaxx) =  3
     Message from routine read_pp_mesh:
     mismatch in mesh size, discarding the one in header
     file H.UPF: wavefunction(s)  1S renormalized

     Subspace diagonalization in iterative solution of the eigenvalue problem:
     a serial algorithm will be used

     Message from routine setup:
     using ibrav=0 with symmetry is DISCOURAGED, use correct ibrav instead

     Parallelization info
     --------------------
     sticks:   dense  smooth     PW     G-vecs:    dense   smooth      PW
     Min        1519     756    216                62770    22158    3450
     Max        1520     757    217                62771    22159    3451
     Sum        3039    1513    433               125541    44317    6901



     bravais-lattice index     =            0
     lattice parameter (alat)  =       9.7743  a.u.
     unit-cell volume          =     929.7535 (a.u.)^3
     number of atoms/cell      =           12
     number of atomic types    =            3
     number of electrons       =        48.00
     number of Kohn-Sham states=           29
     kinetic-energy cutoff     =      50.0000  Ry
     charge density cutoff     =     400.0000  Ry
     scf convergence threshold =      1.0E-06
     mixing beta               =       0.7000
     number of iterations used =            4  plain     mixing
     energy convergence thresh.=      1.0E-04
     force convergence thresh. =      1.0E-03
     press convergence thresh. =      5.0E-01
     Exchange-correlation= SLA PW PBX PBC
                           (   1   4   3   4   0   0   0)
     nstep                     =           50


     celldm(1)=   9.774316  celldm(2)=   0.000000  celldm(3)=   0.000000
     celldm(4)=   0.000000  celldm(5)=   0.000000  celldm(6)=   0.000000

     crystal axes: (cart. coord. in units of alat)
               a(1) = (   0.999281  -0.026800   0.026800 )  
               a(2) = (  -0.026800   0.999282   0.026800 )  
               a(3) = (   0.026800   0.026800   0.999281 )  

     reciprocal axes: (cart. coord. in units 2 pi/alat)
               b(1) = (  1.002200  0.027619 -0.027619 )  
               b(2) = (  0.027619  1.002200 -0.027619 )  
               b(3) = ( -0.027619 -0.027619  1.002200 )  


     PseudoPot. # 1 for Ba read from file:
     /home/marco/ZOS_Cloud_Compute/pseudo/Ba.UPF
     MD5 check sum: a011de417d3466d8e94df216395bc359
     Pseudo is Ultrasoft + core correction, Zval = 10.0
     Generated by new atomic code, or converted to UPF format
     Using radial grid of  907 points,  6 beta functions with: 
                l(1) =   0
                l(2) =   0
                l(3) =   1
                l(4) =   1
                l(5) =   2
                l(6) =   2
     Q(r) pseudized with  6 coefficients,  rinner =    1.200   1.200   1.200
                                                       1.200   1.200

     PseudoPot. # 2 for H  read from file:
     /home/marco/ZOS_Cloud_Compute/pseudo/H.UPF
     MD5 check sum: 850d63dcbcc06c5de8b44e0ab9f952da
     Pseudo is Projector augmented-wave, Zval =  1.0
     Generated using "atomic" code by A. Dal Corso  v.5.1.2
     Shape of augmentation charge: PSQ
     Using radial grid of  929 points,  2 beta functions with: 
                l(1) =   0
                l(2) =   0
     Q(r) pseudized with 0 coefficients 


     PseudoPot. # 3 for Mg read from file:
     /home/marco/ZOS_Cloud_Compute/pseudo/Mg.UPF
     MD5 check sum: a77e51077e70c6c73445c6cac60d158f
     Pseudo is Projector augmented-wave + core cor, Zval = 10.0
     Generated using ATOMPAW code
     Shape of augmentation charge: BESSEL
     Using radial grid of 1171 points,  6 beta functions with: 
                l(1) =   0
                l(2) =   0
                l(3) =   0
                l(4) =   0
                l(5) =   1
                l(6) =   1
     Q(r) pseudized with 0 coefficients 


     atomic species   valence    mass     pseudopotential
        Ba            10.00     1.00000     Ba( 1.00)
        H              1.00     1.00000     H ( 1.00)
        Mg            10.00     1.00000     Mg( 1.00)

      6 Sym. Ops., with inversion, found ( 4 have fractional translation)



   Cartesian axes

     site n.     atom                  positions (alat units)
         1           Mg  tau(   1) = (   0.4862405   0.4862407   0.0268002  )
         2           Ba  tau(   2) = (   0.5130410   0.0000000   0.5130408  )
         3           Mg  tau(   3) = (   0.0000000   0.5130410   0.5130408  )
         4           Mg  tau(   4) = (  -0.0000000   0.0000000  -0.0000000  )
         5           H   tau(   5) = (   0.0290008   0.8517333   0.3556197  )
         6           H   tau(   6) = (   0.8201434   0.3071027   0.2059383  )
         7           H   tau(   7) = (   0.3654928   0.1842215   0.9702809  )
         8           H   tau(   8) = (   0.6704622   0.5420417   0.6873891  )
         9           H   tau(   9) = (   0.9702809   0.1475482   0.6972622  )
        10           H   tau(  10) = (   0.1791381   0.6921790   0.8469436  )
        11           H   tau(  11) = (   0.6337889   0.8150602   0.0826010  )
        12           H   tau(  12) = (   0.3288195   0.4572402   0.3654926  )

     number of k points=     4  Methfessel-Paxton smearing, width (Ry)=  0.0200
                       cart. coord. in units 2pi/alat
        k(    1) = (   0.0000000   0.0000000   0.0000000), wk =   0.2500000
        k(    2) = (   0.0138096   0.0138096  -0.5011002), wk =   0.7500000
        k(    3) = (   0.0000000  -0.4872905  -0.4872906), wk =   0.7500000
        k(    4) = (  -0.5011002  -0.5011002  -0.4734810), wk =   0.2500000

     Dense  grid:   125541 G-vectors     FFT dimensions: (  64,  64,  64)

     Smooth grid:    44317 G-vectors     FFT dimensions: (  48,  48,  48)

     Estimated max dynamical RAM per process >     249.18 MB

     Estimated total dynamical RAM >     498.35 MB

     Initial potential from superposition of free atoms

     starting charge   47.98242, renormalised to   48.00000
     Starting wfcs are   51 randomized atomic wfcs
     Checking if some PAW data can be deallocated... 

     total cpu time spent up to now is       10.5 secs

     Self-consistent Calculation

     iteration #  1     ecut=    50.00 Ry     beta= 0.70
     CG style diagonalization
     ethr =  1.00E-02,  avg # of iterations =  2.2

     total cpu time spent up to now is       13.1 secs

     total energy              =    -523.35052104 Ry
     estimated scf accuracy    <       0.58381239 Ry

     iteration #  2     ecut=    50.00 Ry     beta= 0.70
     CG style diagonalization
     ethr =  1.22E-03,  avg # of iterations =  3.4

     total cpu time spent up to now is       16.1 secs

     total energy              =    -523.42017891 Ry
     estimated scf accuracy    <       0.00581153 Ry

     iteration #  3     ecut=    50.00 Ry     beta= 0.70
     CG style diagonalization
     ethr =  1.21E-05,  avg # of iterations =  6.0

     total cpu time spent up to now is       20.5 secs

     total energy              =    -523.44766385 Ry
     estimated scf accuracy    <       0.00455835 Ry

     iteration #  4     ecut=    50.00 Ry     beta= 0.70
     CG style diagonalization
     ethr =  9.50E-06,  avg # of iterations =  3.6

     total cpu time spent up to now is       23.5 secs

     total energy              =    -523.44792351 Ry
     estimated scf accuracy    <       0.00076768 Ry

     iteration #  5     ecut=    50.00 Ry     beta= 0.70
     CG style diagonalization
     c_bands:  1 eigenvalues not converged
     ethr =  1.60E-06,  avg # of iterations =  4.7

     total cpu time spent up to now is       27.3 secs

     total energy              =    -523.44822023 Ry
     estimated scf accuracy    <       0.00029875 Ry

     iteration #  6     ecut=    50.00 Ry     beta= 0.70
     CG style diagonalization
     c_bands:  1 eigenvalues not converged
     ethr =  6.22E-07,  avg # of iterations =  3.8

     total cpu time spent up to now is       30.4 secs

     total energy              =    -523.44829595 Ry
     estimated scf accuracy    <       0.00000182 Ry

     iteration #  7     ecut=    50.00 Ry     beta= 0.70
     CG style diagonalization
     ethr =  3.79E-09,  avg # of iterations =  6.4

     total cpu time spent up to now is       35.0 secs

     End of self-consistent calculation

          k = 0.0000 0.0000 0.0000 (  5491 PWs)   bands (ev):

   -69.2733 -69.2728 -69.2728 -36.3918 -36.3896 -36.3896 -36.3591 -36.3582
   -36.3582 -36.3351 -36.3351 -36.3308 -21.4579  -6.7791  -6.7452  -6.7452
    -1.6434   1.9926   1.9926   2.6821   2.6821   2.8483   3.6498   3.9717
     8.2976   8.2976   8.7959   9.4325   9.4326

          k = 0.0138 0.0138-0.5011 (  5526 PWs)   bands (ev):

   -69.2731 -69.2730 -69.2728 -36.3910 -36.3903 -36.3896 -36.3587 -36.3583
   -36.3580 -36.3353 -36.3339 -36.3323 -21.4545  -6.9334  -6.7554  -6.7244
    -0.2264  -0.1685   2.2302   2.6846   2.9836   3.1354   3.5740   3.7969
     7.8424   8.1980   9.1828   9.6013  10.2177

          k = 0.0000-0.4873-0.4873 (  5560 PWs)   bands (ev):

   -69.2730 -69.2730 -69.2729 -36.3915 -36.3903 -36.3891 -36.3593 -36.3583
   -36.3576 -36.3354 -36.3339 -36.3322 -21.4514  -6.9032  -6.8947  -6.7230
     0.2866   0.9059   1.1680   1.2896   2.8979   3.5156   3.5728   4.0414
     8.2053   8.4155   8.8600   9.6318  10.2680

          k =-0.5011-0.5011-0.4735 (  5568 PWs)   bands (ev):

   -69.2730 -69.2730 -69.2728 -36.3927 -36.3891 -36.3891 -36.3594 -36.3594
   -36.3568 -36.3369 -36.3321 -36.3321 -21.4485  -6.8867  -6.8587  -6.8587
     0.9360   0.9360   1.6381   1.6907   2.2398   2.2604   2.2604   5.1641
     8.6845   9.8190   9.8191  10.7209  11.2356

     the Fermi energy is     7.6268 ev

!    total energy              =    -523.44831248 Ry
     estimated scf accuracy    <       0.00000043 Ry
     smearing contrib. (-TS)   =       0.00071858 Ry
     internal energy E=F+TS    =    -523.44903106 Ry

     The total energy is F=E-TS. E is the sum of the following terms:
     one-electron contribution =    -339.83235664 Ry
     hartree contribution      =      89.05743041 Ry
     xc contribution           =     -90.87544601 Ry
     ewald contribution        =    -204.35797659 Ry
     one-center paw contrib.   =      22.55931778 Ry

     convergence has been achieved in   7 iterations

     Forces acting on atoms (cartesian axes, Ry/au):

     atom    1 type  3   force =     0.00000000    0.00000000   -0.00000000
     atom    2 type  1   force =     0.00000000   -0.00000000    0.00000000
     atom    3 type  3   force =     0.00000000    0.00000000   -0.00000000
     atom    4 type  3   force =    -0.00000000   -0.00000000    0.00000000
     atom    5 type  2   force =    -0.00106915    0.00157175    0.00457161
     atom    6 type  2   force =    -0.00460096   -0.00460096    0.00460096
     atom    7 type  2   force =     0.00157175   -0.00457160    0.00106915
     atom    8 type  2   force =    -0.00457161   -0.00106915   -0.00157175
     atom    9 type  2   force =     0.00106915   -0.00157175   -0.00457161
     atom   10 type  2   force =     0.00460096    0.00460096   -0.00460096
     atom   11 type  2   force =    -0.00157175    0.00457160   -0.00106915
     atom   12 type  2   force =     0.00457161    0.00106915    0.00157175

     Total force =     0.016556     Total SCF correction =     0.000110


     Computing stress (Cartesian axis) and pressure

          total   stress  (Ry/bohr**3)                   (kbar)     P=        1.63
   0.00001110  -0.00003644   0.00003644            1.63       -5.36        5.36
  -0.00003644   0.00001110   0.00003644           -5.36        1.63        5.36
   0.00003644   0.00003644   0.00001110            5.36        5.36        1.63


     BFGS Geometry Optimization
     Energy error            =      0.0E+00
     Gradient error          =      4.6E-03
     Cell gradient error     =      3.6E-05


     number of scf cycles    =   1
     number of bfgs steps    =   0

     enthalpy new            =    -523.4483124802 Ry

     new trust radius        =       0.0080379348 bohr
     new conv_thr            =       0.0000010000 Ry

     new unit-cell volume =    930.52551 a.u.^3 (   137.88965 Ang^3 )
     density =      0.14451 g/cm^3

CELL_PARAMETERS (angstrom)
   5.170316084  -0.143241329   0.143241330
  -0.143241330   5.170317083   0.143241330
   0.143241330   0.143241329   5.170316084

ATOMIC_POSITIONS (angstrom)
Mg            2.5135368767        2.5135378776        0.1432413297
Ba            2.6567792067       -0.0000000009        2.6567782073
Mg           -0.0000000005        2.6567792059        2.6567782069
Mg           -0.0000000000       -0.0000000000        0.0000000000
H             0.1471411941        4.4090555697        1.8464690977
H             4.2403346293        1.5835564234        1.0732227847
H             1.8955186945        0.9535514391        5.0231758915
H             3.4670893154        2.8039203989        3.5612800511
H             5.0231758909        0.7612605126        3.6103296464
H             0.9299814545        3.5867606601        4.3835759594
H             3.2747983896        4.2167656435        0.4336228536
H             1.7032277669        2.3663976830        1.8955176946



     Writing output data file ./tmp/BaMg3H8.save/
     NEW-OLD atomic charge density approx. for the potential
     extrapolated charge   48.03981, renormalised to   48.00000

     total cpu time spent up to now is       66.6 secs

     Self-consistent Calculation

     iteration #  1     ecut=    50.00 Ry     beta= 0.70
     CG style diagonalization
     ethr =  1.00E-06,  avg # of iterations =  3.3

     Threshold (ethr) on eigenvalues was too large:
     Diagonalizing with lowered threshold

     CG style diagonalization
     c_bands:  1 eigenvalues not converged
     c_bands:  1 eigenvalues not converged
     ethr =  3.63E-08,  avg # of iterations =  4.6

     total cpu time spent up to now is       72.7 secs

     total energy              =    -523.44864948 Ry
     estimated scf accuracy    <       0.00002243 Ry

     iteration #  2     ecut=    50.00 Ry     beta= 0.70
     CG style diagonalization
     ethr =  4.67E-08,  avg # of iterations =  4.5

     total cpu time spent up to now is       76.2 secs

     total energy              =    -523.44874651 Ry
     estimated scf accuracy    <       0.00000405 Ry

     iteration #  3     ecut=    50.00 Ry     beta= 0.70
     CG style diagonalization
     ethr =  8.45E-09,  avg # of iterations =  4.3

     total cpu time spent up to now is       79.7 secs

     End of self-consistent calculation

          k = 0.0000 0.0000 0.0000 (  5491 PWs)   bands (ev):

   -69.2775 -69.2771 -69.2771 -36.3976 -36.3955 -36.3955 -36.3638 -36.3627
   -36.3627 -36.3384 -36.3384 -36.3339 -21.4614  -6.7847  -6.7485  -6.7485
    -1.6464   1.9838   1.9838   2.6789   2.6789   2.8501   3.6370   3.9501
     8.2950   8.2950   8.7933   9.4254   9.4255

          k = 0.0143 0.0143-0.5010 (  5526 PWs)   bands (ev):

   -69.2774 -69.2772 -69.2771 -36.3969 -36.3962 -36.3955 -36.3634 -36.3629
   -36.3625 -36.3386 -36.3371 -36.3354 -21.4580  -6.9373  -6.7601  -6.7279
    -0.2330  -0.1688   2.2300   2.6727   2.9741   3.1202   3.5664   3.7919
     7.8414   8.1840   9.1798   9.5835  10.2393

          k = 0.0000-0.4867-0.4867 (  5560 PWs)   bands (ev):

   -69.2773 -69.2772 -69.2771 -36.3974 -36.3962 -36.3950 -36.3639 -36.3629
   -36.3620 -36.3386 -36.3371 -36.3353 -21.4549  -6.9078  -6.8981  -6.7270
     0.2869   0.8950   1.1673   1.2806   2.8846   3.5174   3.5650   4.0266
     8.2144   8.3999   8.8489   9.6158  10.2693

          k =-0.5010-0.5010-0.4724 (  5568 PWs)   bands (ev):

   -69.2773 -69.2773 -69.2771 -36.3986 -36.3950 -36.3950 -36.3641 -36.3640
   -36.3612 -36.3403 -36.3352 -36.3352 -21.4520  -6.8915  -6.8620  -6.8620
     0.9289   0.9289   1.6446   1.6900   2.2373   2.2451   2.2451   5.1541
     8.6749   9.8028   9.8028  10.7431  11.1961

     the Fermi energy is     7.6264 ev

!    total energy              =    -523.44874995 Ry
     estimated scf accuracy    <       0.00000098 Ry
     smearing contrib. (-TS)   =       0.00072920 Ry
     internal energy E=F+TS    =    -523.44947915 Ry

     The total energy is F=E-TS. E is the sum of the following terms:
     one-electron contribution =    -339.93238902 Ry
     hartree contribution      =      89.09125213 Ry
     xc contribution           =     -90.87350431 Ry
     ewald contribution        =    -204.29451182 Ry
     one-center paw contrib.   =      22.55967386 Ry

     convergence has been achieved in   3 iterations

     Forces acting on atoms (cartesian axes, Ry/au):

     atom    1 type  3   force =     0.00000000    0.00000000   -0.00000000
     atom    2 type  1   force =     0.00000000   -0.00000000    0.00000000
     atom    3 type  3   force =     0.00000000   -0.00000000   -0.00000000
     atom    4 type  3   force =     0.00000000   -0.00000000    0.00000000
     atom    5 type  2   force =    -0.00112107    0.00153083    0.00414113
     atom    6 type  2   force =    -0.00430077   -0.00430077    0.00430077
     atom    7 type  2   force =     0.00153083   -0.00414113    0.00112107
     atom    8 type  2   force =    -0.00414113   -0.00112107   -0.00153083
     atom    9 type  2   force =     0.00112107   -0.00153083   -0.00414113
     atom   10 type  2   force =     0.00430077    0.00430077   -0.00430077
     atom   11 type  2   force =    -0.00153083    0.00414113   -0.00112107
     atom   12 type  2   force =     0.00414113    0.00112107    0.00153083

     Total force =     0.015345     Total SCF correction =     0.000188


     Computing stress (Cartesian axis) and pressure

          total   stress  (Ry/bohr**3)                   (kbar)     P=       -1.09
  -0.00000741  -0.00003121   0.00003121           -1.09       -4.59        4.59
  -0.00003121  -0.00000741   0.00003121           -4.59       -1.09        4.59
   0.00003121   0.00003121  -0.00000741            4.59        4.59       -1.09

     Energy error            =      4.4E-04
     Gradient error          =      4.3E-03
     Cell gradient error     =      3.1E-05


     number of scf cycles    =   2
     number of bfgs steps    =   1

     enthalpy old            =    -523.4483124802 Ry
     enthalpy new            =    -523.4487499512 Ry

     CASE: enthalpy_new < enthalpy_old


     WARNING: bfgs curvature condition failed, Theta= 0.920
     new trust radius        =       0.0088459777 bohr
     new conv_thr            =       0.0000000430 Ry

     new unit-cell volume =    930.36085 a.u.^3 (   137.86525 Ang^3 )
     density =      0.14454 g/cm^3

CELL_PARAMETERS (angstrom)
   5.170290081  -0.148045351   0.148045352
  -0.148045352   5.170291080   0.148045352
   0.148045352   0.148045351   5.170290081

ATOMIC_POSITIONS (angstrom)
Mg            2.5111218640        2.5111228658        0.1480453515
Ba            2.6591682157       -0.0000000019        2.6591672173
Mg           -0.0000000010        2.6591682145        2.6591672164
Mg           -0.0000000000       -0.0000000000        0.0000000000
H             0.1440010518        4.4113872887        1.8533603428
H             4.2369025547        1.5777353406        1.0814328783
H             1.9002654274        0.9538532254        5.0262900321
H             3.4649760880        2.8031692640        3.5661153611
H             5.0262900309        0.7589027894        3.6130204426
H             0.9333875258        3.5925557396        4.3849479071
H             3.2700256534        4.2164378530        0.4400907552
H             1.7053149890        2.3671228127        1.9002644279



     Writing output data file ./tmp/BaMg3H8.save/
     NEW-OLD atomic charge density approx. for the potential
     extrapolated charge   47.99151, renormalised to   48.00000

     total cpu time spent up to now is      111.1 secs

     Self-consistent Calculation

     iteration #  1     ecut=    50.00 Ry     beta= 0.70
     CG style diagonalization
     ethr =  1.00E-06,  avg # of iterations =  3.2

     Threshold (ethr) on eigenvalues was too large:
     Diagonalizing with lowered threshold

     CG style diagonalization
     c_bands:  1 eigenvalues not converged
     c_bands:  1 eigenvalues not converged
     c_bands:  2 eigenvalues not converged
     c_bands:  1 eigenvalues not converged
     ethr =  2.16E-08,  avg # of iterations =  5.8

     total cpu time spent up to now is      118.1 secs

     total energy              =    -523.44914391 Ry
     estimated scf accuracy    <       0.00002034 Ry

     iteration #  2     ecut=    50.00 Ry     beta= 0.70
     CG style diagonalization
     ethr =  4.24E-08,  avg # of iterations =  4.2

     total cpu time spent up to now is      121.4 secs

     total energy              =    -523.44916013 Ry
     estimated scf accuracy    <       0.00000107 Ry

     iteration #  3     ecut=    50.00 Ry     beta= 0.70
     CG style diagonalization
     ethr =  2.22E-09,  avg # of iterations =  4.6

     total cpu time spent up to now is      125.0 secs

     total energy              =    -523.44916121 Ry
     estimated scf accuracy    <       0.00000008 Ry

     iteration #  4     ecut=    50.00 Ry     beta= 0.70
     CG style diagonalization
     ethr =  1.73E-10,  avg # of iterations =  4.6

     total cpu time spent up to now is      128.7 secs

     End of self-consistent calculation

          k = 0.0000 0.0000 0.0000 (  5491 PWs)   bands (ev):

   -69.2815 -69.2811 -69.2811 -36.4006 -36.3986 -36.3986 -36.3660 -36.3651
   -36.3651 -36.3442 -36.3442 -36.3398 -21.4540  -6.7799  -6.7426  -6.7426
    -1.6447   1.9809   1.9809   2.6848   2.6848   2.8599   3.6311   3.9367
     8.3009   8.3009   8.8004   9.4273   9.4274

          k = 0.0148 0.0148-0.5010 (  5526 PWs)   bands (ev):

   -69.2814 -69.2813 -69.2811 -36.3999 -36.3992 -36.3986 -36.3657 -36.3652
   -36.3649 -36.3444 -36.3430 -36.3414 -21.4507  -6.9323  -6.7548  -6.7219
    -0.2342  -0.1617   2.2370   2.6675   2.9711   3.1135   3.5668   3.7959
     7.8505   8.1782   9.1867   9.5760  10.2730

          k = 0.0000-0.4863-0.4863 (  5560 PWs)   bands (ev):

   -69.2813 -69.2812 -69.2812 -36.4004 -36.3992 -36.3981 -36.3662 -36.3652
   -36.3645 -36.3445 -36.3430 -36.3413 -21.4476  -6.9027  -6.8928  -6.7214
     0.2933   0.8920   1.1748   1.2774   2.8779   3.5275   3.5655   4.0201
     8.2338   8.3931   8.8471   9.6094  10.2815

          k =-0.5010-0.5010-0.4715 (  5568 PWs)   bands (ev):

   -69.2813 -69.2813 -69.2811 -36.4016 -36.3981 -36.3981 -36.3664 -36.3664
   -36.3637 -36.3460 -36.3411 -36.3411 -21.4447  -6.8864  -6.8567  -6.8567
     0.9285   0.9285   1.6591   1.6949   2.2376   2.2376   2.2430   5.1545
     8.6757   9.7957   9.7957  10.7805  11.1725

     the Fermi energy is     7.6366 ev

!    total energy              =    -523.44916133 Ry
     estimated scf accuracy    <          5.3E-09 Ry
     smearing contrib. (-TS)   =       0.00074889 Ry
     internal energy E=F+TS    =    -523.44991022 Ry

     The total energy is F=E-TS. E is the sum of the following terms:
     one-electron contribution =    -339.92719743 Ry
     hartree contribution      =      89.09223522 Ry
     xc contribution           =     -90.87440205 Ry
     ewald contribution        =    -204.29961245 Ry
     one-center paw contrib.   =      22.55906649 Ry

     convergence has been achieved in   4 iterations

     Forces acting on atoms (cartesian axes, Ry/au):

     atom    1 type  3   force =    -0.00000000    0.00000000    0.00000000
     atom    2 type  1   force =     0.00000000    0.00000000   -0.00000000
     atom    3 type  3   force =     0.00000000   -0.00000000   -0.00000000
     atom    4 type  3   force =    -0.00000000   -0.00000000    0.00000000
     atom    5 type  2   force =    -0.00117834    0.00154697    0.00372188
     atom    6 type  2   force =    -0.00395919   -0.00395919    0.00395919
     atom    7 type  2   force =     0.00154697   -0.00372188    0.00117834
     atom    8 type  2   force =    -0.00372188   -0.00117834   -0.00154697
     atom    9 type  2   force =     0.00117834   -0.00154697   -0.00372188
     atom   10 type  2   force =     0.00395919    0.00395919   -0.00395919
     atom   11 type  2   force =    -0.00154697    0.00372188   -0.00117834
     atom   12 type  2   force =     0.00372188    0.00117834    0.00154697

     Total force =     0.014137     Total SCF correction =     0.000019


     Computing stress (Cartesian axis) and pressure

          total   stress  (Ry/bohr**3)                   (kbar)     P=        1.16
   0.00000790  -0.00002321   0.00002321            1.16       -3.41        3.41
  -0.00002321   0.00000790   0.00002321           -3.41        1.16        3.41
   0.00002321   0.00002321   0.00000790            3.41        3.41        1.16

     Energy error            =      4.1E-04
     Gradient error          =      4.0E-03
     Cell gradient error     =      2.3E-05


     number of scf cycles    =   3
     number of bfgs steps    =   2

     enthalpy old            =    -523.4487499512 Ry
     enthalpy new            =    -523.4491613298 Ry

     CASE: enthalpy_new < enthalpy_old

     new trust radius        =       0.0132427917 bohr
     new conv_thr            =       0.0000000396 Ry

     new unit-cell volume =    931.15132 a.u.^3 (   137.98239 Ang^3 )
     density =      0.14441 g/cm^3

CELL_PARAMETERS (angstrom)
   5.172128299  -0.154302594   0.154302597
  -0.154302597   5.172129299   0.154302597
   0.154302597   0.154302594   5.172128299

ATOMIC_POSITIONS (angstrom)
Mg            2.5089123508        2.5089133537        0.1543025958
Ba            2.6632159470       -0.0000000031        2.6632149496
Mg           -0.0000000016        2.6632159449        2.6632149481
Mg           -0.0000000000       -0.0000000000        0.0000000000
H             0.1397418081        4.4163179486        1.8634074585
H             4.2334573888        1.5702424446        1.0929735079
H             1.9074056024        0.9541110861        5.0323874969
H             3.4630244347        2.8029577493        3.5733278966
H             5.0323874949        0.7558103465        3.6173260356
H             0.9386709105        3.6018868541        4.3877599862
H             3.2647236974        4.2180182094        0.4483460002
H             1.7091048589        2.3691725437        1.9074046031



     Writing output data file ./tmp/BaMg3H8.save/
     NEW-OLD atomic charge density approx. for the potential
     extrapolated charge   48.04073, renormalised to   48.00000

     total cpu time spent up to now is      160.2 secs

     Self-consistent Calculation

     iteration #  1     ecut=    50.00 Ry     beta= 0.70
     CG style diagonalization
     ethr =  1.00E-06,  avg # of iterations =  3.7

     Threshold (ethr) on eigenvalues was too large:
     Diagonalizing with lowered threshold

     CG style diagonalization
     c_bands:  1 eigenvalues not converged
     c_bands:  1 eigenvalues not converged
     ethr =  7.09E-08,  avg # of iterations =  4.2

     total cpu time spent up to now is      166.7 secs

     total energy              =    -523.44953398 Ry
     estimated scf accuracy    <       0.00005232 Ry

     iteration #  2     ecut=    50.00 Ry     beta= 0.70
     CG style diagonalization
     ethr =  1.09E-07,  avg # of iterations =  4.3

     total cpu time spent up to now is      170.1 secs

     total energy              =    -523.44965089 Ry
     estimated scf accuracy    <       0.00000620 Ry

     iteration #  3     ecut=    50.00 Ry     beta= 0.70
     CG style diagonalization
     ethr =  1.29E-08,  avg # of iterations =  4.2

     total cpu time spent up to now is      173.5 secs

     total energy              =    -523.44965610 Ry
     estimated scf accuracy    <       0.00000100 Ry

     iteration #  4     ecut=    50.00 Ry     beta= 0.70
     CG style diagonalization
     ethr =  2.08E-09,  avg # of iterations =  4.0

     total cpu time spent up to now is      176.9 secs

     End of self-consistent calculation

          k = 0.0000 0.0000 0.0000 (  5491 PWs)   bands (ev):

   -69.2913 -69.2909 -69.2909 -36.4107 -36.4087 -36.4087 -36.3749 -36.3739
   -36.3739 -36.3543 -36.3543 -36.3500 -21.4559  -6.7849  -6.7448  -6.7448
    -1.6474   1.9693   1.9693   2.6848   2.6848   2.8633   3.6148   3.9103
     8.2995   8.2995   8.7980   9.4185   9.4185

          k = 0.0154 0.0154-0.5009 (  5526 PWs)   bands (ev):

   -69.2912 -69.2910 -69.2909 -36.4101 -36.4094 -36.4087 -36.3745 -36.3740
   -36.3737 -36.3546 -36.3532 -36.3515 -21.4526  -6.9355  -6.7588  -6.7243
    -0.2424  -0.1590   2.2385   2.6530   2.9586   3.0963   3.5580   3.7922
     7.8513   8.1610   9.1848   9.5548  10.3083

          k = 0.0000-0.4855-0.4855 (  5560 PWs)   bands (ev):

   -69.2911 -69.2910 -69.2910 -36.4106 -36.4094 -36.4082 -36.3751 -36.3740
   -36.3733 -36.3546 -36.3532 -36.3514 -21.4495  -6.9066  -6.8952  -6.7244
     0.2965   0.8800   1.1756   1.2655   2.8611   3.5322   3.5585   4.0019
     8.2489   8.3725   8.8343   9.5898  10.2852

          k =-0.5009-0.5009-0.4701 (  5568 PWs)   bands (ev):

   -69.2911 -69.2911 -69.2909 -36.4118 -36.4082 -36.4082 -36.3752 -36.3752
   -36.3725 -36.3561 -36.3513 -36.3513 -21.4466  -6.8906  -6.8591  -6.8591
     0.9220   0.9220   1.6727   1.6932   2.2182   2.2182   2.2402   5.1455
     8.6636   9.7749   9.7749  10.8183  11.1261

     the Fermi energy is     7.6391 ev

!    total energy              =    -523.44965675 Ry
     estimated scf accuracy    <       0.00000003 Ry
     smearing contrib. (-TS)   =       0.00077729 Ry
     internal energy E=F+TS    =    -523.45043404 Ry

     The total energy is F=E-TS. E is the sum of the following terms:
     one-electron contribution =    -340.02696236 Ry
     hartree contribution      =      89.12644021 Ry
     xc contribution           =     -90.87268448 Ry
     ewald contribution        =    -204.23526104 Ry
     one-center paw contrib.   =      22.55803361 Ry

     convergence has been achieved in   4 iterations

     Forces acting on atoms (cartesian axes, Ry/au):

     atom    1 type  3   force =    -0.00000000   -0.00000000    0.00000000
     atom    2 type  1   force =     0.00000000    0.00000000   -0.00000000
     atom    3 type  3   force =    -0.00000000    0.00000000    0.00000000
     atom    4 type  3   force =     0.00000000   -0.00000000    0.00000000
     atom    5 type  2   force =    -0.00126353    0.00147677    0.00306533
     atom    6 type  2   force =    -0.00345733   -0.00345733    0.00345733
     atom    7 type  2   force =     0.00147677   -0.00306533    0.00126353
     atom    8 type  2   force =    -0.00306533   -0.00126353   -0.00147677
     atom    9 type  2   force =     0.00126353   -0.00147677   -0.00306533
     atom   10 type  2   force =     0.00345733    0.00345733   -0.00345733
     atom   11 type  2   force =    -0.00147677    0.00306533   -0.00126353
     atom   12 type  2   force =     0.00306533    0.00126353    0.00147677

     Total force =     0.012278     Total SCF correction =     0.000043


     Computing stress (Cartesian axis) and pressure

          total   stress  (Ry/bohr**3)                   (kbar)     P=       -0.17
  -0.00000118  -0.00001446   0.00001446           -0.17       -2.13        2.13
  -0.00001446  -0.00000118   0.00001446           -2.13       -0.17        2.13
   0.00001446   0.00001446  -0.00000118            2.13        2.13       -0.17

     Energy error            =      5.0E-04
     Gradient error          =      3.5E-03
     Cell gradient error     =      1.4E-05


     number of scf cycles    =   4
     number of bfgs steps    =   3

     enthalpy old            =    -523.4491613298 Ry
     enthalpy new            =    -523.4496567545 Ry

     CASE: enthalpy_new < enthalpy_old

     new trust radius        =       0.0198206777 bohr
     new conv_thr            =       0.0000000346 Ry

     new unit-cell volume =    931.67443 a.u.^3 (   138.05991 Ang^3 )
     density =      0.14433 g/cm^3

CELL_PARAMETERS (angstrom)
   5.173606688  -0.162406667   0.162406671
  -0.162406671   5.173607687   0.162406671
   0.162406671   0.162406667   5.173606688

ATOMIC_POSITIONS (angstrom)
Mg            2.5055995080        2.5056005125        0.1624066687
Ba            2.6680071774       -0.0000000047        2.6680061814
Mg           -0.0000000024        2.6680071743        2.6680061792
Mg           -0.0000000000       -0.0000000000        0.0000000000
H             0.1337510518        4.4224062238        1.8767640130
H             4.2274556692        1.5594494962        1.1085576896
H             1.9168067228        0.9536498361        5.0398566445
H             3.4592503405        2.8017582206        3.5816133147
H             5.0398566413        0.7512004576        3.6216560170
H             0.9461510185        3.6141581905        4.3898623404
H             3.2568009656        4.2199578460        0.4585633902
H             1.7143573385        2.3718504574        1.9168057239



     Writing output data file ./tmp/BaMg3H8.save/
     NEW-OLD atomic charge density approx. for the potential
     extrapolated charge   48.02694, renormalised to   48.00000

     total cpu time spent up to now is      208.3 secs

     Self-consistent Calculation

     iteration #  1     ecut=    50.00 Ry     beta= 0.70
     CG style diagonalization
     ethr =  1.00E-06,  avg # of iterations =  3.6

     total cpu time spent up to now is      211.8 secs

     total energy              =    -523.45047101 Ry
     estimated scf accuracy    <       0.00005721 Ry

     iteration #  2     ecut=    50.00 Ry     beta= 0.70
     CG style diagonalization
     ethr =  1.19E-07,  avg # of iterations =  4.5

     total cpu time spent up to now is      215.4 secs

     total energy              =    -523.45066685 Ry
     estimated scf accuracy    <       0.00001230 Ry

     iteration #  3     ecut=    50.00 Ry     beta= 0.70
     CG style diagonalization
     ethr =  2.56E-08,  avg # of iterations =  4.2

     total cpu time spent up to now is      218.9 secs

     total energy              =    -523.45067889 Ry
     estimated scf accuracy    <       0.00000103 Ry

     iteration #  4     ecut=    50.00 Ry     beta= 0.70
     CG style diagonalization
     ethr =  2.15E-09,  avg # of iterations =  4.3

     total cpu time spent up to now is      222.4 secs

     total energy              =    -523.45068108 Ry
     estimated scf accuracy    <       0.00000018 Ry

     iteration #  5     ecut=    50.00 Ry     beta= 0.70
     CG style diagonalization
     ethr =  3.67E-10,  avg # of iterations =  4.7

     total cpu time spent up to now is      226.0 secs

     End of self-consistent calculation

          k = 0.0000 0.0000 0.0000 (  5491 PWs)   bands (ev):

   -69.3083 -69.3078 -69.3078 -36.4281 -36.4263 -36.4262 -36.3908 -36.3898
   -36.3898 -36.3717 -36.3717 -36.3674 -21.4413  -6.7761  -6.7323  -6.7323
    -1.6492   1.9564   1.9564   2.6902   2.6902   2.8710   3.5965   3.8803
     8.3061   8.3061   8.7992   9.4107   9.4108

          k = 0.0162 0.0162-0.5009 (  5526 PWs)   bands (ev):

   -69.3081 -69.3080 -69.3078 -36.4275 -36.4269 -36.4262 -36.3905 -36.3899
   -36.3896 -36.3720 -36.3706 -36.3689 -21.4380  -6.9254  -6.7484  -6.7118
    -0.2511  -0.1512   2.2431   2.6381   2.9448   3.0786   3.5505   3.7918
     7.8571   8.1464   9.1911   9.5332  10.3660

          k = 0.0000-0.4847-0.4847 (  5560 PWs)   bands (ev):

   -69.3080 -69.3080 -69.3079 -36.4280 -36.4269 -36.4257 -36.3910 -36.3899
   -36.3891 -36.3721 -36.3706 -36.3688 -21.4349  -6.8970  -6.8838  -6.7127
     0.3038   0.8689   1.1806   1.2523   2.8424   3.5421   3.5548   3.9820
     8.2744   8.3486   8.8266   9.5735  10.2989

          k =-0.5009-0.5009-0.4684 (  5568 PWs)   bands (ev):

   -69.3080 -69.3080 -69.3078 -36.4292 -36.4257 -36.4257 -36.3912 -36.3911
   -36.3883 -36.3736 -36.3687 -36.3687 -21.4320  -6.8813  -6.8476  -6.8476
     0.9175   0.9175   1.6919   1.6948   2.1968   2.1968   2.2400   5.1407
     8.6533   9.7571   9.7572  10.8789  11.0670

     the Fermi energy is     6.5197 ev

!    total energy              =    -523.45068150 Ry
     estimated scf accuracy    <       0.00000002 Ry
     smearing contrib. (-TS)   =       0.00000000 Ry
     internal energy E=F+TS    =    -523.45068150 Ry

     The total energy is F=E-TS. E is the sum of the following terms:
     one-electron contribution =    -340.08750799 Ry
     hartree contribution      =      89.14441643 Ry
     xc contribution           =     -90.87229219 Ry
     ewald contribution        =    -204.19164115 Ry
     one-center paw contrib.   =      22.55634341 Ry

     convergence has been achieved in   5 iterations

     Forces acting on atoms (cartesian axes, Ry/au):

     atom    1 type  3   force =     0.00000000    0.00000000    0.00000000
     atom    2 type  1   force =    -0.00000000   -0.00000000    0.00000000
     atom    3 type  3   force =    -0.00000000   -0.00000000    0.00000000
     atom    4 type  3   force =    -0.00000000   -0.00000000    0.00000000
     atom    5 type  2   force =    -0.00131854    0.00132024    0.00214665
     atom    6 type  2   force =    -0.00264759   -0.00264759    0.00264759
     atom    7 type  2   force =     0.00132024   -0.00214665    0.00131854
     atom    8 type  2   force =    -0.00214665   -0.00131854   -0.00132024
     atom    9 type  2   force =     0.00131854   -0.00132024   -0.00214665
     atom   10 type  2   force =     0.00264759    0.00264759   -0.00264759
     atom   11 type  2   force =    -0.00132024    0.00214665   -0.00131854
     atom   12 type  2   force =     0.00214665    0.00131854    0.00132024

     Total force =     0.009518     Total SCF correction =     0.000041


     Computing stress (Cartesian axis) and pressure

          total   stress  (Ry/bohr**3)                   (kbar)     P=        0.07
   0.00000045  -0.00000501   0.00000501            0.07       -0.74        0.74
  -0.00000501   0.00000045   0.00000501           -0.74        0.07        0.74
   0.00000501   0.00000501   0.00000045            0.74        0.74        0.07

     Energy error            =      1.0E-03
     Gradient error          =      2.6E-03
     Cell gradient error     =      5.0E-06


     number of scf cycles    =   5
     number of bfgs steps    =   4

     enthalpy old            =    -523.4496567545 Ry
     enthalpy new            =    -523.4506814983 Ry

     CASE: enthalpy_new < enthalpy_old

     new trust radius        =       0.0296409726 bohr
     new conv_thr            =       0.0000000265 Ry

     new unit-cell volume =    932.51773 a.u.^3 (   138.18487 Ang^3 )
     density =      0.14420 g/cm^3

CELL_PARAMETERS (angstrom)
   5.175875878  -0.173034362   0.173034369
  -0.173034369   5.175876876   0.173034369
   0.173034369   0.173034362   5.175875878

ATOMIC_POSITIONS (angstrom)
Mg            2.5014202541        2.5014212606        0.1730343653
Ba            2.6744556204       -0.0000000068        2.6744546262
Mg           -0.0000000035        2.6744556159        2.6744546229
Mg           -0.0000000000       -0.0000000000        0.0000000000
H             0.1251759472        4.4313932746        1.8952542217
H             4.2187773789        1.5443227653        1.1301328677
H             1.9299730310        0.9522357686        5.0507009431
H             3.4536570172        2.7996315554        3.5919715954
H             5.0507009385        0.7444825940        3.6266903937
H             0.9570984989        3.6315541111        4.3918117477
H             3.2459038479        4.2236411010        0.4712436792
H             1.7222198480        2.3762463085        1.9299720326



     Writing output data file ./tmp/BaMg3H8.save/
     NEW-OLD atomic charge density approx. for the potential
     extrapolated charge   48.04339, renormalised to   48.00000

     total cpu time spent up to now is      257.5 secs

     Self-consistent Calculation

     iteration #  1     ecut=    50.00 Ry     beta= 0.70
     CG style diagonalization
     c_bands:  1 eigenvalues not converged
     ethr =  1.00E-06,  avg # of iterations =  4.4

     total cpu time spent up to now is      261.3 secs

     total energy              =    -523.45083597 Ry
     estimated scf accuracy    <       0.00014435 Ry

     iteration #  2     ecut=    50.00 Ry     beta= 0.70
     CG style diagonalization
     ethr =  3.01E-07,  avg # of iterations =  4.5

     total cpu time spent up to now is      264.9 secs

     total energy              =    -523.45109846 Ry
     estimated scf accuracy    <       0.00001389 Ry

     iteration #  3     ecut=    50.00 Ry     beta= 0.70
     CG style diagonalization
     ethr =  2.89E-08,  avg # of iterations =  4.5

     total cpu time spent up to now is      268.4 secs

     total energy              =    -523.45111049 Ry
     estimated scf accuracy    <       0.00000124 Ry

     iteration #  4     ecut=    50.00 Ry     beta= 0.70
     CG style diagonalization
     ethr =  2.58E-09,  avg # of iterations =  4.2

     total cpu time spent up to now is      271.7 secs

     total energy              =    -523.45111143 Ry
     estimated scf accuracy    <       0.00000017 Ry

     iteration #  5     ecut=    50.00 Ry     beta= 0.70
     CG style diagonalization
     ethr =  3.51E-10,  avg # of iterations =  4.7

     total cpu time spent up to now is      275.2 secs

     End of self-consistent calculation

          k = 0.0000 0.0000 0.0000 (  5491 PWs)   bands (ev):

   -69.3251 -69.3247 -69.3247 -36.4457 -36.4440 -36.4440 -36.4062 -36.4051
   -36.4051 -36.3894 -36.3894 -36.3851 -21.4317  -6.7740  -6.7242  -6.7242
    -1.6512   1.9371   1.9371   2.6997   2.6997   2.8807   3.5713   3.8414
     8.3116   8.3117   8.7951   9.3972   9.3972

          k = 0.0173 0.0173-0.5008 (  5526 PWs)   bands (ev):

   -69.3250 -69.3249 -69.3247 -36.4451 -36.4445 -36.4440 -36.4058 -36.4052
   -36.4048 -36.3897 -36.3883 -36.3866 -21.4283  -6.9206  -6.7437  -6.7040
    -0.2636  -0.1395   2.2472   2.6192   2.9249   3.0567   3.5404   3.7916
     7.8640   8.1237   9.1954   9.5039  10.4339

          k = 0.0000-0.4835-0.4835 (  5560 PWs)   bands (ev):

   -69.3249 -69.3248 -69.3248 -36.4457 -36.4446 -36.4434 -36.4063 -36.4052
   -36.4044 -36.3898 -36.3883 -36.3865 -21.4252  -6.8935  -6.8770  -6.7061
     0.3154   0.8544   1.1863   1.2330   2.8171   3.5514   3.5558   3.9548
     8.3058   8.3137   8.8138   9.5468  10.3115

          k =-0.5008-0.5008-0.4662 (  5568 PWs)   bands (ev):

   -69.3249 -69.3249 -69.3247 -36.4469 -36.4434 -36.4434 -36.4065 -36.4065
   -36.4036 -36.3913 -36.3863 -36.3863 -21.4224  -6.8785  -6.8407  -6.8407
     0.9136   0.9136   1.6874   1.7282   2.1663   2.1663   2.2374   5.1370
     8.6346   9.7273   9.7274  10.9610  10.9787

     the Fermi energy is     6.4359 ev

!    total energy              =    -523.45111172 Ry
     estimated scf accuracy    <          3.7E-09 Ry
     smearing contrib. (-TS)   =       0.00000000 Ry
     internal energy E=F+TS    =    -523.45111172 Ry

     The total energy is F=E-TS. E is the sum of the following terms:
     one-electron contribution =    -340.18384500 Ry
     hartree contribution      =      89.17581676 Ry
     xc contribution           =     -90.87082958 Ry
     ewald contribution        =    -204.12733229 Ry
     one-center paw contrib.   =      22.55507838 Ry

     convergence has been achieved in   5 iterations

     Forces acting on atoms (cartesian axes, Ry/au):

     atom    1 type  3   force =    -0.00000000   -0.00000000    0.00000000
     atom    2 type  1   force =     0.00000000   -0.00000000   -0.00000000
     atom    3 type  3   force =     0.00000000    0.00000000   -0.00000000
     atom    4 type  3   force =     0.00000000    0.00000000   -0.00000000
     atom    5 type  2   force =    -0.00146206    0.00105432    0.00083249
     atom    6 type  2   force =    -0.00148545   -0.00148545    0.00148545
     atom    7 type  2   force =     0.00105432   -0.00083249    0.00146206
     atom    8 type  2   force =    -0.00083249   -0.00146206   -0.00105432
     atom    9 type  2   force =     0.00146206   -0.00105432   -0.00083249
     atom   10 type  2   force =     0.00148545    0.00148545   -0.00148545
     atom   11 type  2   force =    -0.00105432    0.00083249   -0.00146206
     atom   12 type  2   force =     0.00083249    0.00146206    0.00105432

     Total force =     0.006074     Total SCF correction =     0.000015


     Computing stress (Cartesian axis) and pressure

          total   stress  (Ry/bohr**3)                   (kbar)     P=        0.15
   0.00000104   0.00000970  -0.00000970            0.15        1.43       -1.43
   0.00000970   0.00000104  -0.00000970            1.43        0.15       -1.43
  -0.00000970  -0.00000970   0.00000104           -1.43       -1.43        0.15

     Energy error            =      4.3E-04
     Gradient error          =      1.5E-03
     Cell gradient error     =      9.7E-06


     number of scf cycles    =   6
     number of bfgs steps    =   5

     enthalpy old            =    -523.4506814983 Ry
     enthalpy new            =    -523.4511117201 Ry

     CASE: enthalpy_new < enthalpy_old

     new trust radius        =       0.0183471430 bohr
     new conv_thr            =       0.0000000149 Ry

     new unit-cell volume =    933.04223 a.u.^3 (   138.26259 Ang^3 )
     density =      0.14412 g/cm^3

CELL_PARAMETERS (angstrom)
   5.177132844  -0.177162008   0.177162015
  -0.177162015   5.177133842   0.177162015
   0.177162015   0.177162008   5.177132844

ATOMIC_POSITIONS (angstrom)
Mg            2.4999849138        2.4999859211        0.1771620113
Ba            2.6771479263       -0.0000000076        2.6771469327
Mg           -0.0000000040        2.6771479212        2.6771469291
Mg           -0.0000000000       -0.0000000000        0.0000000000
H             0.1204925499        4.4364129499        1.9041835306
H             4.2136346740        1.5364877559        1.1406601851
H             1.9364280482        0.9501264126        5.0566413080
H             3.4501123199        2.7976404628        3.5950288384
H             5.0566413028        0.7407198835        3.6272733437
H             0.9634981698        3.6406460863        4.3907966893
H             3.2407057969        4.2270074220        0.4748155740
H             1.7270215099        2.3794943654        1.9364270500



     Writing output data file ./tmp/BaMg3H8.save/
     NEW-OLD atomic charge density approx. for the potential
     extrapolated charge   48.02697, renormalised to   48.00000

     total cpu time spent up to now is      306.6 secs

     Self-consistent Calculation

     iteration #  1     ecut=    50.00 Ry     beta= 0.70
     CG style diagonalization
     ethr =  1.00E-06,  avg # of iterations =  3.3

     total cpu time spent up to now is      309.6 secs

     total energy              =    -523.45096992 Ry
     estimated scf accuracy    <       0.00005627 Ry

     iteration #  2     ecut=    50.00 Ry     beta= 0.70
     CG style diagonalization
     ethr =  1.17E-07,  avg # of iterations =  4.2

     total cpu time spent up to now is      313.0 secs

     total energy              =    -523.45121791 Ry
     estimated scf accuracy    <       0.00000402 Ry

     iteration #  3     ecut=    50.00 Ry     beta= 0.70
     CG style diagonalization
     ethr =  8.37E-09,  avg # of iterations =  4.5

     total cpu time spent up to now is      316.6 secs

     total energy              =    -523.45122340 Ry
     estimated scf accuracy    <       0.00000038 Ry

     iteration #  4     ecut=    50.00 Ry     beta= 0.70
     CG style diagonalization
     ethr =  7.95E-10,  avg # of iterations =  4.5

     total cpu time spent up to now is      320.0 secs

     total energy              =    -523.45122394 Ry
     estimated scf accuracy    <       0.00000007 Ry

     iteration #  5     ecut=    50.00 Ry     beta= 0.70
     CG style diagonalization
     ethr =  1.42E-10,  avg # of iterations =  4.5

     total cpu time spent up to now is      323.5 secs

     End of self-consistent calculation

          k = 0.0000 0.0000 0.0000 (  5491 PWs)   bands (ev):

   -69.3356 -69.3352 -69.3352 -36.4565 -36.4549 -36.4549 -36.4159 -36.4149
   -36.4148 -36.4002 -36.4002 -36.3959 -21.4263  -6.7723  -6.7198  -6.7198
    -1.6524   1.9250   1.9250   2.7066   2.7066   2.8818   3.5591   3.8257
     8.3163   8.3163   8.7873   9.3870   9.3870

          k = 0.0177 0.0177-0.5008 (  5526 PWs)   bands (ev):

   -69.3355 -69.3354 -69.3352 -36.4560 -36.4554 -36.4548 -36.4155 -36.4149
   -36.4145 -36.4005 -36.3991 -36.3974 -21.4229  -6.9179  -6.7407  -6.6996
    -0.2713  -0.1328   2.2459   2.6124   2.9129   3.0492   3.5346   3.7910
     7.8642   8.1151   9.1956   9.4926  10.4579

          k = 0.0000-0.4830-0.4830 (  5560 PWs)   bands (ev):

   -69.3354 -69.3354 -69.3353 -36.4566 -36.4554 -36.4542 -36.4161 -36.4149
   -36.4141 -36.4006 -36.3992 -36.3973 -21.4198  -6.8914  -6.8733  -6.7023
     0.3227   0.8488   1.1864   1.2210   2.8052   3.5525   3.5609   3.9411
     8.2936   8.3180   8.8086   9.5332  10.3133

          k =-0.5008-0.5008-0.4653 (  5568 PWs)   bands (ev):

   -69.3354 -69.3354 -69.3352 -36.4577 -36.4543 -36.4543 -36.4163 -36.4162
   -36.4133 -36.4021 -36.3971 -36.3971 -21.4170  -6.8767  -6.8369  -6.8369
     0.9147   0.9147   1.6803   1.7471   2.1507   2.1507   2.2312   5.1395
     8.6195   9.7140   9.7140  10.9266  11.0020

     the Fermi energy is     6.4571 ev

!    total energy              =    -523.45122404 Ry
     estimated scf accuracy    <          2.5E-09 Ry
     smearing contrib. (-TS)   =       0.00000000 Ry
     internal energy E=F+TS    =    -523.45122404 Ry

     The total energy is F=E-TS. E is the sum of the following terms:
     one-electron contribution =    -340.22398630 Ry
     hartree contribution      =      89.18577402 Ry
     xc contribution           =     -90.86930663 Ry
     ewald contribution        =    -204.09730573 Ry
     one-center paw contrib.   =      22.55360061 Ry

     convergence has been achieved in   5 iterations

     Forces acting on atoms (cartesian axes, Ry/au):

     atom    1 type  3   force =    -0.00000000   -0.00000000    0.00000000
     atom    2 type  1   force =     0.00000000   -0.00000000   -0.00000000
     atom    3 type  3   force =     0.00000000    0.00000000   -0.00000000
     atom    4 type  3   force =    -0.00000000   -0.00000000    0.00000000
     atom    5 type  2   force =    -0.00152961    0.00079072    0.00009392
     atom    6 type  2   force =    -0.00078894   -0.00078894    0.00078894
     atom    7 type  2   force =     0.00079073   -0.00009392    0.00152961
     atom    8 type  2   force =    -0.00009392   -0.00152961   -0.00079073
     atom    9 type  2   force =     0.00152961   -0.00079072   -0.00009392
     atom   10 type  2   force =     0.00078894    0.00078894   -0.00078894
     atom   11 type  2   force =    -0.00079073    0.00009392   -0.00152961
     atom   12 type  2   force =     0.00009392    0.00152961    0.00079073

     Total force =     0.004645     Total SCF correction =     0.000009


     Computing stress (Cartesian axis) and pressure

          total   stress  (Ry/bohr**3)                   (kbar)     P=       -0.28
  -0.00000193   0.00001571  -0.00001571           -0.28        2.31       -2.31
   0.00001571  -0.00000193  -0.00001571            2.31       -0.28       -2.31
  -0.00001571  -0.00001571  -0.00000193           -2.31       -2.31       -0.28

     Energy error            =      1.1E-04
     Gradient error          =      1.5E-03
     Cell gradient error     =      1.6E-05


     number of scf cycles    =   7
     number of bfgs steps    =   6

     enthalpy old            =    -523.4511117201 Ry
     enthalpy new            =    -523.4512240381 Ry

     CASE: enthalpy_new < enthalpy_old

     new trust radius        =       0.0113239029 bohr
     new conv_thr            =       0.0000000112 Ry

     new unit-cell volume =    933.18290 a.u.^3 (   138.28344 Ang^3 )
     density =      0.14410 g/cm^3

CELL_PARAMETERS (angstrom)
   5.177378878  -0.176971321   0.176971329
  -0.176971329   5.177379876   0.176971329
   0.176971329   0.176971321   5.177378878

ATOMIC_POSITIONS (angstrom)
Mg            2.5002032737        2.5002042809        0.1769713250
Ba            2.6771755999       -0.0000000076        2.6771746062
Mg           -0.0000000039        2.6771755947        2.6771746026
Mg           -0.0000000000       -0.0000000000        0.0000000000
H             0.1181854745        4.4385308205        1.9067154285
H             4.2104020954        1.5332275044        1.1439481108
H             1.9383275594        0.9474315025        5.0591944168
H             3.4476357693        2.7953610615        3.5929939879
H             5.0591944117        0.7388480462        3.6246061067
H             0.9669767819        3.6441523712        4.3873734243
H             3.2390523191        4.2299483655        0.4721271259
H             1.7297440941        2.3820198003        1.9383265611



     Writing output data file ./tmp/BaMg3H8.save/
     NEW-OLD atomic charge density approx. for the potential
     extrapolated charge   48.00723, renormalised to   48.00000

     total cpu time spent up to now is      354.9 secs

     Self-consistent Calculation

     iteration #  1     ecut=    50.00 Ry     beta= 0.70
     CG style diagonalization
     ethr =  1.00E-06,  avg # of iterations =  2.4

     Threshold (ethr) on eigenvalues was too large:
     Diagonalizing with lowered threshold

     CG style diagonalization
     c_bands:  1 eigenvalues not converged
     ethr =  6.16E-08,  avg # of iterations =  2.5

     total cpu time spent up to now is      359.6 secs

     total energy              =    -523.45129666 Ry
     estimated scf accuracy    <       0.00002597 Ry

     iteration #  2     ecut=    50.00 Ry     beta= 0.70
     CG style diagonalization
     ethr =  5.41E-08,  avg # of iterations =  3.9

     total cpu time spent up to now is      362.9 secs

     total energy              =    -523.45130379 Ry
     estimated scf accuracy    <       0.00000131 Ry

     iteration #  3     ecut=    50.00 Ry     beta= 0.70
     CG style diagonalization
     ethr =  2.73E-09,  avg # of iterations =  3.9

     total cpu time spent up to now is      366.1 secs

     total energy              =    -523.45130472 Ry
     estimated scf accuracy    <       0.00000011 Ry

     iteration #  4     ecut=    50.00 Ry     beta= 0.70
     CG style diagonalization
     ethr =  2.32E-10,  avg # of iterations =  4.0

     total cpu time spent up to now is      369.4 secs

     End of self-consistent calculation

          k = 0.0000 0.0000 0.0000 (  5491 PWs)   bands (ev):

   -69.3399 -69.3394 -69.3394 -36.4609 -36.4592 -36.4592 -36.4201 -36.4190
   -36.4190 -36.4045 -36.4044 -36.4002 -21.4221  -6.7694  -6.7160  -6.7160
    -1.6523   1.9184   1.9184   2.7133   2.7133   2.8778   3.5569   3.8266
     8.3230   8.3230   8.7790   9.3809   9.3809

          k = 0.0177 0.0177-0.5007 (  5526 PWs)   bands (ev):

   -69.3397 -69.3396 -69.3394 -36.4603 -36.4597 -36.4592 -36.4197 -36.4190
   -36.4187 -36.4048 -36.4034 -36.4017 -21.4188  -6.9150  -6.7374  -6.6958
    -0.2749  -0.1282   2.2426   2.6144   2.9067   3.0528   3.5327   3.7913
     7.8618   8.1178   9.1953   9.4955  10.0996

          k = 0.0000-0.4830-0.4830 (  5560 PWs)   bands (ev):

   -69.3397 -69.3396 -69.3395 -36.4609 -36.4597 -36.4586 -36.4202 -36.4190
   -36.4182 -36.4048 -36.4034 -36.4016 -21.4157  -6.8889  -6.8700  -6.6987
     0.3286   0.8506   1.1838   1.2146   2.8035   3.5581   3.5616   3.9375
     8.2853   8.3208   8.8097   9.5296  10.3099

          k =-0.5007-0.5007-0.4653 (  5568 PWs)   bands (ev):

   -69.3397 -69.3397 -69.3394 -36.4621 -36.4586 -36.4586 -36.4204 -36.4204
   -36.4174 -36.4063 -36.4014 -36.4014 -21.4128  -6.8742  -6.8336  -6.8336
     0.9202   0.9202   1.6722   1.7578   2.1460   2.1460   2.2233   5.1477
     8.6077   9.7140   9.7140  10.8998  11.0201

     the Fermi energy is     6.4738 ev

!    total energy              =    -523.45130478 Ry
     estimated scf accuracy    <          9.5E-09 Ry
     smearing contrib. (-TS)   =       0.00000000 Ry
     internal energy E=F+TS    =    -523.45130478 Ry

     The total energy is F=E-TS. E is the sum of the following terms:
     one-electron contribution =    -340.20729476 Ry
     hartree contribution      =      89.17485763 Ry
     xc contribution           =     -90.86829464 Ry
     ewald contribution        =    -204.10319826 Ry
     one-center paw contrib.   =      22.55262526 Ry

     convergence has been achieved in   4 iterations

     Forces acting on atoms (cartesian axes, Ry/au):

     atom    1 type  3   force =     0.00000000    0.00000000   -0.00000000
     atom    2 type  1   force =     0.00000000   -0.00000000    0.00000000
     atom    3 type  3   force =    -0.00000000   -0.00000000    0.00000000
     atom    4 type  3   force =     0.00000000    0.00000000   -0.00000000
     atom    5 type  2   force =    -0.00154315    0.00053561   -0.00026958
     atom    6 type  2   force =    -0.00040699   -0.00040699    0.00040699
     atom    7 type  2   force =     0.00053561    0.00026958    0.00154315
     atom    8 type  2   force =     0.00026958   -0.00154315   -0.00053561
     atom    9 type  2   force =     0.00154315   -0.00053561    0.00026958
     atom   10 type  2   force =     0.00040699    0.00040699   -0.00040699
     atom   11 type  2   force =    -0.00053561   -0.00026958   -0.00154315
     atom   12 type  2   force =    -0.00026958    0.00154315    0.00053561

     Total force =     0.004176     Total SCF correction =     0.000044


     Computing stress (Cartesian axis) and pressure

          total   stress  (Ry/bohr**3)                   (kbar)     P=       -0.71
  -0.00000485   0.00001556  -0.00001556           -0.71        2.29       -2.29
   0.00001556  -0.00000485  -0.00001556            2.29       -0.71       -2.29
  -0.00001556  -0.00001556  -0.00000485           -2.29       -2.29       -0.71

     Energy error            =      8.1E-05
     Gradient error          =      1.5E-03
     Cell gradient error     =      1.6E-05


     number of scf cycles    =   8
     number of bfgs steps    =   7

     enthalpy old            =    -523.4512240381 Ry
     enthalpy new            =    -523.4513047769 Ry

     CASE: enthalpy_new < enthalpy_old

     new trust radius        =       0.0124579137 bohr
     new conv_thr            =       0.0000000100 Ry

     new unit-cell volume =    933.02558 a.u.^3 (   138.26013 Ang^3 )
     density =      0.14412 g/cm^3

CELL_PARAMETERS (angstrom)
   5.176895690  -0.174223729   0.174223735
  -0.174223736   5.176896689   0.174223736
   0.174223735   0.174223729   5.176895690

ATOMIC_POSITIONS (angstrom)
Mg            2.5013354768        2.5013364835        0.1742237319
Ba            2.6755602100       -0.0000000070        2.6755592158
Mg           -0.0000000036        2.6755602051        2.6755592124
Mg           -0.0000000000       -0.0000000000        0.0000000000
H             0.1159999499        4.4396885049        1.9065865822
H             4.2065697665        1.5310105660        1.1445496593
H             1.9383530405        0.9431973662        5.0608967533
H             3.4445338358        2.7915601487        3.5869901322
H             5.0608967486        0.7372071755        3.6187565792
H             0.9703259238        3.6458861227        4.3807935020
H             3.2385436509        4.2336993154        0.4644464151
H             1.7323628416        2.3853375271        1.9383520420



     Writing output data file ./tmp/BaMg3H8.save/
     NEW-OLD atomic charge density approx. for the potential
     extrapolated charge   47.99191, renormalised to   48.00000

     total cpu time spent up to now is      400.8 secs

     Self-consistent Calculation

     iteration #  1     ecut=    50.00 Ry     beta= 0.70
     CG style diagonalization
     ethr =  1.00E-06,  avg # of iterations =  3.0

     Threshold (ethr) on eigenvalues was too large:
     Diagonalizing with lowered threshold

     CG style diagonalization
     c_bands:  1 eigenvalues not converged
     ethr =  4.37E-08,  avg # of iterations =  3.6

     total cpu time spent up to now is      406.4 secs

     total energy              =    -523.45140530 Ry
     estimated scf accuracy    <       0.00003171 Ry

     iteration #  2     ecut=    50.00 Ry     beta= 0.70
     CG style diagonalization
     ethr =  6.61E-08,  avg # of iterations =  3.8

     total cpu time spent up to now is      409.6 secs

     total energy              =    -523.45141614 Ry
     estimated scf accuracy    <       0.00000178 Ry

     iteration #  3     ecut=    50.00 Ry     beta= 0.70
     CG style diagonalization
     ethr =  3.72E-09,  avg # of iterations =  4.2

     total cpu time spent up to now is      413.0 secs

     total energy              =    -523.45141755 Ry
     estimated scf accuracy    <       0.00000015 Ry

     iteration #  4     ecut=    50.00 Ry     beta= 0.70
     CG style diagonalization
     ethr =  3.23E-10,  avg # of iterations =  4.1

     total cpu time spent up to now is      416.4 secs

     total energy              =    -523.45141766 Ry
     estimated scf accuracy    <       0.00000001 Ry

     iteration #  5     ecut=    50.00 Ry     beta= 0.70
     CG style diagonalization
     ethr =  2.84E-11,  avg # of iterations =  4.7

     total cpu time spent up to now is      420.1 secs

     End of self-consistent calculation

          k = 0.0000 0.0000 0.0000 (  5491 PWs)   bands (ev):

   -69.3414 -69.3410 -69.3410 -36.4624 -36.4607 -36.4607 -36.4217 -36.4206
   -36.4206 -36.4058 -36.4058 -36.4016 -21.4137  -6.7615  -6.7081  -6.7081
    -1.6508   1.9132   1.9132   2.7239   2.7239   2.8701   3.5607   3.8386
     8.3361   8.3361   8.7683   9.3762   9.3762

          k = 0.0174 0.0174-0.5007 (  5526 PWs)   bands (ev):

   -69.3413 -69.3411 -69.3410 -36.4618 -36.4612 -36.4607 -36.4213 -36.4207
   -36.4203 -36.4061 -36.4048 -36.4031 -21.4103  -6.9081  -6.7294  -6.6878
    -0.2771  -0.1219   2.2381   2.6233   2.9022   3.0654   3.5332   3.7933
     7.8584   8.1304   9.1968   9.5093  10.0993

          k = 0.0000-0.4833-0.4833 (  5560 PWs)   bands (ev):

   -69.3412 -69.3411 -69.3410 -36.4624 -36.4612 -36.4601 -36.4219 -36.4207
   -36.4199 -36.4062 -36.4048 -36.4030 -21.4072  -6.8820  -6.8628  -6.6906
     0.3369   0.8583   1.1794   1.2093   2.8077   3.5611   3.5700   3.9391
     8.2815   8.3211   8.8170   9.5320  10.3042

          k =-0.5007-0.5007-0.4659 (  5568 PWs)   bands (ev):

   -69.3412 -69.3412 -69.3410 -36.4636 -36.4601 -36.4601 -36.4221 -36.4220
   -36.4191 -36.4077 -36.4028 -36.4028 -21.4043  -6.8674  -6.8263  -6.8263
     0.9314   0.9314   1.6610   1.7689   2.1469   2.1469   2.2122   5.1648
     8.5937   9.7243   9.7243  10.8770  11.0357

     the Fermi energy is     6.4883 ev

!    total energy              =    -523.45141769 Ry
     estimated scf accuracy    <          1.3E-09 Ry
     smearing contrib. (-TS)   =       0.00000000 Ry
     internal energy E=F+TS    =    -523.45141769 Ry

     The total energy is F=E-TS. E is the sum of the following terms:
     one-electron contribution =    -340.13627609 Ry
     hartree contribution      =      89.14274175 Ry
     xc contribution           =     -90.86742166 Ry
     ewald contribution        =    -204.14205533 Ry
     one-center paw contrib.   =      22.55159363 Ry

     convergence has been achieved in   5 iterations

     Forces acting on atoms (cartesian axes, Ry/au):

     atom    1 type  3   force =     0.00000000    0.00000000   -0.00000000
     atom    2 type  1   force =    -0.00000000    0.00000000   -0.00000000
     atom    3 type  3   force =     0.00000000   -0.00000000   -0.00000000
     atom    4 type  3   force =     0.00000000   -0.00000000    0.00000000
     atom    5 type  2   force =    -0.00153049    0.00017051   -0.00057656
     atom    6 type  2   force =    -0.00003733   -0.00003733    0.00003733
     atom    7 type  2   force =     0.00017051    0.00057656    0.00153049
     atom    8 type  2   force =     0.00057656   -0.00153049   -0.00017051
     atom    9 type  2   force =     0.00153049   -0.00017051    0.00057656
     atom   10 type  2   force =     0.00003733    0.00003733   -0.00003733
     atom   11 type  2   force =    -0.00017051   -0.00057656   -0.00153049
     atom   12 type  2   force =    -0.00057656    0.00153049    0.00017051

     Total force =     0.004029     Total SCF correction =     0.000018


     Computing stress (Cartesian axis) and pressure

          total   stress  (Ry/bohr**3)                   (kbar)     P=       -0.73
  -0.00000498   0.00001219  -0.00001219           -0.73        1.79       -1.79
   0.00001219  -0.00000498  -0.00001219            1.79       -0.73       -1.79
  -0.00001219  -0.00001219  -0.00000498           -1.79       -1.79       -0.73

     Energy error            =      1.1E-04
     Gradient error          =      1.5E-03
     Cell gradient error     =      1.2E-05


     number of scf cycles    =   9
     number of bfgs steps    =   8

     enthalpy old            =    -523.4513047769 Ry
     enthalpy new            =    -523.4514176904 Ry

     CASE: enthalpy_new < enthalpy_old

     new trust radius        =       0.0187062879 bohr
     new conv_thr            =       0.0000000113 Ry

     new unit-cell volume =    932.38325 a.u.^3 (   138.16494 Ang^3 )
     density =      0.14422 g/cm^3

CELL_PARAMETERS (angstrom)
   5.175152252  -0.166015556   0.166015561
  -0.166015561   5.175153250   0.166015561
   0.166015561   0.166015556   5.175152252

ATOMIC_POSITIONS (angstrom)
Mg            2.5045678446        2.5045688498        0.1660155588
Ba            2.6705844043       -0.0000000054        2.6705834088
Mg           -0.0000000027        2.6705844005        2.6705834061
Mg           -0.0000000000       -0.0000000000        0.0000000000
H             0.1128423746        4.4395901494        1.9016226154
H             4.2005139395        1.5299305453        1.1406538736
H             1.9350223160        0.9349773546        5.0623108869
H             3.4395461918        2.7834267723        3.5721610674
H             5.0623108834        0.7355620946        3.6055607592
H             0.9746383121        3.6452227050        4.3665295010
H             3.2401309366        4.2401758903        0.4448724931
H             1.7356070500        2.3917274681        1.9350213170



     Writing output data file ./tmp/BaMg3H8.save/
     NEW-OLD atomic charge density approx. for the potential
     extrapolated charge   47.96694, renormalised to   48.00000

     total cpu time spent up to now is      451.5 secs

     Self-consistent Calculation

     iteration #  1     ecut=    50.00 Ry     beta= 0.70
     CG style diagonalization
     ethr =  1.00E-06,  avg # of iterations =  3.9

     total cpu time spent up to now is      454.9 secs

     total energy              =    -523.45138540 Ry
     estimated scf accuracy    <       0.00005839 Ry

     iteration #  2     ecut=    50.00 Ry     beta= 0.70
     CG style diagonalization
     ethr =  1.22E-07,  avg # of iterations =  4.5

     total cpu time spent up to now is      458.5 secs

     total energy              =    -523.45155805 Ry
     estimated scf accuracy    <       0.00001432 Ry

     iteration #  3     ecut=    50.00 Ry     beta= 0.70
     CG style diagonalization
     ethr =  2.98E-08,  avg # of iterations =  3.9

     total cpu time spent up to now is      461.8 secs

     total energy              =    -523.45156434 Ry
     estimated scf accuracy    <       0.00000083 Ry

     iteration #  4     ecut=    50.00 Ry     beta= 0.70
     CG style diagonalization
     ethr =  1.73E-09,  avg # of iterations =  4.2

     total cpu time spent up to now is      465.3 secs

     total energy              =    -523.45156522 Ry
     estimated scf accuracy    <       0.00000010 Ry

     iteration #  5     ecut=    50.00 Ry     beta= 0.70
     CG style diagonalization
     ethr =  2.00E-10,  avg # of iterations =  4.7

     total cpu time spent up to now is      468.9 secs

     End of self-consistent calculation

          k = 0.0000 0.0000 0.0000 (  5491 PWs)   bands (ev):

   -69.3376 -69.3372 -69.3371 -36.4583 -36.4566 -36.4566 -36.4186 -36.4175
   -36.4175 -36.4015 -36.4015 -36.3973 -21.3995  -6.7462  -6.6943  -6.6943
    -1.6470   1.9080   1.9080   2.7440   2.7440   2.8529   3.5759   3.8737
     8.3634   8.3634   8.7489   9.3712   9.3713

          k = 0.0166 0.0166-0.5008 (  5526 PWs)   bands (ev):

   -69.3374 -69.3373 -69.3371 -36.4577 -36.4572 -36.4566 -36.4182 -36.4176
   -36.4172 -36.4018 -36.4004 -36.3987 -21.3961  -6.8955  -6.7146  -6.6738
    -0.2780  -0.1114   2.2293   2.6468   2.8988   3.0972   3.5373   3.7982
     7.8514   8.1633   9.2006   9.5454  10.1050

          k = 0.0000-0.4842-0.4842 (  5560 PWs)   bands (ev):

   -69.3374 -69.3373 -69.3372 -36.4584 -36.4572 -36.4560 -36.4187 -36.4176
   -36.4168 -36.4018 -36.4004 -36.3986 -21.3930  -6.8693  -6.8502  -6.6762
     0.3521   0.8781   1.1694   1.2035   2.8237   3.5580   3.5965   3.9500
     8.2838   8.3159   8.8365   9.5433  10.2900

          k =-0.5008-0.5008-0.4676 (  5568 PWs)   bands (ev):

   -69.3374 -69.3374 -69.3371 -36.4596 -36.4560 -36.4560 -36.4189 -36.4189
   -36.4159 -36.4033 -36.3985 -36.3985 -21.3901  -6.8546  -6.8136  -6.8136
     0.9561   0.9561   1.6403   1.7846   2.1566   2.1566   2.1907   5.2038
     8.5679   9.7551   9.7551  10.8528  11.0509

     the Fermi energy is     6.5028 ev

!    total energy              =    -523.45156535 Ry
     estimated scf accuracy    <          4.2E-09 Ry
     smearing contrib. (-TS)   =       0.00000000 Ry
     internal energy E=F+TS    =    -523.45156535 Ry

     The total energy is F=E-TS. E is the sum of the following terms:
     one-electron contribution =    -339.95853966 Ry
     hartree contribution      =      89.06712121 Ry
     xc contribution           =     -90.86640498 Ry
     ewald contribution        =    -204.24363416 Ry
     one-center paw contrib.   =      22.54989224 Ry

     convergence has been achieved in   5 iterations

     Forces acting on atoms (cartesian axes, Ry/au):

     atom    1 type  3   force =     0.00000000    0.00000000   -0.00000000
     atom    2 type  1   force =     0.00000000    0.00000000   -0.00000000
     atom    3 type  3   force =    -0.00000000   -0.00000000    0.00000000
     atom    4 type  3   force =    -0.00000000   -0.00000000    0.00000000
     atom    5 type  2   force =    -0.00143189   -0.00048948   -0.00084897
     atom    6 type  2   force =     0.00042480    0.00042480   -0.00042480
     atom    7 type  2   force =    -0.00048948    0.00084897    0.00143189
     atom    8 type  2   force =     0.00084897   -0.00143189    0.00048948
     atom    9 type  2   force =     0.00143189    0.00048948    0.00084897
     atom   10 type  2   force =    -0.00042480   -0.00042480    0.00042480
     atom   11 type  2   force =     0.00048948   -0.00084897   -0.00143189
     atom   12 type  2   force =    -0.00084897    0.00143189   -0.00048948

     Total force =     0.004376     Total SCF correction =     0.000015


     Computing stress (Cartesian axis) and pressure

          total   stress  (Ry/bohr**3)                   (kbar)     P=       -1.48
  -0.00001005   0.00000157  -0.00000157           -1.48        0.23       -0.23
   0.00000157  -0.00001005  -0.00000157            0.23       -1.48       -0.23
  -0.00000157  -0.00000157  -0.00001005           -0.23       -0.23       -1.48

     Energy error            =      1.5E-04
     Gradient error          =      1.4E-03
     Cell gradient error     =      1.0E-05


     number of scf cycles    =  10
     number of bfgs steps    =   9

     enthalpy old            =    -523.4514176904 Ry
     enthalpy new            =    -523.4515653546 Ry

     CASE: enthalpy_new < enthalpy_old

     new trust radius        =       0.0078191411 bohr
     new conv_thr            =       0.0000000143 Ry

     new unit-cell volume =    931.52833 a.u.^3 (   138.03826 Ang^3 )
     density =      0.14435 g/cm^3

CELL_PARAMETERS (angstrom)
   5.173282080  -0.161560421   0.161560425
  -0.161560425   5.173283079   0.161560425
   0.161560425   0.161560421   5.173282080

ATOMIC_POSITIONS (angstrom)
Mg            2.5058603269        2.5058613313        0.1615604229
Ba            2.6674217504       -0.0000000045        2.6674207543
Mg           -0.0000000022        2.6674217474        2.6674207520
Mg           -0.0000000000       -0.0000000000        0.0000000000
H             0.1117312214        4.4374309370        1.8967862728
H             4.1985595393        1.5311387989        1.1362829654
H             1.9315706201        0.9321959073        5.0615518663
H             3.4380572268        2.7791529678        3.5648323172
H             5.0615518634        0.7358511365        3.5996166570
H             0.9747225403        3.6421442798        4.3601199644
H             3.2417124602        4.2410871668        0.4348510681
H             1.7352258444        2.3941311024        1.9315696210



     Writing output data file ./tmp/BaMg3H8.save/
     NEW-OLD atomic charge density approx. for the potential
     extrapolated charge   47.95596, renormalised to   48.00000

     total cpu time spent up to now is      500.3 secs

     Self-consistent Calculation

     iteration #  1     ecut=    50.00 Ry     beta= 0.70
     CG style diagonalization
     ethr =  1.00E-06,  avg # of iterations =  3.2

     Threshold (ethr) on eigenvalues was too large:
     Diagonalizing with lowered threshold

     CG style diagonalization
     c_bands:  2 eigenvalues not converged
     c_bands:  1 eigenvalues not converged
     c_bands:  1 eigenvalues not converged
     c_bands:  1 eigenvalues not converged
     ethr =  3.01E-08,  avg # of iterations =  5.2

     total cpu time spent up to now is      506.7 secs

     total energy              =    -523.45144991 Ry
     estimated scf accuracy    <       0.00001796 Ry

     iteration #  2     ecut=    50.00 Ry     beta= 0.70
     CG style diagonalization
     ethr =  3.74E-08,  avg # of iterations =  4.7

     total cpu time spent up to now is      510.4 secs

     total energy              =    -523.45160270 Ry
     estimated scf accuracy    <       0.00000507 Ry

     iteration #  3     ecut=    50.00 Ry     beta= 0.70
     CG style diagonalization
     ethr =  1.06E-08,  avg # of iterations =  4.0

     total cpu time spent up to now is      513.7 secs

     total energy              =    -523.45161044 Ry
     estimated scf accuracy    <       0.00000119 Ry

     iteration #  4     ecut=    50.00 Ry     beta= 0.70
     CG style diagonalization
     ethr =  2.47E-09,  avg # of iterations =  3.8

     total cpu time spent up to now is      516.9 secs

     total energy              =    -523.45161105 Ry
     estimated scf accuracy    <       0.00000002 Ry

     iteration #  5     ecut=    50.00 Ry     beta= 0.70
     CG style diagonalization
     ethr =  3.44E-11,  avg # of iterations =  6.2

     total cpu time spent up to now is      521.4 secs

     End of self-consistent calculation

          k = 0.0000 0.0000 0.0000 (  5491 PWs)   bands (ev):

   -69.3275 -69.3271 -69.3270 -36.4480 -36.4463 -36.4463 -36.4090 -36.4079
   -36.4079 -36.3911 -36.3911 -36.3869 -21.3908  -6.7360  -6.6856  -6.6856
    -1.6430   1.9122   1.9122   2.7536   2.7536   2.8495   3.5890   3.8958
     8.3786   8.3786   8.7482   9.3768   9.3768

          k = 0.0161 0.0161-0.5009 (  5526 PWs)   bands (ev):

   -69.3273 -69.3272 -69.3270 -36.4474 -36.4468 -36.4463 -36.4086 -36.4080
   -36.4076 -36.3914 -36.3900 -36.3884 -21.3873  -6.8872  -6.7051  -6.6650
    -0.2740  -0.1060   2.2298   2.6618   2.9035   3.1157   3.5443   3.8042
     7.8537   8.1844   9.2080   9.5674  10.1155

          k = 0.0000-0.4848-0.4848 (  5560 PWs)   bands (ev):

   -69.3273 -69.3272 -69.3271 -36.4481 -36.4468 -36.4456 -36.4091 -36.4080
   -36.4072 -36.3914 -36.3900 -36.3883 -21.3842  -6.8606  -6.8420  -6.6670
     0.3590   0.8906   1.1687   1.2072   2.8368   3.5591   3.6114   3.9618
     8.2950   8.3153   8.8522   9.5553  10.2883

          k =-0.5009-0.5009-0.4686 (  5568 PWs)   bands (ev):

   -69.3273 -69.3273 -69.3270 -36.4493 -36.4456 -36.4456 -36.4093 -36.4093
   -36.4063 -36.3930 -36.3881 -36.3881 -21.3812  -6.8457  -6.8054  -6.8054
     0.9686   0.9686   1.6366   1.7890   2.1682   2.1682   2.1873   5.2262
     8.5629   9.7778   9.7778  10.8615  11.0530

     the Fermi energy is     6.5054 ev

!    total energy              =    -523.45161137 Ry
     estimated scf accuracy    <          2.5E-09 Ry
     smearing contrib. (-TS)   =       0.00000000 Ry
     internal energy E=F+TS    =    -523.45161137 Ry

     The total energy is F=E-TS. E is the sum of the following terms:
     one-electron contribution =    -339.83029168 Ry
     hartree contribution      =      89.01973413 Ry
     xc contribution           =     -90.86775982 Ry
     ewald contribution        =    -204.32369434 Ry
     one-center paw contrib.   =      22.55040034 Ry

     convergence has been achieved in   5 iterations

     Forces acting on atoms (cartesian axes, Ry/au):

     atom    1 type  3   force =     0.00000000   -0.00000000   -0.00000000
     atom    2 type  1   force =    -0.00000000   -0.00000000    0.00000000
     atom    3 type  3   force =     0.00000000   -0.00000000    0.00000000
     atom    4 type  3   force =     0.00000000   -0.00000000    0.00000000
     atom    5 type  2   force =    -0.00134128   -0.00066711   -0.00070074
     atom    6 type  2   force =     0.00044471    0.00044471   -0.00044471
     atom    7 type  2   force =    -0.00066711    0.00070074    0.00134128
     atom    8 type  2   force =     0.00070074   -0.00134128    0.00066711
     atom    9 type  2   force =     0.00134128    0.00066711    0.00070074
     atom   10 type  2   force =    -0.00044471   -0.00044471    0.00044471
     atom   11 type  2   force =     0.00066711   -0.00070074   -0.00134128
     atom   12 type  2   force =    -0.00070074    0.00134128   -0.00066711

     Total force =     0.004195     Total SCF correction =     0.000003


     Computing stress (Cartesian axis) and pressure

          total   stress  (Ry/bohr**3)                   (kbar)     P=       -1.25
  -0.00000853  -0.00000400   0.00000400           -1.25       -0.59        0.59
  -0.00000400  -0.00000853   0.00000400           -0.59       -1.25        0.59
   0.00000400   0.00000400  -0.00000853            0.59        0.59       -1.25

     Energy error            =      4.6E-05
     Gradient error          =      1.3E-03
     Cell gradient error     =      8.5E-06


     number of scf cycles    =  11
     number of bfgs steps    =  10

     enthalpy old            =    -523.4515653546 Ry
     enthalpy new            =    -523.4516113697 Ry

     CASE: enthalpy_new < enthalpy_old

     new trust radius        =       0.0071425363 bohr
     new conv_thr            =       0.0000000100 Ry

     new unit-cell volume =    930.26065 a.u.^3 (   137.85041 Ang^3 )
     density =      0.14455 g/cm^3

CELL_PARAMETERS (angstrom)
   5.170712355  -0.158005896   0.158005900
  -0.158005900   5.170713354   0.158005900
   0.158005900   0.158005896   5.170712355

ATOMIC_POSITIONS (angstrom)
Mg            2.5063527275        2.5063537312        0.1580058978
Ba            2.6643596255       -0.0000000038        2.6643586291
Mg           -0.0000000018        2.6643596232        2.6643586271
Mg           -0.0000000000       -0.0000000000        0.0000000000
H             0.1098972839        4.4340273716        1.8914821937
H             4.1970297062        1.5326710904        1.1316885483
H             1.9276746526        0.9308833362        5.0608160774
H             3.4372370562        2.7742569079        3.5590495080
H             5.0608160750        0.7366849788        3.5952419605
H             0.9736826487        3.6380422641        4.3550356059
H             3.2430387025        4.2398300144        0.4259080807
H             1.7334762912        2.3964574391        1.9276736538



     Writing output data file ./tmp/BaMg3H8.save/
     NEW-OLD atomic charge density approx. for the potential
     extrapolated charge   47.93461, renormalised to   48.00000

     total cpu time spent up to now is      552.8 secs

     Self-consistent Calculation

     iteration #  1     ecut=    50.00 Ry     beta= 0.70
     CG style diagonalization
     ethr =  1.00E-06,  avg # of iterations =  3.1

     Threshold (ethr) on eigenvalues was too large:
     Diagonalizing with lowered threshold

     CG style diagonalization
     c_bands:  1 eigenvalues not converged
     c_bands:  1 eigenvalues not converged
     ethr =  5.46E-08,  avg # of iterations =  4.1

     total cpu time spent up to now is      558.9 secs

     total energy              =    -523.45140026 Ry
     estimated scf accuracy    <       0.00003077 Ry

     iteration #  2     ecut=    50.00 Ry     beta= 0.70
     CG style diagonalization
     ethr =  6.41E-08,  avg # of iterations =  4.6

     total cpu time spent up to now is      562.5 secs

     total energy              =    -523.45150496 Ry
     estimated scf accuracy    <       0.00001049 Ry

     iteration #  3     ecut=    50.00 Ry     beta= 0.70
     CG style diagonalization
     ethr =  2.19E-08,  avg # of iterations =  4.0

     total cpu time spent up to now is      565.7 secs

     total energy              =    -523.45151065 Ry
     estimated scf accuracy    <       0.00000292 Ry

     iteration #  4     ecut=    50.00 Ry     beta= 0.70
     CG style diagonalization
     ethr =  6.09E-09,  avg # of iterations =  3.5

     total cpu time spent up to now is      568.7 secs

     total energy              =    -523.45151143 Ry
     estimated scf accuracy    <       0.00000008 Ry

     iteration #  5     ecut=    50.00 Ry     beta= 0.70
     CG style diagonalization
     ethr =  1.68E-10,  avg # of iterations =  5.5

     total cpu time spent up to now is      572.8 secs

     total energy              =    -523.45151186 Ry
     estimated scf accuracy    <       0.00000001 Ry

     iteration #  6     ecut=    50.00 Ry     beta= 0.70
     CG style diagonalization
     ethr =  2.84E-11,  avg # of iterations =  4.5

     total cpu time spent up to now is      576.4 secs

     End of self-consistent calculation

          k = 0.0000 0.0000 0.0000 (  5491 PWs)   bands (ev):

   -69.3105 -69.3100 -69.3100 -36.4309 -36.4291 -36.4291 -36.3925 -36.3914
   -36.3913 -36.3738 -36.3738 -36.3696 -21.3803  -6.7241  -6.6749  -6.6749
    -1.6376   1.9217   1.9217   2.7628   2.7628   2.8527   3.6046   3.9174
     8.3959   8.3959   8.7558   9.3889   9.3889

          k = 0.0158 0.0158-0.5011 (  5526 PWs)   bands (ev):

   -69.3103 -69.3102 -69.3100 -36.4303 -36.4297 -36.4291 -36.3921 -36.3915
   -36.3911 -36.3741 -36.3727 -36.3711 -21.3768  -6.8770  -6.6936  -6.6541
    -0.2666  -0.1000   2.2354   2.6782   2.9118   3.1335   3.5550   3.8133
     7.8626   8.2075   9.2213   9.5889  10.1313

          k = 0.0000-0.4853-0.4853 (  5560 PWs)   bands (ev):

   -69.3102 -69.3102 -69.3101 -36.4309 -36.4297 -36.4284 -36.3926 -36.3915
   -36.3907 -36.3741 -36.3727 -36.3710 -21.3736  -6.8500  -6.8320  -6.6559
     0.3655   0.9034   1.1726   1.2160   2.8521   3.5640   3.6270   3.9769
     8.3127   8.3191   8.8729   9.5701  10.2935

          k =-0.5011-0.5011-0.4695 (  5568 PWs)   bands (ev):

   -69.3102 -69.3102 -69.3100 -36.4322 -36.4284 -36.4284 -36.3928 -36.3928
   -36.3898 -36.3757 -36.3708 -36.3708 -21.3707  -6.8348  -6.7952  -6.7952
     0.9799   0.9799   1.6393   1.7923   2.1832   2.1832   2.1914   5.2511
     8.5632   9.8043   9.8043  10.8831  11.0563

     the Fermi energy is     5.4802 ev

!    total energy              =    -523.45151189 Ry
     estimated scf accuracy    <          1.2E-09 Ry
     smearing contrib. (-TS)   =       0.00014495 Ry
     internal energy E=F+TS    =    -523.45165684 Ry

     The total energy is F=E-TS. E is the sum of the following terms:
     one-electron contribution =    -339.68063028 Ry
     hartree contribution      =      88.96974230 Ry
     xc contribution           =     -90.87085712 Ry
     ewald contribution        =    -204.42190769 Ry
     one-center paw contrib.   =      22.55199595 Ry

     convergence has been achieved in   6 iterations

     Forces acting on atoms (cartesian axes, Ry/au):

     atom    1 type  3   force =     0.00000000    0.00000000   -0.00000000
     atom    2 type  1   force =     0.00000000    0.00000000    0.00000000
     atom    3 type  3   force =     0.00000000   -0.00000000   -0.00000000
     atom    4 type  3   force =    -0.00000000   -0.00000000    0.00000000
     atom    5 type  2   force =    -0.00121000   -0.00069836   -0.00035584
     atom    6 type  2   force =     0.00035778    0.00035778   -0.00035778
     atom    7 type  2   force =    -0.00069836    0.00035584    0.00121000
     atom    8 type  2   force =     0.00035584   -0.00121000    0.00069836
     atom    9 type  2   force =     0.00121000    0.00069836    0.00035584
     atom   10 type  2   force =    -0.00035778   -0.00035778    0.00035778
     atom   11 type  2   force =     0.00069836   -0.00035584   -0.00121000
     atom   12 type  2   force =    -0.00035584    0.00121000   -0.00069836

     Total force =     0.003638     Total SCF correction =     0.000007


     Computing stress (Cartesian axis) and pressure

          total   stress  (Ry/bohr**3)                   (kbar)     P=       -0.63
  -0.00000430  -0.00000823   0.00000823           -0.63       -1.21        1.21
  -0.00000823  -0.00000430   0.00000823           -1.21       -0.63        1.21
   0.00000823   0.00000823  -0.00000430            1.21        1.21       -0.63

     Energy error            =      9.9E-05
     Gradient error          =      1.2E-03
     Cell gradient error     =      8.2E-06


     number of scf cycles    =  12
     number of bfgs steps    =  11

     enthalpy old            =    -523.4516113697 Ry
     enthalpy new            =    -523.4515118913 Ry

     CASE: enthalpy_new > enthalpy_old

     new trust radius        =       0.0013584189 bohr
     new conv_thr            =       0.0000000100 Ry

     new unit-cell volume =    931.28714 a.u.^3 (   138.00252 Ang^3 )
     density =      0.14439 g/cm^3

CELL_PARAMETERS (angstrom)
   5.172792928  -0.160883811   0.160883815
  -0.160883815   5.172793927   0.160883815
   0.160883815   0.160883811   5.172792928

ATOMIC_POSITIONS (angstrom)
Mg            2.5059540562        2.5059550605        0.1608838128
Ba            2.6668388696       -0.0000000044        2.6668378734
Mg           -0.0000000022        2.6668388667        2.6668378712
Mg           -0.0000000000       -0.0000000000        0.0000000000
H             0.1113817584        4.4367832942        1.8957761460
H             4.1982683186        1.5314304589        1.1354084244
H             1.9308292477        0.9319465433        5.0614121773
H             3.4379015920        2.7782206245        3.5637313176
H             5.0614121746        0.7360096280        3.5987844120
H             0.9745246094        3.6413634683        4.3591521336
H             3.2419646809        4.2408473795        0.4331483851
H             1.7348923278        2.3945742944        1.9308282487



     Writing output data file ./tmp/BaMg3H8.save/
     NEW-OLD atomic charge density approx. for the potential
     extrapolated charge   48.05289, renormalised to   48.00000

     total cpu time spent up to now is      607.9 secs

     Self-consistent Calculation

     iteration #  1     ecut=    50.00 Ry     beta= 0.70
     CG style diagonalization
     ethr =  1.00E-06,  avg # of iterations =  2.8

     Threshold (ethr) on eigenvalues was too large:
     Diagonalizing with lowered threshold

     CG style diagonalization
     ethr =  3.80E-08,  avg # of iterations =  3.8

     total cpu time spent up to now is      613.6 secs

     total energy              =    -523.45145645 Ry
     estimated scf accuracy    <       0.00002041 Ry

     iteration #  2     ecut=    50.00 Ry     beta= 0.70
     CG style diagonalization
     ethr =  4.25E-08,  avg # of iterations =  4.5

     total cpu time spent up to now is      617.1 secs

     total energy              =    -523.45161783 Ry
     estimated scf accuracy    <       0.00000666 Ry

     iteration #  3     ecut=    50.00 Ry     beta= 0.70
     CG style diagonalization
     ethr =  1.39E-08,  avg # of iterations =  4.1

     total cpu time spent up to now is      620.4 secs

     total energy              =    -523.45162169 Ry
     estimated scf accuracy    <       0.00000198 Ry

     iteration #  4     ecut=    50.00 Ry     beta= 0.70
     CG style diagonalization
     ethr =  4.11E-09,  avg # of iterations =  3.5

     total cpu time spent up to now is      623.3 secs

     total energy              =    -523.45162213 Ry
     estimated scf accuracy    <       0.00000007 Ry

     iteration #  5     ecut=    50.00 Ry     beta= 0.70
     CG style diagonalization
     ethr =  1.47E-10,  avg # of iterations =  5.2

     total cpu time spent up to now is      627.2 secs

     total energy              =    -523.45162239 Ry
     estimated scf accuracy    <       0.00000002 Ry

     iteration #  6     ecut=    50.00 Ry     beta= 0.70
     CG style diagonalization
     ethr =  3.58E-11,  avg # of iterations =  4.5

     total cpu time spent up to now is      630.7 secs

     End of self-consistent calculation

          k = 0.0000 0.0000 0.0000 (  5491 PWs)   bands (ev):

   -69.3239 -69.3235 -69.3235 -36.4445 -36.4428 -36.4428 -36.4056 -36.4045
   -36.4044 -36.3875 -36.3874 -36.3832 -21.3887  -6.7337  -6.6835  -6.6835
    -1.6420   1.9140   1.9140   2.7553   2.7553   2.8501   3.5920   3.8999
     8.3819   8.3819   8.7496   9.3791   9.3791

          k = 0.0161 0.0161-0.5010 (  5526 PWs)   bands (ev):

   -69.3238 -69.3236 -69.3235 -36.4439 -36.4433 -36.4427 -36.4052 -36.4046
   -36.4042 -36.3877 -36.3863 -36.3847 -21.3852  -6.8851  -6.7028  -6.6628
    -0.2726  -0.1048   2.2309   2.6649   2.9051   3.1191   3.5464   3.8059
     7.8554   8.1888   9.2105   9.5714  10.1184

          k = 0.0000-0.4849-0.4849 (  5560 PWs)   bands (ev):

   -69.3237 -69.3236 -69.3236 -36.4445 -36.4433 -36.4421 -36.4057 -36.4046
   -36.4038 -36.3878 -36.3863 -36.3846 -21.3821  -6.8585  -6.8400  -6.6648
     0.3602   0.8930   1.1694   1.2089   2.8398   3.5600   3.6143   3.9647
     8.2983   8.3160   8.8561   9.5581  10.2893

          k =-0.5010-0.5010-0.4688 (  5568 PWs)   bands (ev):

   -69.3237 -69.3237 -69.3235 -36.4458 -36.4421 -36.4421 -36.4059 -36.4059
   -36.4029 -36.3893 -36.3844 -36.3844 -21.3791  -6.8435  -6.8033  -6.8033
     0.9707   0.9707   1.6371   1.7896   2.1710   2.1710   2.1881   5.2309
     8.5629   9.7828   9.7829  10.8655  11.0534

     the Fermi energy is     6.5060 ev

!    total energy              =    -523.45162241 Ry
     estimated scf accuracy    <          9.4E-10 Ry
     smearing contrib. (-TS)   =       0.00000000 Ry
     internal energy E=F+TS    =    -523.45162241 Ry

     The total energy is F=E-TS. E is the sum of the following terms:
     one-electron contribution =    -339.80190904 Ry
     hartree contribution      =      89.01014513 Ry
     xc contribution           =     -90.86831322 Ry
     ewald contribution        =    -204.34237100 Ry
     one-center paw contrib.   =      22.55082572 Ry

     convergence has been achieved in   6 iterations

     Forces acting on atoms (cartesian axes, Ry/au):

     atom    1 type  3   force =     0.00000000    0.00000000   -0.00000000
     atom    2 type  1   force =    -0.00000000   -0.00000000    0.00000000
     atom    3 type  3   force =    -0.00000000    0.00000000    0.00000000
     atom    4 type  3   force =    -0.00000000    0.00000000   -0.00000000
     atom    5 type  2   force =    -0.00131646   -0.00067338   -0.00063601
     atom    6 type  2   force =     0.00042929    0.00042929   -0.00042929
     atom    7 type  2   force =    -0.00067338    0.00063601    0.00131646
     atom    8 type  2   force =     0.00063601   -0.00131646    0.00067338
     atom    9 type  2   force =     0.00131646    0.00067338    0.00063601
     atom   10 type  2   force =    -0.00042929   -0.00042929    0.00042929
     atom   11 type  2   force =     0.00067338   -0.00063601   -0.00131646
     atom   12 type  2   force =    -0.00063601    0.00131646   -0.00067338

     Total force =     0.004081     Total SCF correction =     0.000009


     Computing stress (Cartesian axis) and pressure

          total   stress  (Ry/bohr**3)                   (kbar)     P=       -1.25
  -0.00000852  -0.00000483   0.00000483           -1.25       -0.71        0.71
  -0.00000483  -0.00000852   0.00000483           -0.71       -1.25        0.71
   0.00000483   0.00000483  -0.00000852            0.71        0.71       -1.25

     Energy error            =      1.1E-05
     Gradient error          =      1.3E-03
     Cell gradient error     =      8.5E-06


     number of scf cycles    =  13
     number of bfgs steps    =  11

     enthalpy old            =    -523.4516113697 Ry
     enthalpy new            =    -523.4516224137 Ry

     CASE: enthalpy_new < enthalpy_old

     new trust radius        =       0.0020390556 bohr
     new conv_thr            =       0.0000000100 Ry

     new unit-cell volume =    930.89762 a.u.^3 (   137.94480 Ang^3 )
     density =      0.14445 g/cm^3

CELL_PARAMETERS (angstrom)
   5.172030515  -0.160219441   0.160219445
  -0.160219445   5.172031514   0.160219445
   0.160219445   0.160219441   5.172030515

ATOMIC_POSITIONS (angstrom)
Mg            2.5059050346        2.5059060388        0.1602194433
Ba            2.6661254783       -0.0000000043        2.6661244822
Mg           -0.0000000021        2.6661254756        2.6661244800
Mg           -0.0000000000       -0.0000000000        0.0000000000
H             0.1106703359        4.4358401687        1.8945954553
H             4.1977690404        1.5316445719        1.1344809201
H             1.9299351434        0.9317494731        5.0613611866
H             3.4376555002        2.7767958113        3.5625342695
H             5.0613611839        0.7361903410        3.5978739505
H             0.9742614747        3.6403869425        4.3579884857
H             3.2420963722        4.2402820371        0.4311082235
H             1.7343760068        2.3952366950        1.9299341445



     Writing output data file ./tmp/BaMg3H8.save/
     NEW-OLD atomic charge density approx. for the potential
     extrapolated charge   47.97992, renormalised to   48.00000

     total cpu time spent up to now is      662.0 secs

     Self-consistent Calculation

     iteration #  1     ecut=    50.00 Ry     beta= 0.70
     CG style diagonalization
     ethr =  1.00E-06,  avg # of iterations =  2.6

     Threshold (ethr) on eigenvalues was too large:
     Diagonalizing with lowered threshold

     CG style diagonalization
     ethr =  4.81E-09,  avg # of iterations =  3.8

     total cpu time spent up to now is      667.5 secs

     total energy              =    -523.45161566 Ry
     estimated scf accuracy    <       0.00000269 Ry

     iteration #  2     ecut=    50.00 Ry     beta= 0.70
     CG style diagonalization
     ethr =  5.61E-09,  avg # of iterations =  4.5

     total cpu time spent up to now is      671.0 secs

     total energy              =    -523.45163889 Ry
     estimated scf accuracy    <       0.00000094 Ry

     iteration #  3     ecut=    50.00 Ry     beta= 0.70
     CG style diagonalization
     ethr =  1.97E-09,  avg # of iterations =  4.1

     total cpu time spent up to now is      674.3 secs

     total energy              =    -523.45163950 Ry
     estimated scf accuracy    <       0.00000029 Ry

     iteration #  4     ecut=    50.00 Ry     beta= 0.70
     CG style diagonalization
     ethr =  6.04E-10,  avg # of iterations =  3.6

     total cpu time spent up to now is      677.3 secs

     total energy              =    -523.45163958 Ry
     estimated scf accuracy    <       0.00000002 Ry

     iteration #  5     ecut=    50.00 Ry     beta= 0.70
     CG style diagonalization
     ethr =  3.46E-11,  avg # of iterations =  5.0

     total cpu time spent up to now is      681.0 secs

     End of self-consistent calculation

          k = 0.0000 0.0000 0.0000 (  5491 PWs)   bands (ev):

   -69.3189 -69.3185 -69.3185 -36.4394 -36.4377 -36.4377 -36.4006 -36.3995
   -36.3995 -36.3824 -36.3824 -36.3782 -21.3856  -6.7303  -6.6803  -6.6803
    -1.6404   1.9169   1.9169   2.7580   2.7580   2.8522   3.5962   3.9051
     8.3869   8.3869   8.7527   9.3831   9.3831

          k = 0.0160 0.0160-0.5010 (  5526 PWs)   bands (ev):

   -69.3188 -69.3186 -69.3185 -36.4388 -36.4382 -36.4377 -36.4002 -36.3997
   -36.3993 -36.3827 -36.3813 -36.3797 -21.3822  -6.8822  -6.6995  -6.6596
    -0.2703  -0.1029   2.2331   2.6693   2.9076   3.1235   3.5497   3.8088
     7.8588   8.1949   9.2149   9.5767  10.1230

          k = 0.0000-0.4850-0.4850 (  5560 PWs)   bands (ev):

   -69.3187 -69.3186 -69.3185 -36.4395 -36.4382 -36.4370 -36.4008 -36.3997
   -36.3988 -36.3827 -36.3813 -36.3795 -21.3790  -6.8554  -6.8370  -6.6615
     0.3622   0.8963   1.1713   1.2116   2.8438   3.5622   3.6186   3.9688
     8.3034   8.3182   8.8621   9.5620  10.2919

          k =-0.5010-0.5010-0.4690 (  5568 PWs)   bands (ev):

   -69.3187 -69.3187 -69.3185 -36.4407 -36.4370 -36.4370 -36.4010 -36.4010
   -36.3979 -36.3843 -36.3794 -36.3794 -21.3760  -6.8404  -6.8003  -6.8003
     0.9736   0.9736   1.6387   1.7909   2.1750   2.1750   2.1903   5.2379
     8.5635   9.7900   9.7900  10.8717  11.0559

     the Fermi energy is     6.5086 ev

!    total energy              =    -523.45163962 Ry
     estimated scf accuracy    <          2.3E-09 Ry
     smearing contrib. (-TS)   =       0.00000000 Ry
     internal energy E=F+TS    =    -523.45163962 Ry

     The total energy is F=E-TS. E is the sum of the following terms:
     one-electron contribution =    -339.75927393 Ry
     hartree contribution      =      88.99659976 Ry
     xc contribution           =     -90.86941256 Ry
     ewald contribution        =    -204.37081326 Ry
     one-center paw contrib.   =      22.55126038 Ry

     convergence has been achieved in   5 iterations

     Forces acting on atoms (cartesian axes, Ry/au):

     atom    1 type  3   force =    -0.00000000    0.00000000   -0.00000000
     atom    2 type  1   force =    -0.00000000    0.00000000    0.00000000
     atom    3 type  3   force =     0.00000000   -0.00000000    0.00000000
     atom    4 type  3   force =     0.00000000    0.00000000   -0.00000000
     atom    5 type  2   force =    -0.00127887   -0.00066922   -0.00054203
     atom    6 type  2   force =     0.00041169    0.00041169   -0.00041169
     atom    7 type  2   force =    -0.00066922    0.00054203    0.00127887
     atom    8 type  2   force =     0.00054203   -0.00127887    0.00066922
     atom    9 type  2   force =     0.00127887    0.00066922    0.00054203
     atom   10 type  2   force =    -0.00041169   -0.00041169    0.00041169
     atom   11 type  2   force =     0.00066922   -0.00054203   -0.00127887
     atom   12 type  2   force =    -0.00054203    0.00127887   -0.00066922

     Total force =     0.003909     Total SCF correction =     0.000015


     Computing stress (Cartesian axis) and pressure

          total   stress  (Ry/bohr**3)                   (kbar)     P=       -0.91
  -0.00000617  -0.00000553   0.00000553           -0.91       -0.81        0.81
  -0.00000553  -0.00000617   0.00000553           -0.81       -0.91        0.81
   0.00000553   0.00000553  -0.00000617            0.81        0.81       -0.91

     Energy error            =      1.7E-05
     Gradient error          =      1.3E-03
     Cell gradient error     =      6.2E-06


     number of scf cycles    =  14
     number of bfgs steps    =  12

     enthalpy old            =    -523.4516224137 Ry
     enthalpy new            =    -523.4516396176 Ry

     CASE: enthalpy_new < enthalpy_old

     new trust radius        =       0.0030579718 bohr
     new conv_thr            =       0.0000000100 Ry

     new unit-cell volume =    930.42126 a.u.^3 (   137.87421 Ang^3 )
     density =      0.14453 g/cm^3

CELL_PARAMETERS (angstrom)
   5.171111646  -0.159620180   0.159620184
  -0.159620184   5.171112645   0.159620184
   0.159620184   0.159620180   5.171111646

ATOMIC_POSITIONS (angstrom)
Mg            2.5057452307        2.5057462347        0.1596201820
Ba            2.6653664130       -0.0000000042        2.6653654169
Mg           -0.0000000020        2.6653664105        2.6653654147
Mg           -0.0000000000       -0.0000000000        0.0000000000
H             0.1093995270        4.4346788599        1.8933067183
H             4.1971560266        1.5317906234        1.1335758032
H             1.9289336381        0.9316798834        5.0617131258
H             3.4374261065        2.7747659377        3.5614183827
H             5.0617131232        0.7364327809        3.5970452956
H             0.9739556192        3.6393220219        4.3567762107
H             3.2421790079        4.2394327577        0.4286388923
H             1.7336865312        2.3963476995        1.9289326393



     Writing output data file ./tmp/BaMg3H8.save/
     NEW-OLD atomic charge density approx. for the potential
     extrapolated charge   47.97543, renormalised to   48.00000

     total cpu time spent up to now is      712.5 secs

     Self-consistent Calculation

     iteration #  1     ecut=    50.00 Ry     beta= 0.70
     CG style diagonalization
     ethr =  1.00E-06,  avg # of iterations =  2.7

     Threshold (ethr) on eigenvalues was too large:
     Diagonalizing with lowered threshold

     CG style diagonalization
     ethr =  9.36E-09,  avg # of iterations =  3.4

     total cpu time spent up to now is      717.6 secs

     total energy              =    -523.45163085 Ry
     estimated scf accuracy    <       0.00000492 Ry

     iteration #  2     ecut=    50.00 Ry     beta= 0.70
     CG style diagonalization
     ethr =  1.03E-08,  avg # of iterations =  4.5

     total cpu time spent up to now is      721.1 secs

     total energy              =    -523.45151870 Ry
     estimated scf accuracy    <       0.00000143 Ry

     iteration #  3     ecut=    50.00 Ry     beta= 0.70
     CG style diagonalization
     ethr =  2.99E-09,  avg # of iterations =  3.8

     total cpu time spent up to now is      724.3 secs

     total energy              =    -523.45151955 Ry
     estimated scf accuracy    <       0.00000035 Ry

     iteration #  4     ecut=    50.00 Ry     beta= 0.70
     CG style diagonalization
     ethr =  7.26E-10,  avg # of iterations =  3.7

     total cpu time spent up to now is      727.4 secs

     total energy              =    -523.45151968 Ry
     estimated scf accuracy    <       0.00000001 Ry

     iteration #  5     ecut=    50.00 Ry     beta= 0.70
     CG style diagonalization
     ethr =  2.39E-11,  avg # of iterations =  5.1

     total cpu time spent up to now is      731.3 secs

     End of self-consistent calculation

          k = 0.0000 0.0000 0.0000 (  5491 PWs)   bands (ev):

   -69.3123 -69.3119 -69.3119 -36.4328 -36.4311 -36.4311 -36.3942 -36.3931
   -36.3930 -36.3758 -36.3758 -36.3715 -21.3821  -6.7265  -6.6766  -6.6766
    -1.6384   1.9206   1.9206   2.7609   2.7609   2.8552   3.6011   3.9105
     8.3934   8.3934   8.7569   9.3882   9.3882

          k = 0.0160 0.0160-0.5011 (  5526 PWs)   bands (ev):

   -69.3122 -69.3120 -69.3119 -36.4322 -36.4316 -36.4310 -36.3938 -36.3932
   -36.3928 -36.3760 -36.3747 -36.3730 -21.3787  -6.8787  -6.6957  -6.6559
    -0.2676  -0.1007   2.2361   2.6745   2.9105   3.1282   3.5537   3.8124
     7.8634   8.2022   9.2208   9.5823  10.1287

          k = 0.0000-0.4851-0.4851 (  5560 PWs)   bands (ev):

   -69.3121 -69.3120 -69.3119 -36.4329 -36.4316 -36.4304 -36.3943 -36.3932
   -36.3924 -36.3761 -36.3747 -36.3729 -21.3755  -6.8519  -6.8336  -6.6577
     0.3644   0.8998   1.1738   1.2151   2.8484   3.5650   3.6237   3.9735
     8.3097   8.3212   8.8699   9.5661  10.2954

          k =-0.5011-0.5011-0.4692 (  5568 PWs)   bands (ev):

   -69.3121 -69.3121 -69.3119 -36.4341 -36.4304 -36.4304 -36.3945 -36.3945
   -36.3915 -36.3776 -36.3728 -36.3727 -21.3725  -6.8368  -6.7968  -6.7968
     0.9767   0.9767   1.6411   1.7925   2.1796   2.1796   2.1933   5.2470
     8.5634   9.7987   9.7987  10.8794  11.0595

     the Fermi energy is     5.4760 ev

!    total energy              =    -523.45151974 Ry
     estimated scf accuracy    <          1.7E-09 Ry
     smearing contrib. (-TS)   =       0.00014495 Ry
     internal energy E=F+TS    =    -523.45166468 Ry

     The total energy is F=E-TS. E is the sum of the following terms:
     one-electron contribution =    -339.71072926 Ry
     hartree contribution      =      88.98168273 Ry
     xc contribution           =     -90.87078321 Ry
     ewald contribution        =    -204.40389556 Ry
     one-center paw contrib.   =      22.55206062 Ry

     convergence has been achieved in   5 iterations

     Forces acting on atoms (cartesian axes, Ry/au):

     atom    1 type  3   force =    -0.00000000   -0.00000000    0.00000000
     atom    2 type  1   force =     0.00000000    0.00000000   -0.00000000
     atom    3 type  3   force =     0.00000000    0.00000000   -0.00000000
     atom    4 type  3   force =    -0.00000000   -0.00000000    0.00000000
     atom    5 type  2   force =    -0.00122401   -0.00064667   -0.00041035
     atom    6 type  2   force =     0.00038987    0.00038987   -0.00038987
     atom    7 type  2   force =    -0.00064667    0.00041035    0.00122401
     atom    8 type  2   force =     0.00041035   -0.00122401    0.00064667
     atom    9 type  2   force =     0.00122401    0.00064667    0.00041035
     atom   10 type  2   force =    -0.00038987   -0.00038987    0.00038987
     atom   11 type  2   force =     0.00064667   -0.00041035   -0.00122401
     atom   12 type  2   force =    -0.00041035    0.00122401   -0.00064667

     Total force =     0.003663     Total SCF correction =     0.000011


     Computing stress (Cartesian axis) and pressure

          total   stress  (Ry/bohr**3)                   (kbar)     P=       -0.53
  -0.00000358  -0.00000605   0.00000605           -0.53       -0.89        0.89
  -0.00000605  -0.00000358   0.00000605           -0.89       -0.53        0.89
   0.00000605   0.00000605  -0.00000358            0.89        0.89       -0.53

     Energy error            =      1.2E-04
     Gradient error          =      1.2E-03
     Cell gradient error     =      6.1E-06


     number of scf cycles    =  15
     number of bfgs steps    =  13

     enthalpy old            =    -523.4516396176 Ry
     enthalpy new            =    -523.4515197371 Ry

     CASE: enthalpy_new > enthalpy_old

     new trust radius        =       0.0002751974 bohr
     new conv_thr            =       0.0000000100 Ry

     new unit-cell volume =    930.85474 a.u.^3 (   137.93844 Ang^3 )
     density =      0.14446 g/cm^3

CELL_PARAMETERS (angstrom)
   5.171947805  -0.160165500   0.160165504
  -0.160165504   5.171948805   0.160165504
   0.160165504   0.160165500   5.171947805

ATOMIC_POSITIONS (angstrom)
Mg            2.5058906503        2.5058916544        0.1601655023
Ba            2.6660571529       -0.0000000043        2.6660561568
Mg           -0.0000000021        2.6660571503        2.6660561546
Mg           -0.0000000000       -0.0000000000        0.0000000000
H             0.1105559234        4.4357356439        1.8944794303
H             4.1977138612        1.5316577181        1.1343994485
H             1.9298450028        0.9317432317        5.0613928894
H             3.4376348744        2.7766130735        3.5624338183
H             5.0613928867        0.7362121562        3.5977993838
H             0.9742339442        3.6402910866        4.3578793656
H             3.2421038030        4.2402055688        0.4308859290
H             1.7343139229        2.3953367231        1.9298440039



     Writing output data file ./tmp/BaMg3H8.save/
     NEW-OLD atomic charge density approx. for the potential
     extrapolated charge   48.02234, renormalised to   48.00000

     total cpu time spent up to now is      762.9 secs

     Self-consistent Calculation

     iteration #  1     ecut=    50.00 Ry     beta= 0.70
     CG style diagonalization
     ethr =  1.00E-06,  avg # of iterations =  2.7

     Threshold (ethr) on eigenvalues was too large:
     Diagonalizing with lowered threshold

     CG style diagonalization
     ethr =  7.59E-09,  avg # of iterations =  3.4

     total cpu time spent up to now is      768.3 secs

     total energy              =    -523.45146802 Ry
     estimated scf accuracy    <       0.00000420 Ry

     iteration #  2     ecut=    50.00 Ry     beta= 0.70
     CG style diagonalization
     ethr =  8.76E-09,  avg # of iterations =  4.5

     total cpu time spent up to now is      771.7 secs

     total energy              =    -523.45164125 Ry
     estimated scf accuracy    <       0.00000118 Ry

     iteration #  3     ecut=    50.00 Ry     beta= 0.70
     CG style diagonalization
     ethr =  2.47E-09,  avg # of iterations =  4.1

     total cpu time spent up to now is      775.0 secs

     total energy              =    -523.45164188 Ry
     estimated scf accuracy    <       0.00000032 Ry

     iteration #  4     ecut=    50.00 Ry     beta= 0.70
     CG style diagonalization
     ethr =  6.56E-10,  avg # of iterations =  3.5

     total cpu time spent up to now is      778.0 secs

     End of self-consistent calculation

          k = 0.0000 0.0000 0.0000 (  5491 PWs)   bands (ev):

   -69.3176 -69.3172 -69.3172 -36.4382 -36.4365 -36.4365 -36.3994 -36.3983
   -36.3983 -36.3811 -36.3811 -36.3769 -21.3852  -6.7300  -6.6800  -6.6800
    -1.6402   1.9173   1.9173   2.7583   2.7583   2.8524   3.5966   3.9056
     8.3875   8.3875   8.7531   9.3835   9.3835

          k = 0.0160 0.0160-0.5010 (  5526 PWs)   bands (ev):

   -69.3175 -69.3173 -69.3172 -36.4376 -36.4370 -36.4365 -36.3990 -36.3985
   -36.3981 -36.3814 -36.3800 -36.3783 -21.3818  -6.8819  -6.6992  -6.6592
    -0.2701  -0.1026   2.2334   2.6698   2.9078   3.1240   3.5500   3.8092
     7.8593   8.1956   9.2154   9.5772  10.1235

          k = 0.0000-0.4850-0.4850 (  5560 PWs)   bands (ev):

   -69.3174 -69.3173 -69.3173 -36.4383 -36.4370 -36.4358 -36.3996 -36.3985
   -36.3976 -36.3814 -36.3800 -36.3782 -21.3786  -6.8551  -6.8367  -6.6612
     0.3624   0.8967   1.1715   1.2120   2.8442   3.5624   3.6191   3.9693
     8.3040   8.3185   8.8628   9.5623  10.2922

          k =-0.5010-0.5010-0.4690 (  5568 PWs)   bands (ev):

   -69.3174 -69.3174 -69.3172 -36.4395 -36.4358 -36.4358 -36.3998 -36.3998
   -36.3967 -36.3830 -36.3781 -36.3781 -21.3757  -6.8401  -6.8000  -6.8000
     0.9740   0.9740   1.6389   1.7912   2.1755   2.1755   2.1905   5.2388
     8.5635   9.7907   9.7907  10.8723  11.0562

     the Fermi energy is     6.5090 ev

!    total energy              =    -523.45164195 Ry
     estimated scf accuracy    <          9.8E-09 Ry
     smearing contrib. (-TS)   =       0.00000000 Ry
     internal energy E=F+TS    =    -523.45164195 Ry

     The total energy is F=E-TS. E is the sum of the following terms:
     one-electron contribution =    -339.75483304 Ry
     hartree contribution      =      88.99492274 Ry
     xc contribution           =     -90.86951027 Ry
     ewald contribution        =    -204.37379014 Ry
     one-center paw contrib.   =      22.55156877 Ry

     convergence has been achieved in   4 iterations

     Forces acting on atoms (cartesian axes, Ry/au):

     atom    1 type  3   force =    -0.00000000    0.00000000    0.00000000
     atom    2 type  1   force =    -0.00000000   -0.00000000    0.00000000
     atom    3 type  3   force =     0.00000000    0.00000000   -0.00000000
     atom    4 type  3   force =     0.00000000    0.00000000   -0.00000000
     atom    5 type  2   force =    -0.00127224   -0.00066802   -0.00052944
     atom    6 type  2   force =     0.00041271    0.00041271   -0.00041271
     atom    7 type  2   force =    -0.00066802    0.00052944    0.00127224
     atom    8 type  2   force =     0.00052944   -0.00127223    0.00066802
     atom    9 type  2   force =     0.00127224    0.00066802    0.00052944
     atom   10 type  2   force =    -0.00041271   -0.00041271    0.00041271
     atom   11 type  2   force =     0.00066802   -0.00052944   -0.00127224
     atom   12 type  2   force =    -0.00052944    0.00127223   -0.00066802

     Total force =     0.003885     Total SCF correction =     0.000023


     Computing stress (Cartesian axis) and pressure

          total   stress  (Ry/bohr**3)                   (kbar)     P=       -1.23
  -0.00000835  -0.00000559   0.00000559           -1.23       -0.82        0.82
  -0.00000559  -0.00000835   0.00000559           -0.82       -1.23        0.82
   0.00000559   0.00000559  -0.00000835            0.82        0.82       -1.23

     Energy error            =      2.3E-06
     Gradient error          =      1.3E-03
     Cell gradient error     =      8.4E-06


     number of scf cycles    =  16
     number of bfgs steps    =  13

     enthalpy old            =    -523.4516396176 Ry
     enthalpy new            =    -523.4516419478 Ry

     CASE: enthalpy_new < enthalpy_old


     WARNING: bfgs curvature condition failed, Theta= 0.262
     new trust radius        =       0.0004128756 bohr
     new conv_thr            =       0.0000000100 Ry

     new unit-cell volume =    930.80849 a.u.^3 (   137.93159 Ang^3 )
     density =      0.14447 g/cm^3

CELL_PARAMETERS (angstrom)
   5.171857536  -0.160090805   0.160090809
  -0.160090809   5.171858535   0.160090809
   0.160090809   0.160090805   5.171857536

ATOMIC_POSITIONS (angstrom)
Mg            2.5058828629        2.5058838670        0.1600908073
Ba            2.6659746706       -0.0000000043        2.6659736745
Mg           -0.0000000021        2.6659746680        2.6659736723
Mg           -0.0000000000       -0.0000000000        0.0000000000
H             0.1103866897        4.4356019127        1.8943123674
H             4.1976683841        1.5316947233        1.1342799609
H             1.9297190590        0.9317531173        5.0614718533
H             3.4376369726        2.7763613576        3.5623201024
H             5.0614718506        0.7362556176        3.5977267870
H             0.9741891515        3.6401638117        4.3577591935
H             3.2421394771        4.2401054135        0.4305673054
H             1.7342215549        2.3954981693        1.9297180601



     Writing output data file ./tmp/BaMg3H8.save/
     NEW-OLD atomic charge density approx. for the potential
     extrapolated charge   47.99762, renormalised to   48.00000

     total cpu time spent up to now is      809.7 secs

     Self-consistent Calculation

     iteration #  1     ecut=    50.00 Ry     beta= 0.70
     CG style diagonalization
     ethr =  1.00E-06,  avg # of iterations =  2.0

     Threshold (ethr) on eigenvalues was too large:
     Diagonalizing with lowered threshold

     CG style diagonalization
     ethr =  4.00E-11,  avg # of iterations =  6.0

     total cpu time spent up to now is      816.1 secs

     total energy              =    -523.45164519 Ry
     estimated scf accuracy    <       0.00000009 Ry

     iteration #  2     ecut=    50.00 Ry     beta= 0.70
     CG style diagonalization
     ethr =  1.78E-10,  avg # of iterations =  4.4

     total cpu time spent up to now is      819.6 secs

     total energy              =    -523.45164552 Ry
     estimated scf accuracy    <       0.00000002 Ry

     iteration #  3     ecut=    50.00 Ry     beta= 0.70
     CG style diagonalization
     ethr =  3.40E-11,  avg # of iterations =  4.1

     total cpu time spent up to now is      822.9 secs

     End of self-consistent calculation

          k = 0.0000 0.0000 0.0000 (  5491 PWs)   bands (ev):

   -69.3178 -69.3173 -69.3173 -36.4382 -36.4365 -36.4365 -36.3995 -36.3984
   -36.3984 -36.3813 -36.3813 -36.3770 -21.3849  -6.7296  -6.6797  -6.6796
    -1.6400   1.9177   1.9177   2.7585   2.7585   2.8527   3.5972   3.9062
     8.3882   8.3882   8.7535   9.3841   9.3841

          k = 0.0160 0.0160-0.5010 (  5526 PWs)   bands (ev):

   -69.3176 -69.3175 -69.3173 -36.4377 -36.4371 -36.4365 -36.3991 -36.3985
   -36.3982 -36.3815 -36.3801 -36.3785 -21.3815  -6.8815  -6.6988  -6.6589
    -0.2698  -0.1025   2.2337   2.6704   2.9081   3.1244   3.5505   3.8095
     7.8597   8.1964   9.2160   9.5777  10.1241

          k = 0.0000-0.4850-0.4850 (  5560 PWs)   bands (ev):

   -69.3175 -69.3175 -69.3174 -36.4383 -36.4371 -36.4358 -36.3997 -36.3985
   -36.3977 -36.3816 -36.3802 -36.3784 -21.3783  -6.8548  -6.8364  -6.6608
     0.3626   0.8970   1.1717   1.2123   2.8447   3.5627   3.6196   3.9697
     8.3047   8.3187   8.8637   9.5627  10.2925

          k =-0.5010-0.5010-0.4690 (  5568 PWs)   bands (ev):

   -69.3176 -69.3175 -69.3173 -36.4396 -36.4358 -36.4358 -36.3998 -36.3998
   -36.3968 -36.3831 -36.3782 -36.3782 -21.3754  -6.8397  -6.7997  -6.7997
     0.9742   0.9743   1.6392   1.7912   2.1760   2.1760   2.1908   5.2398
     8.5633   9.7917   9.7917  10.8733  11.0564

     the Fermi energy is     6.5092 ev

!    total energy              =    -523.45164553 Ry
     estimated scf accuracy    <          3.2E-09 Ry
     smearing contrib. (-TS)   =       0.00000000 Ry
     internal energy E=F+TS    =    -523.45164553 Ry

     The total energy is F=E-TS. E is the sum of the following terms:
     one-electron contribution =    -339.75051469 Ry
     hartree contribution      =      88.99392749 Ry
     xc contribution           =     -90.86963956 Ry
     ewald contribution        =    -204.37684527 Ry
     one-center paw contrib.   =      22.55142650 Ry

     convergence has been achieved in   3 iterations

     Forces acting on atoms (cartesian axes, Ry/au):

     atom    1 type  3   force =    -0.00000000    0.00000000   -0.00000000
     atom    2 type  1   force =     0.00000000    0.00000000   -0.00000000
     atom    3 type  3   force =     0.00000000   -0.00000000    0.00000000
     atom    4 type  3   force =     0.00000000    0.00000000   -0.00000000
     atom    5 type  2   force =    -0.00126752   -0.00066022   -0.00050910
     atom    6 type  2   force =     0.00040334    0.00040334   -0.00040334
     atom    7 type  2   force =    -0.00066022    0.00050910    0.00126752
     atom    8 type  2   force =     0.00050910   -0.00126752    0.00066022
     atom    9 type  2   force =     0.00126752    0.00066022    0.00050910
     atom   10 type  2   force =    -0.00040334   -0.00040334    0.00040334
     atom   11 type  2   force =     0.00066022   -0.00050910   -0.00126752
     atom   12 type  2   force =    -0.00050910    0.00126752   -0.00066022

     Total force =     0.003845     Total SCF correction =     0.000012


     Computing stress (Cartesian axis) and pressure

          total   stress  (Ry/bohr**3)                   (kbar)     P=       -0.80
  -0.00000544  -0.00000562   0.00000562           -0.80       -0.83        0.83
  -0.00000562  -0.00000544   0.00000562           -0.83       -0.80        0.83
   0.00000562   0.00000562  -0.00000544            0.83        0.83       -0.80

     Energy error            =      3.6E-06
     Gradient error          =      1.3E-03
     Cell gradient error     =      5.6E-06


     number of scf cycles    =  17
     number of bfgs steps    =  14

     enthalpy old            =    -523.4516419478 Ry
     enthalpy new            =    -523.4516455277 Ry

     CASE: enthalpy_new < enthalpy_old

     new trust radius        =       0.0006192996 bohr
     new conv_thr            =       0.0000000100 Ry

     new unit-cell volume =    930.79391 a.u.^3 (   137.92943 Ang^3 )
     density =      0.14447 g/cm^3

CELL_PARAMETERS (angstrom)
   5.171826032  -0.160019590   0.160019594
  -0.160019594   5.171827031   0.160019594
   0.160019594   0.160019590   5.171826032

ATOMIC_POSITIONS (angstrom)
Mg            2.5059027186        2.5059037228        0.1600195920
Ba            2.6659233111       -0.0000000042        2.6659223149
Mg           -0.0000000021        2.6659233085        2.6659223127
Mg           -0.0000000000       -0.0000000000        0.0000000000
H             0.1101140249        4.4354988497        1.8941403326
H             4.1976754609        1.5317531596        1.1341701651
H             1.9295961403        0.9318025773        5.0617130143
H             3.4377062884        2.7760373333        3.5622690868
H             5.0617130116        0.7363271769        3.5977248875
H             0.9741505710        3.6400738716        4.3576950550
H             3.2422308920        4.2400244497        0.4301522101
H             1.7341207354        2.3957906898        1.9295951414



     Writing output data file ./tmp/BaMg3H8.save/
     NEW-OLD atomic charge density approx. for the potential
     extrapolated charge   47.99925, renormalised to   48.00000

     total cpu time spent up to now is      854.3 secs

     Self-consistent Calculation

     iteration #  1     ecut=    50.00 Ry     beta= 0.70
     CG style diagonalization
     ethr =  1.00E-06,  avg # of iterations =  2.0

     Threshold (ethr) on eigenvalues was too large:
     Diagonalizing with lowered threshold

     CG style diagonalization
     ethr =  8.91E-11,  avg # of iterations =  3.9

     total cpu time spent up to now is      859.3 secs

     total energy              =    -523.45165060 Ry
     estimated scf accuracy    <       0.00000011 Ry

     iteration #  2     ecut=    50.00 Ry     beta= 0.70
     CG style diagonalization
     ethr =  2.26E-10,  avg # of iterations =  3.7

     total cpu time spent up to now is      862.5 secs

     End of self-consistent calculation

          k = 0.0000 0.0000 0.0000 (  5491 PWs)   bands (ev):

   -69.3172 -69.3167 -69.3167 -36.4376 -36.4359 -36.4359 -36.3989 -36.3978
   -36.3978 -36.3807 -36.3807 -36.3764 -21.3855  -6.7299  -6.6801  -6.6801
    -1.6400   1.9179   1.9179   2.7584   2.7584   2.8528   3.5975   3.9064
     8.3886   8.3886   8.7537   9.3843   9.3843

          k = 0.0160 0.0160-0.5010 (  5526 PWs)   bands (ev):

   -69.3170 -69.3169 -69.3167 -36.4370 -36.4364 -36.4359 -36.3985 -36.3979
   -36.3976 -36.3810 -36.3796 -36.3779 -21.3820  -6.8819  -6.6992  -6.6593
    -0.2697  -0.1026   2.2338   2.6707   2.9082   3.1245   3.5506   3.8095
     7.8598   8.1969   9.2163   9.5778  10.1244

          k = 0.0000-0.4850-0.4850 (  5560 PWs)   bands (ev):

   -69.3170 -69.3169 -69.3168 -36.4377 -36.4364 -36.4352 -36.3991 -36.3979
   -36.3971 -36.3810 -36.3796 -36.3778 -21.3788  -6.8551  -6.8368  -6.6612
     0.3626   0.8969   1.1716   1.2125   2.8450   3.5627   3.6199   3.9699
     8.3051   8.3186   8.8643   9.5625  10.2922

          k =-0.5010-0.5010-0.4690 (  5568 PWs)   bands (ev):

   -69.3170 -69.3169 -69.3167 -36.4389 -36.4352 -36.4352 -36.3992 -36.3992
   -36.3962 -36.3825 -36.3777 -36.3777 -21.3759  -6.8401  -6.8000  -6.8000
     0.9743   0.9743   1.6393   1.7911   2.1761   2.1761   2.1909   5.2407
     8.5624   9.7924   9.7924  10.8740  11.0561

     the Fermi energy is     6.5089 ev

!    total energy              =    -523.45165064 Ry
     estimated scf accuracy    <          6.7E-09 Ry
     smearing contrib. (-TS)   =       0.00000000 Ry
     internal energy E=F+TS    =    -523.45165064 Ry

     The total energy is F=E-TS. E is the sum of the following terms:
     one-electron contribution =    -339.75031297 Ry
     hartree contribution      =      88.99414528 Ry
     xc contribution           =     -90.86972158 Ry
     ewald contribution        =    -204.37726892 Ry
     one-center paw contrib.   =      22.55150754 Ry

     convergence has been achieved in   2 iterations

     Forces acting on atoms (cartesian axes, Ry/au):

     atom    1 type  3   force =    -0.00000000    0.00000000    0.00000000
     atom    2 type  1   force =     0.00000000    0.00000000   -0.00000000
     atom    3 type  3   force =    -0.00000000    0.00000000   -0.00000000
     atom    4 type  3   force =     0.00000000   -0.00000000    0.00000000
     atom    5 type  2   force =    -0.00125746   -0.00065701   -0.00048692
     atom    6 type  2   force =     0.00039989    0.00039989   -0.00039989
     atom    7 type  2   force =    -0.00065701    0.00048692    0.00125746
     atom    8 type  2   force =     0.00048692   -0.00125746    0.00065701
     atom    9 type  2   force =     0.00125746    0.00065701    0.00048692
     atom   10 type  2   force =    -0.00039989   -0.00039989    0.00039989
     atom   11 type  2   force =     0.00065701   -0.00048692   -0.00125746
     atom   12 type  2   force =    -0.00048692    0.00125746   -0.00065701

     Total force =     0.003803     Total SCF correction =     0.000025


     Computing stress (Cartesian axis) and pressure

          total   stress  (Ry/bohr**3)                   (kbar)     P=       -0.88
  -0.00000596  -0.00000573   0.00000573           -0.88       -0.84        0.84
  -0.00000573  -0.00000596   0.00000573           -0.84       -0.88        0.84
   0.00000573   0.00000573  -0.00000596            0.84        0.84       -0.88

     Energy error            =      5.1E-06
     Gradient error          =      1.3E-03
     Cell gradient error     =      6.0E-06


     number of scf cycles    =  18
     number of bfgs steps    =  15

     enthalpy old            =    -523.4516455277 Ry
     enthalpy new            =    -523.4516506401 Ry

     CASE: enthalpy_new < enthalpy_old

     new trust radius        =       0.0009289399 bohr
     new conv_thr            =       0.0000000100 Ry

     new unit-cell volume =    930.76063 a.u.^3 (   137.92449 Ang^3 )
     density =      0.14447 g/cm^3

CELL_PARAMETERS (angstrom)
   5.171760146  -0.159951182   0.159951187
  -0.159951187   5.171761146   0.159951187
   0.159951187   0.159951182   5.171760146

ATOMIC_POSITIONS (angstrom)
Mg            2.5059039798        2.5059049839        0.1599511845
Ba            2.6658561646       -0.0000000042        2.6658551685
Mg           -0.0000000021        2.6658561621        2.6658551663
Mg           -0.0000000000       -0.0000000000        0.0000000000
H             0.1096710233        4.4353572611        1.8939507140
H             4.1976304177        1.5317752629        1.1340809154
H             1.9294532904        0.9318566418        5.0620901305
H             3.4377616141        2.7755271854        3.5622092362
H             5.0620901279        0.7364028803        3.5977118056
H             0.9741297289        3.6399858831        4.3575816043
H             3.2423078565        4.2399044999        0.4295723934
H             1.7339995244        2.3962349525        1.9294522915



     Writing output data file ./tmp/BaMg3H8.save/
     NEW-OLD atomic charge density approx. for the potential
     extrapolated charge   47.99828, renormalised to   48.00000

     total cpu time spent up to now is      894.0 secs

     Self-consistent Calculation

     iteration #  1     ecut=    50.00 Ry     beta= 0.70
     CG style diagonalization
     ethr =  1.00E-06,  avg # of iterations =  2.0

     Threshold (ethr) on eigenvalues was too large:
     Diagonalizing with lowered threshold

     CG style diagonalization
     ethr =  2.04E-10,  avg # of iterations =  3.9

     total cpu time spent up to now is      899.0 secs

     total energy              =    -523.45151305 Ry
     estimated scf accuracy    <       0.00000024 Ry

     iteration #  2     ecut=    50.00 Ry     beta= 0.70
     CG style diagonalization
     ethr =  5.07E-10,  avg # of iterations =  3.7

     total cpu time spent up to now is      902.0 secs

     total energy              =    -523.45151322 Ry
     estimated scf accuracy    <       0.00000002 Ry

     iteration #  3     ecut=    50.00 Ry     beta= 0.70
     CG style diagonalization
     ethr =  3.57E-11,  avg # of iterations =  4.2

     total cpu time spent up to now is      905.4 secs

     End of self-consistent calculation

          k = 0.0000 0.0000 0.0000 (  5491 PWs)   bands (ev):

   -69.3164 -69.3160 -69.3160 -36.4369 -36.4351 -36.4351 -36.3982 -36.3971
   -36.3970 -36.3799 -36.3799 -36.3756 -21.3855  -6.7298  -6.6800  -6.6800
    -1.6399   1.9183   1.9183   2.7583   2.7583   2.8531   3.5979   3.9067
     8.3895   8.3895   8.7540   9.3847   9.3847

          k = 0.0160 0.0160-0.5010 (  5526 PWs)   bands (ev):

   -69.3162 -69.3161 -69.3160 -36.4363 -36.4357 -36.4351 -36.3978 -36.3972
   -36.3968 -36.3801 -36.3787 -36.3771 -21.3820  -6.8818  -6.6991  -6.6592
    -0.2695  -0.1027   2.2340   2.6714   2.9082   3.1248   3.5508   3.8097
     7.8601   8.1978   9.2170   9.5779  10.1249

          k = 0.0000-0.4851-0.4851 (  5560 PWs)   bands (ev):

   -69.3162 -69.3161 -69.3160 -36.4369 -36.4357 -36.4345 -36.3983 -36.3972
   -36.3964 -36.3802 -36.3788 -36.3770 -21.3788  -6.8550  -6.8367  -6.6611
     0.3626   0.8970   1.1716   1.2129   2.8454   3.5628   3.6205   3.9702
     8.3057   8.3186   8.8654   9.5623  10.2923

          k =-0.5010-0.5010-0.4691 (  5568 PWs)   bands (ev):

   -69.3162 -69.3162 -69.3159 -36.4382 -36.4345 -36.4345 -36.3985 -36.3985
   -36.3955 -36.3817 -36.3768 -36.3768 -21.3759  -6.8400  -6.8000  -6.8000
     0.9744   0.9744   1.6394   1.7909   2.1763   2.1763   2.1910   5.2423
     8.5611   9.7937   9.7937  10.8749  11.0561

     the Fermi energy is     5.4713 ev

!    total energy              =    -523.45151324 Ry
     estimated scf accuracy    <          1.0E-09 Ry
     smearing contrib. (-TS)   =       0.00014495 Ry
     internal energy E=F+TS    =    -523.45165819 Ry

     The total energy is F=E-TS. E is the sum of the following terms:
     one-electron contribution =    -339.74868559 Ry
     hartree contribution      =      88.99403018 Ry
     xc contribution           =     -90.86981288 Ry
     ewald contribution        =    -204.37878905 Ry
     one-center paw contrib.   =      22.55159916 Ry

     convergence has been achieved in   3 iterations

     Forces acting on atoms (cartesian axes, Ry/au):

     atom    1 type  3   force =    -0.00000000   -0.00000000    0.00000000
     atom    2 type  1   force =     0.00000000    0.00000000   -0.00000000
     atom    3 type  3   force =     0.00000000   -0.00000000   -0.00000000
     atom    4 type  3   force =    -0.00000000   -0.00000000    0.00000000
     atom    5 type  2   force =    -0.00123899   -0.00065033   -0.00045367
     atom    6 type  2   force =     0.00039402    0.00039402   -0.00039402
     atom    7 type  2   force =    -0.00065033    0.00045367    0.00123899
     atom    8 type  2   force =     0.00045367   -0.00123899    0.00065033
     atom    9 type  2   force =     0.00123899    0.00065033    0.00045367
     atom   10 type  2   force =    -0.00039402   -0.00039402    0.00039402
     atom   11 type  2   force =     0.00065033   -0.00045367   -0.00123899
     atom   12 type  2   force =    -0.00045367    0.00123899   -0.00065033

     Total force =     0.003730     Total SCF correction =     0.000004


     Computing stress (Cartesian axis) and pressure

          total   stress  (Ry/bohr**3)                   (kbar)     P=       -0.89
  -0.00000602  -0.00000578   0.00000578           -0.89       -0.85        0.85
  -0.00000578  -0.00000602   0.00000578           -0.85       -0.89        0.85
   0.00000578   0.00000578  -0.00000602            0.85        0.85       -0.89

     Energy error            =      1.4E-04
     Gradient error          =      1.2E-03
     Cell gradient error     =      6.0E-06


     number of scf cycles    =  19
     number of bfgs steps    =  16

     enthalpy old            =    -523.4516506401 Ry
     enthalpy new            =    -523.4515132377 Ry

     CASE: enthalpy_new > enthalpy_old

     new trust radius        =       0.0000244189 bohr

     trust_radius < trust_radius_min

     resetting bfgs history

     new conv_thr            =       0.0000000100 Ry

     new unit-cell volume =    930.37754 a.u.^3 (   137.86773 Ang^3 )
     density =      0.14453 g/cm^3

CELL_PARAMETERS (angstrom)
   5.171100713  -0.160713599   0.160713604
  -0.160713604   5.171101712   0.160713604
   0.160713604   0.160713599   5.171100713

ATOMIC_POSITIONS (angstrom)
Mg            2.5051930543        2.5051940585        0.1607136016
Ba            2.6659076561       -0.0000000044        2.6659066602
Mg           -0.0000000021        2.6659076536        2.6659066580
Mg           -0.0000000000       -0.0000000000        0.0000000000
H             0.1090682740        4.4347454557        1.8942511910
H             4.1972041226        1.5312974763        1.1346101937
H             1.9295524104        0.9323700734        5.0620334460
H             3.4375641200        2.7749759275        3.5629755169
H             5.0620334433        0.7363552518        3.5982767290
H             0.9738965900        3.6398042359        4.3579177263
H             3.2415493025        4.2387316343        0.4304944785
H             1.7335375841        2.3961267761        1.9295514117



     Writing output data file ./tmp/BaMg3H8.save/
     NEW-OLD atomic charge density approx. for the potential
     extrapolated charge   47.98024, renormalised to   48.00000

     total cpu time spent up to now is      936.8 secs

     Self-consistent Calculation

     iteration #  1     ecut=    50.00 Ry     beta= 0.70
     CG style diagonalization
     ethr =  1.00E-06,  avg # of iterations =  2.4

     Threshold (ethr) on eigenvalues was too large:
     Diagonalizing with lowered threshold

     CG style diagonalization
     ethr =  3.72E-09,  avg # of iterations =  4.0

     total cpu time spent up to now is      942.3 secs

     total energy              =    -523.45164800 Ry
     estimated scf accuracy    <       0.00000198 Ry

     iteration #  2     ecut=    50.00 Ry     beta= 0.70
     CG style diagonalization
     ethr =  4.12E-09,  avg # of iterations =  4.7

     total cpu time spent up to now is      945.9 secs

     total energy              =    -523.45167026 Ry
     estimated scf accuracy    <       0.00000085 Ry

     iteration #  3     ecut=    50.00 Ry     beta= 0.70
     CG style diagonalization
     ethr =  1.76E-09,  avg # of iterations =  4.0

     total cpu time spent up to now is      949.1 secs

     total energy              =    -523.45167077 Ry
     estimated scf accuracy    <       0.00000030 Ry

     iteration #  4     ecut=    50.00 Ry     beta= 0.70
     CG style diagonalization
     ethr =  6.30E-10,  avg # of iterations =  3.5

     total cpu time spent up to now is      952.2 secs

     total energy              =    -523.45167083 Ry
     estimated scf accuracy    <       0.00000003 Ry

     iteration #  5     ecut=    50.00 Ry     beta= 0.70
     CG style diagonalization
     ethr =  6.30E-11,  avg # of iterations =  4.0

     total cpu time spent up to now is      955.6 secs

     End of self-consistent calculation

          k = 0.0000 0.0000 0.0000 (  5491 PWs)   bands (ev):

   -69.3113 -69.3109 -69.3109 -36.4319 -36.4301 -36.4301 -36.3931 -36.3920
   -36.3919 -36.3748 -36.3748 -36.3705 -21.3819  -6.7267  -6.6765  -6.6765
    -1.6383   1.9213   1.9213   2.7603   2.7603   2.8584   3.5999   3.9071
     8.3928   8.3928   8.7597   9.3897   9.3897

          k = 0.0161 0.0161-0.5011 (  5526 PWs)   bands (ev):

   -69.3112 -69.3111 -69.3109 -36.4313 -36.4307 -36.4301 -36.3927 -36.3921
   -36.3917 -36.3751 -36.3737 -36.3720 -21.3785  -6.8787  -6.6958  -6.6557
    -0.2672  -0.1005   2.2378   2.6731   2.9109   3.1257   3.5542   3.8130
     7.8658   8.2001   9.2222   9.5792  10.1288

          k = 0.0000-0.4850-0.4850 (  5560 PWs)   bands (ev):

   -69.3111 -69.3111 -69.3110 -36.4319 -36.4307 -36.4295 -36.3932 -36.3921
   -36.3912 -36.3751 -36.3737 -36.3719 -21.3753  -6.8519  -6.8334  -6.6577
     0.3641   0.8984   1.1758   1.2159   2.8472   3.5668   3.6225   3.9727
     8.3098   8.3240   8.8696   9.5651  10.2986

          k =-0.5011-0.5011-0.4690 (  5568 PWs)   bands (ev):

   -69.3111 -69.3111 -69.3109 -36.4332 -36.4295 -36.4295 -36.3934 -36.3934
   -36.3904 -36.3767 -36.3718 -36.3718 -21.3724  -6.8369  -6.7966  -6.7966
     0.9752   0.9752   1.6437   1.7930   2.1787   2.1787   2.1963   5.2455
     8.5655   9.7968   9.7968  10.8802  11.0628

     the Fermi energy is     6.5156 ev

!    total energy              =    -523.45167085 Ry
     estimated scf accuracy    <          3.2E-09 Ry
     smearing contrib. (-TS)   =       0.00000000 Ry
     internal energy E=F+TS    =    -523.45167085 Ry

     The total energy is F=E-TS. E is the sum of the following terms:
     one-electron contribution =    -339.71666908 Ry
     hartree contribution      =      88.98557669 Ry
     xc contribution           =     -90.87122675 Ry
     ewald contribution        =    -204.40149296 Ry
     one-center paw contrib.   =      22.55214125 Ry

     convergence has been achieved in   5 iterations

     Forces acting on atoms (cartesian axes, Ry/au):

     atom    1 type  3   force =    -0.00000000    0.00000000    0.00000000
     atom    2 type  1   force =    -0.00000000   -0.00000000    0.00000000
     atom    3 type  3   force =    -0.00000000    0.00000000    0.00000000
     atom    4 type  3   force =    -0.00000000   -0.00000000    0.00000000
     atom    5 type  2   force =    -0.00122713   -0.00058778   -0.00040594
     atom    6 type  2   force =     0.00039055    0.00039055   -0.00039055
     atom    7 type  2   force =    -0.00058778    0.00040594    0.00122713
     atom    8 type  2   force =     0.00040594   -0.00122713    0.00058778
     atom    9 type  2   force =     0.00122713    0.00058778    0.00040594
     atom   10 type  2   force =    -0.00039055   -0.00039055    0.00039055
     atom   11 type  2   force =     0.00058778   -0.00040594   -0.00122713
     atom   12 type  2   force =    -0.00040594    0.00122713   -0.00058778

     Total force =     0.003607     Total SCF correction =     0.000006


     Computing stress (Cartesian axis) and pressure

          total   stress  (Ry/bohr**3)                   (kbar)     P=       -0.55
  -0.00000375  -0.00000452   0.00000452           -0.55       -0.66        0.66
  -0.00000452  -0.00000375   0.00000452           -0.66       -0.55        0.66
   0.00000452   0.00000452  -0.00000375            0.66        0.66       -0.55

     Energy error            =      2.0E-05
     Gradient error          =      1.2E-03
     Cell gradient error     =      4.5E-06


     number of scf cycles    =  20
     number of bfgs steps    =  16

     enthalpy old            =    -523.4516506401 Ry
     enthalpy new            =    -523.4516708457 Ry

     CASE: enthalpy_new < enthalpy_old


     WARNING: bfgs curvature condition failed, Theta= 0.913
     new trust radius        =       0.0016886010 bohr
     new conv_thr            =       0.0000000100 Ry

     new unit-cell volume =    930.03640 a.u.^3 (   137.81718 Ang^3 )
     density =      0.14459 g/cm^3

CELL_PARAMETERS (angstrom)
   5.170513550  -0.161392918   0.161392922
  -0.161392922   5.170514550   0.161392922
   0.161392922   0.161392918   5.170513550

ATOMIC_POSITIONS (angstrom)
Mg            2.5045598140        2.5045608184        0.1613929200
Ba            2.6659537341       -0.0000000045        2.6659527385
Mg           -0.0000000022        2.6659537316        2.6659527362
Mg           -0.0000000000       -0.0000000000        0.0000000000
H             0.1079326280        4.4340787303        1.8943910713
H             4.1968799788        1.5309272543        1.1350264939
H             1.9295189251        0.9329555896        5.0625819300
H             3.4375163957        2.7738863595        3.5637804772
H             5.0625819271        0.7364348151        3.5989083235
H             0.9736335717        3.6395872958        4.3582729009
H             3.2409956255        4.2375589560        0.4307174694
H             1.7329981458        2.3966291817        1.9295179266



     Writing output data file ./tmp/BaMg3H8.save/
     NEW-OLD atomic charge density approx. for the potential
     extrapolated charge   47.98240, renormalised to   48.00000

     total cpu time spent up to now is      987.2 secs

     Self-consistent Calculation

     iteration #  1     ecut=    50.00 Ry     beta= 0.70
     CG style diagonalization
     ethr =  1.00E-06,  avg # of iterations =  2.5

     Threshold (ethr) on eigenvalues was too large:
     Diagonalizing with lowered threshold

     CG style diagonalization
     ethr =  4.08E-09,  avg # of iterations =  3.9

     total cpu time spent up to now is      992.8 secs

     total energy              =    -523.45167222 Ry
     estimated scf accuracy    <       0.00000231 Ry

     iteration #  2     ecut=    50.00 Ry     beta= 0.70
     CG style diagonalization
     ethr =  4.80E-09,  avg # of iterations =  4.6

     total cpu time spent up to now is      996.4 secs

     total energy              =    -523.45168952 Ry
     estimated scf accuracy    <       0.00000069 Ry

     iteration #  3     ecut=    50.00 Ry     beta= 0.70
     CG style diagonalization
     ethr =  1.43E-09,  avg # of iterations =  4.0

     total cpu time spent up to now is      999.7 secs

     total energy              =    -523.45168996 Ry
     estimated scf accuracy    <       0.00000020 Ry

     iteration #  4     ecut=    50.00 Ry     beta= 0.70
     CG style diagonalization
     ethr =  4.12E-10,  avg # of iterations =  3.6

     total cpu time spent up to now is     1002.8 secs

     End of self-consistent calculation

          k = 0.0000 0.0000 0.0000 (  5491 PWs)   bands (ev):

   -69.3063 -69.3058 -69.3058 -36.4268 -36.4251 -36.4251 -36.3879 -36.3868
   -36.3868 -36.3698 -36.3698 -36.3655 -21.3794  -6.7244  -6.6738  -6.6738
    -1.6369   1.9243   1.9243   2.7616   2.7616   2.8634   3.6019   3.9072
     8.3964   8.3964   8.7650   9.3943   9.3943

          k = 0.0161 0.0161-0.5012 (  5526 PWs)   bands (ev):

   -69.3061 -69.3060 -69.3058 -36.4262 -36.4256 -36.4251 -36.3875 -36.3870
   -36.3866 -36.3700 -36.3686 -36.3670 -21.3759  -6.8763  -6.6933  -6.6530
    -0.2651  -0.0988   2.2413   2.6750   2.9131   3.1262   3.5572   3.8158
     7.8710   8.2027   9.2273   9.5798  10.1326

          k = 0.0000-0.4850-0.4850 (  5560 PWs)   bands (ev):

   -69.3060 -69.3060 -69.3059 -36.4269 -36.4256 -36.4244 -36.3881 -36.3870
   -36.3861 -36.3701 -36.3687 -36.3669 -21.3727  -6.8496  -6.8309  -6.6551
     0.3651   0.8992   1.1794   1.2189   2.8489   3.5704   3.6245   3.9748
     8.3137   8.3286   8.8742   9.5667  10.3039

          k =-0.5012-0.5012-0.4689 (  5568 PWs)   bands (ev):

   -69.3060 -69.3060 -69.3058 -36.4281 -36.4244 -36.4244 -36.3883 -36.3883
   -36.3852 -36.3716 -36.3667 -36.3667 -21.3698  -6.8345  -6.7940  -6.7940
     0.9756   0.9756   1.6478   1.7944   2.1807   2.1807   2.2011   5.2498
     8.5674   9.8005   9.8006  10.8858  11.0682

     the Fermi energy is     6.5210 ev

!    total energy              =    -523.45169002 Ry
     estimated scf accuracy    <          3.6E-09 Ry
     smearing contrib. (-TS)   =       0.00000000 Ry
     internal energy E=F+TS    =    -523.45169002 Ry

     The total energy is F=E-TS. E is the sum of the following terms:
     one-electron contribution =    -339.69161728 Ry
     hartree contribution      =      88.97978531 Ry
     xc contribution           =     -90.87247720 Ry
     ewald contribution        =    -204.42008160 Ry
     one-center paw contrib.   =      22.55270074 Ry

     convergence has been achieved in   4 iterations

     Forces acting on atoms (cartesian axes, Ry/au):

     atom    1 type  3   force =     0.00000000    0.00000000    0.00000000
     atom    2 type  1   force =    -0.00000000   -0.00000000    0.00000000
     atom    3 type  3   force =     0.00000000    0.00000000   -0.00000000
     atom    4 type  3   force =     0.00000000    0.00000000   -0.00000000
     atom    5 type  2   force =    -0.00119797   -0.00051515   -0.00032402
     atom    6 type  2   force =     0.00037292    0.00037292   -0.00037292
     atom    7 type  2   force =    -0.00051515    0.00032402    0.00119797
     atom    8 type  2   force =     0.00032402   -0.00119797    0.00051515
     atom    9 type  2   force =     0.00119797    0.00051515    0.00032402
     atom   10 type  2   force =    -0.00037292   -0.00037292    0.00037292
     atom   11 type  2   force =     0.00051515   -0.00032402   -0.00119797
     atom   12 type  2   force =    -0.00032402    0.00119797   -0.00051515

     Total force =     0.003416     Total SCF correction =     0.000017


     Computing stress (Cartesian axis) and pressure

          total   stress  (Ry/bohr**3)                   (kbar)     P=       -0.34
  -0.00000231  -0.00000334   0.00000334           -0.34       -0.49        0.49
  -0.00000334  -0.00000231   0.00000334           -0.49       -0.34        0.49
   0.00000334   0.00000334  -0.00000231            0.49        0.49       -0.34

     Energy error            =      1.9E-05
     Gradient error          =      1.2E-03
     Cell gradient error     =      3.3E-06


     number of scf cycles    =  21
     number of bfgs steps    =  17

     enthalpy old            =    -523.4516708457 Ry
     enthalpy new            =    -523.4516900219 Ry

     CASE: enthalpy_new < enthalpy_old

     new trust radius        =       0.0025326030 bohr
     new conv_thr            =       0.0000000100 Ry

     new unit-cell volume =    929.63955 a.u.^3 (   137.75837 Ang^3 )
     density =      0.14465 g/cm^3

CELL_PARAMETERS (angstrom)
   5.169835381  -0.162257710   0.162257715
  -0.162257715   5.169836381   0.162257715
   0.162257715   0.162257710   5.169835381

ATOMIC_POSITIONS (angstrom)
Mg            2.5037883330        2.5037893375        0.1622577125
Ba            2.6660470454       -0.0000000047        2.6660460501
Mg           -0.0000000023        2.6660470430        2.6660460477
Mg           -0.0000000000       -0.0000000000        0.0000000000
H             0.1062875119        4.4332342948        1.8945763901
H             4.1965813053        1.5305352695        1.1355117903
H             1.9294459705        0.9337283745        5.0635488765
H             3.4375176994        2.7723345547        3.5649048475
H             5.0635488736        0.7366010811        3.5997744202
H             0.9732540755        3.6393011110        4.3588390200
H             3.2403904103        4.2361080013        0.4308019384
H             1.7323186719        2.3975028164        1.9294449722



     Writing output data file ./tmp/BaMg3H8.save/
     NEW-OLD atomic charge density approx. for the potential
     extrapolated charge   47.97952, renormalised to   48.00000

     total cpu time spent up to now is     1034.5 secs

     Self-consistent Calculation

     iteration #  1     ecut=    50.00 Ry     beta= 0.70
     CG style diagonalization
     ethr =  1.00E-06,  avg # of iterations =  2.7

     Threshold (ethr) on eigenvalues was too large:
     Diagonalizing with lowered threshold

     CG style diagonalization
     ethr =  8.04E-09,  avg # of iterations =  3.6

     total cpu time spent up to now is     1040.0 secs

     total energy              =    -523.45169042 Ry
     estimated scf accuracy    <       0.00000372 Ry

     iteration #  2     ecut=    50.00 Ry     beta= 0.70
     CG style diagonalization
     ethr =  7.75E-09,  avg # of iterations =  4.5

     total cpu time spent up to now is     1043.5 secs

     total energy              =    -523.45171353 Ry
     estimated scf accuracy    <       0.00000094 Ry

     iteration #  3     ecut=    50.00 Ry     beta= 0.70
     CG style diagonalization
     ethr =  1.97E-09,  avg # of iterations =  4.1

     total cpu time spent up to now is     1046.9 secs

     total energy              =    -523.45171422 Ry
     estimated scf accuracy    <       0.00000026 Ry

     iteration #  4     ecut=    50.00 Ry     beta= 0.70
     CG style diagonalization
     ethr =  5.33E-10,  avg # of iterations =  3.6

     total cpu time spent up to now is     1050.0 secs

     total energy              =    -523.45171430 Ry
     estimated scf accuracy    <       0.00000001 Ry

     iteration #  5     ecut=    50.00 Ry     beta= 0.70
     CG style diagonalization
     ethr =  2.76E-11,  avg # of iterations =  5.0

     total cpu time spent up to now is     1053.8 secs

     End of self-consistent calculation

          k = 0.0000 0.0000 0.0000 (  5491 PWs)   bands (ev):

   -69.3000 -69.2995 -69.2995 -36.4205 -36.4188 -36.4188 -36.3816 -36.3805
   -36.3804 -36.3636 -36.3636 -36.3593 -21.3772  -6.7223  -6.6713  -6.6713
    -1.6354   1.9279   1.9279   2.7629   2.7629   2.8695   3.6041   3.9069
     8.4008   8.4008   8.7715   9.3998   9.3998

          k = 0.0162 0.0162-0.5013 (  5526 PWs)   bands (ev):

   -69.2998 -69.2997 -69.2995 -36.4200 -36.4194 -36.4188 -36.3812 -36.3806
   -36.3802 -36.3638 -36.3624 -36.3608 -21.3737  -6.8741  -6.6910  -6.6505
    -0.2626  -0.0972   2.2456   2.6772   2.9157   3.1264   3.5606   3.8190
     7.8772   8.2056   9.2335   9.5800  10.1371

          k = 0.0000-0.4850-0.4850 (  5560 PWs)   bands (ev):

   -69.2997 -69.2997 -69.2996 -36.4206 -36.4194 -36.4181 -36.3817 -36.3806
   -36.3797 -36.3639 -36.3625 -36.3607 -21.3705  -6.8474  -6.8286  -6.6526
     0.3663   0.8998   1.1836   1.2224   2.8509   3.5747   3.6269   3.9772
     8.3184   8.3340   8.8800   9.5679  10.3100

          k =-0.5013-0.5013-0.4688 (  5568 PWs)   bands (ev):

   -69.2997 -69.2997 -69.2995 -36.4219 -36.4182 -36.4181 -36.3819 -36.3819
   -36.3788 -36.3655 -36.3605 -36.3605 -21.3676  -6.8324  -6.7916  -6.7916
     0.9759   0.9759   1.6528   1.7958   2.1828   2.1828   2.2069   5.2554
     8.5687   9.8050   9.8050  10.8929  11.0741

     the Fermi energy is     6.5269 ev

!    total energy              =    -523.45171435 Ry
     estimated scf accuracy    <          2.7E-09 Ry
     smearing contrib. (-TS)   =       0.00000000 Ry
     internal energy E=F+TS    =    -523.45171435 Ry

     The total energy is F=E-TS. E is the sum of the following terms:
     one-electron contribution =    -339.66506032 Ry
     hartree contribution      =      88.97422049 Ry
     xc contribution           =     -90.87400597 Ry
     ewald contribution        =    -204.44054620 Ry
     one-center paw contrib.   =      22.55367766 Ry

     convergence has been achieved in   5 iterations

     Forces acting on atoms (cartesian axes, Ry/au):

     atom    1 type  3   force =     0.00000000   -0.00000000    0.00000000
     atom    2 type  1   force =     0.00000000    0.00000000   -0.00000000
     atom    3 type  3   force =     0.00000000    0.00000000   -0.00000000
     atom    4 type  3   force =     0.00000000   -0.00000000    0.00000000
     atom    5 type  2   force =    -0.00115065   -0.00042086   -0.00022017
     atom    6 type  2   force =     0.00035517    0.00035517   -0.00035517
     atom    7 type  2   force =    -0.00042086    0.00022017    0.00115065
     atom    8 type  2   force =     0.00022017   -0.00115065    0.00042086
     atom    9 type  2   force =     0.00115065    0.00042086    0.00022017
     atom   10 type  2   force =    -0.00035517   -0.00035517    0.00035517
     atom   11 type  2   force =     0.00042086   -0.00022017   -0.00115065
     atom   12 type  2   force =    -0.00022017    0.00115065   -0.00042086

     Total force =     0.003171     Total SCF correction =     0.000016


     Computing stress (Cartesian axis) and pressure

          total   stress  (Ry/bohr**3)                   (kbar)     P=       -0.09
  -0.00000059  -0.00000188   0.00000188           -0.09       -0.28        0.28
  -0.00000188  -0.00000059   0.00000188           -0.28       -0.09        0.28
   0.00000188   0.00000188  -0.00000059            0.28        0.28       -0.09

     Energy error            =      2.4E-05
     Gradient error          =      1.2E-03
     Cell gradient error     =      1.9E-06


     number of scf cycles    =  22
     number of bfgs steps    =  18

     enthalpy old            =    -523.4516900219 Ry
     enthalpy new            =    -523.4517143471 Ry

     CASE: enthalpy_new < enthalpy_old

     new trust radius        =       0.0037983437 bohr
     new conv_thr            =       0.0000000100 Ry

     new unit-cell volume =    929.18443 a.u.^3 (   137.69093 Ang^3 )
     density =      0.14472 g/cm^3

CELL_PARAMETERS (angstrom)
   5.169064818  -0.163357278   0.163357283
  -0.163357283   5.169065818   0.163357283
   0.163357283   0.163357278   5.169064818

ATOMIC_POSITIONS (angstrom)
Mg            2.5028532677        2.5028542725        0.1633572802
Ba            2.6662115477       -0.0000000049        2.6662105528
Mg           -0.0000000024        2.6662115453        2.6662105503
Mg            0.0000000000       -0.0000000000        0.0000000000
H             0.1038972218        4.4321574477        1.8948188657
H             4.1963682499        1.5301577116        1.1360538507
H             1.9293041885        0.9347499689        5.0651686040
H             3.4376042284        2.7701087670        3.5664752027
H             5.0651686009        0.7369073654        3.6009605174
H             0.9726965681        3.6389081062        4.3597255324
H             3.2397616293        4.2343158440        0.4306107840
H             1.7314615795        2.3989580408        1.9293031904



     Writing output data file ./tmp/BaMg3H8.save/
     NEW-OLD atomic charge density approx. for the potential
     extrapolated charge   47.97650, renormalised to   48.00000

     total cpu time spent up to now is     1085.4 secs

     Self-consistent Calculation

     iteration #  1     ecut=    50.00 Ry     beta= 0.70
     CG style diagonalization
     ethr =  1.00E-06,  avg # of iterations =  2.7

     Threshold (ethr) on eigenvalues was too large:
     Diagonalizing with lowered threshold

     CG style diagonalization
     ethr =  1.19E-08,  avg # of iterations =  3.9

     total cpu time spent up to now is     1091.0 secs

     total energy              =    -523.45171186 Ry
     estimated scf accuracy    <       0.00000728 Ry

     iteration #  2     ecut=    50.00 Ry     beta= 0.70
     CG style diagonalization
     ethr =  1.52E-08,  avg # of iterations =  4.2

     total cpu time spent up to now is     1094.4 secs

     total energy              =    -523.45174250 Ry
     estimated scf accuracy    <       0.00000145 Ry

     iteration #  3     ecut=    50.00 Ry     beta= 0.70
     CG style diagonalization
     ethr =  3.03E-09,  avg # of iterations =  4.1

     total cpu time spent up to now is     1097.7 secs

     total energy              =    -523.45174379 Ry
     estimated scf accuracy    <       0.00000027 Ry

     iteration #  4     ecut=    50.00 Ry     beta= 0.70
     CG style diagonalization
     ethr =  5.71E-10,  avg # of iterations =  3.9

     total cpu time spent up to now is     1101.0 secs

     total energy              =    -523.45174394 Ry
     estimated scf accuracy    <       0.00000001 Ry

     iteration #  5     ecut=    50.00 Ry     beta= 0.70
     CG style diagonalization
     ethr =  2.15E-11,  avg # of iterations =  5.3

     total cpu time spent up to now is     1105.1 secs

     End of self-consistent calculation

          k = 0.0000 0.0000 0.0000 (  5491 PWs)   bands (ev):

   -69.2927 -69.2922 -69.2922 -36.4133 -36.4116 -36.4116 -36.3743 -36.3731
   -36.3731 -36.3564 -36.3564 -36.3521 -21.3754  -6.7206  -6.6691  -6.6691
    -1.6337   1.9321   1.9321   2.7638   2.7638   2.8770   3.6066   3.9060
     8.4061   8.4061   8.7794   9.4064   9.4064

          k = 0.0164 0.0164-0.5014 (  5526 PWs)   bands (ev):

   -69.2925 -69.2924 -69.2922 -36.4127 -36.4121 -36.4116 -36.3738 -36.3732
   -36.3729 -36.3567 -36.3552 -36.3536 -21.3720  -6.8722  -6.6891  -6.6483
    -0.2597  -0.0957   2.2507   2.6799   2.9186   3.1262   3.5646   3.8226
     7.8846   8.2092   9.2409   9.5795  10.1426

          k = 0.0000-0.4850-0.4850 (  5560 PWs)   bands (ev):

   -69.2925 -69.2924 -69.2923 -36.4134 -36.4121 -36.4109 -36.3744 -36.3733
   -36.3724 -36.3567 -36.3553 -36.3535 -21.3688  -6.8455  -6.8265  -6.6505
     0.3673   0.8999   1.1883   1.2267   2.8531   3.5798   3.6297   3.9797
     8.3240   8.3401   8.8872   9.5684  10.3170

          k =-0.5014-0.5014-0.4686 (  5568 PWs)   bands (ev):

   -69.2925 -69.2925 -69.2922 -36.4147 -36.4109 -36.4109 -36.3746 -36.3746
   -36.3715 -36.3583 -36.3533 -36.3533 -21.3658  -6.8305  -6.7895  -6.7895
     0.9758   0.9758   1.6591   1.7970   2.1850   2.1850   2.2138   5.2628
     8.5687   9.8104   9.8104  10.9022  11.0803

     the Fermi energy is     6.5332 ev

!    total energy              =    -523.45174401 Ry
     estimated scf accuracy    <          2.8E-09 Ry
     smearing contrib. (-TS)   =       0.00000000 Ry
     internal energy E=F+TS    =    -523.45174401 Ry

     The total energy is F=E-TS. E is the sum of the following terms:
     one-electron contribution =    -339.63858408 Ry
     hartree contribution      =      88.96992512 Ry
     xc contribution           =     -90.87580349 Ry
     ewald contribution        =    -204.46225555 Ry
     one-center paw contrib.   =      22.55497399 Ry

     convergence has been achieved in   5 iterations

     Forces acting on atoms (cartesian axes, Ry/au):

     atom    1 type  3   force =    -0.00000000   -0.00000000    0.00000000
     atom    2 type  1   force =    -0.00000000   -0.00000000    0.00000000
     atom    3 type  3   force =     0.00000000   -0.00000000    0.00000000
     atom    4 type  3   force =    -0.00000000    0.00000000   -0.00000000
     atom    5 type  2   force =    -0.00108410   -0.00028474   -0.00007239
     atom    6 type  2   force =     0.00031395    0.00031395   -0.00031395
     atom    7 type  2   force =    -0.00028474    0.00007239    0.00108410
     atom    8 type  2   force =     0.00007239   -0.00108410    0.00028474
     atom    9 type  2   force =     0.00108410    0.00028474    0.00007239
     atom   10 type  2   force =    -0.00031395   -0.00031395    0.00031395
     atom   11 type  2   force =     0.00028474   -0.00007239   -0.00108410
     atom   12 type  2   force =    -0.00007239    0.00108410   -0.00028474

     Total force =     0.002857     Total SCF correction =     0.000012


     Computing stress (Cartesian axis) and pressure

          total   stress  (Ry/bohr**3)                   (kbar)     P=        0.50
   0.00000337  -0.00000004   0.00000004            0.50       -0.01        0.01
  -0.00000004   0.00000337   0.00000004           -0.01        0.50        0.01
   0.00000004   0.00000004   0.00000337            0.01        0.01        0.50

     Energy error            =      3.0E-05
     Gradient error          =      1.1E-03
     Cell gradient error     =      3.4E-06


     number of scf cycles    =  23
     number of bfgs steps    =  19

     enthalpy old            =    -523.4517143471 Ry
     enthalpy new            =    -523.4517440053 Ry

     CASE: enthalpy_new < enthalpy_old

     new trust radius        =       0.0056964824 bohr
     new conv_thr            =       0.0000000100 Ry

     new unit-cell volume =    928.86771 a.u.^3 (   137.64399 Ang^3 )
     density =      0.14477 g/cm^3

CELL_PARAMETERS (angstrom)
   5.168571805  -0.164778046   0.164778051
  -0.164778051   5.168572805   0.164778051
   0.164778051   0.164778046   5.168571805

ATOMIC_POSITIONS (angstrom)
Mg            2.5018963771        2.5018973821        0.1647780488
Ba            2.6666754256       -0.0000000052        2.6666744311
Mg           -0.0000000025        2.6666754232        2.6666744284
Mg            0.0000000000       -0.0000000000        0.0000000000
H             0.1004087042        4.4310966482        1.8952857563
H             4.1966161074        1.5299416911        1.1367337493
H             1.9292002794        0.9361677246        5.0681641095
H             3.4380650934        2.7670841273        3.5689276370
H             5.0681641061        0.7374751522        3.6028421516
H             0.9719556980        3.6386311142        4.3613941587
H             3.2393725256        4.2324050755        0.4299638037
H             1.7305077012        2.4014896673        1.9291992816



     Writing output data file ./tmp/BaMg3H8.save/
     NEW-OLD atomic charge density approx. for the potential
     extrapolated charge   47.98364, renormalised to   48.00000

     total cpu time spent up to now is     1136.5 secs

     Self-consistent Calculation

     iteration #  1     ecut=    50.00 Ry     beta= 0.70
     CG style diagonalization
     ethr =  1.00E-06,  avg # of iterations =  2.6

     Threshold (ethr) on eigenvalues was too large:
     Diagonalizing with lowered threshold

     CG style diagonalization
     ethr =  1.69E-08,  avg # of iterations =  3.6

     total cpu time spent up to now is     1141.9 secs

     total energy              =    -523.45176084 Ry
     estimated scf accuracy    <       0.00001144 Ry

     iteration #  2     ecut=    50.00 Ry     beta= 0.70
     CG style diagonalization
     ethr =  2.38E-08,  avg # of iterations =  4.0

     total cpu time spent up to now is     1145.2 secs

     total energy              =    -523.45163203 Ry
     estimated scf accuracy    <       0.00000111 Ry

     iteration #  3     ecut=    50.00 Ry     beta= 0.70
     CG style diagonalization
     ethr =  2.31E-09,  avg # of iterations =  4.3

     total cpu time spent up to now is     1148.6 secs

     total energy              =    -523.45163325 Ry
     estimated scf accuracy    <       0.00000010 Ry

     iteration #  4     ecut=    50.00 Ry     beta= 0.70
     CG style diagonalization
     ethr =  2.14E-10,  avg # of iterations =  4.2

     total cpu time spent up to now is     1152.2 secs

     End of self-consistent calculation

          k = 0.0000 0.0000 0.0000 (  5491 PWs)   bands (ev):

   -69.2861 -69.2856 -69.2856 -36.4068 -36.4051 -36.4051 -36.3676 -36.3665
   -36.3664 -36.3499 -36.3499 -36.3455 -21.3768  -6.7217  -6.6695  -6.6695
    -1.6329   1.9359   1.9359   2.7625   2.7625   2.8846   3.6079   3.9025
     8.4108   8.4109   8.7870   9.4121   9.4121

          k = 0.0165 0.0165-0.5014 (  5526 PWs)   bands (ev):

   -69.2859 -69.2858 -69.2856 -36.4062 -36.4056 -36.4051 -36.3672 -36.3666
   -36.3662 -36.3502 -36.3487 -36.3470 -21.3733  -6.8728  -6.6899  -6.6488
    -0.2575  -0.0960   2.2556   2.6817   2.9204   3.1234   3.5673   3.8248
     7.8911   8.2113   9.2477   9.5753  10.1473

          k = 0.0000-0.4849-0.4849 (  5560 PWs)   bands (ev):

   -69.2859 -69.2858 -69.2857 -36.4069 -36.4056 -36.4044 -36.3678 -36.3666
   -36.3657 -36.3502 -36.3488 -36.3469 -21.3701  -6.8463  -6.8269  -6.6511
     0.3669   0.8977   1.1920   1.2306   2.8541   3.5841   3.6313   3.9805
     8.3286   8.3450   8.8943   9.5653  10.3225

          k =-0.5014-0.5014-0.4684 (  5568 PWs)   bands (ev):

   -69.2859 -69.2859 -69.2856 -36.4081 -36.4044 -36.4044 -36.3679 -36.3679
   -36.3648 -36.3518 -36.3468 -36.3468 -21.3672  -6.8313  -6.7899  -6.7899
     0.9738   0.9738   1.6656   1.7964   2.1854   2.1854   2.2202   5.2706
     8.5641   9.8147   9.8147  10.9121  11.0835

     the Fermi energy is     5.4997 ev

!    total energy              =    -523.45163339 Ry
     estimated scf accuracy    <          3.5E-09 Ry
     smearing contrib. (-TS)   =       0.00014495 Ry
     internal energy E=F+TS    =    -523.45177833 Ry

     The total energy is F=E-TS. E is the sum of the following terms:
     one-electron contribution =    -339.63625072 Ry
     hartree contribution      =      88.97517556 Ry
     xc contribution           =     -90.87728923 Ry
     ewald contribution        =    -204.46963237 Ry
     one-center paw contrib.   =      22.55621843 Ry

     convergence has been achieved in   4 iterations

     Forces acting on atoms (cartesian axes, Ry/au):

     atom    1 type  3   force =    -0.00000000   -0.00000000    0.00000000
     atom    2 type  1   force =     0.00000000    0.00000000   -0.00000000
     atom    3 type  3   force =    -0.00000000    0.00000000   -0.00000000
     atom    4 type  3   force =     0.00000000    0.00000000   -0.00000000
     atom    5 type  2   force =    -0.00098752   -0.00010210    0.00012471
     atom    6 type  2   force =     0.00023981    0.00023981   -0.00023981
     atom    7 type  2   force =    -0.00010210   -0.00012471    0.00098752
     atom    8 type  2   force =    -0.00012471   -0.00098752    0.00010210
     atom    9 type  2   force =     0.00098752    0.00010210   -0.00012471
     atom   10 type  2   force =    -0.00023981   -0.00023981    0.00023981
     atom   11 type  2   force =     0.00010210    0.00012471   -0.00098752
     atom   12 type  2   force =     0.00012471    0.00098752   -0.00010210

     Total force =     0.002520     Total SCF correction =     0.000007


     Computing stress (Cartesian axis) and pressure

          total   stress  (Ry/bohr**3)                   (kbar)     P=        0.95
   0.00000647   0.00000224  -0.00000224            0.95        0.33       -0.33
   0.00000224   0.00000647  -0.00000224            0.33        0.95       -0.33
  -0.00000224  -0.00000224   0.00000647           -0.33       -0.33        0.95

     Energy error            =      1.1E-04
     Gradient error          =      9.9E-04
     Cell gradient error     =      6.5E-06


     number of scf cycles    =  24
     number of bfgs steps    =  20

     enthalpy old            =    -523.4517440053 Ry
     enthalpy new            =    -523.4516333856 Ry

     CASE: enthalpy_new > enthalpy_old

     new trust radius        =       0.0007524387 bohr
     new conv_thr            =       0.0000000100 Ry

     new unit-cell volume =    929.14261 a.u.^3 (   137.68473 Ang^3 )
     density =      0.14473 g/cm^3

CELL_PARAMETERS (angstrom)
   5.168999687  -0.163544973   0.163544978
  -0.163544978   5.169000687   0.163544978
   0.163544978   0.163544973   5.168999687

ATOMIC_POSITIONS (angstrom)
Mg            2.5027268547        2.5027278595        0.1635449752
Ba            2.6662728297       -0.0000000050        2.6662718349
Mg           -0.0000000024        2.6662728274        2.6662718324
Mg            0.0000000000       -0.0000000000        0.0000000000
H             0.1034363097        4.4320172234        1.8948806636
H             4.1964010600        1.5301292398        1.1361436046
H             1.9292903772        0.9349371480        5.0655643853
H             3.4376649945        2.7697091369        3.5667992732
H             5.0655643821        0.7369824587        3.6012089787
H             0.9725986270        3.6388714471        4.3599460377
H             3.2397103097        4.2340635339        0.4305252620
H             1.7313356824        2.3992925399        1.9292893792



     Writing output data file ./tmp/BaMg3H8.save/
     NEW-OLD atomic charge density approx. for the potential
     extrapolated charge   48.01420, renormalised to   48.00000

     total cpu time spent up to now is     1183.6 secs

     Self-consistent Calculation

     iteration #  1     ecut=    50.00 Ry     beta= 0.70
     CG style diagonalization
     ethr =  1.00E-06,  avg # of iterations =  2.5

     Threshold (ethr) on eigenvalues was too large:
     Diagonalizing with lowered threshold

     CG style diagonalization
     ethr =  1.34E-08,  avg # of iterations =  3.7

     total cpu time spent up to now is     1188.9 secs

     total energy              =    -523.45173695 Ry
     estimated scf accuracy    <       0.00000861 Ry

     iteration #  2     ecut=    50.00 Ry     beta= 0.70
     CG style diagonalization
     ethr =  1.79E-08,  avg # of iterations =  4.1

     total cpu time spent up to now is     1192.2 secs

     total energy              =    -523.45174837 Ry
     estimated scf accuracy    <       0.00000078 Ry

     iteration #  3     ecut=    50.00 Ry     beta= 0.70
     CG style diagonalization
     ethr =  1.63E-09,  avg # of iterations =  4.3

     total cpu time spent up to now is     1195.6 secs

     total energy              =    -523.45174914 Ry
     estimated scf accuracy    <       0.00000008 Ry

     iteration #  4     ecut=    50.00 Ry     beta= 0.70
     CG style diagonalization
     ethr =  1.71E-10,  avg # of iterations =  3.9

     total cpu time spent up to now is     1198.8 secs

     End of self-consistent calculation

          k = 0.0000 0.0000 0.0000 (  5491 PWs)   bands (ev):

   -69.2911 -69.2907 -69.2907 -36.4117 -36.4100 -36.4100 -36.3726 -36.3715
   -36.3715 -36.3549 -36.3549 -36.3505 -21.3753  -6.7205  -6.6689  -6.6689
    -1.6336   1.9326   1.9326   2.7637   2.7637   2.8781   3.6068   3.9056
     8.4068   8.4068   8.7805   9.4072   9.4072

          k = 0.0164 0.0164-0.5014 (  5526 PWs)   bands (ev):

   -69.2910 -69.2908 -69.2907 -36.4111 -36.4105 -36.4100 -36.3722 -36.3716
   -36.3713 -36.3551 -36.3537 -36.3520 -21.3718  -6.8721  -6.6889  -6.6481
    -0.2594  -0.0957   2.2514   2.6802   2.9189   3.1259   3.5650   3.8229
     7.8854   8.2095   9.2419   9.5789  10.1433

          k = 0.0000-0.4850-0.4850 (  5560 PWs)   bands (ev):

   -69.2909 -69.2908 -69.2907 -36.4118 -36.4105 -36.4093 -36.3728 -36.3716
   -36.3708 -36.3552 -36.3537 -36.3519 -21.3686  -6.8454  -6.8263  -6.6503
     0.3673   0.8997   1.1888   1.2273   2.8533   3.5804   3.6300   3.9798
     8.3247   8.3408   8.8882   9.5680  10.3178

          k =-0.5014-0.5014-0.4686 (  5568 PWs)   bands (ev):

   -69.2909 -69.2909 -69.2907 -36.4131 -36.4093 -36.4093 -36.3730 -36.3730
   -36.3699 -36.3568 -36.3518 -36.3518 -21.3657  -6.8304  -6.7893  -6.7893
     0.9756   0.9756   1.6600   1.7970   2.1851   2.1851   2.2147   5.2639
     8.5681   9.8110   9.8110  10.9035  11.0807

     the Fermi energy is     6.5337 ev

!    total energy              =    -523.45174920 Ry
     estimated scf accuracy    <          1.8E-09 Ry
     smearing contrib. (-TS)   =       0.00000000 Ry
     internal energy E=F+TS    =    -523.45174920 Ry

     The total energy is F=E-TS. E is the sum of the following terms:
     one-electron contribution =    -339.63804090 Ry
     hartree contribution      =      88.97035243 Ry
     xc contribution           =     -90.87594279 Ry
     ewald contribution        =    -204.46323060 Ry
     one-center paw contrib.   =      22.55511267 Ry

     convergence has been achieved in   4 iterations

     Forces acting on atoms (cartesian axes, Ry/au):

     atom    1 type  3   force =    -0.00000000   -0.00000000    0.00000000
     atom    2 type  1   force =     0.00000000   -0.00000000    0.00000000
     atom    3 type  3   force =    -0.00000000   -0.00000000    0.00000000
     atom    4 type  3   force =    -0.00000000   -0.00000000    0.00000000
     atom    5 type  2   force =    -0.00107187   -0.00025824   -0.00004444
     atom    6 type  2   force =     0.00030254    0.00030254   -0.00030254
     atom    7 type  2   force =    -0.00025824    0.00004444    0.00107187
     atom    8 type  2   force =     0.00004444   -0.00107187    0.00025824
     atom    9 type  2   force =     0.00107187    0.00025824    0.00004444
     atom   10 type  2   force =    -0.00030254   -0.00030254    0.00030254
     atom   11 type  2   force =     0.00025824   -0.00004444   -0.00107187
     atom   12 type  2   force =    -0.00004444    0.00107187   -0.00025824

     Total force =     0.002803     Total SCF correction =     0.000007


     Computing stress (Cartesian axis) and pressure

          total   stress  (Ry/bohr**3)                   (kbar)     P=        0.09
   0.00000062   0.00000017  -0.00000017            0.09        0.03       -0.03
   0.00000017   0.00000062  -0.00000017            0.03        0.09       -0.03
  -0.00000017  -0.00000017   0.00000062           -0.03       -0.03        0.09

     Energy error            =      5.2E-06
     Gradient error          =      1.1E-03
     Cell gradient error     =      6.2E-07


     number of scf cycles    =  25
     number of bfgs steps    =  20

     enthalpy old            =    -523.4517440053 Ry
     enthalpy new            =    -523.4517491962 Ry

     CASE: enthalpy_new < enthalpy_old

     new trust radius        =       0.0011288049 bohr
     new conv_thr            =       0.0000000100 Ry

     new unit-cell volume =    929.05134 a.u.^3 (   137.67120 Ang^3 )
     density =      0.14474 g/cm^3

CELL_PARAMETERS (angstrom)
   5.168848505  -0.163816045   0.163816050
  -0.163816050   5.168849505   0.163816050
   0.163816050   0.163816045   5.168848505

ATOMIC_POSITIONS (angstrom)
Mg            2.5025157276        2.5025167324        0.1638160475
Ba            2.6663327748       -0.0000000050        2.6663317801
Mg           -0.0000000024        2.6663327725        2.6663317775
Mg            0.0000000000       -0.0000000000        0.0000000000
H             0.1027464944        4.4317611582        1.8949496218
H             4.1964076652        1.5300758998        1.1362568897
H             1.9292454390        0.9351992072        5.0661030185
H             3.4377159265        2.7690792668        3.5672351740
H             5.0661030153        0.7370873419        3.6015309831
H             0.9724408398        3.6387736051        4.3602237151
H             3.2396040657        4.2336502926        0.4303775913
H             1.7311335682        2.3997712278        1.9292444411



     Writing output data file ./tmp/BaMg3H8.save/
     NEW-OLD atomic charge density approx. for the potential
     extrapolated charge   47.99529, renormalised to   48.00000

     total cpu time spent up to now is     1230.2 secs

     Self-consistent Calculation

     iteration #  1     ecut=    50.00 Ry     beta= 0.70
     CG style diagonalization
     ethr =  1.00E-06,  avg # of iterations =  2.0

     Threshold (ethr) on eigenvalues was too large:
     Diagonalizing with lowered threshold

     CG style diagonalization
     c_bands:  1 eigenvalues not converged
     ethr =  4.42E-10,  avg # of iterations =  5.1

     total cpu time spent up to now is     1236.0 secs

     total energy              =    -523.45175525 Ry
     estimated scf accuracy    <       0.00000054 Ry

     iteration #  2     ecut=    50.00 Ry     beta= 0.70
     CG style diagonalization
     ethr =  1.13E-09,  avg # of iterations =  4.0

     total cpu time spent up to now is     1239.2 secs

     total energy              =    -523.45175651 Ry
     estimated scf accuracy    <       0.00000007 Ry

     iteration #  3     ecut=    50.00 Ry     beta= 0.70
     CG style diagonalization
     ethr =  1.43E-10,  avg # of iterations =  4.2

     total cpu time spent up to now is     1242.6 secs

     End of self-consistent calculation

          k = 0.0000 0.0000 0.0000 (  5491 PWs)   bands (ev):

   -69.2902 -69.2897 -69.2897 -36.4109 -36.4091 -36.4091 -36.3717 -36.3706
   -36.3706 -36.3538 -36.3538 -36.3494 -21.3754  -6.7206  -6.6688  -6.6688
    -1.6332   1.9336   1.9336   2.7637   2.7637   2.8798   3.6074   3.9053
     8.4080   8.4080   8.7823   9.4086   9.4086

          k = 0.0164 0.0164-0.5014 (  5526 PWs)   bands (ev):

   -69.2900 -69.2899 -69.2897 -36.4103 -36.4097 -36.4091 -36.3713 -36.3707
   -36.3703 -36.3540 -36.3526 -36.3509 -21.3720  -6.8721  -6.6890  -6.6480
    -0.2587  -0.0955   2.2526   2.6809   2.9195   3.1257   3.5658   3.8237
     7.8871   8.2102   9.2435   9.5785  10.1445

          k = 0.0000-0.4850-0.4850 (  5560 PWs)   bands (ev):

   -69.2900 -69.2899 -69.2898 -36.4109 -36.4097 -36.4084 -36.3719 -36.3707
   -36.3699 -36.3541 -36.3526 -36.3508 -21.3688  -6.8454  -6.8263  -6.6503
     0.3674   0.8996   1.1898   1.2283   2.8537   3.5815   3.6306   3.9803
     8.3259   8.3421   8.8899   9.5677  10.3191

          k =-0.5014-0.5014-0.4686 (  5568 PWs)   bands (ev):

   -69.2900 -69.2899 -69.2897 -36.4122 -36.4085 -36.4085 -36.3721 -36.3720
   -36.3689 -36.3557 -36.3507 -36.3506 -21.3658  -6.8305  -6.7893  -6.7893
     0.9755   0.9755   1.6615   1.7971   2.1855   2.1855   2.2162   5.2658
     8.5675   9.8121   9.8121  10.9058  11.0817

     the Fermi energy is     6.5347 ev

!    total energy              =    -523.45175659 Ry
     estimated scf accuracy    <          9.1E-09 Ry
     smearing contrib. (-TS)   =       0.00000000 Ry
     internal energy E=F+TS    =    -523.45175659 Ry

     The total energy is F=E-TS. E is the sum of the following terms:
     one-electron contribution =    -339.63409866 Ry
     hartree contribution      =      88.97042378 Ry
     xc contribution           =     -90.87632520 Ry
     ewald contribution        =    -204.46685077 Ry
     one-center paw contrib.   =      22.55509427 Ry

     convergence has been achieved in   3 iterations

     Forces acting on atoms (cartesian axes, Ry/au):

     atom    1 type  3   force =     0.00000000    0.00000000   -0.00000000
     atom    2 type  1   force =     0.00000000    0.00000000   -0.00000000
     atom    3 type  3   force =     0.00000000    0.00000000   -0.00000000
     atom    4 type  3   force =     0.00000000    0.00000000    0.00000000
     atom    5 type  2   force =    -0.00105547   -0.00022199   -0.00000411
     atom    6 type  2   force =     0.00028779    0.00028779   -0.00028779
     atom    7 type  2   force =    -0.00022199    0.00000411    0.00105547
     atom    8 type  2   force =     0.00000411   -0.00105547    0.00022199
     atom    9 type  2   force =     0.00105547    0.00022199    0.00000411
     atom   10 type  2   force =    -0.00028779   -0.00028779    0.00028779
     atom   11 type  2   force =     0.00022199   -0.00000411   -0.00105547
     atom   12 type  2   force =    -0.00000411    0.00105547   -0.00022199

     Total force =     0.002734     Total SCF correction =     0.000019


     Computing stress (Cartesian axis) and pressure

          total   stress  (Ry/bohr**3)                   (kbar)     P=        0.44
   0.00000299   0.00000062  -0.00000062            0.44        0.09       -0.09
   0.00000062   0.00000299  -0.00000062            0.09        0.44       -0.09
  -0.00000062  -0.00000062   0.00000299           -0.09       -0.09        0.44

     Energy error            =      7.4E-06
     Gradient error          =      1.1E-03
     Cell gradient error     =      3.0E-06


     number of scf cycles    =  26
     number of bfgs steps    =  21

     enthalpy old            =    -523.4517491962 Ry
     enthalpy new            =    -523.4517565879 Ry

     CASE: enthalpy_new < enthalpy_old

     new trust radius        =       0.0016931392 bohr
     new conv_thr            =       0.0000000100 Ry

     new unit-cell volume =    928.94879 a.u.^3 (   137.65601 Ang^3 )
     density =      0.14476 g/cm^3

CELL_PARAMETERS (angstrom)
   5.168679753  -0.164137205   0.164137210
  -0.164137210   5.168680754   0.164137210
   0.164137210   0.164137205   5.168679753

ATOMIC_POSITIONS (angstrom)
Mg            2.5022707717        2.5022717766        0.1641372078
Ba            2.6664089793       -0.0000000051        2.6664079846
Mg           -0.0000000025        2.6664089769        2.6664079820
Mg            0.0000000000       -0.0000000000        0.0000000000
H             0.1017402130        4.4314280576        1.8950342593
H             4.1964699846        1.5300620147        1.1363469793
H             1.9291572942        0.9355119345        5.0669405486
H             3.4377836979        2.7681491899        3.5677968883
H             5.0669405454        0.7372516911        3.6019199149
H             0.9722097690        3.6386187389        4.3606071949
H             3.2395234591        4.2331688140        0.4300136307
H             1.7308970453        2.4005325532        1.9291562964



     Writing output data file ./tmp/BaMg3H8.save/
     NEW-OLD atomic charge density approx. for the potential
     extrapolated charge   47.99470, renormalised to   48.00000

     total cpu time spent up to now is     1273.9 secs

     Self-consistent Calculation

     iteration #  1     ecut=    50.00 Ry     beta= 0.70
     CG style diagonalization
     ethr =  1.00E-06,  avg # of iterations =  2.1

     Threshold (ethr) on eigenvalues was too large:
     Diagonalizing with lowered threshold

     CG style diagonalization
     ethr =  1.39E-09,  avg # of iterations =  3.8

     total cpu time spent up to now is     1279.3 secs

     total energy              =    -523.45176553 Ry
     estimated scf accuracy    <       0.00000106 Ry

     iteration #  2     ecut=    50.00 Ry     beta= 0.70
     CG style diagonalization
     ethr =  2.21E-09,  avg # of iterations =  4.1

     total cpu time spent up to now is     1282.5 secs

     total energy              =    -523.45162211 Ry
     estimated scf accuracy    <       0.00000010 Ry

     iteration #  3     ecut=    50.00 Ry     beta= 0.70
     CG style diagonalization
     ethr =  2.15E-10,  avg # of iterations =  4.3

     total cpu time spent up to now is     1285.9 secs

     total energy              =    -523.45162222 Ry
     estimated scf accuracy    <       0.00000001 Ry

     iteration #  4     ecut=    50.00 Ry     beta= 0.70
     CG style diagonalization
     ethr =  2.16E-11,  avg # of iterations =  4.1

     total cpu time spent up to now is     1289.1 secs

     End of self-consistent calculation

          k = 0.0000 0.0000 0.0000 (  5491 PWs)   bands (ev):

   -69.2879 -69.2874 -69.2874 -36.4085 -36.4068 -36.4068 -36.3694 -36.3683
   -36.3682 -36.3516 -36.3516 -36.3473 -21.3758  -6.7208  -6.6689  -6.6689
    -1.6330   1.9346   1.9346   2.7635   2.7635   2.8818   3.6079   3.9046
     8.4095   8.4095   8.7843   9.4103   9.4103

          k = 0.0164 0.0164-0.5014 (  5526 PWs)   bands (ev):

   -69.2877 -69.2876 -69.2874 -36.4080 -36.4074 -36.4068 -36.3690 -36.3684
   -36.3680 -36.3519 -36.3505 -36.3488 -21.3723  -6.8722  -6.6891  -6.6481
    -0.2581  -0.0956   2.2539   2.6816   2.9200   3.1252   3.5666   3.8244
     7.8889   8.2111   9.2455   9.5777  10.1460

          k = 0.0000-0.4850-0.4850 (  5560 PWs)   bands (ev):

   -69.2876 -69.2876 -69.2875 -36.4086 -36.4074 -36.4061 -36.3696 -36.3684
   -36.3675 -36.3520 -36.3505 -36.3487 -21.3691  -6.8455  -6.8263  -6.6504
     0.3674   0.8991   1.1908   1.2293   2.8542   3.5827   3.6313   3.9806
     8.3273   8.3433   8.8922   9.5670  10.3206

          k =-0.5014-0.5014-0.4685 (  5568 PWs)   bands (ev):

   -69.2876 -69.2876 -69.2874 -36.4099 -36.4061 -36.4061 -36.3697 -36.3697
   -36.3666 -36.3535 -36.3485 -36.3485 -21.3662  -6.8305  -6.7893  -6.7893
     0.9751   0.9751   1.6632   1.7969   2.1857   2.1857   2.2179   5.2684
     8.5660   9.8137   9.8137  10.9087  11.0825

     the Fermi energy is     5.4975 ev

!    total energy              =    -523.45162223 Ry
     estimated scf accuracy    <          2.2E-10 Ry
     smearing contrib. (-TS)   =       0.00014495 Ry
     internal energy E=F+TS    =    -523.45176718 Ry

     The total energy is F=E-TS. E is the sum of the following terms:
     one-electron contribution =    -339.63113493 Ry
     hartree contribution      =      88.97092737 Ry
     xc contribution           =     -90.87677383 Ry
     ewald contribution        =    -204.47040849 Ry
     one-center paw contrib.   =      22.55562272 Ry

     convergence has been achieved in   4 iterations

     Forces acting on atoms (cartesian axes, Ry/au):

     atom    1 type  3   force =     0.00000000    0.00000000   -0.00000000
     atom    2 type  1   force =    -0.00000000   -0.00000000    0.00000000
     atom    3 type  3   force =     0.00000000    0.00000000    0.00000000
     atom    4 type  3   force =     0.00000000    0.00000000   -0.00000000
     atom    5 type  2   force =    -0.00102399   -0.00017395    0.00004524
     atom    6 type  2   force =     0.00026709    0.00026709   -0.00026709
     atom    7 type  2   force =    -0.00017395   -0.00004524    0.00102399
     atom    8 type  2   force =    -0.00004524   -0.00102399    0.00017395
     atom    9 type  2   force =     0.00102399    0.00017395   -0.00004524
     atom   10 type  2   force =    -0.00026709   -0.00026709    0.00026709
     atom   11 type  2   force =     0.00017395    0.00004524   -0.00102399
     atom   12 type  2   force =     0.00004524    0.00102399   -0.00017395

     Total force =     0.002629     Total SCF correction =     0.000001


     Computing stress (Cartesian axis) and pressure

          total   stress  (Ry/bohr**3)                   (kbar)     P=        0.52
   0.00000351   0.00000124  -0.00000124            0.52        0.18       -0.18
   0.00000124   0.00000351  -0.00000124            0.18        0.52       -0.18
  -0.00000124  -0.00000124   0.00000351           -0.18       -0.18        0.52

     Energy error            =      1.3E-04
     Gradient error          =      1.0E-03
     Cell gradient error     =      3.5E-06


     number of scf cycles    =  27
     number of bfgs steps    =  22

     enthalpy old            =    -523.4517565879 Ry
     enthalpy new            =    -523.4516222288 Ry

     CASE: enthalpy_new > enthalpy_old

     new trust radius        =       0.0000640666 bohr

     trust_radius < trust_radius_min

     resetting bfgs history

     new conv_thr            =       0.0000000100 Ry

     new unit-cell volume =    929.25978 a.u.^3 (   137.70209 Ang^3 )
     density =      0.14471 g/cm^3

CELL_PARAMETERS (angstrom)
   5.169229950  -0.163750676   0.163750681
  -0.163750681   5.169230950   0.163750681
   0.163750681   0.163750676   5.169229950

ATOMIC_POSITIONS (angstrom)
Mg            2.5027391343        2.5027401391        0.1637506787
Ba            2.6664908129       -0.0000000050        2.6664898180
Mg           -0.0000000024        2.6664908104        2.6664898155
Mg            0.0000000000       -0.0000000000        0.0000000000
H             0.1022348896        4.4319471986        1.8950189287
H             4.1968799401        1.5303901366        1.1361006908
H             1.9292080728        0.9352225696        5.0669960681
H             3.4379626957        2.7687257001        3.5675232474
H             5.0669960649        0.7372827461        3.6017123834
H             0.9723500097        3.6388408129        4.3606306213
H             3.2400228768        4.2340083750        0.4297352490
H             1.7312682439        2.4005062393        1.9292070748



     Writing output data file ./tmp/BaMg3H8.save/
     NEW-OLD atomic charge density approx. for the potential
     extrapolated charge   48.01606, renormalised to   48.00000

     total cpu time spent up to now is     1320.7 secs

     Self-consistent Calculation

     iteration #  1     ecut=    50.00 Ry     beta= 0.70
     CG style diagonalization
     ethr =  1.00E-06,  avg # of iterations =  2.2

     Threshold (ethr) on eigenvalues was too large:
     Diagonalizing with lowered threshold

     CG style diagonalization
     c_bands:  1 eigenvalues not converged
     ethr =  2.26E-09,  avg # of iterations =  4.1

     total cpu time spent up to now is     1326.1 secs

     total energy              =    -523.45160517 Ry
     estimated scf accuracy    <       0.00000126 Ry

     iteration #  2     ecut=    50.00 Ry     beta= 0.70
     CG style diagonalization
     ethr =  2.62E-09,  avg # of iterations =  4.6

     total cpu time spent up to now is     1329.7 secs

     total energy              =    -523.45161919 Ry
     estimated scf accuracy    <       0.00000055 Ry

     iteration #  3     ecut=    50.00 Ry     beta= 0.70
     CG style diagonalization
     ethr =  1.15E-09,  avg # of iterations =  3.9

     total cpu time spent up to now is     1332.7 secs

     total energy              =    -523.45161943 Ry
     estimated scf accuracy    <       0.00000019 Ry

     iteration #  4     ecut=    50.00 Ry     beta= 0.70
     CG style diagonalization
     ethr =  3.89E-10,  avg # of iterations =  3.4

     total cpu time spent up to now is     1335.6 secs

     total energy              =    -523.45161946 Ry
     estimated scf accuracy    <       0.00000002 Ry

     iteration #  5     ecut=    50.00 Ry     beta= 0.70
     CG style diagonalization
     ethr =  4.35E-11,  avg # of iterations =  4.4

     total cpu time spent up to now is     1339.0 secs

     End of self-consistent calculation

          k = 0.0000 0.0000 0.0000 (  5491 PWs)   bands (ev):

   -69.2917 -69.2913 -69.2912 -36.4123 -36.4106 -36.4106 -36.3733 -36.3721
   -36.3721 -36.3555 -36.3554 -36.3511 -21.3787  -6.7234  -6.6718  -6.6718
    -1.6344   1.9322   1.9322   2.7617   2.7617   2.8780   3.6059   3.9035
     8.4066   8.4066   8.7802   9.4064   9.4064

          k = 0.0164 0.0164-0.5013 (  5526 PWs)   bands (ev):

   -69.2915 -69.2914 -69.2912 -36.4118 -36.4112 -36.4106 -36.3728 -36.3722
   -36.3719 -36.3557 -36.3543 -36.3526 -21.3752  -6.8747  -6.6918  -6.6510
    -0.2600  -0.0974   2.2511   2.6797   2.9179   3.1238   3.5639   3.8217
     7.8847   8.2087   9.2413   9.5759  10.1428

          k = 0.0000-0.4849-0.4849 (  5560 PWs)   bands (ev):

   -69.2915 -69.2914 -69.2913 -36.4124 -36.4112 -36.4099 -36.3734 -36.3723
   -36.3714 -36.3558 -36.3543 -36.3525 -21.3720  -6.8481  -6.8290  -6.6533
     0.3661   0.8976   1.1877   1.2269   2.8524   3.5797   3.6293   3.9784
     8.3239   8.3394   8.8885   9.5645  10.3160

          k =-0.5013-0.5013-0.4685 (  5568 PWs)   bands (ev):

   -69.2915 -69.2915 -69.2912 -36.4137 -36.4099 -36.4099 -36.3736 -36.3736
   -36.3705 -36.3574 -36.3523 -36.3523 -21.3691  -6.8331  -6.7921  -6.7921
     0.9740   0.9740   1.6602   1.7952   2.1835   2.1835   2.2141   5.2652
     8.5630   9.8105   9.8105  10.9047  11.0774

     the Fermi energy is     5.4943 ev

!    total energy              =    -523.45161948 Ry
     estimated scf accuracy    <          1.1E-09 Ry
     smearing contrib. (-TS)   =       0.00014495 Ry
     internal energy E=F+TS    =    -523.45176443 Ry

     The total energy is F=E-TS. E is the sum of the following terms:
     one-electron contribution =    -339.65911445 Ry
     hartree contribution      =      88.97867495 Ry
     xc contribution           =     -90.87567708 Ry
     ewald contribution        =    -204.45094811 Ry
     one-center paw contrib.   =      22.55530025 Ry

     convergence has been achieved in   5 iterations

     Forces acting on atoms (cartesian axes, Ry/au):

     atom    1 type  3   force =     0.00000000    0.00000000   -0.00000000
     atom    2 type  1   force =     0.00000000   -0.00000000   -0.00000000
     atom    3 type  3   force =    -0.00000000   -0.00000000    0.00000000
     atom    4 type  3   force =     0.00000000   -0.00000000    0.00000000
     atom    5 type  2   force =    -0.00103405   -0.00021101    0.00000147
     atom    6 type  2   force =     0.00026736    0.00026736   -0.00026736
     atom    7 type  2   force =    -0.00021101   -0.00000147    0.00103405
     atom    8 type  2   force =    -0.00000147   -0.00103405    0.00021101
     atom    9 type  2   force =     0.00103405    0.00021101   -0.00000147
     atom   10 type  2   force =    -0.00026736   -0.00026736    0.00026736
     atom   11 type  2   force =     0.00021101    0.00000147   -0.00103405
     atom   12 type  2   force =     0.00000147    0.00103405   -0.00021101

     Total force =     0.002667     Total SCF correction =     0.000006


     Computing stress (Cartesian axis) and pressure

          total   stress  (Ry/bohr**3)                   (kbar)     P=        0.15
   0.00000103   0.00000050  -0.00000050            0.15        0.07       -0.07
   0.00000050   0.00000103  -0.00000050            0.07        0.15       -0.07
  -0.00000050  -0.00000050   0.00000103           -0.07       -0.07        0.15

     Energy error            =      1.4E-04
     Gradient error          =      1.0E-03
     Cell gradient error     =      1.0E-06


     number of scf cycles    =  28
     number of bfgs steps    =  22

     enthalpy old            =    -523.4517565879 Ry
     enthalpy new            =    -523.4516194828 Ry

     CASE: enthalpy_new > enthalpy_old

     new trust radius        =       0.0000302819 bohr

     trust_radius < trust_radius_min

     resetting bfgs history

     Message from routine bfgs:
     history already reset at previous step: stopping
     new conv_thr            =       0.0000000100 Ry

     new unit-cell volume =    929.25977 a.u.^3 (   137.70209 Ang^3 )
     density =      0.14471 g/cm^3

CELL_PARAMETERS (angstrom)
   5.169229928  -0.163750611   0.163750616
  -0.163750616   5.169230928   0.163750616
   0.163750616   0.163750611   5.169229928

ATOMIC_POSITIONS (angstrom)
Mg            2.5027391561        2.5027401609        0.1637506138
Ba            2.6664907697       -0.0000000050        2.6664897748
Mg           -0.0000000024        2.6664907672        2.6664897723
Mg            0.0000000000       -0.0000000000        0.0000000000
H             0.1022350653        4.4319472770        1.8950187551
H             4.1968798479        1.5303900877        1.1361006966
H             1.9292081295        0.9352226350        5.0669958711
H             3.4379627829        2.7687258326        3.5675230394
H             5.0669958679        0.7372826463        3.6017124056
H             0.9723500804        3.6388408405        4.3606304641
H             3.2400227987        4.2340082882        0.4297352946
H             1.7312681353        2.4005060855        1.9292071314



     Writing output data file ./tmp/BaMg3H8.save/
     NEW-OLD atomic charge density approx. for the potential

     total cpu time spent up to now is     1370.6 secs

     Self-consistent Calculation

     iteration #  1     ecut=    50.00 Ry     beta= 0.70
     CG style diagonalization
     ethr =  1.00E-06,  avg # of iterations =  2.0

     Threshold (ethr) on eigenvalues was too large:
     Diagonalizing with lowered threshold

     CG style diagonalization
     c_bands:  1 eigenvalues not converged
     c_bands:  1 eigenvalues not converged
     c_bands:  2 eigenvalues not converged
     ethr =  4.50E-14,  avg # of iterations =  8.0

     total cpu time spent up to now is     1378.0 secs

     End of self-consistent calculation

          k = 0.0000 0.0000 0.0000 (  5491 PWs)   bands (ev):

   -69.2919 -69.2914 -69.2914 -36.4125 -36.4108 -36.4108 -36.3734 -36.3723
   -36.3723 -36.3556 -36.3556 -36.3513 -21.3789  -6.7235  -6.6719  -6.6719
    -1.6344   1.9322   1.9322   2.7617   2.7617   2.8780   3.6059   3.9035
     8.4066   8.4066   8.7802   9.4064   9.4064

          k = 0.0164 0.0164-0.5013 (  5526 PWs)   bands (ev):

   -69.2917 -69.2916 -69.2914 -36.4119 -36.4113 -36.4108 -36.3730 -36.3724
   -36.3720 -36.3559 -36.3545 -36.3528 -21.3754  -6.8749  -6.6920  -6.6512
    -0.2600  -0.0974   2.2511   2.6798   2.9179   3.1238   3.5639   3.8217
     7.8847   8.2086   9.2413   9.5759  10.1428

          k = 0.0000-0.4849-0.4849 (  5560 PWs)   bands (ev):

   -69.2917 -69.2916 -69.2915 -36.4126 -36.4113 -36.4101 -36.3736 -36.3724
   -36.3716 -36.3559 -36.3545 -36.3527 -21.3722  -6.8482  -6.8292  -6.6534
     0.3661   0.8976   1.1877   1.2269   2.8524   3.5797   3.6293   3.9784
     8.3239   8.3394   8.8885   9.5645  10.3160

          k =-0.5013-0.5013-0.4685 (  5568 PWs)   bands (ev):

   -69.2917 -69.2917 -69.2914 -36.4138 -36.4101 -36.4101 -36.3738 -36.3737
   -36.3706 -36.3575 -36.3525 -36.3525 -21.3693  -6.8332  -6.7922  -6.7922
     0.9740   0.9740   1.6603   1.7952   2.1835   2.1835   2.2141   5.2652
     8.5630   9.8105   9.8105  10.9047  11.0774

     the Fermi energy is     5.4943 ev

!    total energy              =    -523.45161949 Ry
     estimated scf accuracy    <          1.6E-10 Ry
     smearing contrib. (-TS)   =       0.00014495 Ry
     internal energy E=F+TS    =    -523.45176444 Ry

     The total energy is F=E-TS. E is the sum of the following terms:
     one-electron contribution =    -339.65908800 Ry
     hartree contribution      =      88.97879191 Ry
     xc contribution           =     -90.87569753 Ry
     ewald contribution        =    -204.45094916 Ry
     one-center paw contrib.   =      22.55517835 Ry

     convergence has been achieved in   1 iterations

     Forces acting on atoms (cartesian axes, Ry/au):

     atom    1 type  3   force =    -0.00000000   -0.00000000    0.00000000
     atom    2 type  1   force =     0.00000000    0.00000000   -0.00000000
     atom    3 type  3   force =    -0.00000000   -0.00000000    0.00000000
     atom    4 type  3   force =    -0.00000000   -0.00000000    0.00000000
     atom    5 type  2   force =    -0.00103440   -0.00021109    0.00000131
     atom    6 type  2   force =     0.00026758    0.00026758   -0.00026758
     atom    7 type  2   force =    -0.00021109   -0.00000131    0.00103440
     atom    8 type  2   force =    -0.00000131   -0.00103440    0.00021109
     atom    9 type  2   force =     0.00103440    0.00021109   -0.00000131
     atom   10 type  2   force =    -0.00026758   -0.00026758    0.00026758
     atom   11 type  2   force =     0.00021109    0.00000131   -0.00103440
     atom   12 type  2   force =     0.00000131    0.00103440   -0.00021109

     Total force =     0.002668     Total SCF correction =     0.000004


     Computing stress (Cartesian axis) and pressure

          total   stress  (Ry/bohr**3)                   (kbar)     P=        0.22
   0.00000151   0.00000051  -0.00000051            0.22        0.08       -0.08
   0.00000051   0.00000151  -0.00000051            0.08        0.22       -0.08
  -0.00000051  -0.00000051   0.00000151           -0.08       -0.08        0.22

     Message from routine bfgs:
     history already reset at previous step: stopping
     Energy error            =      1.4E-04
     Gradient error          =      1.0E-03
     Cell gradient error     =      1.5E-06


     bfgs converged in  29 scf cycles and  22 bfgs steps
     (criteria: energy <  1.0E-04 Ry, force <  1.0E-03Ry/Bohr, cell <  5.0E-01kbar)

     End of BFGS Geometry Optimization

     Final enthalpy =    -523.4516194889 Ry

     File ./tmp/BaMg3H8.bfgs deleted, as requested
Begin final coordinates
     new unit-cell volume =    929.25977 a.u.^3 (   137.70209 Ang^3 )
     density =      0.14471 g/cm^3

CELL_PARAMETERS (angstrom)
   5.169229928  -0.163750611   0.163750616
  -0.163750616   5.169230928   0.163750616
   0.163750616   0.163750611   5.169229928

ATOMIC_POSITIONS (angstrom)
Mg            2.5027391561        2.5027401609        0.1637506138
Ba            2.6664907697       -0.0000000050        2.6664897748
Mg           -0.0000000024        2.6664907672        2.6664897723
Mg            0.0000000000       -0.0000000000        0.0000000000
H             0.1022350653        4.4319472770        1.8950187551
H             4.1968798479        1.5303900877        1.1361006966
H             1.9292081295        0.9352226350        5.0669958711
H             3.4379627829        2.7687258326        3.5675230394
H             5.0669958679        0.7372826463        3.6017124056
H             0.9723500804        3.6388408405        4.3606304641
H             3.2400227987        4.2340082882        0.4297352946
H             1.7312681353        2.4005060855        1.9292071314
End final coordinates



     Writing output data file ./tmp/BaMg3H8.save/

     Final scf calculation at the relaxed structure.
     The G-vectors are recalculated for the final unit cell
     Results may differ from those at the preceding step.

     Parallelization info
     --------------------
     sticks:   dense  smooth     PW     G-vecs:    dense   smooth      PW
     Min        1521     755    218                62742    22118    3465
     Max        1522     756    219                62745    22119    3466
     Sum        3043    1511    437               125487    44237    6931



     bravais-lattice index     =            0
     lattice parameter (alat)  =       9.7743  a.u.
     unit-cell volume          =     929.2598 (a.u.)^3
     number of atoms/cell      =           12
     number of atomic types    =            3
     number of electrons       =        48.00
     number of Kohn-Sham states=           29
     kinetic-energy cutoff     =      50.0000  Ry
     charge density cutoff     =     400.0000  Ry
     scf convergence threshold =      1.0E-08
     mixing beta               =       0.7000
     number of iterations used =            4  plain     mixing
     press convergence thresh. =      5.0E-01
     Exchange-correlation= SLA PW PBX PBC
                           (   1   4   3   4   0   0   0)

     celldm(1)=   9.774316  celldm(2)=   0.000000  celldm(3)=   0.000000
     celldm(4)=   0.000000  celldm(5)=   0.000000  celldm(6)=   0.000000

     crystal axes: (cart. coord. in units of alat)
               a(1) = (   0.999398  -0.031659   0.031659 )  
               a(2) = (  -0.031659   0.999398   0.031659 )  
               a(3) = (   0.031659   0.031659   0.999398 )  

     reciprocal axes: (cart. coord. in units 2 pi/alat)
               b(1) = (  1.002681  0.032802 -0.032802 )  
               b(2) = (  0.032802  1.002681 -0.032802 )  
               b(3) = ( -0.032802 -0.032802  1.002681 )  


     PseudoPot. # 1 for Ba read from file:
     /home/marco/ZOS_Cloud_Compute/pseudo/Ba.UPF
     MD5 check sum: a011de417d3466d8e94df216395bc359
     Pseudo is Ultrasoft + core correction, Zval = 10.0
     Generated by new atomic code, or converted to UPF format
     Using radial grid of  907 points,  6 beta functions with: 
                l(1) =   0
                l(2) =   0
                l(3) =   1
                l(4) =   1
                l(5) =   2
                l(6) =   2
     Q(r) pseudized with  6 coefficients,  rinner =    1.200   1.200   1.200
                                                       1.200   1.200

     PseudoPot. # 2 for H  read from file:
     /home/marco/ZOS_Cloud_Compute/pseudo/H.UPF
     MD5 check sum: 850d63dcbcc06c5de8b44e0ab9f952da
     Pseudo is Projector augmented-wave, Zval =  1.0
     Generated using "atomic" code by A. Dal Corso  v.5.1.2
     Shape of augmentation charge: PSQ
     Using radial grid of  929 points,  2 beta functions with: 
                l(1) =   0
                l(2) =   0
     Q(r) pseudized with 0 coefficients 


     PseudoPot. # 3 for Mg read from file:
     /home/marco/ZOS_Cloud_Compute/pseudo/Mg.UPF
     MD5 check sum: a77e51077e70c6c73445c6cac60d158f
     Pseudo is Projector augmented-wave + core cor, Zval = 10.0
     Generated using ATOMPAW code
     Shape of augmentation charge: BESSEL
     Using radial grid of 1171 points,  6 beta functions with: 
                l(1) =   0
                l(2) =   0
                l(3) =   0
                l(4) =   0
                l(5) =   1
                l(6) =   1
     Q(r) pseudized with 0 coefficients 


     atomic species   valence    mass     pseudopotential
        Ba            10.00     1.00000     Ba( 1.00)
        H              1.00     1.00000     H ( 1.00)
        Mg            10.00     1.00000     Mg( 1.00)

      6 Sym. Ops., with inversion, found ( 4 have fractional translation)



   Cartesian axes

     site n.     atom                  positions (alat units)
         1           Mg  tau(   1) = (   0.4838693   0.4838695   0.0316589  )
         2           Ba  tau(   2) = (   0.5155284  -0.0000000   0.5155282  )
         3           Mg  tau(   3) = (  -0.0000000   0.5155284   0.5155282  )
         4           Mg  tau(   4) = (   0.0000000  -0.0000000   0.0000000  )
         5           H   tau(   5) = (   0.0197657   0.8568545   0.3663751  )
         6           H   tau(   6) = (   0.8114075   0.2958793   0.2196490  )
         7           H   tau(   7) = (   0.3729852   0.1808121   0.9796322  )
         8           H   tau(   8) = (   0.6646816   0.5352941   0.6897302  )
         9           H   tau(   9) = (   0.9796322   0.1425432   0.6963403  )
        10           H   tau(  10) = (   0.1879902   0.7035185   0.8430664  )
        11           H   tau(  11) = (   0.6264127   0.8185858   0.0830833  )
        12           H   tau(  12) = (   0.3347163   0.4641040   0.3729850  )

     number of k points=     4  Methfessel-Paxton smearing, width (Ry)=  0.0200
                       cart. coord. in units 2pi/alat
        k(    1) = (   0.0000000   0.0000000   0.0000000), wk =   0.2500000
        k(    2) = (   0.0164010   0.0164010  -0.5013404), wk =   0.7500000
        k(    3) = (   0.0000000  -0.4849394  -0.4849395), wk =   0.7500000
        k(    4) = (  -0.5013404  -0.5013403  -0.4685385), wk =   0.2500000

     Dense  grid:   125487 G-vectors     FFT dimensions: (  64,  64,  64)

     Smooth grid:    44237 G-vectors     FFT dimensions: (  48,  48,  48)

     Estimated max dynamical RAM per process >     250.52 MB

     Estimated total dynamical RAM >     501.03 MB

     Initial potential from superposition of free atoms

     starting charge   47.98242, renormalised to   48.00000
     Starting wfcs are   51 randomized atomic wfcs
     Checking if some PAW data can be deallocated... 

     total cpu time spent up to now is     1407.9 secs

     Self-consistent Calculation

     iteration #  1     ecut=    50.00 Ry     beta= 0.70
     CG style diagonalization
     c_bands:  3 eigenvalues not converged
     c_bands:  2 eigenvalues not converged
     c_bands:  3 eigenvalues not converged
     c_bands:  4 eigenvalues not converged
     ethr =  1.00E-06,  avg # of iterations =  9.7

     total cpu time spent up to now is     1414.5 secs

     total energy              =    -523.38315338 Ry
     estimated scf accuracy    <       0.57146201 Ry

     iteration #  2     ecut=    50.00 Ry     beta= 0.70
     CG style diagonalization
     ethr =  1.19E-03,  avg # of iterations =  3.3

     total cpu time spent up to now is     1417.4 secs

     total energy              =    -523.43664307 Ry
     estimated scf accuracy    <       0.00719375 Ry

     iteration #  3     ecut=    50.00 Ry     beta= 0.70
     CG style diagonalization
     ethr =  1.50E-05,  avg # of iterations =  4.7

     total cpu time spent up to now is     1421.1 secs

     total energy              =    -523.45041853 Ry
     estimated scf accuracy    <       0.00226617 Ry

     iteration #  4     ecut=    50.00 Ry     beta= 0.70
     CG style diagonalization
     ethr =  4.72E-06,  avg # of iterations =  3.9

     total cpu time spent up to now is     1424.3 secs

     total energy              =    -523.45140015 Ry
     estimated scf accuracy    <       0.00031016 Ry

     iteration #  5     ecut=    50.00 Ry     beta= 0.70
     CG style diagonalization
     ethr =  6.46E-07,  avg # of iterations =  4.7

     total cpu time spent up to now is     1427.9 secs

     total energy              =    -523.45171350 Ry
     estimated scf accuracy    <       0.00011632 Ry

     iteration #  6     ecut=    50.00 Ry     beta= 0.70
     CG style diagonalization
     ethr =  2.42E-07,  avg # of iterations =  4.0

     total cpu time spent up to now is     1431.3 secs

     total energy              =    -523.45174898 Ry
     estimated scf accuracy    <       0.00000494 Ry

     iteration #  7     ecut=    50.00 Ry     beta= 0.70
     CG style diagonalization
     ethr =  1.03E-08,  avg # of iterations =  5.3

     total cpu time spent up to now is     1435.2 secs

     total energy              =    -523.45161282 Ry
     estimated scf accuracy    <       0.00000597 Ry

     iteration #  8     ecut=    50.00 Ry     beta= 0.70
     CG style diagonalization
     ethr =  1.03E-08,  avg # of iterations =  3.8

     total cpu time spent up to now is     1438.3 secs

     total energy              =    -523.45161380 Ry
     estimated scf accuracy    <       0.00000050 Ry

     iteration #  9     ecut=    50.00 Ry     beta= 0.70
     CG style diagonalization
     ethr =  1.04E-09,  avg # of iterations =  4.6

     total cpu time spent up to now is     1442.1 secs

     total energy              =    -523.45161436 Ry
     estimated scf accuracy    <       0.00000008 Ry

     iteration # 10     ecut=    50.00 Ry     beta= 0.70
     CG style diagonalization
     ethr =  1.61E-10,  avg # of iterations =  4.8

     total cpu time spent up to now is     1445.8 secs

     End of self-consistent calculation

          k = 0.0000 0.0000 0.0000 (  5471 PWs)   bands (ev):

   -69.2920 -69.2915 -69.2915 -36.4126 -36.4109 -36.4109 -36.3735 -36.3724
   -36.3724 -36.3557 -36.3557 -36.3514 -21.3787  -6.7233  -6.6718  -6.6718
    -1.6344   1.9322   1.9322   2.7616   2.7616   2.8781   3.6059   3.9034
     8.4066   8.4066   8.7803   9.4065   9.4065

          k = 0.0164 0.0164-0.5013 (  5514 PWs)   bands (ev):

   -69.2918 -69.2917 -69.2915 -36.4120 -36.4114 -36.4109 -36.3731 -36.3725
   -36.3721 -36.3560 -36.3546 -36.3529 -21.3752  -6.8747  -6.6918  -6.6510
    -0.2600  -0.0974   2.2511   2.6797   2.9179   3.1238   3.5639   3.8216
     7.8847   8.2087   9.2414   9.5760  10.4459

          k = 0.0000-0.4849-0.4849 (  5562 PWs)   bands (ev):

   -69.2917 -69.2917 -69.2916 -36.4127 -36.4114 -36.4102 -36.3737 -36.3725
   -36.3716 -36.3560 -36.3546 -36.3528 -21.3721  -6.8481  -6.8290  -6.6533
     0.3661   0.8976   1.1877   1.2269   2.8524   3.5797   3.6292   3.9783
     8.3239   8.3394   8.8886   9.5646  10.3161

          k =-0.5013-0.5013-0.4685 (  5538 PWs)   bands (ev):

   -69.2917 -69.2917 -69.2915 -36.4139 -36.4102 -36.4102 -36.3739 -36.3738
   -36.3707 -36.3576 -36.3526 -36.3526 -21.3691  -6.8331  -6.7921  -6.7921
     0.9740   0.9740   1.6603   1.7952   2.1835   2.1835   2.2141   5.2651
     8.5630   9.8106   9.8107  10.9048  11.0781

     the Fermi energy is     5.4942 ev

!    total energy              =    -523.45161447 Ry
     estimated scf accuracy    <          2.4E-09 Ry
     smearing contrib. (-TS)   =       0.00014495 Ry
     internal energy E=F+TS    =    -523.45175942 Ry

     The total energy is F=E-TS. E is the sum of the following terms:
     one-electron contribution =    -339.65913759 Ry
     hartree contribution      =      88.97884494 Ry
     xc contribution           =     -90.87569514 Ry
     ewald contribution        =    -204.45094916 Ry
     one-center paw contrib.   =      22.55517754 Ry

     convergence has been achieved in  10 iterations

     Forces acting on atoms (cartesian axes, Ry/au):

     atom    1 type  3   force =    -0.00000000   -0.00000000    0.00000000
     atom    2 type  1   force =     0.00000000   -0.00000000   -0.00000000
     atom    3 type  3   force =    -0.00000000    0.00000000   -0.00000000
     atom    4 type  3   force =     0.00000000    0.00000000   -0.00000000
     atom    5 type  2   force =    -0.00103594   -0.00021254    0.00000001
     atom    6 type  2   force =     0.00026923    0.00026923   -0.00026923
     atom    7 type  2   force =    -0.00021254   -0.00000001    0.00103594
     atom    8 type  2   force =    -0.00000001   -0.00103594    0.00021254
     atom    9 type  2   force =     0.00103594    0.00021254   -0.00000001
     atom   10 type  2   force =    -0.00026923   -0.00026923    0.00026923
     atom   11 type  2   force =     0.00021254    0.00000001   -0.00103594
     atom   12 type  2   force =     0.00000001    0.00103594   -0.00021254

     Total force =     0.002673     Total SCF correction =     0.000012


     Computing stress (Cartesian axis) and pressure

          total   stress  (Ry/bohr**3)                   (kbar)     P=        0.30
   0.00000201   0.00000038  -0.00000038            0.30        0.06       -0.06
   0.00000038   0.00000201  -0.00000038            0.06        0.30       -0.06
  -0.00000038  -0.00000038   0.00000201           -0.06       -0.06        0.30


     Writing output data file ./tmp/BaMg3H8.save/

     init_run     :     19.00s CPU     19.98s WALL (       2 calls)
     electrons    :    355.56s CPU    524.61s WALL (      30 calls)
     update_pot   :    303.42s CPU    305.29s WALL (      28 calls)
     forces       :    170.87s CPU    178.25s WALL (      30 calls)
     stress       :    394.58s CPU    420.52s WALL (      30 calls)

     Called by init_run:
     wfcinit      :      0.85s CPU      1.20s WALL (       2 calls)
     potinit      :      6.35s CPU      6.59s WALL (       2 calls)
     hinit0       :     11.17s CPU     11.32s WALL (       2 calls)

     Called by electrons:
     c_bands      :    218.24s CPU    329.59s WALL (     160 calls)
     sum_band     :     67.89s CPU    110.01s WALL (     160 calls)
     v_of_rho     :     11.95s CPU     12.80s WALL (     166 calls)
     newd         :     44.26s CPU     61.28s WALL (     166 calls)
     PAW_pot      :     29.76s CPU     30.31s WALL (     194 calls)
     mix_rho      :      1.09s CPU      1.50s WALL (     160 calls)

     Called by c_bands:
     init_us_2    :      3.12s CPU      3.23s WALL (    1640 calls)
     ccgdiagg     :    194.35s CPU    290.40s WALL (     640 calls)
     wfcrot       :     22.78s CPU     37.15s WALL (     432 calls)

     Called by *cgdiagg:
     h_psi        :    154.07s CPU    247.95s WALL (   63114 calls)
     s_psi        :     22.70s CPU     26.79s WALL (  125796 calls)

     Called by h_psi:
     h_psi:calbec :     15.87s CPU     25.54s WALL (   63114 calls)
     vloc_psi     :    115.33s CPU    193.48s WALL (   63114 calls)
     add_vuspsi   :     22.22s CPU     28.17s WALL (   63114 calls)
     hs_1psi      :    144.89s CPU    227.01s WALL (   62682 calls)
     s_1psi       :     22.96s CPU     27.01s WALL (   62682 calls)

     General routines
     calbec       :     30.01s CPU     44.97s WALL (  127148 calls)
     fft          :      9.13s CPU     10.91s WALL (    2900 calls)
     ffts         :      0.37s CPU      0.52s WALL (     326 calls)
     fftw         :    112.68s CPU    199.13s WALL (  169332 calls)
     interpolate  :      0.79s CPU      0.83s WALL (     166 calls)

     Parallel routines
     fft_scatt_xy :     16.18s CPU     19.62s WALL (  172558 calls)
     fft_scatt_yz :     45.48s CPU    122.05s WALL (  172558 calls)

     PWSCF        :  20m56.77s CPU  24m26.29s WALL


   This run was terminated on:  11:48:43  18Jan2026            

=------------------------------------------------------------------------------=
   JOB DONE.
=------------------------------------------------------------------------------=
