
     Program PWSCF v.6.7MaX starts on  3Jun2026 at 21: 9:54 

     This program is part of the open-source Quantum ESPRESSO suite
     for quantum simulation of materials; please cite
         "P. Giannozzi et al., J. Phys.:Condens. Matter 21 395502 (2009);
         "P. Giannozzi et al., J. Phys.:Condens. Matter 29 465901 (2017);
          URL http://www.quantum-espresso.org", 
     in publications or presentations arising from this work. More details at
     http://www.quantum-espresso.org/quote

     Parallel version (MPI), running on     1 processors

     MPI processes distributed on     1 nodes
     Waiting for input...
     Reading input from standard input

     Current dimensions of program PWSCF are:
     Max number of different atomic species (ntypx) = 10
     Max number of k-points (npk) =  40000
     Max angular momentum in pseudopotentials (lmaxx) =  3
     file Ba.UPF: wavefunction(s)  5S 6S renormalized
     file Mg.UPF: wavefunction(s)  3S renormalized

     Subspace diagonalization in iterative solution of the eigenvalue problem:
     a serial algorithm will be used


     G-vector sticks info
     --------------------
     sticks:   dense  smooth     PW     G-vecs:    dense   smooth      PW
     Sum        6063    2427    681               355223    89941   13421



     bravais-lattice index     =            0
     lattice parameter (alat)  =       9.7743  a.u.
     unit-cell volume          =     929.7535 (a.u.)^3
     number of atoms/cell      =           12
     number of atomic types    =            3
     number of electrons       =        24.00
     number of Kohn-Sham states=           16
     kinetic-energy cutoff     =      80.0000  Ry
     charge density cutoff     =     800.0000  Ry
     scf convergence threshold =      1.0E-06
     mixing beta               =       0.4000
     number of iterations used =            6  local-TF  mixing
     energy convergence thresh.=      1.0E-04
     force convergence thresh. =      1.0E-03
     press convergence thresh. =      5.0E-01
     Exchange-correlation= SLA  PW   PBX  PBC
                           (   1   4   3   4   0   0   0)
     nstep                     =            0


     celldm(1)=   9.774316  celldm(2)=   0.000000  celldm(3)=   0.000000
     celldm(4)=   0.000000  celldm(5)=   0.000000  celldm(6)=   0.000000

     crystal axes: (cart. coord. in units of alat)
               a(1) = (   0.999281  -0.026800   0.026800 )  
               a(2) = (  -0.026800   0.999282   0.026800 )  
               a(3) = (   0.026800   0.026800   0.999281 )  

     reciprocal axes: (cart. coord. in units 2 pi/alat)
               b(1) = (  1.002200  0.027619 -0.027619 )  
               b(2) = (  0.027619  1.002200 -0.027619 )  
               b(3) = ( -0.027619 -0.027619  1.002200 )  


     PseudoPot. # 1 for Ba read from file:
     /home/marco/ZOS_Cloud_Compute/pseudo/Ba.UPF
     MD5 check sum: c432291d3e53af55f19d5e8866385beb
     Pseudo is Projector augmented-wave + core cor, Zval = 10.0
     Generated using "atomic" code by A. Dal Corso  v.5.1
     Shape of augmentation charge: PSQ
     Using radial grid of 1251 points,  7 beta functions with: 
                l(1) =   0
                l(2) =   0
                l(3) =   0
                l(4) =   1
                l(5) =   1
                l(6) =   2
                l(7) =   2
     Q(r) pseudized with 0 coefficients 


     PseudoPot. # 2 for H  read from file:
     /home/marco/ZOS_Cloud_Compute/pseudo/H.UPF
     MD5 check sum: f52b6d4d1c606e5624b1dc7b2218f220
     Pseudo is Ultrasoft, Zval =  1.0
     Generated using "atomic" code by A. Dal Corso  v.5.1
     Using radial grid of  929 points,  2 beta functions with: 
                l(1) =   0
                l(2) =   0
     Q(r) pseudized with 0 coefficients 


     PseudoPot. # 3 for Mg read from file:
     /home/marco/ZOS_Cloud_Compute/pseudo/Mg.UPF
     MD5 check sum: 24ecedc7f3e3cbe212e682f4413594e4
     Pseudo is Projector augmented-wave + core cor, Zval =  2.0
     Generated using "atomic" code by A. Dal Corso  v.5.0.99 svn rev. 10869
     Shape of augmentation charge: PSQ
     Using radial grid of 1129 points,  4 beta functions with: 
                l(1) =   0
                l(2) =   0
                l(3) =   1
                l(4) =   1
     Q(r) pseudized with 0 coefficients 


     atomic species   valence    mass     pseudopotential
        Ba            10.00     1.00000     Ba( 1.00)
        H              1.00     1.00000     H ( 1.00)
        Mg             2.00     1.00000     Mg( 1.00)

     No symmetry found



   Cartesian axes

     site n.     atom                  positions (alat units)
         1           Mg  tau(   1) = (   0.4862405   0.4862407   0.0268002  )
         2           Ba  tau(   2) = (   0.5130410   0.0000000   0.5130408  )
         3           Mg  tau(   3) = (   0.0000000   0.5130410   0.5130408  )
         4           Mg  tau(   4) = (  -0.0000000   0.0000000  -0.0000000  )
         5           H   tau(   5) = (   0.0290008   0.8517333   0.3556197  )
         6           H   tau(   6) = (   0.8201434   0.3071027   0.2059383  )
         7           H   tau(   7) = (   0.3654928   0.1842215   0.9702809  )
         8           H   tau(   8) = (   0.6704622   0.5420417   0.6873891  )
         9           H   tau(   9) = (   0.9702809   0.1475482   0.6972622  )
        10           H   tau(  10) = (   0.1791381   0.6921790   0.8469436  )
        11           H   tau(  11) = (   0.6337889   0.8150602   0.0826010  )
        12           H   tau(  12) = (   0.3288195   0.4572402   0.3654926  )

     number of k points=     8  Methfessel-Paxton smearing, width (Ry)=  0.0200
                       cart. coord. in units 2pi/alat
        k(    1) = (   0.0000000   0.0000000   0.0000000), wk =   0.2500000
        k(    2) = (   0.0138096   0.0138096  -0.5011002), wk =   0.2500000
        k(    3) = (  -0.0138096  -0.5011002   0.0138096), wk =   0.2500000
        k(    4) = (   0.0000000  -0.4872905  -0.4872906), wk =   0.2500000
        k(    5) = (  -0.5011002  -0.0138096   0.0138096), wk =   0.2500000
        k(    6) = (  -0.4872906   0.0000000  -0.4872906), wk =   0.2500000
        k(    7) = (  -0.5149099  -0.5149098   0.0276192), wk =   0.2500000
        k(    8) = (  -0.5011002  -0.5011002  -0.4734810), wk =   0.2500000

     Dense  grid:   355223 G-vectors     FFT dimensions: (  90,  90,  90)

     Smooth grid:    89941 G-vectors     FFT dimensions: (  60,  60,  60)

     Estimated max dynamical RAM per process >       1.45 GB

     Writing output data file ./tmp/BaMg3H8.save/
     Message from routine add_xml_clocks_pw: label not found :
     electrons


     Called by init_run:

     Called by electrons:

     Called by c_bands:

     Called by *egterg:

     Called by h_psi:

     General routines

     Parallel routines

     PWSCF        :      0.16s CPU      0.41s WALL


   This run was terminated on:  21: 9:55   3Jun2026            

=------------------------------------------------------------------------------=
   JOB DONE.
=------------------------------------------------------------------------------=
STOP 255
--------------------------------------------------------------------------
Primary job  terminated normally, but 1 process returned
a non-zero exit code. Per user-direction, the job has been aborted.
--------------------------------------------------------------------------
--------------------------------------------------------------------------
mpirun detected that one or more processes exited with non-zero status, thus causing
the job to be terminated. The first process to do so was:

  Process name: [[28799,1],0]
  Exit code:    255
--------------------------------------------------------------------------
