
     Program PWSCF v.6.1 starts on 24Nov2025 at 18:43: 6 

     This program is part of the open-source Quantum ESPRESSO suite
     for quantum simulation of materials; please cite
         "P. Giannozzi et al., J. Phys.:Condens. Matter 21 395502 (2009);
          URL http://www.quantum-espresso.org", 
     in publications or presentations arising from this work. More details at
     http://www.quantum-espresso.org/quote

     Parallel version (MPI & OpenMP), running on      12 processor cores
     Number of MPI processes:                 1
     Threads/MPI process:                    12
     Waiting for input...
     Reading input from standard input

     Current dimensions of program PWSCF are:
     Max number of different atomic species (ntypx) = 10
     Max number of k-points (npk) =  40000
     Max angular momentum in pseudopotentials (lmaxx) =  3
               file Al.UPF: wavefunction(s)  3S 3P renormalized
               file H.UPF: wavefunction(s)  1S renormalized

     Subspace diagonalization in iterative solution of the eigenvalue problem:
     a serial algorithm will be used


     G-vector sticks info
     --------------------
     sticks:   dense  smooth     PW     G-vecs:    dense   smooth      PW
     Sum        9899    4955   1387               532611   188283   27921



     bravais-lattice index     =            0
     lattice parameter (alat)  =      14.7142  a.u.
     unit-cell volume          =    3942.2407 (a.u.)^3
     number of atoms/cell      =           44
     number of atomic types    =            5
     number of electrons       =        71.00
     number of Kohn-Sham states=           43
     kinetic-energy cutoff     =      50.0000  Ry
     charge density cutoff     =     400.0000  Ry
     convergence threshold     =      1.0E-08
     mixing beta               =       0.7000
     number of iterations used =            8  plain     mixing
     Exchange-correlation      =  SLA  PW   PBX  PBC ( 1  4  3  4 0 0)

     celldm(1)=  14.714198  celldm(2)=   0.000000  celldm(3)=   0.000000
     celldm(4)=   0.000000  celldm(5)=   0.000000  celldm(6)=   0.000000

     crystal axes: (cart. coord. in units of alat)
               a(1) = (   0.956327  -0.069061   0.284024 )  
               a(2) = (  -0.043066   1.435208   0.117580 )  
               a(3) = (   0.290797   0.125623   1.003267 )  

     reciprocal axes: (cart. coord. in units 2 pi/alat)
               b(1) = (  1.151649  0.062546 -0.341637 )  
               b(2) = (  0.084824  0.708591 -0.113311 )  
               b(3) = ( -0.335972 -0.100752  1.106740 )  


     PseudoPot. # 1 for Al read from file:
     C:/Users/Acer/Desktop/Quantum_Espresso/pseudo/Al.UPF
     MD5 check sum: da22aad9e98c60ce88de1cf925d56fcc
     Pseudo is Projector augmented-wave + core cor, Zval =  3.0
     Generated using "atomic" code by A. Dal Corso  v.5.1.2
     Shape of augmentation charge: PSQ
     Using radial grid of 1135 points,  6 beta functions with: 
                l(1) =   0
                l(2) =   0
                l(3) =   1
                l(4) =   1
                l(5) =   2
                l(6) =   2
     Q(r) pseudized with 0 coefficients 


     PseudoPot. # 2 for  B read from file:
     C:/Users/Acer/Desktop/Quantum_Espresso/pseudo/B.UPF
     MD5 check sum: d9c678ba5d3b2fd7b74e61139c9288d8
     Pseudo is Projector augmented-wave + core cor, Zval =  3.0
     Generated using "atomic" code by A. Dal Corso  v.5.1.2
     Shape of augmentation charge: PSQ
     Using radial grid of 1059 points,  4 beta functions with: 
                l(1) =   0
                l(2) =   0
                l(3) =   1
                l(4) =   1
     Q(r) pseudized with 0 coefficients 


     PseudoPot. # 3 for Ba read from file:
     C:/Users/Acer/Desktop/Quantum_Espresso/pseudo/Ba.UPF
     MD5 check sum: a011de417d3466d8e94df216395bc359
     Pseudo is Ultrasoft + core correction, Zval = 10.0
     Generated by new atomic code, or converted to UPF format
     Using radial grid of  907 points,  6 beta functions with: 
                l(1) =   0
                l(2) =   0
                l(3) =   1
                l(4) =   1
                l(5) =   2
                l(6) =   2
     Q(r) pseudized with  6 coefficients,  rinner =    1.200   1.200   1.200
                                                       1.200   1.200

     PseudoPot. # 4 for  H read from file:
     C:/Users/Acer/Desktop/Quantum_Espresso/pseudo/H.UPF
     MD5 check sum: 850d63dcbcc06c5de8b44e0ab9f952da
     Pseudo is Projector augmented-wave, Zval =  1.0
     Generated using "atomic" code by A. Dal Corso  v.5.1.2
     Shape of augmentation charge: PSQ
     Using radial grid of  929 points,  2 beta functions with: 
                l(1) =   0
                l(2) =   0
     Q(r) pseudized with 0 coefficients 


     PseudoPot. # 5 for K  read from file:
     C:/Users/Acer/Desktop/Quantum_Espresso/pseudo/K.UPF
     MD5 check sum: 86a9a9c3c3350590e9a8cd52a3b0554c
     Pseudo is Norm-conserving + core correction, Zval =  1.0
     Generated by new atomic code, or converted to UPF format
     Using radial grid of 1165 points,  2 beta functions with: 
                l(1) =   0
                l(2) =   1

     atomic species   valence    mass     pseudopotential
        Al             3.00     1.00000     Al( 1.00)
        B              3.00     1.00000      B( 1.00)
        Ba            10.00     1.00000     Ba( 1.00)
        H              1.00     1.00000      H( 1.00)
        K              1.00     1.00000     K ( 1.00)

     No symmetry found



   Cartesian axes

     site n.     atom                  positions (alat units)
         1           K   tau(   1) = (   0.7495757   0.7946388   0.4410475  )
         2           K   tau(   2) = (   0.6669113   0.1984764   0.9504922  )
         3           Ba  tau(   3) = (   0.8599012   1.0991845   0.9776010  )
         4           Al  tau(   4) = (   0.4033780   0.5306381   0.6358867  )
         5           Al  tau(   5) = (   0.2478238   1.3122902   0.8447992  )
         6           B   tau(   6) = (   0.2285826   1.1908248   0.4500953  )
         7           B   tau(   7) = (   0.6854551   0.7827335   1.0499796  )
         8           B   tau(   8) = (   0.9948015   1.4063604   1.1239237  )
         9           B   tau(   9) = (   0.5652728   0.9355727   0.8343015  )
        10           B   tau(  10) = (   0.8187629   0.2487999   0.5674753  )
        11           B   tau(  11) = (   0.6678809   0.4171328   0.5894109  )
        12           B   tau(  12) = (   0.4507477   1.1308088   0.2759163  )
        13           H   tau(  13) = (   0.9438037   0.6502387   0.8391124  )
        14           H   tau(  14) = (   0.3802853   1.0971746   0.4264104  )
        15           H   tau(  15) = (   0.1921435   1.1109974   0.8827217  )
        16           H   tau(  16) = (   0.8892356   1.4123863   1.0096478  )
        17           H   tau(  17) = (   0.2011130   0.5423097   0.4078666  )
        18           H   tau(  18) = (   0.5606198   0.3624003   0.6991058  )
        19           H   tau(  19) = (   1.0716532   1.0242887   0.6873610  )
        20           H   tau(  20) = (   0.5524800   1.0602025   0.9261255  )
        21           H   tau(  21) = (   0.8410992   0.7615196   1.0505922  )
        22           H   tau(  22) = (   1.0692619   0.1131881   1.0623897  )
        23           H   tau(  23) = (   0.6424970   0.9754023   0.7041774  )
        24           H   tau(  24) = (   0.9680741   0.3728646   1.1018211  )
        25           H   tau(  25) = (   1.0365626   0.6498418   0.8678702  )
        26           H   tau(  26) = (   0.2551083   1.1773976   0.6012367  )
        27           H   tau(  27) = (   0.6395598   1.2844828   1.1614108  )
        28           H   tau(  28) = (   0.1707910   0.5679954   0.3188026  )
        29           H   tau(  29) = (   0.4339775   0.8661595   0.7979895  )
        30           H   tau(  30) = (   0.2065481   1.3375470   0.4039303  )
        31           H   tau(  31) = (   0.7444450   0.1196571   0.5090004  )
        32           H   tau(  32) = (   0.3678572   0.2768192   0.2230692  )
        33           H   tau(  33) = (   0.6809742   0.8177020   0.8781137  )
        34           H   tau(  34) = (   0.2711927   0.2716731   0.2184869  )
        35           H   tau(  35) = (   0.5564561  -0.0363967   0.2716975  )
        36           H   tau(  36) = (   0.9186085   0.4386240   1.0495288  )
        37           H   tau(  37) = (   0.4418810   1.3678343   0.8837401  )
        38           H   tau(  38) = (   0.9377534   0.3012155   0.4721401  )
        39           H   tau(  39) = (   0.8793851   0.2171191   0.7095072  )
        40           H   tau(  40) = (   0.6448524   0.8943419   1.1519803  )
        41           H   tau(  41) = (   0.5687480   0.4399879   0.4610271  )
        42           H   tau(  42) = (   0.7075448   0.5596219   0.6473195  )
        43           H   tau(  43) = (   0.6141926   0.6472463   1.0516646  )
        44           H   tau(  44) = (   0.5681239   0.0613286   0.2824726  )

     number of k points=    36  Methfessel-Paxton smearing, width (Ry)=  0.0100
                       cart. coord. in units 2pi/alat
        k(    1) = (   0.0000000   0.0000000   0.0000000), wk =   0.0312500
        k(    2) = (  -0.0839930  -0.0251880   0.2766851), wk =   0.0625000
        k(    3) = (   0.1679859   0.0503759  -0.5533701), wk =   0.0312500
        k(    4) = (   0.0212060   0.1771479  -0.0283279), wk =   0.0625000
        k(    5) = (  -0.0627870   0.1519599   0.2483572), wk =   0.0625000
        k(    6) = (   0.1891919   0.2275238  -0.5816980), wk =   0.0625000
        k(    7) = (   0.1051990   0.2023358  -0.3050129), wk =   0.0625000
        k(    8) = (  -0.0424120  -0.3542957   0.0566557), wk =   0.0312500
        k(    9) = (  -0.1264049  -0.3794837   0.3333408), wk =   0.0625000
        k(   10) = (   0.1255740  -0.3039198  -0.4967144), wk =   0.0312500
        k(   11) = (   0.2879123   0.0156365  -0.0854094), wk =   0.0625000
        k(   12) = (   0.2039193  -0.0095514   0.1912757), wk =   0.0625000
        k(   13) = (   0.4558982   0.0660125  -0.6387795), wk =   0.0625000
        k(   14) = (   0.3719052   0.0408245  -0.3620944), wk =   0.0625000
        k(   15) = (   0.3091182   0.1927844  -0.1137372), wk =   0.0625000
        k(   16) = (   0.2251253   0.1675965   0.1629478), wk =   0.0625000
        k(   17) = (   0.4771042   0.2431604  -0.6671073), wk =   0.0625000
        k(   18) = (   0.3931112   0.2179724  -0.3904223), wk =   0.0625000
        k(   19) = (   0.2455003  -0.3386592  -0.0287536), wk =   0.0625000
        k(   20) = (   0.1615073  -0.3638472   0.2479314), wk =   0.0625000
        k(   21) = (   0.4134862  -0.2882833  -0.5821237), wk =   0.0625000
        k(   22) = (   0.3294932  -0.3134712  -0.3054387), wk =   0.0625000
        k(   23) = (   0.2667063  -0.1615113  -0.0570815), wk =   0.0625000
        k(   24) = (   0.1827133  -0.1866993   0.2196036), wk =   0.0625000
        k(   25) = (   0.4346922  -0.1111354  -0.6104516), wk =   0.0625000
        k(   26) = (   0.3506992  -0.1363234  -0.3337666), wk =   0.0625000
        k(   27) = (  -0.5758245  -0.0312731   0.1708187), wk =   0.0312500
        k(   28) = (  -0.6598175  -0.0564611   0.4475038), wk =   0.0625000
        k(   29) = (  -0.4078386   0.0191028  -0.3825514), wk =   0.0312500
        k(   30) = (  -0.5546185   0.1458748   0.1424909), wk =   0.0625000
        k(   31) = (  -0.6386115   0.1206868   0.4191759), wk =   0.0625000
        k(   32) = (  -0.3866326   0.1962507  -0.4108792), wk =   0.0625000
        k(   33) = (  -0.4706256   0.1710627  -0.1341942), wk =   0.0625000
        k(   34) = (  -0.6182365  -0.3855688   0.2274744), wk =   0.0312500
        k(   35) = (  -0.7022294  -0.4107568   0.5041595), wk =   0.0625000
        k(   36) = (  -0.4502505  -0.3351929  -0.3258957), wk =   0.0312500

     Dense  grid:   532611 G-vectors     FFT dimensions: (  96, 135, 100)

     Smooth grid:   188283 G-vectors     FFT dimensions: (  72,  96,  72)

     Estimated max dynamical RAM per process >    1093.54MB

     Initial potential from superposition of free atoms

     starting charge   70.94048, renormalised to   71.00000
     Starting wfc are   89 randomized atomic wfcs
     Checking if some PAW data can be deallocated... 

     total cpu time spent up to now is      226.5 secs

     Self-consistent Calculation

     iteration #  1     ecut=    50.00 Ry     beta=0.70
     Davidson diagonalization with overlap
     ethr =  1.00E-02,  avg # of iterations =  2.0

     total cpu time spent up to now is      428.7 secs

     total energy              =    -286.80892698 Ry
     Harris-Foulkes estimate   =    -289.74672584 Ry
     estimated scf accuracy    <       4.62923277 Ry

     iteration #  2     ecut=    50.00 Ry     beta=0.70
     Davidson diagonalization with overlap
     ethr =  6.52E-03,  avg # of iterations =  3.8

     total cpu time spent up to now is      662.7 secs

     total energy              =    -285.18281455 Ry
     Harris-Foulkes estimate   =    -289.84446657 Ry
     estimated scf accuracy    <      12.00835263 Ry

     iteration #  3     ecut=    50.00 Ry     beta=0.70
     Davidson diagonalization with overlap
     ethr =  6.52E-03,  avg # of iterations =  4.0

     total cpu time spent up to now is      888.1 secs

     total energy              =    -287.79660588 Ry
     Harris-Foulkes estimate   =    -288.87968583 Ry
     estimated scf accuracy    <       3.30535675 Ry

     iteration #  4     ecut=    50.00 Ry     beta=0.70
     Davidson diagonalization with overlap
     ethr =  4.66E-03,  avg # of iterations =  2.0

     total cpu time spent up to now is     1066.4 secs

     total energy              =    -288.21341617 Ry
     Harris-Foulkes estimate   =    -288.36145395 Ry
     estimated scf accuracy    <       0.35585003 Ry

     iteration #  5     ecut=    50.00 Ry     beta=0.70
     Davidson diagonalization with overlap
     ethr =  5.01E-04,  avg # of iterations =  5.8

     total cpu time spent up to now is     1303.5 secs

     total energy              =    -288.25527154 Ry
     Harris-Foulkes estimate   =    -288.28018147 Ry
     estimated scf accuracy    <       0.06447567 Ry

     iteration #  6     ecut=    50.00 Ry     beta=0.70
     Davidson diagonalization with overlap
     ethr =  9.08E-05,  avg # of iterations =  3.0

     total cpu time spent up to now is     1511.1 secs

     total energy              =    -288.26234138 Ry
     Harris-Foulkes estimate   =    -288.26839705 Ry
     estimated scf accuracy    <       0.01884465 Ry

     iteration #  7     ecut=    50.00 Ry     beta=0.70
     Davidson diagonalization with overlap
     ethr =  2.65E-05,  avg # of iterations =  2.5

     total cpu time spent up to now is     1699.3 secs

     total energy              =    -288.26379301 Ry
     Harris-Foulkes estimate   =    -288.26495692 Ry
     estimated scf accuracy    <       0.00338351 Ry

     iteration #  8     ecut=    50.00 Ry     beta=0.70
     Davidson diagonalization with overlap
     ethr =  4.77E-06,  avg # of iterations =  4.6

     total cpu time spent up to now is     1916.6 secs

     total energy              =    -288.26417133 Ry
     Harris-Foulkes estimate   =    -288.26438811 Ry
     estimated scf accuracy    <       0.00071401 Ry

     iteration #  9     ecut=    50.00 Ry     beta=0.70
     Davidson diagonalization with overlap
     ethr =  1.01E-06,  avg # of iterations =  2.3

     total cpu time spent up to now is     2065.7 secs

     total energy              =    -288.26416031 Ry
     Harris-Foulkes estimate   =    -288.26422660 Ry
     estimated scf accuracy    <       0.00022652 Ry

     iteration # 10     ecut=    50.00 Ry     beta=0.70
     Davidson diagonalization with overlap
     ethr =  3.19E-07,  avg # of iterations =  2.0

     total cpu time spent up to now is     2181.6 secs

     total energy              =    -288.26414779 Ry
     Harris-Foulkes estimate   =    -288.26417387 Ry
     estimated scf accuracy    <       0.00008558 Ry

     iteration # 11     ecut=    50.00 Ry     beta=0.70
     Davidson diagonalization with overlap
     ethr =  1.21E-07,  avg # of iterations =  2.5

     total cpu time spent up to now is     2299.8 secs

     total energy              =    -288.26414148 Ry
     Harris-Foulkes estimate   =    -288.26415395 Ry
     estimated scf accuracy    <       0.00002533 Ry

     iteration # 12     ecut=    50.00 Ry     beta=0.70
     Davidson diagonalization with overlap
     ethr =  3.57E-08,  avg # of iterations =  2.9

     total cpu time spent up to now is     2428.4 secs

     total energy              =    -288.26414442 Ry
     Harris-Foulkes estimate   =    -288.26414560 Ry
     estimated scf accuracy    <       0.00000236 Ry

     iteration # 13     ecut=    50.00 Ry     beta=0.70
     Davidson diagonalization with overlap
     ethr =  3.32E-09,  avg # of iterations =  3.3

     total cpu time spent up to now is     2561.7 secs

     total energy              =    -288.26414495 Ry
     Harris-Foulkes estimate   =    -288.26414498 Ry
     estimated scf accuracy    <       0.00000006 Ry

     iteration # 14     ecut=    50.00 Ry     beta=0.70
     Davidson diagonalization with overlap
     ethr =  8.37E-11,  avg # of iterations =  3.2

     total cpu time spent up to now is     2723.1 secs

     End of self-consistent calculation

          k = 0.0000 0.0000 0.0000 ( 23539 PWs)   bands (ev):

   -27.5116 -13.4218 -13.0142 -12.9002 -10.5775 -10.2328  -9.6088  -8.1255
    -7.7944  -7.2707  -6.9987  -6.6186  -6.3187  -6.2139  -5.9846  -5.6700
    -5.6368  -5.5558  -5.0765  -4.4963  -4.4275  -4.4030  -4.3720  -4.1761
    -4.1120  -3.7205  -3.6309  -3.4906  -3.3134  -2.1616  -1.9977  -1.5972
    -1.4646  -1.0501  -0.2326   0.3141   1.7824   2.1531   2.5470   2.8222
     2.9304   3.0523   3.3429

          k =-0.0840-0.0252 0.2767 ( 23554 PWs)   bands (ev):

   -27.5116 -13.4214 -13.0244 -12.9039 -10.5112 -10.2313  -9.6105  -8.1102
    -7.9124  -7.2424  -7.0110  -6.7915  -6.2511  -6.1780  -5.9677  -5.7241
    -5.5603  -5.4626  -5.1574  -4.5084  -4.4242  -4.3752  -4.3580  -4.1461
    -4.0480  -3.7478  -3.6692  -3.4713  -3.3375  -2.1513  -1.9716  -1.5638
    -1.4727  -1.0638  -0.2606   0.4703   1.7433   2.1230   2.5317   2.6580
     2.9011   3.1569   3.3457

          k = 0.1680 0.0504-0.5534 ( 23518 PWs)   bands (ev):

   -27.5116 -13.4211 -13.0349 -12.9069 -10.4393 -10.2322  -9.6123  -8.0973
    -8.0231  -7.2114  -7.0289  -6.8903  -6.2755  -6.2139  -5.8882  -5.7228
    -5.4491  -5.3825  -5.2813  -4.5078  -4.4364  -4.3399  -4.3250  -4.1386
    -4.0035  -3.8087  -3.6607  -3.4521  -3.3656  -2.1384  -1.9503  -1.5276
    -1.4795  -1.0760  -0.2906   0.5804   1.7780   2.0605   2.5325   2.6807
     2.9425   3.1920   3.2577

          k = 0.0212 0.1771-0.0283 ( 23566 PWs)   bands (ev):

   -27.5116 -13.4218 -13.0142 -12.9002 -10.5751 -10.2347  -9.6100  -8.1243
    -7.7987  -7.2686  -7.0024  -6.6093  -6.3086  -6.2062  -6.0048  -5.7032
    -5.6439  -5.4997  -5.1000  -4.5033  -4.4357  -4.3875  -4.3586  -4.1753
    -4.1128  -3.7238  -3.6319  -3.4985  -3.3149  -2.1749  -1.9746  -1.5976
    -1.4632  -1.0504  -0.2361   0.3020   1.8099   2.1573   2.5554   2.7861
     2.9408   3.0885   3.3566

          k =-0.0628 0.1520 0.2484 ( 23543 PWs)   bands (ev):

   -27.5116 -13.4215 -13.0244 -12.9039 -10.5112 -10.2300  -9.6122  -8.1214
    -7.8959  -7.2603  -7.0005  -6.7858  -6.2651  -6.1457  -5.9887  -5.7304
    -5.5493  -5.4664  -5.1585  -4.4985  -4.4373  -4.3855  -4.3489  -4.1446
    -4.0543  -3.7449  -3.6635  -3.4689  -3.3387  -2.1726  -1.9452  -1.5665
    -1.4752  -1.0633  -0.2587   0.4715   1.7249   2.1373   2.5118   2.6587
     2.8912   3.1710   3.2955

          k = 0.1892 0.2275-0.5817 ( 23537 PWs)   bands (ev):

   -27.5116 -13.4211 -13.0349 -12.9069 -10.4394 -10.2307  -9.6136  -8.1182
    -8.0011  -7.2182  -7.0354  -6.8738  -6.2885  -6.1977  -5.8704  -5.7536
    -5.4408  -5.3856  -5.2833  -4.5009  -4.4346  -4.3513  -4.3308  -4.1338
    -4.0083  -3.7949  -3.6576  -3.4548  -3.3674  -2.1589  -1.9241  -1.5314
    -1.4848  -1.0747  -0.2874   0.5812   1.7702   2.0763   2.4831   2.6925
     2.9361   3.1546   3.2555

          k = 0.1052 0.2023-0.3050 ( 23566 PWs)   bands (ev):

   -27.5116 -13.4215 -13.0244 -12.9039 -10.5084 -10.2335  -9.6116  -8.1086
    -7.9171  -7.2486  -7.0013  -6.7843  -6.2593  -6.1558  -5.9915  -5.7150
    -5.5829  -5.4309  -5.1795  -4.5143  -4.4147  -4.3734  -4.3527  -4.1383
    -4.0542  -3.7435  -3.6691  -3.4799  -3.3454  -2.1604  -1.9514  -1.5641
    -1.4748  -1.0645  -0.2620   0.4578   1.7692   2.1180   2.5442   2.6593
     2.9271   3.1541   3.3734

          k =-0.0424-0.3543 0.0567 ( 23582 PWs)   bands (ev):

   -27.5116 -13.4219 -13.0142 -12.9002 -10.5728 -10.2366  -9.6112  -8.1231
    -7.8029  -7.2665  -7.0057  -6.6007  -6.2974  -6.1965  -6.0271  -5.7225
    -5.6542  -5.4502  -5.1282  -4.5108  -4.4334  -4.3827  -4.3442  -4.1766
    -4.1120  -3.7270  -3.6325  -3.5067  -3.3165  -2.1857  -1.9538  -1.5982
    -1.4618  -1.0508  -0.2396   0.2902   1.8386   2.1580   2.5659   2.7585
     2.9473   3.1381   3.3758

          k =-0.1264-0.3795 0.3333 ( 23557 PWs)   bands (ev):

   -27.5116 -13.4215 -13.0244 -12.9039 -10.5084 -10.2322  -9.6132  -8.1202
    -7.9005  -7.2654  -6.9920  -6.7784  -6.2702  -6.1178  -6.0209  -5.7244
    -5.5718  -5.4311  -5.1818  -4.5058  -4.4251  -4.3832  -4.3456  -4.1353
    -4.0618  -3.7403  -3.6629  -3.4779  -3.3466  -2.1790  -1.9273  -1.5670
    -1.4773  -1.0640  -0.2600   0.4590   1.7498   2.1321   2.5269   2.6653
     2.9080   3.1628   3.3121

          k = 0.1256-0.3039-0.4967 ( 23542 PWs)   bands (ev):

   -27.5116 -13.4211 -13.0350 -12.9069 -10.4396 -10.2291  -9.6150  -8.1332
    -7.9849  -7.2246  -7.0419  -6.8576  -6.2971  -6.1834  -5.8614  -5.7752
    -5.4392  -5.3851  -5.2852  -4.4951  -4.4283  -4.3702  -4.3324  -4.1280
    -4.0139  -3.7814  -3.6544  -3.4592  -3.3678  -2.1758  -1.9012  -1.5355
    -1.4900  -1.0735  -0.2842   0.5821   1.7633   2.0947   2.4296   2.7093
     2.9296   3.1196   3.2559

          k = 0.2879 0.0156-0.0854 ( 23557 PWs)   bands (ev):

   -27.5116 -13.4238 -13.0255 -12.9037 -10.4940 -10.2418  -9.6032  -8.1128
    -7.8917  -7.2538  -7.0370  -6.7697  -6.3487  -6.1321  -5.9061  -5.7200
    -5.5555  -5.5073  -5.1914  -4.5579  -4.4293  -4.3687  -4.3316  -4.1372
    -3.9930  -3.7634  -3.6559  -3.4323  -3.3472  -2.1333  -2.0142  -1.5723
    -1.4613  -1.1007  -0.2601   0.4751   1.8448   2.1894   2.5193   2.6700
     2.9599   3.1975   3.3179

          k = 0.2039-0.0096 0.1913 ( 23536 PWs)   bands (ev):

   -27.5116 -13.4245 -13.0151 -12.9008 -10.5461 -10.2513  -9.6059  -8.1280
    -7.7825  -7.2930  -7.0274  -6.6118  -6.4489  -6.1115  -5.9643  -5.6904
    -5.6437  -5.4407  -5.1198  -4.5692  -4.4312  -4.3888  -4.3332  -4.1788
    -4.0925  -3.7781  -3.5804  -3.4108  -3.3375  -2.1559  -2.0349  -1.5835
    -1.4616  -1.1029  -0.2303   0.3160   1.7697   2.1610   2.6071   2.6578
     2.8864   3.0945   3.3905

          k = 0.4559 0.0660-0.6388 ( 23528 PWs)   bands (ev):

   -27.5116 -13.4242 -13.0252 -12.9046 -10.4705 -10.2589  -9.6076  -8.1100
    -7.9066  -7.2591  -7.0418  -6.8174  -6.3279  -6.0857  -5.9571  -5.6981
    -5.5913  -5.3590  -5.2081  -4.5745  -4.4397  -4.3677  -4.3126  -4.1436
    -4.0393  -3.7598  -3.6501  -3.4211  -3.3411  -2.1414  -2.0174  -1.5547
    -1.4641  -1.1167  -0.2445   0.4631   1.7260   2.1305   2.5376   2.6778
     2.8374   3.1575   3.2947

          k = 0.3719 0.0408-0.3621 ( 23512 PWs)   bands (ev):

   -27.5116 -13.4235 -13.0359 -12.9068 -10.4156 -10.2491  -9.6049  -8.1059
    -7.9973  -7.2211  -7.0693  -6.8763  -6.3393  -6.1273  -5.8721  -5.7294
    -5.4597  -5.3908  -5.3337  -4.5369  -4.4455  -4.3613  -4.3039  -4.1319
    -3.9310  -3.7595  -3.7015  -3.4475  -3.3488  -2.1201  -1.9980  -1.5403
    -1.4654  -1.1120  -0.2791   0.5834   1.9035   2.1469   2.5112   2.6515
     2.9593   3.1775   3.2323

          k = 0.3091 0.1928-0.1137 ( 23555 PWs)   bands (ev):

   -27.5116 -13.4239 -13.0255 -12.9037 -10.4908 -10.2445  -9.6044  -8.0991
    -7.9168  -7.2462  -7.0296  -6.7578  -6.3551  -6.1283  -5.9225  -5.7178
    -5.5579  -5.5013  -5.1986  -4.5547  -4.4390  -4.3582  -4.3290  -4.1342
    -3.9945  -3.7570  -3.6543  -3.4425  -3.3504  -2.1514  -1.9901  -1.5724
    -1.4611  -1.1012  -0.2636   0.4652   1.8812   2.1868   2.5042   2.6465
     2.9909   3.2061   3.3196

          k = 0.2251 0.1676 0.1629 ( 23565 PWs)   bands (ev):

   -27.5116 -13.4246 -13.0151 -12.9008 -10.5440 -10.2525  -9.6070  -8.1247
    -7.7975  -7.2945  -7.0023  -6.6029  -6.4537  -6.1353  -5.9515  -5.6935
    -5.6360  -5.4593  -5.1170  -4.5908  -4.4178  -4.3578  -4.3378  -4.1869
    -4.0850  -3.7814  -3.5811  -3.4275  -3.3293  -2.1816  -2.0053  -1.5843
    -1.4635  -1.1026  -0.2249   0.3013   1.7839   2.1751   2.5828   2.6994
     2.9117   3.0495   3.3750

          k = 0.4771 0.2432-0.6671 ( 23529 PWs)   bands (ev):

   -27.5116 -13.4242 -13.0252 -12.9046 -10.4708 -10.2574  -9.6089  -8.1090
    -7.9135  -7.2667  -7.0292  -6.7986  -6.3260  -6.1253  -5.9323  -5.7118
    -5.5752  -5.3856  -5.1912  -4.5847  -4.4054  -4.3912  -4.3183  -4.1350
    -4.0516  -3.7604  -3.6277  -3.4249  -3.3422  -2.1769  -1.9823  -1.5599
    -1.4694  -1.1123  -0.2423   0.4663   1.7095   2.1436   2.5142   2.6727
     2.8322   3.1412   3.3266

          k = 0.3931 0.2180-0.3904 ( 23521 PWs)   bands (ev):

   -27.5116 -13.4235 -13.0359 -12.9068 -10.4151 -10.2484  -9.6064  -8.0856
    -8.0235  -7.2215  -7.0773  -6.8460  -6.3263  -6.1668  -5.8714  -5.7174
    -5.4697  -5.3835  -5.3322  -4.5459  -4.4375  -4.3764  -4.3044  -4.1254
    -3.9413  -3.7416  -3.6847  -3.4498  -3.3584  -2.1459  -1.9698  -1.5436
    -1.4700  -1.1082  -0.2814   0.5861   1.9163   2.1312   2.4538   2.6460
     2.9653   3.1906   3.2810

          k = 0.2455-0.3387-0.0288 ( 23566 PWs)   bands (ev):

   -27.5116 -13.4239 -13.0255 -12.9037 -10.4909 -10.2434  -9.6054  -8.1023
    -7.9106  -7.2460  -7.0450  -6.7527  -6.3534  -6.0987  -5.9473  -5.7106
    -5.5865  -5.4634  -5.2119  -4.5549  -4.4458  -4.3703  -4.3164  -4.1351
    -4.0030  -3.7564  -3.6431  -3.4291  -3.3608  -2.1602  -1.9796  -1.5727
    -1.4608  -1.1011  -0.2687   0.4689   1.8752   2.1712   2.5083   2.5847
     2.9806   3.2646   3.3163

          k = 0.1615-0.3638 0.2479 ( 23575 PWs)   bands (ev):

   -27.5116 -13.4246 -13.0151 -12.9008 -10.5422 -10.2540  -9.6074  -8.1237
    -7.8018  -7.2939  -7.0094  -6.5928  -6.4478  -6.1044  -5.9828  -5.7210
    -5.6397  -5.4037  -5.1531  -4.5949  -4.4125  -4.3648  -4.3280  -4.1640
    -4.1011  -3.7804  -3.5880  -3.4303  -3.3286  -2.1799  -2.0006  -1.5836
    -1.4679  -1.1001  -0.2286   0.2926   1.8098   2.1662   2.5439   2.7269
     2.9167   3.0266   3.4868

          k = 0.4135-0.2883-0.5821 ( 23539 PWs)   bands (ev):

   -27.5116 -13.4243 -13.0252 -12.9046 -10.4690 -10.2586  -9.6092  -8.1173
    -7.9035  -7.2916  -7.0064  -6.7897  -6.3343  -6.1202  -5.9193  -5.7411
    -5.5632  -5.3738  -5.2108  -4.5919  -4.4169  -4.3532  -4.3254  -4.1167
    -4.0625  -3.7654  -3.6354  -3.4289  -3.3414  -2.1813  -1.9710  -1.5598
    -1.4745  -1.1141  -0.2362   0.4539   1.7203   2.1592   2.5248   2.6361
     2.8613   3.1038   3.3291

          k = 0.3295-0.3135-0.3054 ( 23525 PWs)   bands (ev):

   -27.5116 -13.4235 -13.0359 -12.9068 -10.4162 -10.2461  -9.6073  -8.1063
    -7.9998  -7.2268  -7.0862  -6.8355  -6.3410  -6.1435  -5.8553  -5.7389
    -5.4710  -5.3717  -5.3464  -4.5508  -4.4132  -4.4013  -4.2964  -4.1305
    -3.9437  -3.7342  -3.6857  -3.4528  -3.3532  -2.1633  -1.9514  -1.5439
    -1.4709  -1.1114  -0.2774   0.5866   1.9059   2.1349   2.4334   2.6070
     3.0035   3.1874   3.2583

          k = 0.2667-0.1615-0.0571 ( 23538 PWs)   bands (ev):

   -27.5116 -13.4239 -13.0255 -12.9037 -10.4941 -10.2408  -9.6042  -8.1154
    -7.8859  -7.2539  -7.0522  -6.7646  -6.3466  -6.1047  -5.9307  -5.7119
    -5.5828  -5.4712  -5.2032  -4.5602  -4.4281  -4.3878  -4.3184  -4.1379
    -4.0011  -3.7631  -3.6449  -3.4181  -3.3582  -2.1452  -2.0007  -1.5725
    -1.4610  -1.1007  -0.2652   0.4787   1.8376   2.1771   2.5276   2.5953
     2.9535   3.2679   3.3105

          k = 0.1827-0.1867 0.2196 ( 23539 PWs)   bands (ev):

   -27.5116 -13.4246 -13.0151 -12.9008 -10.5442 -10.2528  -9.6063  -8.1270
    -7.7869  -7.2923  -7.0340  -6.6020  -6.4436  -6.0651  -6.0114  -5.7181
    -5.6435  -5.3865  -5.1578  -4.5750  -4.4211  -4.3959  -4.3260  -4.1510
    -4.1140  -3.7771  -3.5870  -3.4148  -3.3358  -2.1548  -2.0298  -1.5828
    -1.4660  -1.1003  -0.2340   0.3071   1.7949   2.1547   2.5526   2.6955
     2.8962   3.0727   3.4833

          k = 0.4347-0.1111-0.6105 ( 23535 PWs)   bands (ev):

   -27.5116 -13.4243 -13.0252 -12.9046 -10.4687 -10.2602  -9.6079  -8.1181
    -7.8969  -7.2867  -7.0153  -6.8100  -6.3364  -6.0819  -5.9426  -5.7268
    -5.5817  -5.3391  -5.2338  -4.5845  -4.4346  -4.3436  -4.3192  -4.1298
    -4.0458  -3.7653  -3.6575  -3.4253  -3.3403  -2.1492  -2.0029  -1.5543
    -1.4694  -1.1186  -0.2383   0.4508   1.7373   2.1433   2.5440   2.6525
     2.8714   3.1042   3.3053

          k = 0.3507-0.1363-0.3338 ( 23525 PWs)   bands (ev):

   -27.5116 -13.4235 -13.0359 -12.9068 -10.4167 -10.2468  -9.6057  -8.1198
    -7.9805  -7.2268  -7.0787  -6.8655  -6.3504  -6.1073  -5.8483  -5.7586
    -5.4641  -5.3730  -5.3511  -4.5420  -4.4335  -4.3732  -4.2958  -4.1379
    -3.9330  -3.7509  -3.7042  -3.4488  -3.3446  -2.1434  -1.9739  -1.5404
    -1.4662  -1.1152  -0.2751   0.5838   1.8933   2.1510   2.4939   2.6023
     3.0066   3.1575   3.2264

          k =-0.5758-0.0313 0.1708 ( 23530 PWs)   bands (ev):

   -27.5115 -13.4259 -13.0369 -12.9068 -10.3848 -10.2732  -9.5975  -8.1117
    -7.9740  -7.2342  -7.1027  -6.8619  -6.3610  -6.0817  -5.8555  -5.7357
    -5.5248  -5.3936  -5.3485  -4.5602  -4.4473  -4.3663  -4.2942  -4.1244
    -3.8340  -3.7894  -3.6665  -3.4865  -3.3228  -2.1197  -2.0191  -1.5471
    -1.4695  -1.1478  -0.2591   0.5870   2.0202   2.2673   2.4755   2.5766
     3.0355   3.1395   3.2268

          k =-0.6598-0.0565 0.4475 ( 23499 PWs)   bands (ev):

   -27.5116 -13.4266 -13.0263 -12.9044 -10.4483 -10.2743  -9.6001  -8.1150
    -7.8821  -7.2743  -7.0684  -6.7898  -6.3801  -6.0970  -5.8901  -5.6903
    -5.5877  -5.4192  -5.2369  -4.5985  -4.4393  -4.3518  -4.3084  -4.1277
    -3.9872  -3.8036  -3.5849  -3.4391  -3.3283  -2.1296  -2.0464  -1.5626
    -1.4635  -1.1530  -0.2385   0.4683   1.8315   2.2014   2.5458   2.5870
     2.9050   3.0864   3.3382

          k =-0.4078 0.0191-0.3826 ( 23538 PWs)   bands (ev):

   -27.5116 -13.4273 -13.0161 -12.9014 -10.5098 -10.2744  -9.6029  -8.1310
    -7.7678  -7.3173  -7.0564  -6.5969  -6.5294  -6.0673  -5.9448  -5.7003
    -5.6365  -5.3019  -5.2152  -4.6262  -4.4138  -4.3893  -4.3023  -4.1766
    -4.0822  -3.8092  -3.5217  -3.3979  -3.3358  -2.1467  -2.0677  -1.5803
    -1.4563  -1.1549  -0.2256   0.3177   1.7633   2.1794   2.5437   2.6996
     2.7911   3.0035   3.4116

          k =-0.5546 0.1459 0.1425 ( 23524 PWs)   bands (ev):

   -27.5115 -13.4260 -13.0369 -12.9068 -10.3854 -10.2717  -9.5985  -8.0976
    -7.9918  -7.2351  -7.1125  -6.8361  -6.3671  -6.0930  -5.8603  -5.7191
    -5.5182  -5.4151  -5.3373  -4.5718  -4.4396  -4.3740  -4.2883  -4.1308
    -3.8484  -3.7730  -3.6524  -3.4826  -3.3299  -2.1253  -2.0133  -1.5476
    -1.4686  -1.1492  -0.2640   0.5904   2.0317   2.2370   2.4407   2.5520
     3.0716   3.1370   3.2342

          k =-0.6386 0.1207 0.4192 ( 23525 PWs)   bands (ev):

   -27.5116 -13.4267 -13.0263 -12.9044 -10.4460 -10.2761  -9.6006  -8.1090
    -7.8969  -7.2851  -7.0441  -6.7783  -6.3861  -6.1116  -5.8857  -5.7038
    -5.5593  -5.4326  -5.2446  -4.5975  -4.4382  -4.3465  -4.3041  -4.1338
    -3.9778  -3.8093  -3.5900  -3.4360  -3.3283  -2.1462  -2.0312  -1.5603
    -1.4634  -1.1566  -0.2352   0.4570   1.8539   2.1982   2.5205   2.5874
     2.9154   3.1000   3.3485

          k =-0.3866 0.1963-0.4109 ( 23512 PWs)   bands (ev):

   -27.5116 -13.4273 -13.0161 -12.9014 -10.5084 -10.2752  -9.6031  -8.1276
    -7.7857  -7.3173  -7.0347  -6.5843  -6.5324  -6.0978  -5.9266  -5.7142
    -5.6237  -5.3072  -5.2178  -4.6419  -4.4092  -4.3671  -4.3092  -4.1629
    -4.0903  -3.8101  -3.5267  -3.3925  -3.3381  -2.1586  -2.0567  -1.5797
    -1.4632  -1.1525  -0.2208   0.3062   1.7784   2.1801   2.5544   2.6538
     2.7943   3.0262   3.4270

          k =-0.4706 0.1711-0.1342 ( 23510 PWs)   bands (ev):

   -27.5116 -13.4266 -13.0263 -12.9044 -10.4489 -10.2729  -9.6009  -8.1052
    -7.9003  -7.2590  -7.0857  -6.7714  -6.3868  -6.0813  -5.9114  -5.6818
    -5.5973  -5.4070  -5.2439  -4.5988  -4.4307  -4.3828  -4.2964  -4.1174
    -4.0059  -3.7914  -3.5685  -3.4371  -3.3346  -2.1352  -2.0408  -1.5655
    -1.4694  -1.1470  -0.2460   0.4751   1.8265   2.1906   2.4850   2.5970
     2.9151   3.1076   3.3493

          k =-0.6182-0.3856 0.2275 ( 23518 PWs)   bands (ev):

   -27.5115 -13.4260 -13.0369 -12.9068 -10.3860 -10.2702  -9.5994  -8.0761
    -8.0168  -7.2360  -7.1214  -6.8094  -6.3759  -6.1032  -5.8641  -5.7029
    -5.5135  -5.4297  -5.3318  -4.5832  -4.4236  -4.3926  -4.2794  -4.1377
    -3.8594  -3.7598  -3.6372  -3.4811  -3.3364  -2.1305  -2.0078  -1.5481
    -1.4677  -1.1506  -0.2689   0.5937   2.0462   2.2025   2.4130   2.5287
     3.0984   3.1393   3.2452

          k =-0.7022-0.4108 0.5042 ( 23539 PWs)   bands (ev):

   -27.5116 -13.4267 -13.0263 -12.9044 -10.4466 -10.2747  -9.6013  -8.0980
    -7.9159  -7.2721  -7.0600  -6.7583  -6.3933  -6.0989  -5.9042  -5.6991
    -5.5656  -5.4197  -5.2524  -4.5958  -4.4385  -4.3693  -4.2931  -4.1250
    -3.9961  -3.7965  -3.5732  -3.4341  -3.3345  -2.1507  -2.0269  -1.5630
    -1.4697  -1.1505  -0.2427   0.4639   1.8496   2.1852   2.4713   2.5874
     2.9230   3.1287   3.3550

          k =-0.4503-0.3352-0.3259 ( 23516 PWs)   bands (ev):

   -27.5116 -13.4274 -13.0161 -12.9014 -10.5070 -10.2761  -9.6034  -8.1239
    -7.8031  -7.3173  -7.0137  -6.5679  -6.5386  -6.1225  -5.9144  -5.7333
    -5.6039  -5.3166  -5.2191  -4.6559  -4.4029  -4.3396  -4.3251  -4.1433
    -4.1043  -3.8116  -3.5304  -3.3878  -3.3404  -2.1685  -2.0478  -1.5791
    -1.4701  -1.1501  -0.2159   0.2948   1.7947   2.1765   2.5777   2.6066
     2.7942   3.0494   3.4425

     the Fermi energy is     0.4634 ev

!    total energy              =    -288.26414497 Ry
     Harris-Foulkes estimate   =    -288.26414498 Ry
     estimated scf accuracy    <          9.1E-09 Ry

     The total energy is the sum of the following terms:

     one-electron contribution =     -95.48920727 Ry
     hartree contribution      =      64.81925254 Ry
     xc contribution           =     -97.72018369 Ry
     ewald contribution        =     -53.97640479 Ry
     one-center paw contrib.   =    -105.89670439 Ry
     smearing contrib. (-TS)   =      -0.00089737 Ry

     convergence has been achieved in  14 iterations

     Writing output data file 00_K2BaAl2B7H32_Monster.save

     init_run     :    385.89s CPU    225.81s WALL (       1 calls)
     electrons    :   4603.89s CPU   2496.73s WALL (       1 calls)

     Called by init_run:
     wfcinit      :    238.81s CPU     87.02s WALL (       1 calls)
     potinit      :     46.69s CPU     46.58s WALL (       1 calls)

     Called by electrons:
     c_bands      :   3330.59s CPU   2013.48s WALL (      14 calls)
     sum_band     :   1061.81s CPU    406.88s WALL (      14 calls)
     v_of_rho     :     25.16s CPU     16.70s WALL (      15 calls)
     newd         :    179.02s CPU     52.92s WALL (      15 calls)
     PAW_pot      :     17.52s CPU      8.19s WALL (      15 calls)
     mix_rho      :      2.86s CPU      2.32s WALL (      14 calls)

     Called by c_bands:
     init_us_2    :     43.27s CPU     39.34s WALL (    1044 calls)
     cegterg      :   3246.41s CPU   1920.05s WALL (     504 calls)

     Called by sum_band:
     sum_band:bec :      5.09s CPU      4.45s WALL (     504 calls)
     addusdens    :    337.97s CPU     62.42s WALL (      14 calls)

     Called by *egterg:
     h_psi        :   2875.55s CPU   1336.32s WALL (    2115 calls)
     s_psi        :    205.38s CPU    194.79s WALL (    2115 calls)
     g_psi        :      4.91s CPU      5.11s WALL (    1575 calls)
     cdiaghg      :     63.84s CPU    113.82s WALL (    2079 calls)

     Called by h_psi:
     h_psi:pot    :   2866.25s CPU   1326.46s WALL (    2115 calls)
     h_psi:calbec :    196.72s CPU    196.85s WALL (    2115 calls)
     vloc_psi     :   2464.42s CPU    932.97s WALL (    2115 calls)
     add_vuspsi   :    204.98s CPU    196.61s WALL (    2115 calls)

     General routines
     calbec       :    269.02s CPU    273.94s WALL (    2619 calls)
     fft          :     17.17s CPU      5.80s WALL (     236 calls)
     ffts         :      0.30s CPU      0.30s WALL (      29 calls)
     fftw         :   2078.16s CPU    714.65s WALL (  136970 calls)
     interpolate  :      2.53s CPU      1.54s WALL (      29 calls)
     davcio       :      0.08s CPU      0.38s WALL (      36 calls)

     Parallel routines
     fft_scatter  :    154.91s CPU    250.12s WALL (  137235 calls)

     PWSCF        :     1h23m CPU        0h45m WALL


   This run was terminated on:  19:28:31  24Nov2025            

=------------------------------------------------------------------------------=
   JOB DONE.
=------------------------------------------------------------------------------=
