
     Program PWSCF v.6.1 starts on 24Nov2025 at 19:28:31 

     This program is part of the open-source Quantum ESPRESSO suite
     for quantum simulation of materials; please cite
         "P. Giannozzi et al., J. Phys.:Condens. Matter 21 395502 (2009);
          URL http://www.quantum-espresso.org", 
     in publications or presentations arising from this work. More details at
     http://www.quantum-espresso.org/quote

     Parallel version (MPI & OpenMP), running on      12 processor cores
     Number of MPI processes:                 1
     Threads/MPI process:                    12
     Waiting for input...
     Reading input from standard input

     Current dimensions of program PWSCF are:
     Max number of different atomic species (ntypx) = 10
     Max number of k-points (npk) =  40000
     Max angular momentum in pseudopotentials (lmaxx) =  3

     Atomic positions and unit cell read from directory:
     ./tmp/00_K2BaAl2B7H32_Monster.save/

               file Al.UPF: wavefunction(s)  3S 3P renormalized
               file H.UPF: wavefunction(s)  1S renormalized

     Subspace diagonalization in iterative solution of the eigenvalue problem:
     a serial algorithm will be used


     G-vector sticks info
     --------------------
     sticks:   dense  smooth     PW     G-vecs:    dense   smooth      PW
     Sum        9899    4955   1395               532611   188283   28407



     bravais-lattice index     =            0
     lattice parameter (alat)  =      14.7142  a.u.
     unit-cell volume          =    3942.2407 (a.u.)^3
     number of atoms/cell      =           44
     number of atomic types    =            5
     number of electrons       =        71.00
     number of Kohn-Sham states=           43
     kinetic-energy cutoff     =      50.0000  Ry
     charge density cutoff     =     400.0000  Ry
     Exchange-correlation      =  SLA  PW   PBX  PBC ( 1  4  3  4 0 0)

     celldm(1)=  14.714198  celldm(2)=   0.000000  celldm(3)=   0.000000
     celldm(4)=   0.000000  celldm(5)=   0.000000  celldm(6)=   0.000000

     crystal axes: (cart. coord. in units of alat)
               a(1) = (   0.956327  -0.069061   0.284024 )  
               a(2) = (  -0.043066   1.435208   0.117580 )  
               a(3) = (   0.290797   0.125623   1.003267 )  

     reciprocal axes: (cart. coord. in units 2 pi/alat)
               b(1) = (  1.151649  0.062546 -0.341637 )  
               b(2) = (  0.084824  0.708591 -0.113311 )  
               b(3) = ( -0.335972 -0.100752  1.106740 )  


     PseudoPot. # 1 for Al read from file:
     C:/Users/Acer/Desktop/Quantum_Espresso/pseudo/Al.UPF
     MD5 check sum: e89421766d8034880bfd87239630352a
     Pseudo is Projector augmented-wave + core cor, Zval =  3.0
     Generated using "atomic" code by A. Dal Corso  v.5.1.2
     Shape of augmentation charge: PSQ
     Using radial grid of 1135 points,  6 beta functions with: 
                l(1) =   0
                l(2) =   0
                l(3) =   1
                l(4) =   1
                l(5) =   2
                l(6) =   2
     Q(r) pseudized with 0 coefficients 


     PseudoPot. # 2 for  B read from file:
     C:/Users/Acer/Desktop/Quantum_Espresso/pseudo/B.UPF
     MD5 check sum: 07a2b2e539a360f5bda43965cc3a01bd
     Pseudo is Projector augmented-wave + core cor, Zval =  3.0
     Generated using "atomic" code by A. Dal Corso  v.5.1.2
     Shape of augmentation charge: PSQ
     Using radial grid of 1059 points,  4 beta functions with: 
                l(1) =   0
                l(2) =   0
                l(3) =   1
                l(4) =   1
     Q(r) pseudized with 0 coefficients 


     PseudoPot. # 3 for Ba read from file:
     C:/Users/Acer/Desktop/Quantum_Espresso/pseudo/Ba.UPF
     MD5 check sum: e855fb33cc70e888b5d6463e2113a79c
     Pseudo is Ultrasoft + core correction, Zval = 10.0
     Generated by new atomic code, or converted to UPF format
     Using radial grid of  907 points,  6 beta functions with: 
                l(1) =   0
                l(2) =   0
                l(3) =   1
                l(4) =   1
                l(5) =   2
                l(6) =   2
     Q(r) pseudized with  6 coefficients,  rinner =    1.200   1.200   1.200
                                                       1.200   1.200

     PseudoPot. # 4 for  H read from file:
     C:/Users/Acer/Desktop/Quantum_Espresso/pseudo/H.UPF
     MD5 check sum: f872269930354f4c44a8fadb7eac41ed
     Pseudo is Projector augmented-wave, Zval =  1.0
     Generated using "atomic" code by A. Dal Corso  v.5.1.2
     Shape of augmentation charge: PSQ
     Using radial grid of  929 points,  2 beta functions with: 
                l(1) =   0
                l(2) =   0
     Q(r) pseudized with 0 coefficients 


     PseudoPot. # 5 for K  read from file:
     C:/Users/Acer/Desktop/Quantum_Espresso/pseudo/K.UPF
     MD5 check sum: 86a9a9c3c3350590e9a8cd52a3b0554c
     Pseudo is Norm-conserving + core correction, Zval =  1.0
     Generated by new atomic code, or converted to UPF format
     Using radial grid of 1165 points,  2 beta functions with: 
                l(1) =   0
                l(2) =   1

     atomic species   valence    mass     pseudopotential
        Al             3.00     1.00000     Al( 1.00)
        B              3.00     1.00000      B( 1.00)
        Ba            10.00     1.00000     Ba( 1.00)
        H              1.00     1.00000      H( 1.00)
        K              1.00     1.00000     K ( 1.00)

     No symmetry found



   Cartesian axes

     site n.     atom                  positions (alat units)
         1           K   tau(   1) = (   0.7495757   0.7946388   0.4410475  )
         2           K   tau(   2) = (   0.6669113   0.1984764   0.9504922  )
         3           Ba  tau(   3) = (   0.8599012   1.0991845   0.9776010  )
         4           Al  tau(   4) = (   0.4033780   0.5306381   0.6358867  )
         5           Al  tau(   5) = (   0.2478238   1.3122902   0.8447992  )
         6           B   tau(   6) = (   0.2285826   1.1908248   0.4500953  )
         7           B   tau(   7) = (   0.6854551   0.7827335   1.0499796  )
         8           B   tau(   8) = (   0.9948015   1.4063604   1.1239237  )
         9           B   tau(   9) = (   0.5652728   0.9355727   0.8343015  )
        10           B   tau(  10) = (   0.8187629   0.2487999   0.5674753  )
        11           B   tau(  11) = (   0.6678809   0.4171328   0.5894109  )
        12           B   tau(  12) = (   0.4507477   1.1308088   0.2759163  )
        13           H   tau(  13) = (   0.9438037   0.6502387   0.8391124  )
        14           H   tau(  14) = (   0.3802853   1.0971746   0.4264104  )
        15           H   tau(  15) = (   0.1921435   1.1109974   0.8827217  )
        16           H   tau(  16) = (   0.8892356   1.4123863   1.0096478  )
        17           H   tau(  17) = (   0.2011130   0.5423097   0.4078666  )
        18           H   tau(  18) = (   0.5606198   0.3624003   0.6991058  )
        19           H   tau(  19) = (   1.0716532   1.0242887   0.6873610  )
        20           H   tau(  20) = (   0.5524800   1.0602025   0.9261255  )
        21           H   tau(  21) = (   0.8410992   0.7615196   1.0505922  )
        22           H   tau(  22) = (   1.0692619   0.1131881   1.0623897  )
        23           H   tau(  23) = (   0.6424970   0.9754023   0.7041774  )
        24           H   tau(  24) = (   0.9680741   0.3728646   1.1018211  )
        25           H   tau(  25) = (   1.0365626   0.6498418   0.8678702  )
        26           H   tau(  26) = (   0.2551083   1.1773976   0.6012367  )
        27           H   tau(  27) = (   0.6395598   1.2844828   1.1614108  )
        28           H   tau(  28) = (   0.1707910   0.5679954   0.3188026  )
        29           H   tau(  29) = (   0.4339775   0.8661595   0.7979895  )
        30           H   tau(  30) = (   0.2065481   1.3375470   0.4039303  )
        31           H   tau(  31) = (   0.7444450   0.1196571   0.5090004  )
        32           H   tau(  32) = (   0.3678572   0.2768192   0.2230692  )
        33           H   tau(  33) = (   0.6809742   0.8177020   0.8781137  )
        34           H   tau(  34) = (   0.2711927   0.2716731   0.2184869  )
        35           H   tau(  35) = (   0.5564561  -0.0363967   0.2716975  )
        36           H   tau(  36) = (   0.9186085   0.4386240   1.0495288  )
        37           H   tau(  37) = (   0.4418810   1.3678343   0.8837401  )
        38           H   tau(  38) = (   0.9377534   0.3012155   0.4721401  )
        39           H   tau(  39) = (   0.8793851   0.2171191   0.7095072  )
        40           H   tau(  40) = (   0.6448524   0.8943419   1.1519803  )
        41           H   tau(  41) = (   0.5687480   0.4399879   0.4610271  )
        42           H   tau(  42) = (   0.7075448   0.5596219   0.6473195  )
        43           H   tau(  43) = (   0.6141926   0.6472463   1.0516646  )
        44           H   tau(  44) = (   0.5681239   0.0613286   0.2824726  )

     number of k points=   260 (tetrahedron method)

     Number of k-points >= 100: set verbosity='high' to print them.

     Dense  grid:   532611 G-vectors     FFT dimensions: (  96, 135, 100)

     Smooth grid:   188283 G-vectors     FFT dimensions: (  72,  96,  72)

     Estimated max dynamical RAM per process >     389.53MB

     The potential is recalculated from file :
     ./tmp/00_K2BaAl2B7H32_Monster.save/charge-density.dat

     Starting wfc are   89 randomized atomic wfcs
     Checking if some PAW data can be deallocated... 

     Band Structure Calculation
     Davidson diagonalization with overlap

     ethr =  1.41E-11,  avg # of iterations = 40.7

     total cpu time spent up to now is     9222.9 secs

     End of band structure calculation

     Number of k-points >= 100: set verbosity='high' to print the bands.

     the Fermi energy is     0.4648 ev

     Writing output data file 00_K2BaAl2B7H32_Monster.save

     init_run     :    113.94s CPU    106.66s WALL (       1 calls)
     electrons    :  14960.00s CPU   9115.36s WALL (       1 calls)

     Called by init_run:
     wfcinit      :      0.00s CPU      0.00s WALL (       1 calls)
     potinit      :      2.56s CPU      1.37s WALL (       1 calls)

     Called by electrons:
     c_bands      :  14959.88s CPU   9115.24s WALL (       1 calls)
     v_of_rho     :      1.00s CPU      0.81s WALL (       1 calls)
     newd         :     11.09s CPU      2.69s WALL (       1 calls)
     PAW_pot      :      1.27s CPU      0.42s WALL (       1 calls)

     Called by c_bands:
     init_us_2    :      9.02s CPU      9.72s WALL (     260 calls)
     cegterg      :  13240.19s CPU   8506.30s WALL (     649 calls)

     Called by sum_band:

     Called by *egterg:
     h_psi        :  11321.44s CPU   5203.26s WALL (   11501 calls)
     s_psi        :    888.52s CPU    767.06s WALL (   11501 calls)
     g_psi        :     26.23s CPU     28.36s WALL (   10592 calls)
     cdiaghg      :    444.23s CPU    772.12s WALL (   10852 calls)

     Called by h_psi:
     h_psi:pot    :  11286.48s CPU   5165.88s WALL (   11501 calls)
     h_psi:calbec :    807.28s CPU    759.78s WALL (   11501 calls)
     vloc_psi     :   9585.20s CPU   3623.65s WALL (   11501 calls)
     add_vuspsi   :    893.55s CPU    782.33s WALL (   11501 calls)

     General routines
     calbec       :    807.00s CPU    759.73s WALL (   11501 calls)
     fft          :      0.62s CPU      0.28s WALL (      13 calls)
     ffts         :      0.00s CPU      0.01s WALL (       1 calls)
     fftw         :   6555.34s CPU   2304.92s WALL (  456106 calls)
     interpolate  :      0.16s CPU      0.05s WALL (       1 calls)
     davcio       :      2.08s CPU      3.03s WALL (     260 calls)

     Parallel routines
     fft_scatter  :    479.41s CPU    779.04s WALL (  456120 calls)

     PWSCF        :     4h11m CPU        2h33m WALL


   This run was terminated on:  22: 2:15  24Nov2025            

=------------------------------------------------------------------------------=
   JOB DONE.
=------------------------------------------------------------------------------=
