
     Program PWSCF v.6.7MaX starts on  3Feb2026 at 11:34:47 

     This program is part of the open-source Quantum ESPRESSO suite
     for quantum simulation of materials; please cite
         "P. Giannozzi et al., J. Phys.:Condens. Matter 21 395502 (2009);
         "P. Giannozzi et al., J. Phys.:Condens. Matter 29 465901 (2017);
          URL http://www.quantum-espresso.org", 
     in publications or presentations arising from this work. More details at
     http://www.quantum-espresso.org/quote

     Parallel version (MPI), running on     2 processors

     MPI processes distributed on     1 nodes
     R & G space division:  proc/nbgrp/npool/nimage =       2
     Waiting for input...
     Reading input from standard input

     Current dimensions of program PWSCF are:
     Max number of different atomic species (ntypx) = 10
     Max number of k-points (npk) =  40000
     Max angular momentum in pseudopotentials (lmaxx) =  3
     Message from routine read_pp_mesh:
     mismatch in mesh size, discarding the one in header
     file H.UPF: wavefunction(s)  1S renormalized

     Subspace diagonalization in iterative solution of the eigenvalue problem:
     a serial algorithm will be used

     Message from routine setup:
     using ibrav=0 with symmetry is DISCOURAGED, use correct ibrav instead

     Parallelization info
     --------------------
     sticks:   dense  smooth     PW     G-vecs:    dense   smooth      PW
     Min        2088    1044    301               153923    54405    8439
     Max        2089    1045    302               153926    54408    8440
     Sum        4177    2089    603               307849   108813   16879



     bravais-lattice index     =            0
     lattice parameter (alat)  =       6.7361  a.u.
     unit-cell volume          =    2277.7343 (a.u.)^3
     number of atoms/cell      =           24
     number of atomic types    =            4
     number of electrons       =        39.00
     number of Kohn-Sham states=           24
     kinetic-energy cutoff     =      50.0000  Ry
     charge density cutoff     =     400.0000  Ry
     scf convergence threshold =      1.0E-06
     mixing beta               =       0.7000
     number of iterations used =            8  plain     mixing
     energy convergence thresh.=      1.0E-04
     force convergence thresh. =      1.0E-03
     press convergence thresh. =      5.0E-01
     Exchange-correlation= SLA PW PBX PBC
                           (   1   4   3   4   0   0   0)
     nstep                     =           50


     celldm(1)=   6.736069  celldm(2)=   0.000000  celldm(3)=   0.000000
     celldm(4)=   0.000000  celldm(5)=   0.000000  celldm(6)=   0.000000

     crystal axes: (cart. coord. in units of alat)
               a(1) = (   1.000000  -0.000000   0.000000 )  
               a(2) = (  -0.000000   2.877151  -0.139281 )  
               a(3) = (   0.000000  -0.150495   2.597411 )  

     reciprocal axes: (cart. coord. in units 2 pi/alat)
               b(1) = (  1.000000  0.000000  0.000000 )  
               b(2) = (  0.000000  0.348544  0.020195 )  
               b(3) = (  0.000000  0.018690  0.386082 )  


     PseudoPot. # 1 for B  read from file:
     /home/marco/ZOS_Cloud_Compute/pseudo/B.UPF
     MD5 check sum: d9c678ba5d3b2fd7b74e61139c9288d8
     Pseudo is Projector augmented-wave + core cor, Zval =  3.0
     Generated using "atomic" code by A. Dal Corso  v.5.1.2
     Shape of augmentation charge: PSQ
     Using radial grid of 1059 points,  4 beta functions with: 
                l(1) =   0
                l(2) =   0
                l(3) =   1
                l(4) =   1
     Q(r) pseudized with 0 coefficients 


     PseudoPot. # 2 for H  read from file:
     /home/marco/ZOS_Cloud_Compute/pseudo/H.UPF
     MD5 check sum: 850d63dcbcc06c5de8b44e0ab9f952da
     Pseudo is Projector augmented-wave, Zval =  1.0
     Generated using "atomic" code by A. Dal Corso  v.5.1.2
     Shape of augmentation charge: PSQ
     Using radial grid of  929 points,  2 beta functions with: 
                l(1) =   0
                l(2) =   0
     Q(r) pseudized with 0 coefficients 


     PseudoPot. # 3 for K  read from file:
     /home/marco/ZOS_Cloud_Compute/pseudo/K.UPF
     MD5 check sum: 0975f8d1feef6b2899f42b1061589f29
     Pseudo is Norm-conserving + core correction, Zval =  1.0
     Generated by new atomic code, or converted to UPF format
     Using radial grid of 1165 points,  2 beta functions with: 
                l(1) =   0
                l(2) =   1

     PseudoPot. # 4 for Mg read from file:
     /home/marco/ZOS_Cloud_Compute/pseudo/Mg.UPF
     MD5 check sum: a77e51077e70c6c73445c6cac60d158f
     Pseudo is Projector augmented-wave + core cor, Zval = 10.0
     Generated using ATOMPAW code
     Shape of augmentation charge: BESSEL
     Using radial grid of 1171 points,  6 beta functions with: 
                l(1) =   0
                l(2) =   0
                l(3) =   0
                l(4) =   0
                l(5) =   1
                l(6) =   1
     Q(r) pseudized with 0 coefficients 


     atomic species   valence    mass     pseudopotential
        B              3.00     1.00000     B ( 1.00)
        H              1.00     1.00000     H ( 1.00)
        K              1.00     1.00000     K ( 1.00)
        Mg            10.00     1.00000     Mg( 1.00)

      2 Sym. Ops. (no inversion) found ( 1 have fractional translation)



   Cartesian axes

     site n.     atom                  positions (alat units)
         1           K   tau(   1) = (   0.7499999   0.5783148   0.6279572  )
         2           K   tau(   2) = (   0.2500001   2.0585562   1.8532941  )
         3           K   tau(   3) = (   0.2500001   0.6454721   1.9427937  )
         4           K   tau(   4) = (   0.7500001   2.0434770   0.5296664  )
         5           B   tau(   5) = (   0.7500001   2.6892139   2.3994233  )
         6           B   tau(   6) = (   0.2500001   0.0415045   0.0575168  )
         7           B   tau(   7) = (   0.2500001   1.5610707   0.9888999  )
         8           Mg  tau(   8) = (   0.7500001   1.3239100   1.3377517  )
         9           H   tau(   9) = (   0.3557603   1.7928628  -0.0619575  )
        10           H   tau(  10) = (   0.8557048   0.9210559   2.5585919  )
        11           H   tau(  11) = (   0.6442383   2.4298194   1.2199155  )
        12           H   tau(  12) = (   0.1443626   0.2067198   1.2237911  )
        13           H   tau(  13) = (   0.6442955   0.9210559   2.5585919  )
        14           H   tau(  14) = (   0.1442397   1.7928628  -0.0619575  )
        15           H   tau(  15) = (   0.3556374   0.2067201   1.2237911  )
        16           H   tau(  16) = (   0.8557617   2.4298194   1.2199152  )
        17           H   tau(  17) = (   0.7500001   1.4363433   1.8476362  )
        18           H   tau(  18) = (   0.2500001   1.4423440   0.6555283  )
        19           H   tau(  19) = (   0.2499999   2.8021247   0.2517945  )
        20           H   tau(  20) = (   0.7500001  -0.0650268   2.2077805  )
        21           H   tau(  21) = (   0.7500001   2.3340396   2.4149480  )
        22           H   tau(  22) = (   0.2499999   0.3957393   0.0397789  )
        23           H   tau(  23) = (   0.2500001   1.9076740   1.0614663  )
        24           H   tau(  24) = (   0.7500001   0.8242045   1.4006392  )

     number of k points=     8  Methfessel-Paxton smearing, width (Ry)=  0.0200
                       cart. coord. in units 2pi/alat
        k(    1) = (   0.0000000   0.0000000   0.0000000), wk =   0.2500000
        k(    2) = (   0.0000000  -0.0093450  -0.1930408), wk =   0.2500000
        k(    3) = (   0.0000000  -0.1742718  -0.0100974), wk =   0.2500000
        k(    4) = (   0.0000000  -0.1836168  -0.2031382), wk =   0.2500000
        k(    5) = (  -0.5000000   0.0000000   0.0000000), wk =   0.2500000
        k(    6) = (  -0.5000000  -0.0093450  -0.1930408), wk =   0.2500000
        k(    7) = (  -0.5000000  -0.1742718  -0.0100974), wk =   0.2500000
        k(    8) = (  -0.5000000  -0.1836168  -0.2031382), wk =   0.2500000

     Dense  grid:   307849 G-vectors     FFT dimensions: (  48, 125, 120)

     Smooth grid:   108813 G-vectors     FFT dimensions: (  32,  90,  80)

     Estimated max dynamical RAM per process >     395.53 MB

     Estimated total dynamical RAM >     791.07 MB

     Initial potential from superposition of free atoms

     starting charge   38.92284, renormalised to   39.00000
     Starting wfcs are   54 randomized atomic wfcs
     Checking if some PAW data can be deallocated... 

     total cpu time spent up to now is       32.8 secs

     Self-consistent Calculation

     iteration #  1     ecut=    50.00 Ry     beta= 0.70
     Davidson diagonalization with overlap
     ethr =  1.00E-02,  avg # of iterations =  2.6

     total cpu time spent up to now is       39.2 secs

     total energy              =    -196.77501109 Ry
     estimated scf accuracy    <       2.40830886 Ry

     iteration #  2     ecut=    50.00 Ry     beta= 0.70
     Davidson diagonalization with overlap
     ethr =  6.18E-03,  avg # of iterations =  3.5

     total cpu time spent up to now is       45.9 secs

     total energy              =    -195.43178418 Ry
     estimated scf accuracy    <       7.75296656 Ry

     iteration #  3     ecut=    50.00 Ry     beta= 0.70
     Davidson diagonalization with overlap
     ethr =  6.18E-03,  avg # of iterations =  3.8

     total cpu time spent up to now is       52.2 secs

     total energy              =    -197.37976852 Ry
     estimated scf accuracy    <       1.10125658 Ry

     iteration #  4     ecut=    50.00 Ry     beta= 0.70
     Davidson diagonalization with overlap
     ethr =  2.82E-03,  avg # of iterations =  2.0

     total cpu time spent up to now is       57.7 secs

     total energy              =    -197.46845493 Ry
     estimated scf accuracy    <       0.32400890 Ry

     iteration #  5     ecut=    50.00 Ry     beta= 0.70
     Davidson diagonalization with overlap
     ethr =  8.31E-04,  avg # of iterations =  2.0

     total cpu time spent up to now is       63.0 secs

     total energy              =    -197.44636616 Ry
     estimated scf accuracy    <       0.13762747 Ry

     iteration #  6     ecut=    50.00 Ry     beta= 0.70
     Davidson diagonalization with overlap
     ethr =  3.53E-04,  avg # of iterations =  2.4

     total cpu time spent up to now is       68.6 secs

     total energy              =    -197.43940971 Ry
     estimated scf accuracy    <       0.04413863 Ry

     iteration #  7     ecut=    50.00 Ry     beta= 0.70
     Davidson diagonalization with overlap
     ethr =  1.13E-04,  avg # of iterations =  5.4

     total cpu time spent up to now is       74.9 secs

     total energy              =    -197.44266546 Ry
     estimated scf accuracy    <       0.00293503 Ry

     iteration #  8     ecut=    50.00 Ry     beta= 0.70
     Davidson diagonalization with overlap
     ethr =  7.53E-06,  avg # of iterations =  8.4

     total cpu time spent up to now is       82.6 secs

     total energy              =    -197.44288298 Ry
     estimated scf accuracy    <       0.00440394 Ry

     iteration #  9     ecut=    50.00 Ry     beta= 0.70
     Davidson diagonalization with overlap
     ethr =  7.53E-06,  avg # of iterations =  1.9

     total cpu time spent up to now is       87.9 secs

     total energy              =    -197.44348005 Ry
     estimated scf accuracy    <       0.00044569 Ry

     iteration # 10     ecut=    50.00 Ry     beta= 0.70
     Davidson diagonalization with overlap
     ethr =  1.14E-06,  avg # of iterations =  3.2

     total cpu time spent up to now is       93.6 secs

     total energy              =    -197.44349610 Ry
     estimated scf accuracy    <       0.00020593 Ry

     iteration # 11     ecut=    50.00 Ry     beta= 0.70
     Davidson diagonalization with overlap
     ethr =  5.28E-07,  avg # of iterations =  1.9

     total cpu time spent up to now is       98.9 secs

     total energy              =    -197.44351783 Ry
     estimated scf accuracy    <       0.00001591 Ry

     iteration # 12     ecut=    50.00 Ry     beta= 0.70
     Davidson diagonalization with overlap
     ethr =  4.08E-08,  avg # of iterations =  4.0

     total cpu time spent up to now is      105.1 secs

     total energy              =    -197.44352043 Ry
     estimated scf accuracy    <       0.00000827 Ry

     iteration # 13     ecut=    50.00 Ry     beta= 0.70
     Davidson diagonalization with overlap
     ethr =  2.12E-08,  avg # of iterations =  2.2

     total cpu time spent up to now is      110.3 secs

     End of self-consistent calculation

          k = 0.0000 0.0000 0.0000 ( 13611 PWs)   bands (ev):

   -73.1950 -40.3082 -40.2728 -40.2680  -8.5730  -8.2992  -8.1396  -7.7335
    -7.6610  -7.2888  -4.4335  -4.3448  -4.0397  -3.3941  -1.5165  -0.9154
    -0.5244   0.2272   1.7968   2.5496   2.5992   2.8060   3.7334   4.0798

          k = 0.0000-0.0093-0.1930 ( 13668 PWs)   bands (ev):

   -73.1950 -40.3082 -40.2728 -40.2680  -8.4993  -8.3894  -8.1253  -7.7244
    -7.6772  -7.2922  -4.4043  -4.3540  -4.0221  -3.3743  -1.5420  -0.9289
    -0.6004   0.2273   1.5156   2.5994   2.9133   3.3215   3.5388   3.9777

          k = 0.0000-0.1743-0.0101 ( 13638 PWs)   bands (ev):

   -73.1950 -40.3082 -40.2728 -40.2680  -8.5106  -8.3293  -8.2216  -7.7515
    -7.6144  -7.2554  -4.4167  -4.3773  -4.0405  -3.4036  -1.5321  -0.8910
    -0.5293   0.2272   1.8490   2.5424   2.5993   2.9298   3.7301   4.0313

          k = 0.0000-0.1836-0.2031 ( 13600 PWs)   bands (ev):

   -73.1950 -40.3082 -40.2728 -40.2680  -8.4643  -8.3140  -8.2771  -7.7774
    -7.6128  -7.2491  -4.4095  -4.3597  -4.0320  -3.3783  -1.5398  -0.9500
    -0.5863   0.2273   1.5556   2.5995   3.0658   3.3942   3.5584   3.7374

          k =-0.5000 0.0000 0.0000 ( 13588 PWs)   bands (ev):

   -73.1948 -40.3078 -40.2778 -40.2676  -7.7016  -7.5747  -7.4900  -7.2365
    -7.1863  -6.3250  -6.2562  -4.0869  -2.5412  -2.4058  -2.3529  -1.0282
    -0.7239  -0.4162  -0.2677  -0.2355   2.0417   2.2756   2.3213   2.8032

          k =-0.5000-0.0093-0.1930 ( 13580 PWs)   bands (ev):

   -73.1948 -40.3078 -40.2778 -40.2676  -7.6972  -7.5740  -7.4902  -7.2422
    -7.1864  -6.3271  -6.2575  -4.0816  -2.5358  -2.4025  -2.3588  -1.0166
    -0.7426  -0.4043  -0.2802  -0.2398   2.1580   2.2806   2.4400   2.8014

          k =-0.5000-0.1743-0.0101 ( 13548 PWs)   bands (ev):

   -73.1948 -40.3078 -40.2778 -40.2676  -7.7013  -7.5743  -7.4900  -7.2280
    -7.1953  -6.3258  -6.2570  -4.0851  -2.5483  -2.4041  -2.3457  -1.0182
    -0.7147  -0.3980  -0.2745  -0.2412   2.0429   2.1954   2.2730   2.6720

          k =-0.5000-0.1836-0.2031 ( 13580 PWs)   bands (ev):

   -73.1948 -40.3078 -40.2778 -40.2676  -7.6970  -7.5740  -7.4899  -7.2343
    -7.1946  -6.3279  -6.2584  -4.0804  -2.5410  -2.4005  -2.3542  -1.0140
    -0.7364  -0.3954  -0.2717  -0.2253   2.0850   2.2124   2.3689   2.7394

     the Fermi energy is     1.9394 ev

!    total energy              =    -197.44352140 Ry
     estimated scf accuracy    <       0.00000093 Ry
     smearing contrib. (-TS)   =       0.00107316 Ry
     internal energy E=F+TS    =    -197.44459456 Ry

     The total energy is F=E-TS. E is the sum of the following terms:
     one-electron contribution =    -190.88750201 Ry
     hartree contribution      =      72.48965218 Ry
     xc contribution           =     -35.25941861 Ry
     ewald contribution        =     -35.73549845 Ry
     one-center paw contrib.   =      -8.05182767 Ry

     convergence has been achieved in  13 iterations

     Forces acting on atoms (cartesian axes, Ry/au):

     atom    1 type  3   force =     0.00000000   -0.00933645   -0.00843489
     atom    2 type  3   force =     0.00000000    0.00819977    0.01371769
     atom    3 type  3   force =     0.00000000   -0.00690164   -0.00159668
     atom    4 type  3   force =     0.00000000    0.02381185   -0.01687839
     atom    5 type  1   force =     0.00000000   -0.03420108   -0.03778796
     atom    6 type  1   force =     0.00000000    0.03247859    0.03504637
     atom    7 type  1   force =     0.00000000   -0.00253234   -0.00075890
     atom    8 type  4   force =     0.00000000   -0.01413584    0.01900877
     atom    9 type  2   force =    -0.00933724   -0.00299724   -0.00441395
     atom   10 type  2   force =     0.00678339    0.00259943    0.00233883
     atom   11 type  2   force =    -0.00166527    0.00197804   -0.00102560
     atom   12 type  2   force =     0.00005740   -0.00028939    0.00374856
     atom   13 type  2   force =    -0.00678339    0.00259943    0.00233883
     atom   14 type  2   force =     0.00933724   -0.00299724   -0.00441395
     atom   15 type  2   force =    -0.00005740   -0.00028939    0.00374856
     atom   16 type  2   force =     0.00166527    0.00197804   -0.00102560
     atom   17 type  2   force =     0.00000000    0.01069227    0.01249680
     atom   18 type  2   force =     0.00000000    0.02922725    0.01002133
     atom   19 type  2   force =     0.00000000    0.00328300    0.02894649
     atom   20 type  2   force =     0.00000000   -0.00640582   -0.02748484
     atom   21 type  2   force =     0.00000000   -0.02509969   -0.01387022
     atom   22 type  2   force =     0.00000000    0.02836327    0.01602997
     atom   23 type  2   force =     0.00000000   -0.00629960   -0.02748922
     atom   24 type  2   force =     0.00000000   -0.03372522   -0.00226195

     Total force =     0.117678     Total SCF correction =     0.000722


     Computing stress (Cartesian axis) and pressure

          total   stress  (Ry/bohr**3)                   (kbar)     P=       -0.99
  -0.00006380   0.00000000   0.00000000           -9.38        0.00        0.00
   0.00000000  -0.00003077  -0.00004161            0.00       -4.53       -6.12
   0.00000000  -0.00004161   0.00007443            0.00       -6.12       10.95


     BFGS Geometry Optimization
     Energy error            =      0.0E+00
     Gradient error          =      3.8E-02
     Cell gradient error     =      7.4E-05


     number of scf cycles    =   1
     number of bfgs steps    =   0

     enthalpy new            =    -197.4435214049 Ry

     new trust radius        =       0.0509670848 bohr
     new conv_thr            =       0.0000010000 Ry

     new unit-cell volume =   2276.57784 a.u.^3 (   337.35403 Ang^3 )
     density =      0.11813 g/cm^3

CELL_PARAMETERS (angstrom)
   3.558888932  -0.000000000   0.000000000
  -0.000000000  10.248445068  -0.508071302
   0.000000000  -0.545668472   9.276450249

ATOMIC_POSITIONS (angstrom)
K             2.6691661996        2.0525993557        2.2359540317
K             0.8897227321        7.3296867845        6.6181315671
K             0.8897227321        2.2882104612        6.9348821325
K             2.6691671980        7.2891571926        1.8750095986
B             2.6691671980        9.5515662574        8.5388504839
B             0.8897227321        0.1647733216        0.2238129701
B             0.8897227321        5.5552654269        3.5253768222
Mg            2.6691671980        4.7030988172        4.7825645448
H             1.2611783020        6.3845225167       -0.2302493447
H             3.0489421518        3.2725320314        9.1350839849
H             2.2918926420        8.6511304369        4.3470159172
H             0.5138006150        0.7316081855        4.3716321958
H             2.2893922441        3.2725320314        9.1350839849
H             0.5182661638        6.3845225167       -0.2302493447
H             1.2656438509        0.7316091847        4.3716321948
H             3.0464407555        8.6511304379        4.3470149153
H             2.6691671980        5.1148087708        6.5995845627
H             0.8897227321        5.1504047559        2.3409756431
H             0.8897217337        9.9814827316        0.9041643582
H             2.6691671980       -0.2431731921        7.8701140864
H             2.6691671980        8.2912371055        8.6082847065
H             0.8897217337        1.4243980366        0.1490743118
H             0.8897227321        6.7875615140        3.7690716179
H             2.6691671980        2.9126524666        4.9977354331



     Writing output data file ./tmp/K4MgB3H16.save/
