
     Program PWSCF v.6.1 starts on 23Nov2025 at 20: 3:28 

     This program is part of the open-source Quantum ESPRESSO suite
     for quantum simulation of materials; please cite
         "P. Giannozzi et al., J. Phys.:Condens. Matter 21 395502 (2009);
          URL http://www.quantum-espresso.org", 
     in publications or presentations arising from this work. More details at
     http://www.quantum-espresso.org/quote

     Parallel version (MPI & OpenMP), running on      12 processor cores
     Number of MPI processes:                 1
     Threads/MPI process:                    12
     Reading input from 1_scf.in

     Current dimensions of program PWSCF are:
     Max number of different atomic species (ntypx) = 10
     Max number of k-points (npk) =  40000
     Max angular momentum in pseudopotentials (lmaxx) =  3
               file H.UPF: wavefunction(s)  1S renormalized
               file Hf.UPF: wavefunction(s)  5P 4F renormalized

     Subspace diagonalization in iterative solution of the eigenvalue problem:
     a serial algorithm will be used


     G-vector sticks info
     --------------------
     sticks:   dense  smooth     PW     G-vecs:    dense   smooth      PW
     Sum        1589     793    303                26689     9413    2225



     bravais-lattice index     =            0
     lattice parameter (alat)  =       7.4942  a.u.
     unit-cell volume          =     197.4136 (a.u.)^3
     number of atoms/cell      =            4
     number of atomic types    =            2
     number of electrons       =        39.00
     number of Kohn-Sham states=           24
     kinetic-energy cutoff     =      50.0000  Ry
     charge density cutoff     =     400.0000  Ry
     convergence threshold     =      1.0E-08
     mixing beta               =       0.7000
     number of iterations used =            8  plain     mixing
     Exchange-correlation      =  SLA  PW   PBX  PBC ( 1  4  3  4 0 0)

     celldm(1)=   7.494164  celldm(2)=   0.000000  celldm(3)=   0.000000
     celldm(4)=   0.000000  celldm(5)=   0.000000  celldm(6)=   0.000000

     crystal axes: (cart. coord. in units of alat)
               a(1) = (  -0.371172   0.371164   0.851157 )  
               a(2) = (   0.371161  -0.371169   0.851157 )  
               a(3) = (   0.371172   0.371169  -0.851163 )  

     reciprocal axes: (cart. coord. in units 2 pi/alat)
               b(1) = (  0.000004  1.347108  0.587439 )  
               b(2) = (  1.347108  0.000004  0.587443 )  
               b(3) = (  1.347104  1.347104  0.000012 )  


     PseudoPot. # 1 for  H read from file:
     C:/Users/Acer/Desktop/Quantum_Espresso_Workspace/Inputs/pseudo/H.UPF
     MD5 check sum: 850d63dcbcc06c5de8b44e0ab9f952da
     Pseudo is Projector augmented-wave, Zval =  1.0
     Generated using "atomic" code by A. Dal Corso  v.5.1.2
     Shape of augmentation charge: PSQ
     Using radial grid of  929 points,  2 beta functions with: 
                l(1) =   0
                l(2) =   0
     Q(r) pseudized with 0 coefficients 


     PseudoPot. # 2 for Hf read from file:
     C:/Users/Acer/Desktop/Quantum_Espresso_Workspace/Inputs/pseudo/Hf.UPF
     MD5 check sum: 054ab3954715fe03e42536d2af1a941a
     Pseudo is Projector augmented-wave + core cor, Zval = 36.0
     Generated using "atomic" code by A. Dal Corso  v.5.1.2
     Shape of augmentation charge: PSQ
     Using radial grid of 1271 points,  8 beta functions with: 
                l(1) =   0
                l(2) =   0
                l(3) =   1
                l(4) =   1
                l(5) =   2
                l(6) =   2
                l(7) =   3
                l(8) =   3
     Q(r) pseudized with 0 coefficients 


     atomic species   valence    mass     pseudopotential
        H              1.00     1.00000      H( 1.00)
        Hf            36.00     1.00000     Hf( 1.00)

     No symmetry found



   Cartesian axes

     site n.     atom                  positions (alat units)
         1           Hf  tau(   1) = (   0.0000076  -0.0000050  -0.0000832  )
         2           H   tau(   2) = (  -0.0000050   0.3711665   0.4256153  )
         3           H   tau(   3) = (   0.3711614  -0.0000000   0.4256103  )
         4           H   tau(   4) = (  -0.0000076  -0.0000025   0.8511726  )

     number of k points=    36  Methfessel-Paxton smearing, width (Ry)=  0.0100
                       cart. coord. in units 2pi/alat
        k(    1) = (   0.0000000   0.0000000   0.0000000), wk =   0.0312500
        k(    2) = (   0.3367761   0.3367761   0.0000030), wk =   0.0625000
        k(    3) = (  -0.6735522  -0.6735522  -0.0000060), wk =   0.0312500
        k(    4) = (   0.3367771   0.0000010   0.1468608), wk =   0.0625000
        k(    5) = (   0.6735532   0.3367771   0.1468638), wk =   0.0625000
        k(    6) = (  -0.3367751  -0.6735512   0.1468548), wk =   0.0625000
        k(    7) = (   0.0000010  -0.3367751   0.1468578), wk =   0.0625000
        k(    8) = (  -0.6735542  -0.0000020  -0.2937217), wk =   0.0312500
        k(    9) = (  -0.3367781   0.3367741  -0.2937187), wk =   0.0625000
        k(   10) = (  -1.3471065  -0.6735542  -0.2937277), wk =   0.0312500
        k(   11) = (   0.0000010   0.3367771   0.1468598), wk =   0.0625000
        k(   12) = (   0.3367771   0.6735532   0.1468628), wk =   0.0625000
        k(   13) = (  -0.6735512  -0.3367751   0.1468539), wk =   0.0625000
        k(   14) = (  -0.3367751   0.0000010   0.1468568), wk =   0.0625000
        k(   15) = (   0.3367781   0.3367781   0.2937207), wk =   0.0625000
        k(   16) = (   0.6735542   0.6735542   0.2937237), wk =   0.0625000
        k(   17) = (  -0.3367741  -0.3367741   0.2937147), wk =   0.0625000
        k(   18) = (   0.0000020   0.0000020   0.2937177), wk =   0.0625000
        k(   19) = (  -0.6735532   0.3367751  -0.1468618), wk =   0.0625000
        k(   20) = (  -0.3367771   0.6735512  -0.1468588), wk =   0.0625000
        k(   21) = (  -1.3471055  -0.3367771  -0.1468678), wk =   0.0625000
        k(   22) = (  -1.0103294  -0.0000010  -0.1468648), wk =   0.0625000
        k(   23) = (  -0.3367761   0.3367761  -0.0000010), wk =   0.0625000
        k(   24) = (   0.0000000   0.6735522   0.0000020), wk =   0.0625000
        k(   25) = (  -1.0103284  -0.3367761  -0.0000070), wk =   0.0625000
        k(   26) = (  -0.6735522  -0.0000000  -0.0000040), wk =   0.0625000
        k(   27) = (  -0.0000020  -0.6735542  -0.2937197), wk =   0.0312500
        k(   28) = (   0.3367741  -0.3367781  -0.2937167), wk =   0.0625000
        k(   29) = (  -0.6735542  -1.3471065  -0.2937257), wk =   0.0312500
        k(   30) = (   0.3367751  -0.6735532  -0.1468588), wk =   0.0625000
        k(   31) = (   0.6735512  -0.3367771  -0.1468558), wk =   0.0625000
        k(   32) = (  -0.3367771  -1.3471055  -0.1468648), wk =   0.0625000
        k(   33) = (  -0.0000010  -1.0103294  -0.1468618), wk =   0.0625000
        k(   34) = (  -0.6735562  -0.6735562  -0.5874413), wk =   0.0312500
        k(   35) = (  -0.3367801  -0.3367801  -0.5874384), wk =   0.0625000
        k(   36) = (  -1.3471085  -1.3471085  -0.5874473), wk =   0.0312500

     Dense  grid:    26689 G-vectors     FFT dimensions: (  48,  48,  48)

     Smooth grid:     9413 G-vectors     FFT dimensions: (  36,  36,  36)

     Estimated max dynamical RAM per process >      38.97MB

     Check: negative/imaginary core charge=   -0.000005    0.000000

     Initial potential from superposition of free atoms

     starting charge   38.99803, renormalised to   39.00000
     Starting wfc are   25 randomized atomic wfcs
     Checking if some PAW data can be deallocated... 

     total cpu time spent up to now is        8.7 secs

     Self-consistent Calculation

     iteration #  1     ecut=    50.00 Ry     beta=0.70
     Davidson diagonalization with overlap
     ethr =  1.00E-02,  avg # of iterations =  3.0

     total cpu time spent up to now is       14.8 secs

     total energy              =   -1987.62431916 Ry
     Harris-Foulkes estimate   =   -1988.55539168 Ry
     estimated scf accuracy    <       1.30819051 Ry

     iteration #  2     ecut=    50.00 Ry     beta=0.70
     Davidson diagonalization with overlap
     ethr =  3.35E-03,  avg # of iterations =  2.0

     total cpu time spent up to now is       21.1 secs

     total energy              =   -1987.91925138 Ry
     Harris-Foulkes estimate   =   -1988.22129646 Ry
     estimated scf accuracy    <       0.41013104 Ry

     iteration #  3     ecut=    50.00 Ry     beta=0.70
     Davidson diagonalization with overlap
     ethr =  1.05E-03,  avg # of iterations =  2.1

     total cpu time spent up to now is       28.3 secs

     total energy              =   -1988.03655562 Ry
     Harris-Foulkes estimate   =   -1988.04722247 Ry
     estimated scf accuracy    <       0.01992068 Ry

     iteration #  4     ecut=    50.00 Ry     beta=0.70
     Davidson diagonalization with overlap
     ethr =  5.11E-05,  avg # of iterations =  2.5

     total cpu time spent up to now is       35.1 secs

     total energy              =   -1988.04057497 Ry
     Harris-Foulkes estimate   =   -1988.04162212 Ry
     estimated scf accuracy    <       0.00213410 Ry

     iteration #  5     ecut=    50.00 Ry     beta=0.70
     Davidson diagonalization with overlap
     ethr =  5.47E-06,  avg # of iterations =  2.6

     total cpu time spent up to now is       40.8 secs

     total energy              =   -1988.04098614 Ry
     Harris-Foulkes estimate   =   -1988.04099424 Ry
     estimated scf accuracy    <       0.00005585 Ry

     iteration #  6     ecut=    50.00 Ry     beta=0.70
     Davidson diagonalization with overlap
     ethr =  1.43E-07,  avg # of iterations =  2.2

     total cpu time spent up to now is       46.3 secs

     total energy              =   -1988.04099360 Ry
     Harris-Foulkes estimate   =   -1988.04099390 Ry
     estimated scf accuracy    <       0.00000525 Ry

     iteration #  7     ecut=    50.00 Ry     beta=0.70
     Davidson diagonalization with overlap
     ethr =  1.35E-08,  avg # of iterations =  1.7

     total cpu time spent up to now is       51.2 secs

     total energy              =   -1988.04099390 Ry
     Harris-Foulkes estimate   =   -1988.04099387 Ry
     estimated scf accuracy    <       0.00000013 Ry

     iteration #  8     ecut=    50.00 Ry     beta=0.70
     Davidson diagonalization with overlap
     ethr =  3.39E-10,  avg # of iterations =  2.0

     total cpu time spent up to now is       56.8 secs

     End of self-consistent calculation

          k = 0.0000 0.0000 0.0000 (  1195 PWs)   bands (ev):

  -163.3860-162.4590-162.4590-160.7772-160.3559 -46.7999 -15.3574 -14.8713
   -14.8712  -1.7605  -1.7478  -1.7373  -1.7373  -1.7154  -1.6797  -1.6797
     4.5841  11.2526  14.3241  17.1060  18.7231  18.7231  21.5894  21.9315

          k = 0.3368 0.3368 0.0000 (  1185 PWs)   bands (ev):

  -162.8356-161.4104-161.3217-160.5772-160.2428 -46.7467 -15.3082 -15.2887
   -15.2446  -1.7782  -1.7470  -1.7439  -1.6789  -1.6780  -1.6771  -1.6631
     7.0736  12.4007  12.4443  16.5686  16.8027  17.3590  23.8337  23.8608

          k =-0.6736-0.6736-0.0000 (  1164 PWs)   bands (ev):

  -160.9299-160.1861-160.0518-159.1686-158.7570 -46.6941 -15.6339 -15.5986
   -15.2234  -1.7540  -1.7268  -1.6824  -1.6373  -1.6146  -1.6078  -1.6043
     8.6081  10.5097  12.6956  17.2109  17.6030  20.1722  21.9964  24.4426

          k = 0.3368 0.0000 0.1469 (  1187 PWs)   bands (ev):

  -162.4591-161.5261-161.3292-161.2096-160.0971 -46.7726 -15.3577 -15.3194
   -14.8337  -1.7638  -1.7490  -1.7215  -1.7201  -1.6728  -1.6598  -1.6547
     6.1726  11.8236  13.3063  15.4481  19.2423  19.7807  19.8665  22.0132

          k = 0.6736 0.3368 0.1469 (  1174 PWs)   bands (ev):

  -161.9995-161.2419-160.5673-159.6583-158.9477 -46.7197 -15.6943 -15.2730
   -15.2181  -1.7657  -1.7234  -1.6991  -1.6729  -1.6669  -1.6472  -1.6025
     9.3066  10.2022  12.1391  16.6463  18.1200  19.1663  21.5815  23.0954

          k =-0.3368-0.6736 0.1469 (  1174 PWs)   bands (ev):

  -162.0003-161.2420-160.5665-159.6588-158.9469 -46.7197 -15.6943 -15.2730
   -15.2181  -1.7657  -1.7235  -1.6991  -1.6729  -1.6669  -1.6472  -1.6024
     9.3066  10.2023  12.1391  16.6464  18.1198  19.1664  21.5816  23.0953

          k = 0.0000-0.3368 0.1469 (  1187 PWs)   bands (ev):

  -162.4596-161.5263-161.3282-161.2094-160.0976 -46.7726 -15.3577 -15.3194
   -14.8337  -1.7638  -1.7490  -1.7214  -1.7200  -1.6728  -1.6599  -1.6547
     6.1726  11.8236  13.3064  15.4482  19.2423  19.7807  19.8663  22.0132

          k =-0.6736-0.0000-0.2937 (  1180 PWs)   bands (ev):

  -163.0337-160.7022-160.3866-160.2879-159.8979 -46.7452 -15.7718 -15.3206
   -14.7958  -1.7647  -1.7454  -1.7381  -1.6880  -1.6720  -1.6345  -1.6011
     9.0156  10.0204  13.9844  14.3192  18.0282  18.3614  20.4891  24.4407

          k =-0.3368 0.3368-0.2937 (  1176 PWs)   bands (ev):

  -161.7126-161.5642-160.9059-159.7622-158.9419 -46.7458 -15.3432 -15.2840
   -15.2568  -1.7555  -1.7239  -1.6955  -1.6806  -1.6766  -1.6311  -1.6269
     7.7702  11.1346  12.7304  17.2888  17.2986  18.6995  20.5321  22.6007

          k =-1.3471-0.6736-0.2937 (  1180 PWs)   bands (ev):

  -163.0346-160.7029-160.3858-160.2878-159.8968 -46.7452 -15.7718 -15.3206
   -14.7958  -1.7647  -1.7454  -1.7381  -1.6880  -1.6720  -1.6345  -1.6010
     9.0155  10.0203  13.9845  14.3193  18.0282  18.3612  20.4891  24.4407

          k = 0.0000 0.3368 0.1469 (  1187 PWs)   bands (ev):

  -162.4591-161.5261-161.3291-161.2095-160.0971 -46.7726 -15.3577 -15.3194
   -14.8337  -1.7638  -1.7490  -1.7215  -1.7201  -1.6728  -1.6598  -1.6547
     6.1726  11.8236  13.3063  15.4481  19.2423  19.7807  19.8664  22.0131

          k = 0.3368 0.6736 0.1469 (  1174 PWs)   bands (ev):

  -161.9995-161.2419-160.5673-159.6584-158.9477 -46.7197 -15.6943 -15.2730
   -15.2181  -1.7657  -1.7234  -1.6991  -1.6729  -1.6669  -1.6472  -1.6024
     9.3066  10.2023  12.1391  16.6464  18.1200  19.1663  21.5815  23.0954

          k =-0.6736-0.3368 0.1469 (  1174 PWs)   bands (ev):

  -162.0004-161.2420-160.5665-159.6589-158.9469 -46.7197 -15.6943 -15.2730
   -15.2181  -1.7657  -1.7234  -1.6991  -1.6729  -1.6669  -1.6471  -1.6024
     9.3066  10.2023  12.1391  16.6464  18.1198  19.1663  21.5816  23.0953

          k =-0.3368 0.0000 0.1469 (  1187 PWs)   bands (ev):

  -162.4596-161.5263-161.3280-161.2094-160.0976 -46.7726 -15.3577 -15.3194
   -14.8337  -1.7638  -1.7490  -1.7214  -1.7200  -1.6728  -1.6599  -1.6547
     6.1726  11.8236  13.3064  15.4482  19.2423  19.7807  19.8664  22.0132

          k = 0.3368 0.3368 0.2937 (  1176 PWs)   bands (ev):

  -161.7121-161.5647-160.9058-159.7617-158.9426 -46.7458 -15.3433 -15.2839
   -15.2568  -1.7555  -1.7238  -1.6955  -1.6806  -1.6766  -1.6312  -1.6268
     7.7702  11.1346  12.7304  17.2888  17.2986  18.6995  20.5321  22.6008

          k = 0.6736 0.6736 0.2937 (  1180 PWs)   bands (ev):

  -161.9089-161.5987-160.9056-160.5392-160.5392 -46.6942 -15.6163 -15.6163
   -15.2234  -1.7335  -1.7285  -1.7285  -1.7023  -1.7023  -1.6853  -1.6819
     8.6398  11.3628  11.3628  16.6761  19.5502  19.5502  23.0916  24.3822

          k =-0.3368-0.3368 0.2937 (  1176 PWs)   bands (ev):

  -161.7132-161.5637-160.9059-159.7629-158.9411 -46.7458 -15.3432 -15.2840
   -15.2568  -1.7555  -1.7239  -1.6955  -1.6805  -1.6766  -1.6311  -1.6269
     7.7701  11.1346  12.7304  17.2888  17.2986  18.6994  20.5322  22.6006

          k = 0.0000 0.0000 0.2937 (  1170 PWs)   bands (ev):

  -160.7821-160.7821-159.7450-159.6485-159.1714 -46.7981 -15.4328 -14.8774
   -14.8774  -1.7124  -1.6861  -1.6860  -1.6640  -1.6556  -1.6060  -1.6060
     5.5594  10.2316  13.2153  19.3074  19.5107  19.5107  20.8682  22.0386

          k =-0.6736 0.3368-0.1469 (  1174 PWs)   bands (ev):

  -161.9997-161.2420-160.5672-159.6583-158.9476 -46.7197 -15.6943 -15.2730
   -15.2181  -1.7657  -1.7234  -1.6991  -1.6729  -1.6668  -1.6472  -1.6024
     9.3066  10.2023  12.1390  16.6463  18.1199  19.1664  21.5815  23.0953

          k =-0.3368 0.6736-0.1469 (  1174 PWs)   bands (ev):

  -162.0001-161.2419-160.5667-159.6589-158.9471 -46.7197 -15.6943 -15.2730
   -15.2181  -1.7658  -1.7234  -1.6991  -1.6729  -1.6669  -1.6472  -1.6024
     9.3066  10.2022  12.1391  16.6464  18.1199  19.1663  21.5815  23.0954

          k =-1.3471-0.3368-0.1469 (  1175 PWs)   bands (ev):

  -161.1406-161.0414-160.9456-159.6322-159.5693 -46.7709 -15.4202 -15.3366
   -14.8398  -1.7162  -1.7160  -1.6954  -1.6746  -1.6683  -1.6442  -1.6335
     7.7674   9.9966  12.5490  18.1250  19.0101  19.4212  20.6110  22.2126

          k =-1.0103-0.0000-0.1469 (  1175 PWs)   bands (ev):

  -161.1400-161.0412-160.9453-159.6325-159.5700 -46.7709 -15.4203 -15.3365
   -14.8399  -1.7162  -1.7160  -1.6954  -1.6745  -1.6684  -1.6442  -1.6336
     7.7675   9.9965  12.5490  18.1249  19.0102  19.4212  20.6110  22.2126

          k =-0.3368 0.3368-0.0000 (  1185 PWs)   bands (ev):

  -162.8356-161.4104-161.3217-160.5773-160.2428 -46.7467 -15.3082 -15.2887
   -15.2446  -1.7782  -1.7470  -1.7439  -1.6789  -1.6780  -1.6771  -1.6631
     7.0736  12.4007  12.4443  16.5686  16.8027  17.3590  23.8337  23.8608

          k = 0.0000 0.6736 0.0000 (  1174 PWs)   bands (ev):

  -161.3713-161.0131-160.3705-159.8735-159.2414 -46.7452 -15.7691 -15.3236
   -14.7958  -1.7440  -1.7190  -1.7044  -1.6813  -1.6519  -1.6122  -1.6029
     9.1557  10.1601  12.4191  15.5910  18.0721  19.6880  20.3837  22.1241

          k =-1.0103-0.3368-0.0000 (  1168 PWs)   bands (ev):

  -160.7834-160.6778-159.7764-159.4065-159.2864 -46.7449 -15.3639 -15.2936
   -15.2690  -1.7361  -1.7355  -1.6765  -1.6513  -1.6422  -1.6277  -1.5804
     9.1793   9.6207  12.9954  16.8944  18.6420  18.7360  20.3968  21.4180

          k =-0.6736-0.0000-0.0000 (  1174 PWs)   bands (ev):

  -161.3713-161.0131-160.3704-159.8735-159.2414 -46.7452 -15.7691 -15.3236
   -14.7958  -1.7440  -1.7190  -1.7044  -1.6813  -1.6519  -1.6122  -1.6029
     9.1557  10.1600  12.4191  15.5909  18.0721  19.6881  20.3837  22.1240

          k =-0.0000-0.6736-0.2937 (  1180 PWs)   bands (ev):

  -163.0338-160.7022-160.3865-160.2879-159.8978 -46.7452 -15.7718 -15.3206
   -14.7958  -1.7647  -1.7454  -1.7381  -1.6880  -1.6720  -1.6346  -1.6011
     9.0156  10.0204  13.9845  14.3191  18.0282  18.3613  20.4891  24.4407

          k = 0.3368-0.3368-0.2937 (  1176 PWs)   bands (ev):

  -161.7127-161.5641-160.9059-159.7624-158.9418 -46.7458 -15.3432 -15.2839
   -15.2568  -1.7555  -1.7239  -1.6955  -1.6806  -1.6766  -1.6311  -1.6269
     7.7702  11.1346  12.7304  17.2888  17.2986  18.6995  20.5322  22.6007

          k =-0.6736-1.3471-0.2937 (  1180 PWs)   bands (ev):

  -163.0347-160.7030-160.3857-160.2878-159.8967 -46.7452 -15.7718 -15.3206
   -14.7958  -1.7647  -1.7454  -1.7381  -1.6880  -1.6720  -1.6345  -1.6010
     9.0155  10.0203  13.9845  14.3193  18.0282  18.3612  20.4891  24.4407

          k = 0.3368-0.6736-0.1469 (  1174 PWs)   bands (ev):

  -161.9998-161.2420-160.5671-159.6583-158.9475 -46.7197 -15.6943 -15.2730
   -15.2181  -1.7657  -1.7234  -1.6991  -1.6729  -1.6668  -1.6472  -1.6024
     9.3066  10.2023  12.1390  16.6464  18.1199  19.1664  21.5815  23.0953

          k = 0.6736-0.3368-0.1469 (  1174 PWs)   bands (ev):

  -162.0002-161.2419-160.5666-159.6590-158.9470 -46.7197 -15.6943 -15.2730
   -15.2181  -1.7658  -1.7234  -1.6991  -1.6729  -1.6669  -1.6472  -1.6024
     9.3066  10.2022  12.1392  16.6464  18.1199  19.1662  21.5815  23.0954

          k =-0.3368-1.3471-0.1469 (  1175 PWs)   bands (ev):

  -161.1406-161.0414-160.9456-159.6322-159.5692 -46.7709 -15.4202 -15.3366
   -14.8399  -1.7162  -1.7160  -1.6954  -1.6746  -1.6684  -1.6442  -1.6335
     7.7674   9.9966  12.5490  18.1250  19.0101  19.4212  20.6110  22.2126

          k =-0.0000-1.0103-0.1469 (  1175 PWs)   bands (ev):

  -161.1401-161.0413-160.9453-159.6325-159.5700 -46.7709 -15.4203 -15.3366
   -14.8398  -1.7162  -1.7160  -1.6954  -1.6745  -1.6684  -1.6442  -1.6335
     7.7674   9.9965  12.5490  18.1249  19.0102  19.4212  20.6110  22.2126

          k =-0.6736-0.6736-0.5874 (  1164 PWs)   bands (ev):

  -160.9299-160.1861-160.0518-159.1686-158.7570 -46.6941 -15.6339 -15.5986
   -15.2234  -1.7540  -1.7268  -1.6824  -1.6373  -1.6146  -1.6078  -1.6043
     8.6081  10.5097  12.6956  17.2109  17.6030  20.1722  21.9963  24.4426

          k =-0.3368-0.3368-0.5874 (  1168 PWs)   bands (ev):

  -160.7834-160.6778-159.7764-159.4065-159.2864 -46.7449 -15.3639 -15.2936
   -15.2690  -1.7361  -1.7355  -1.6765  -1.6513  -1.6422  -1.6277  -1.5804
     9.1793   9.6207  12.9954  16.8944  18.6420  18.7360  20.3968  21.4180

          k =-1.3471-1.3471-0.5874 (  1170 PWs)   bands (ev):

  -160.5133-160.1546-160.1545-160.1476-160.0710 -46.7964 -15.5067 -14.8836
   -14.8835  -1.7539  -1.7035  -1.6981  -1.6644  -1.6644  -1.6129  -1.6129
     7.4221   8.4490  12.5523  19.3937  20.6683  20.6683  21.4204  22.0852

     the Fermi energy is    16.6789 ev

!    total energy              =   -1988.04099392 Ry
     Harris-Foulkes estimate   =   -1988.04099392 Ry
     estimated scf accuracy    <          9.1E-09 Ry

     total all-electron energy =    -30135.652640 Ry

     The total energy is the sum of the following terms:

     one-electron contribution =   -1460.03789754 Ry
     hartree contribution      =     730.40256589 Ry
     xc contribution           =    -110.60852622 Ry
     ewald contribution        =    -653.93320319 Ry
     one-center paw contrib.   =    -493.86339230 Ry
     smearing contrib. (-TS)   =      -0.00054056 Ry

     convergence has been achieved in   8 iterations

     Writing output data file 01_HfH3.save

     init_run     :      7.17s CPU      7.45s WALL (       1 calls)
     electrons    :     72.89s CPU     48.07s WALL (       1 calls)

     Called by init_run:
     wfcinit      :      2.00s CPU      1.42s WALL (       1 calls)
     potinit      :      1.33s CPU      1.26s WALL (       1 calls)

     Called by electrons:
     c_bands      :     46.95s CPU     35.22s WALL (       8 calls)
     sum_band     :     15.19s CPU      7.89s WALL (       8 calls)
     v_of_rho     :      0.83s CPU      0.59s WALL (       9 calls)
     newd         :      5.28s CPU      2.25s WALL (       9 calls)
     PAW_pot      :      5.34s CPU      2.60s WALL (       9 calls)
     mix_rho      :      0.02s CPU      0.04s WALL (       8 calls)

     Called by c_bands:
     init_us_2    :      2.16s CPU      2.70s WALL (     612 calls)
     cegterg      :     45.41s CPU     33.08s WALL (     288 calls)

     Called by sum_band:
     sum_band:bec :      0.14s CPU      0.08s WALL (     288 calls)
     addusdens    :      6.03s CPU      3.03s WALL (       8 calls)

     Called by *egterg:
     h_psi        :     39.33s CPU     16.61s WALL (     975 calls)
     s_psi        :      0.12s CPU      0.39s WALL (     975 calls)
     g_psi        :      0.02s CPU      0.06s WALL (     651 calls)
     cdiaghg      :      6.62s CPU     14.89s WALL (     939 calls)

     Called by h_psi:
     h_psi:pot    :     39.30s CPU     16.56s WALL (     975 calls)
     h_psi:calbec :      0.05s CPU      0.65s WALL (     975 calls)
     vloc_psi     :     39.14s CPU     15.41s WALL (     975 calls)
     add_vuspsi   :      0.11s CPU      0.50s WALL (     975 calls)

     General routines
     calbec       :      0.08s CPU      0.97s WALL (    1263 calls)
     fft          :      0.34s CPU      0.23s WALL (     140 calls)
     ffts         :      0.02s CPU      0.01s WALL (      17 calls)
     fftw         :     40.19s CPU     12.09s WALL (   41986 calls)
     interpolate  :      0.05s CPU      0.05s WALL (      17 calls)
     davcio       :      0.02s CPU      0.01s WALL (      36 calls)

     Parallel routines
     fft_scatter  :      0.06s CPU      1.24s WALL (   42143 calls)

     PWSCF        :  1m21.20s CPU     0m56.98s WALL


   This run was terminated on:  20: 4:25  23Nov2025            

=------------------------------------------------------------------------------=
   JOB DONE.
=------------------------------------------------------------------------------=
