
     Program PWSCF v.6.1 starts on 23Nov2025 at 20: 4:25 

     This program is part of the open-source Quantum ESPRESSO suite
     for quantum simulation of materials; please cite
         "P. Giannozzi et al., J. Phys.:Condens. Matter 21 395502 (2009);
          URL http://www.quantum-espresso.org", 
     in publications or presentations arising from this work. More details at
     http://www.quantum-espresso.org/quote

     Parallel version (MPI & OpenMP), running on      12 processor cores
     Number of MPI processes:                 1
     Threads/MPI process:                    12
     Reading input from 2_nscf.in

     Current dimensions of program PWSCF are:
     Max number of different atomic species (ntypx) = 10
     Max number of k-points (npk) =  40000
     Max angular momentum in pseudopotentials (lmaxx) =  3

     Atomic positions and unit cell read from directory:
     ./tmp/01_HfH3.save/

               file H.UPF: wavefunction(s)  1S renormalized
               file Hf.UPF: wavefunction(s)  5P 4F renormalized

     Subspace diagonalization in iterative solution of the eigenvalue problem:
     a serial algorithm will be used


     G-vector sticks info
     --------------------
     sticks:   dense  smooth     PW     G-vecs:    dense   smooth      PW
     Sum        1589     793    303                26689     9413    2225



     bravais-lattice index     =            0
     lattice parameter (alat)  =       7.4942  a.u.
     unit-cell volume          =     197.4136 (a.u.)^3
     number of atoms/cell      =            4
     number of atomic types    =            2
     number of electrons       =        39.00
     number of Kohn-Sham states=           24
     kinetic-energy cutoff     =      50.0000  Ry
     charge density cutoff     =     400.0000  Ry
     Exchange-correlation      =  SLA  PW   PBX  PBC ( 1  4  3  4 0 0)

     celldm(1)=   7.494164  celldm(2)=   0.000000  celldm(3)=   0.000000
     celldm(4)=   0.000000  celldm(5)=   0.000000  celldm(6)=   0.000000

     crystal axes: (cart. coord. in units of alat)
               a(1) = (  -0.371172   0.371164   0.851157 )  
               a(2) = (   0.371161  -0.371169   0.851157 )  
               a(3) = (   0.371172   0.371169  -0.851163 )  

     reciprocal axes: (cart. coord. in units 2 pi/alat)
               b(1) = (  0.000004  1.347108  0.587439 )  
               b(2) = (  1.347108  0.000004  0.587443 )  
               b(3) = (  1.347104  1.347104  0.000012 )  


     PseudoPot. # 1 for  H read from file:
     C:/Users/Acer/Desktop/Quantum_Espresso_Workspace/Inputs/pseudo/H.UPF
     MD5 check sum: f872269930354f4c44a8fadb7eac41ed
     Pseudo is Projector augmented-wave, Zval =  1.0
     Generated using "atomic" code by A. Dal Corso  v.5.1.2
     Shape of augmentation charge: PSQ
     Using radial grid of  929 points,  2 beta functions with: 
                l(1) =   0
                l(2) =   0
     Q(r) pseudized with 0 coefficients 


     PseudoPot. # 2 for Hf read from file:
     C:/Users/Acer/Desktop/Quantum_Espresso_Workspace/Inputs/pseudo/Hf.UPF
     MD5 check sum: c3e614b8251ca2322021b8a5d2e1059c
     Pseudo is Projector augmented-wave + core cor, Zval = 36.0
     Generated using "atomic" code by A. Dal Corso  v.5.1.2
     Shape of augmentation charge: PSQ
     Using radial grid of 1271 points,  8 beta functions with: 
                l(1) =   0
                l(2) =   0
                l(3) =   1
                l(4) =   1
                l(5) =   2
                l(6) =   2
                l(7) =   3
                l(8) =   3
     Q(r) pseudized with 0 coefficients 


     atomic species   valence    mass     pseudopotential
        H              1.00     1.00000      H( 1.00)
        Hf            36.00     1.00000     Hf( 1.00)

     No symmetry found



   Cartesian axes

     site n.     atom                  positions (alat units)
         1           Hf  tau(   1) = (   0.0000076  -0.0000050  -0.0000832  )
         2           H   tau(   2) = (  -0.0000050   0.3711665   0.4256153  )
         3           H   tau(   3) = (   0.3711614  -0.0000000   0.4256103  )
         4           H   tau(   4) = (  -0.0000076  -0.0000025   0.8511726  )

     number of k points=   260 (tetrahedron method)

     Number of k-points >= 100: set verbosity='high' to print them.

     Dense  grid:    26689 G-vectors     FFT dimensions: (  48,  48,  48)

     Smooth grid:     9413 G-vectors     FFT dimensions: (  36,  36,  36)

     Estimated max dynamical RAM per process >      15.66MB

     Check: negative/imaginary core charge=   -0.000005    0.000000

     The potential is recalculated from file :
     ./tmp/01_HfH3.save/charge-density.dat

     Starting wfc are   25 randomized atomic wfcs
     Checking if some PAW data can be deallocated... 

     Band Structure Calculation
     Davidson diagonalization with overlap

     ethr =  2.56E-11,  avg # of iterations = 15.1

     total cpu time spent up to now is      233.2 secs

     End of band structure calculation

     Number of k-points >= 100: set verbosity='high' to print the bands.

     the Fermi energy is    16.6912 ev

     Writing output data file 01_HfH3.save
     Message from routine write_ions:
     file C:/Users/Acer/Desktop/Quantum_Espresso_Workspace/Inputs/pseudo/H.UPF not present
     Message from routine write_ions:
     file C:/Users/Acer/Desktop/Quantum_Espresso_Workspace/Inputs/pseudo/Hf.UPF not present

     init_run     :      3.75s CPU      4.20s WALL (       1 calls)
     electrons    :    224.95s CPU    228.44s WALL (       1 calls)

     Called by init_run:
     wfcinit      :      0.00s CPU      0.00s WALL (       1 calls)
     potinit      :      0.48s CPU      0.34s WALL (       1 calls)

     Called by electrons:
     c_bands      :    224.88s CPU    228.34s WALL (       1 calls)
     v_of_rho     :      0.02s CPU      0.06s WALL (       1 calls)
     newd         :      0.27s CPU      0.24s WALL (       1 calls)
     PAW_pot      :      0.44s CPU      0.26s WALL (       1 calls)

     Called by c_bands:
     init_us_2    :      1.14s CPU      1.83s WALL (     260 calls)
     cegterg      :    203.75s CPU    211.94s WALL (     260 calls)

     Called by sum_band:

     Called by *egterg:
     h_psi        :    166.92s CPU     86.22s WALL (    4437 calls)
     s_psi        :      1.67s CPU      2.42s WALL (    4437 calls)
     g_psi        :      0.27s CPU      0.27s WALL (    3917 calls)
     cdiaghg      :     44.45s CPU    118.48s WALL (    4177 calls)

     Called by h_psi:
     h_psi:pot    :    166.83s CPU     85.89s WALL (    4437 calls)
     h_psi:calbec :      0.73s CPU      3.24s WALL (    4437 calls)
     vloc_psi     :    165.22s CPU     80.18s WALL (    4437 calls)
     add_vuspsi   :      0.84s CPU      2.41s WALL (    4437 calls)

     General routines
     calbec       :      0.69s CPU      3.23s WALL (    4437 calls)
     fft          :      0.03s CPU      0.02s WALL (      13 calls)
     ffts         :      0.02s CPU      0.01s WALL (       1 calls)
     fftw         :    137.09s CPU     50.83s WALL (  121776 calls)
     interpolate  :      0.02s CPU      0.01s WALL (       1 calls)
     davcio       :      0.06s CPU      0.11s WALL (     260 calls)

     Parallel routines
     fft_scatter  :      0.50s CPU      6.68s WALL (  121790 calls)

     PWSCF        :  3m49.61s CPU     3m55.13s WALL


   This run was terminated on:  20: 8:20  23Nov2025            

=------------------------------------------------------------------------------=
   JOB DONE.
=------------------------------------------------------------------------------=
