
     Program PWSCF v.6.7MaX starts on  2Feb2026 at 20:19: 8 

     This program is part of the open-source Quantum ESPRESSO suite
     for quantum simulation of materials; please cite
         "P. Giannozzi et al., J. Phys.:Condens. Matter 21 395502 (2009);
         "P. Giannozzi et al., J. Phys.:Condens. Matter 29 465901 (2017);
          URL http://www.quantum-espresso.org", 
     in publications or presentations arising from this work. More details at
     http://www.quantum-espresso.org/quote

     Parallel version (MPI), running on     2 processors

     MPI processes distributed on     1 nodes
     R & G space division:  proc/nbgrp/npool/nimage =       2
     Waiting for input...
     Reading input from standard input

     Current dimensions of program PWSCF are:
     Max number of different atomic species (ntypx) = 10
     Max number of k-points (npk) =  40000
     Max angular momentum in pseudopotentials (lmaxx) =  3
     Message from routine read_pp_mesh:
     mismatch in mesh size, discarding the one in header
     file Al.UPF: wavefunction(s)  3S 3P renormalized
     file H.UPF: wavefunction(s)  1S renormalized

     Subspace diagonalization in iterative solution of the eigenvalue problem:
     a serial algorithm will be used

     Message from routine setup:
     using ibrav=0 with symmetry is DISCOURAGED, use correct ibrav instead

     Parallelization info
     --------------------
     sticks:   dense  smooth     PW     G-vecs:    dense   smooth      PW
     Min        1829     912    263               115247    40721    6168
     Max        1830     913    264               115248    40722    6169
     Sum        3659    1825    527               230495    81443   12337



     bravais-lattice index     =            0
     lattice parameter (alat)  =      10.2729  a.u.
     unit-cell volume          =    1705.7691 (a.u.)^3
     number of atoms/cell      =           24
     number of atomic types    =            4
     number of electrons       =        41.00
     number of Kohn-Sham states=           25
     kinetic-energy cutoff     =      50.0000  Ry
     charge density cutoff     =     400.0000  Ry
     scf convergence threshold =      1.0E-06
     mixing beta               =       0.7000
     number of iterations used =            8  plain     mixing
     energy convergence thresh.=      1.0E-04
     force convergence thresh. =      1.0E-03
     press convergence thresh. =      5.0E-01
     Exchange-correlation= SLA PW PBX PBC
                           (   1   4   3   4   0   0   0)
     nstep                     =           50


     celldm(1)=  10.272872  celldm(2)=   0.000000  celldm(3)=   0.000000
     celldm(4)=   0.000000  celldm(5)=   0.000000  celldm(6)=   0.000000

     crystal axes: (cart. coord. in units of alat)
               a(1) = (   0.999987   0.000000   0.005105 )  
               a(2) = (   0.000000   1.085197  -0.000000 )  
               a(3) = (   0.006966  -0.000000   1.449948 )  

     reciprocal axes: (cart. coord. in units 2 pi/alat)
               b(1) = (  1.000038 -0.000000 -0.004804 )  
               b(2) = ( -0.000000  0.921492  0.000000 )  
               b(3) = ( -0.003521  0.000000  0.689697 )  


     PseudoPot. # 1 for Al read from file:
     /home/marco/ZOS_Cloud_Compute/pseudo/Al.UPF
     MD5 check sum: da22aad9e98c60ce88de1cf925d56fcc
     Pseudo is Projector augmented-wave + core cor, Zval =  3.0
     Generated using "atomic" code by A. Dal Corso  v.5.1.2
     Shape of augmentation charge: PSQ
     Using radial grid of 1135 points,  6 beta functions with: 
                l(1) =   0
                l(2) =   0
                l(3) =   1
                l(4) =   1
                l(5) =   2
                l(6) =   2
     Q(r) pseudized with 0 coefficients 


     PseudoPot. # 2 for H  read from file:
     /home/marco/ZOS_Cloud_Compute/pseudo/H.UPF
     MD5 check sum: 850d63dcbcc06c5de8b44e0ab9f952da
     Pseudo is Projector augmented-wave, Zval =  1.0
     Generated using "atomic" code by A. Dal Corso  v.5.1.2
     Shape of augmentation charge: PSQ
     Using radial grid of  929 points,  2 beta functions with: 
                l(1) =   0
                l(2) =   0
     Q(r) pseudized with 0 coefficients 


     PseudoPot. # 3 for Li read from file:
     /home/marco/ZOS_Cloud_Compute/pseudo/Li.UPF
     MD5 check sum: 057edeeab9105e5446fd9e29ea3f9c2f
     Pseudo is Ultrasoft + core correction, Zval =  1.0
     Generated by new atomic code, or converted to UPF format
     Using radial grid of  751 points,  2 beta functions with: 
                l(1) =   1
                l(2) =   1
     Q(r) pseudized with  8 coefficients,  rinner =    1.000   1.000   1.000


     PseudoPot. # 4 for Mg read from file:
     /home/marco/ZOS_Cloud_Compute/pseudo/Mg.UPF
     MD5 check sum: a77e51077e70c6c73445c6cac60d158f
     Pseudo is Projector augmented-wave + core cor, Zval = 10.0
     Generated using ATOMPAW code
     Shape of augmentation charge: BESSEL
     Using radial grid of 1171 points,  6 beta functions with: 
                l(1) =   0
                l(2) =   0
                l(3) =   0
                l(4) =   0
                l(5) =   1
                l(6) =   1
     Q(r) pseudized with 0 coefficients 


     atomic species   valence    mass     pseudopotential
        Al             3.00     1.00000     Al( 1.00)
        H              1.00     1.00000     H ( 1.00)
        Li             1.00     1.00000     Li( 1.00)
        Mg            10.00     1.00000     Mg( 1.00)

      2 Sym. Ops. (no inversion) found



   Cartesian axes

     site n.     atom                  positions (alat units)
         1           Al  tau(   1) = (   0.2189374  -0.0000000   1.3274195  )
         2           Al  tau(   2) = (   0.7918625   0.0000000   0.1341831  )
         3           Mg  tau(   3) = (   0.7144751   0.5425984   0.8803439  )
         4           Al  tau(   4) = (   0.0048819   0.5425984   0.0090295  )
         5           Al  tau(   5) = (   0.2861645   0.5425984   0.5897597  )
         6           Li  tau(   6) = (   0.5117110  -0.0000000   0.7320584  )
         7           H   tau(   7) = (   0.8041158   0.7616684   0.1318414  )
         8           H   tau(   8) = (   0.1066815  -0.0000000   0.1837294  )
         9           H   tau(   9) = (   0.8566419   0.5425984   1.1996527  )
        10           H   tau(  10) = (   0.2152617   0.7612422   1.3422117  )
        11           H   tau(  11) = (   0.7102718  -0.0000000   0.4222833  )
        12           H   tau(  12) = (   0.5781834   0.5425984   0.4994561  )
        13           H   tau(  13) = (   0.7216552   0.8646110   0.8670991  )
        14           H   tau(  14) = (   0.3674512   0.5425984   0.8992894  )
        15           H   tau(  15) = (   0.1670625   0.5425984   0.2753753  )
        16           H   tau(  16) = (   0.5036679   0.0000000   0.0028813  )
        17           H   tau(  17) = (   0.9038362  -0.0000000   1.2808487  )
        18           H   tau(  18) = (   0.2853277  -0.0000000   1.0338840  )
        19           H   tau(  19) = (   0.2934691   0.8463108   0.5816310  )
        20           H   tau(  20) = (   0.7216552   0.2205858   0.8670991  )
        21           H   tau(  21) = (   0.2152617   0.3239544   1.3422117  )
        22           H   tau(  22) = (   0.2934691   0.2388860   0.5816310  )
        23           H   tau(  23) = (   0.8041158   0.3235283   0.1318414  )
        24           H   tau(  24) = (   0.0003181   0.5425984   0.6898147  )

     number of k points=     8  Methfessel-Paxton smearing, width (Ry)=  0.0200
                       cart. coord. in units 2pi/alat
        k(    1) = (   0.0000000   0.0000000   0.0000000), wk =   0.2500000
        k(    2) = (   0.0017603   0.0000000  -0.3448484), wk =   0.2500000
        k(    3) = (   0.0000000  -0.4607459   0.0000000), wk =   0.2500000
        k(    4) = (   0.0017603  -0.4607459  -0.3448484), wk =   0.2500000
        k(    5) = (  -0.5000188   0.0000000   0.0024022), wk =   0.2500000
        k(    6) = (  -0.4982585   0.0000000  -0.3424463), wk =   0.2500000
        k(    7) = (  -0.5000188  -0.4607459   0.0024022), wk =   0.2500000
        k(    8) = (  -0.4982585  -0.4607459  -0.3424463), wk =   0.2500000

     Dense  grid:   230495 G-vectors     FFT dimensions: (  72,  72,  96)

     Smooth grid:    81443 G-vectors     FFT dimensions: (  48,  54,  72)

     Estimated max dynamical RAM per process >     534.43 MB

     Estimated total dynamical RAM >       1.04 GB

     Initial potential from superposition of free atoms

     starting charge   40.98516, renormalised to   41.00000
     Starting wfcs are   48 randomized atomic wfcs
     Checking if some PAW data can be deallocated... 

     total cpu time spent up to now is       25.0 secs

     Self-consistent Calculation

     iteration #  1     ecut=    50.00 Ry     beta= 0.70
     Davidson diagonalization with overlap
     ethr =  1.00E-02,  avg # of iterations =  3.0

     total cpu time spent up to now is       32.8 secs

     total energy              =    -321.47969160 Ry
     estimated scf accuracy    <       0.74033676 Ry

     iteration #  2     ecut=    50.00 Ry     beta= 0.70
     Davidson diagonalization with overlap
     ethr =  1.81E-03,  avg # of iterations =  2.0

     total cpu time spent up to now is       39.6 secs

     total energy              =    -321.31144174 Ry
     estimated scf accuracy    <       0.55896554 Ry

     iteration #  3     ecut=    50.00 Ry     beta= 0.70
     Davidson diagonalization with overlap
     ethr =  1.36E-03,  avg # of iterations =  2.0

     total cpu time spent up to now is       46.7 secs

     total energy              =    -321.53438265 Ry
     estimated scf accuracy    <       0.63098196 Ry

     iteration #  4     ecut=    50.00 Ry     beta= 0.70
     Davidson diagonalization with overlap
     ethr =  1.36E-03,  avg # of iterations =  1.0

     total cpu time spent up to now is       53.1 secs

     total energy              =    -321.54921808 Ry
     estimated scf accuracy    <       0.12751643 Ry

     iteration #  5     ecut=    50.00 Ry     beta= 0.70
     Davidson diagonalization with overlap
     ethr =  3.11E-04,  avg # of iterations =  1.1

     total cpu time spent up to now is       59.6 secs

     total energy              =    -321.55007084 Ry
     estimated scf accuracy    <       0.04691437 Ry

     iteration #  6     ecut=    50.00 Ry     beta= 0.70
     Davidson diagonalization with overlap
     ethr =  1.14E-04,  avg # of iterations =  4.0

     total cpu time spent up to now is       66.9 secs

     total energy              =    -321.55308809 Ry
     estimated scf accuracy    <       0.00761581 Ry

     iteration #  7     ecut=    50.00 Ry     beta= 0.70
     Davidson diagonalization with overlap
     c_bands:  1 eigenvalues not converged
     ethr =  1.86E-05,  avg # of iterations = 10.8

     total cpu time spent up to now is       75.6 secs

     total energy              =    -321.55452296 Ry
     estimated scf accuracy    <       0.00211363 Ry

     iteration #  8     ecut=    50.00 Ry     beta= 0.70
     Davidson diagonalization with overlap
     c_bands:  1 eigenvalues not converged
     ethr =  5.16E-06,  avg # of iterations =  4.5

     total cpu time spent up to now is       82.6 secs

     total energy              =    -321.55490329 Ry
     estimated scf accuracy    <       0.00024938 Ry

     iteration #  9     ecut=    50.00 Ry     beta= 0.70
     Davidson diagonalization with overlap
     ethr =  6.08E-07,  avg # of iterations =  3.9

     total cpu time spent up to now is       89.9 secs

     total energy              =    -321.55489728 Ry
     estimated scf accuracy    <       0.00019265 Ry

     iteration # 10     ecut=    50.00 Ry     beta= 0.70
     Davidson diagonalization with overlap
     ethr =  4.70E-07,  avg # of iterations =  1.1

     total cpu time spent up to now is       96.4 secs

     total energy              =    -321.55491475 Ry
     estimated scf accuracy    <       0.00000486 Ry

     iteration # 11     ecut=    50.00 Ry     beta= 0.70
     Davidson diagonalization with overlap
     c_bands:  1 eigenvalues not converged
     ethr =  1.19E-08,  avg # of iterations =  6.1

     total cpu time spent up to now is      105.0 secs

     total energy              =    -321.55491648 Ry
     estimated scf accuracy    <       0.00002215 Ry

     iteration # 12     ecut=    50.00 Ry     beta= 0.70
     Davidson diagonalization with overlap
     ethr =  1.19E-08,  avg # of iterations =  1.4

     total cpu time spent up to now is      111.6 secs

     total energy              =    -321.55491754 Ry
     estimated scf accuracy    <       0.00000112 Ry

     iteration # 13     ecut=    50.00 Ry     beta= 0.70
     Davidson diagonalization with overlap
     ethr =  2.73E-09,  avg # of iterations =  1.9

     total cpu time spent up to now is      118.3 secs

     End of self-consistent calculation

          k = 0.0000 0.0000 0.0000 ( 10169 PWs)   bands (ev):

   -73.5520 -40.6705 -40.6604 -40.5892  -8.5904  -6.8813  -5.0899  -5.0441
    -4.1720  -4.1448  -3.6532  -2.8937  -2.7469  -2.7062  -2.3651  -1.9600
    -1.9528  -1.7446  -1.3666  -1.2477  -0.7232  -0.2125   3.6376   4.4947
     5.0446

          k = 0.0018 0.0000-0.3448 ( 10212 PWs)   bands (ev):

   -73.5520 -40.6705 -40.6604 -40.5892  -8.5385  -7.0713  -5.2229  -4.7705
    -4.1486  -3.7197  -3.5239  -3.0735  -2.9536  -2.8287  -2.5275  -2.3443
    -1.9208  -1.6220  -1.3873  -0.6944  -0.6244  -0.5303   3.6123   4.4230
     5.0386

          k = 0.0000-0.4607 0.0000 ( 10254 PWs)   bands (ev):

   -73.5520 -40.6705 -40.6604 -40.5892  -8.0272  -7.3548  -6.2504  -4.5239
    -4.0749  -3.8787  -3.5378  -3.4681  -2.9205  -2.8778  -1.9955  -1.8523
    -1.6858  -1.3613  -1.2373  -1.0801  -0.6757  -0.2423   3.5696   4.9773
     4.9892

          k = 0.0018-0.4607-0.3448 ( 10172 PWs)   bands (ev):

   -73.5520 -40.6705 -40.6604 -40.5892  -8.0160  -7.1493  -6.6675  -4.8101
    -3.6916  -3.4875  -3.3237  -3.2396  -2.8925  -2.5642  -2.4981  -2.2675
    -1.8956  -1.7023  -1.5091  -0.7237  -0.4151  -0.2646   4.0055   4.7620
     5.0467

          k =-0.5000 0.0000 0.0024 ( 10180 PWs)   bands (ev):

   -73.5520 -40.6704 -40.6604 -40.5892  -8.1609  -6.7333  -6.0715  -4.9623
    -4.3243  -4.0559  -3.9744  -3.4053  -2.8654  -2.6825  -2.3367  -2.2194
    -2.2144  -1.2125  -0.9485  -0.6815  -0.3610  -0.1464   3.8761   4.6069
     4.9986

          k =-0.4983 0.0000-0.3424 ( 10192 PWs)   bands (ev):

   -73.5520 -40.6705 -40.6604 -40.5892  -8.1326  -6.6673  -6.2383  -4.9541
    -4.8050  -3.9681  -3.5241  -3.2299  -2.7458  -2.6507  -2.2635  -2.1674
    -1.9549  -1.4941  -0.9811  -0.9087  -0.5892  -0.3719   4.1624   4.9334
     5.1436

          k =-0.5000-0.4607 0.0024 ( 10136 PWs)   bands (ev):

   -73.5520 -40.6704 -40.6604 -40.5892  -7.5137  -6.9719  -6.2701  -6.0210
    -4.4322  -3.6901  -3.5323  -3.4854  -3.3885  -2.9125  -2.7685  -2.3200
    -1.3994  -0.7730  -0.6435  -0.3079  -0.2556   0.2571   4.5771   4.5796
     5.5035

          k =-0.4983-0.4607-0.3424 ( 10128 PWs)   bands (ev):

   -73.5520 -40.6704 -40.6604 -40.5892  -7.5059  -6.8722  -6.3677  -5.9971
    -4.6665  -4.0236  -3.8549  -3.6363  -2.9857  -2.4129  -1.9452  -1.8173
    -1.5400  -1.3240  -0.8465  -0.6006  -0.3555   0.2965   3.9841   4.2409
     4.8204

     the Fermi energy is    -0.4804 ev

!    total energy              =    -321.55491732 Ry
     estimated scf accuracy    <       0.00000061 Ry
     smearing contrib. (-TS)   =      -0.00084644 Ry
     internal energy E=F+TS    =    -321.55407088 Ry

     The total energy is F=E-TS. E is the sum of the following terms:
     one-electron contribution =    -141.24789408 Ry
     hartree contribution      =      48.62834725 Ry
     xc contribution           =     -36.72816010 Ry
     ewald contribution        =     -61.07463797 Ry
     one-center paw contrib.   =    -131.13172598 Ry

     convergence has been achieved in  13 iterations

     Forces acting on atoms (cartesian axes, Ry/au):

     atom    1 type  1   force =     0.00447547    0.00000000    0.00681165
     atom    2 type  1   force =    -0.00180085    0.00000000   -0.00328185
     atom    3 type  4   force =     0.00613467    0.00000000    0.01580851
     atom    4 type  1   force =    -0.00114913    0.00000000   -0.00425222
     atom    5 type  1   force =    -0.01406643    0.00000000   -0.01379351
     atom    6 type  3   force =    -0.00270790    0.00000000   -0.00155442
     atom    7 type  2   force =    -0.00141062    0.00275201    0.00000646
     atom    8 type  2   force =     0.01022008    0.00000000    0.00425414
     atom    9 type  2   force =    -0.00317035    0.00000000   -0.00100405
     atom   10 type  2   force =     0.00103831    0.00444146    0.00111220
     atom   11 type  2   force =    -0.00468013    0.00000000    0.01213600
     atom   12 type  2   force =     0.02185862    0.00000000   -0.00243471
     atom   13 type  2   force =     0.00607818    0.02449720    0.00490853
     atom   14 type  2   force =    -0.00131900    0.00000000    0.00561613
     atom   15 type  2   force =     0.00325202    0.00000000    0.00696404
     atom   16 type  2   force =     0.00004025    0.00000000   -0.00027019
     atom   17 type  2   force =    -0.00889716    0.00000000   -0.00589736
     atom   18 type  2   force =     0.00541375    0.00000000   -0.00844015
     atom   19 type  2   force =    -0.00547222    0.01470884   -0.00829740
     atom   20 type  2   force =     0.00607818   -0.02449720    0.00490853
     atom   21 type  2   force =     0.00103831   -0.00444146    0.00111220
     atom   22 type  2   force =    -0.00547222   -0.01470884   -0.00829740
     atom   23 type  2   force =    -0.00141062   -0.00275201    0.00000646
     atom   24 type  2   force =    -0.01407124    0.00000000   -0.00612159

     Total force =     0.064265     Total SCF correction =     0.000869


     Computing stress (Cartesian axis) and pressure

          total   stress  (Ry/bohr**3)                   (kbar)     P=       21.52
   0.00022148   0.00000000   0.00001669           32.58        0.00        2.46
   0.00000000   0.00013848   0.00000000            0.00       20.37        0.00
   0.00001669   0.00000000   0.00007882            2.46        0.00       11.59


     BFGS Geometry Optimization
     Energy error            =      0.0E+00
     Gradient error          =      2.4E-02
     Cell gradient error     =      2.2E-04


     number of scf cycles    =   1
     number of bfgs steps    =   0

     enthalpy new            =    -321.5549173236 Ry

     new trust radius        =       0.0458667039 bohr
     new conv_thr            =       0.0000010000 Ry

     new unit-cell volume =   1724.54323 a.u.^3 (   255.55094 Ang^3 )
     density =      0.15595 g/cm^3

CELL_PARAMETERS (angstrom)
   5.466210461   0.000000000   0.030072274
   0.000000000   5.919737748  -0.000000000
   0.041366061  -0.000000000   7.897710008

ATOMIC_POSITIONS (angstrom)
Al            1.2021654289        0.0000000000        7.2344060861
Al            4.3278797181        0.0000000000        0.7309352514
Mg            3.9107788616        2.9598688742        4.8051330754
Al            0.0260940327        2.9598688742        0.0469389316
Al            1.5581026808        2.9598688742        3.2056837472
Li            2.7973701741        0.0000000000        3.9877715888
H             4.3950626045        4.1563551830        0.7199515760
H             0.5890060730        0.0000000000        1.0032519346
H             4.6836705335        2.9598688742        6.5357764862
H             1.1802761485        4.1549272775        7.3119464720
H             3.8810077284        0.0000000000        2.3081723688
H             3.1732701493        2.9598688742        2.7205035310
H             3.9499644689        4.7294524953        4.7272270940
H             2.0099269217        2.9598688742        4.9021338959
H             0.9155653116        2.9598688742        1.5040088912
H             2.7532124333        0.0000000000        0.0166932440
H             4.9387829371        0.0000000000        6.9755524954
H             1.5649027719        0.0000000000        5.6276168746
H             1.6025873659        4.6244273685        3.1643402927
H             3.9499644689        1.1902852530        4.7272270940
H             1.1802761485        1.7648094673        7.3119464720
H             1.6025873659        1.2953103798        3.1643402927
H             4.3950626045        1.7633825653        0.7199515760
H            -0.0041852538        2.9598688742        3.7540908200



     Writing output data file ./tmp/LiMgAl2H92.save/
     NEW-OLD atomic charge density approx. for the potential
     extrapolated charge   41.44618, renormalised to   41.00000

     total cpu time spent up to now is      200.4 secs

     Self-consistent Calculation

     iteration #  1     ecut=    50.00 Ry     beta= 0.70
     Davidson diagonalization with overlap
     ethr =  1.00E-06,  avg # of iterations =  8.1

     total cpu time spent up to now is      212.3 secs

     total energy              =    -321.54156198 Ry
     estimated scf accuracy    <       0.01596955 Ry

     iteration #  2     ecut=    50.00 Ry     beta= 0.70
     Davidson diagonalization with overlap
     ethr =  3.90E-05,  avg # of iterations =  4.8

     total cpu time spent up to now is      220.6 secs

     total energy              =    -321.53483436 Ry
     estimated scf accuracy    <       0.35409757 Ry

     iteration #  3     ecut=    50.00 Ry     beta= 0.70
     Davidson diagonalization with overlap
     ethr =  3.90E-05,  avg # of iterations =  3.2

     total cpu time spent up to now is      228.3 secs

     total energy              =    -321.55983549 Ry
     estimated scf accuracy    <       0.02360253 Ry

     iteration #  4     ecut=    50.00 Ry     beta= 0.70
     Davidson diagonalization with overlap
     ethr =  3.90E-05,  avg # of iterations =  1.1

     total cpu time spent up to now is      234.7 secs

     total energy              =    -321.56128936 Ry
     estimated scf accuracy    <       0.00587189 Ry

     iteration #  5     ecut=    50.00 Ry     beta= 0.70
     Davidson diagonalization with overlap
     ethr =  1.43E-05,  avg # of iterations =  1.5

     total cpu time spent up to now is      241.3 secs

     total energy              =    -321.56123735 Ry
     estimated scf accuracy    <       0.00272707 Ry

     iteration #  6     ecut=    50.00 Ry     beta= 0.70
     Davidson diagonalization with overlap
     ethr =  6.65E-06,  avg # of iterations =  2.5

     total cpu time spent up to now is      248.0 secs

     total energy              =    -321.56118919 Ry
     estimated scf accuracy    <       0.00097856 Ry

     iteration #  7     ecut=    50.00 Ry     beta= 0.70
     Davidson diagonalization with overlap
     ethr =  2.39E-06,  avg # of iterations =  3.1

     total cpu time spent up to now is      254.9 secs

     total energy              =    -321.56117735 Ry
     estimated scf accuracy    <       0.00027398 Ry

     iteration #  8     ecut=    50.00 Ry     beta= 0.70
     Davidson diagonalization with overlap
     ethr =  6.68E-07,  avg # of iterations =  2.1

     total cpu time spent up to now is      261.9 secs

     total energy              =    -321.56120097 Ry
     estimated scf accuracy    <       0.00001783 Ry

     iteration #  9     ecut=    50.00 Ry     beta= 0.70
     Davidson diagonalization with overlap
     ethr =  4.35E-08,  avg # of iterations =  4.4

     total cpu time spent up to now is      270.0 secs

     total energy              =    -321.56120770 Ry
     estimated scf accuracy    <       0.00000222 Ry

     iteration # 10     ecut=    50.00 Ry     beta= 0.70
     Davidson diagonalization with overlap
     ethr =  5.41E-09,  avg # of iterations =  2.2

     total cpu time spent up to now is      276.8 secs

     End of self-consistent calculation

          k = 0.0000 0.0000 0.0000 ( 10169 PWs)   bands (ev):

   -73.6539 -40.7718 -40.7617 -40.6918  -8.5780  -6.8637  -5.1076  -5.0594
    -4.1912  -4.1889  -3.6662  -2.9129  -2.7512  -2.7343  -2.4015  -2.0043
    -1.9897  -1.7821  -1.4177  -1.3008  -0.7584  -0.2705   3.5387   4.3826
     4.9153

          k = 0.0019 0.0000-0.3442 ( 10212 PWs)   bands (ev):

   -73.6539 -40.7718 -40.7617 -40.6918  -8.5265  -7.0539  -5.2446  -4.7935
    -4.1661  -3.7324  -3.5560  -3.1088  -2.9777  -2.8326  -2.5598  -2.3760
    -1.9653  -1.6574  -1.4296  -0.7299  -0.6796  -0.5964   3.5082   4.2876
     4.9617

          k = 0.0000-0.4592 0.0000 ( 10254 PWs)   bands (ev):

   -73.6539 -40.7718 -40.7617 -40.6918  -8.0164  -7.3497  -6.2400  -4.5446
    -4.0975  -3.8946  -3.5556  -3.5082  -2.9388  -2.9285  -2.0358  -1.8849
    -1.7353  -1.4161  -1.2736  -1.1107  -0.7186  -0.2818   3.4783   4.8960
     4.9187

          k = 0.0019-0.4592-0.3442 ( 10172 PWs)   bands (ev):

   -73.6539 -40.7718 -40.7617 -40.6918  -8.0052  -7.1466  -6.6566  -4.8268
    -3.7072  -3.5242  -3.3648  -3.2675  -2.9047  -2.6005  -2.5296  -2.3001
    -1.9500  -1.7373  -1.5438  -0.7739  -0.4612  -0.3032   3.8996   4.7050
     4.9697

          k =-0.4973 0.0000 0.0026 ( 10180 PWs)   bands (ev):

   -73.6539 -40.7718 -40.7617 -40.6918  -8.1544  -6.7234  -6.0801  -4.9783
    -4.3419  -4.0737  -3.9957  -3.4227  -2.9067  -2.6919  -2.3716  -2.2553
    -2.2416  -1.2623  -0.9770  -0.7507  -0.4050  -0.1895   3.7596   4.4909
     4.9477

          k =-0.4954 0.0000-0.3416 ( 10192 PWs)   bands (ev):

   -73.6539 -40.7718 -40.7617 -40.6918  -8.1259  -6.6544  -6.2492  -4.9693
    -4.8263  -3.9895  -3.5381  -3.2542  -2.7750  -2.6578  -2.3016  -2.1983
    -1.9931  -1.5438  -1.0095  -0.9624  -0.6351  -0.4278   4.0464   4.8145
     5.0476

          k =-0.4973-0.4592 0.0026 ( 10136 PWs)   bands (ev):

   -73.6539 -40.7718 -40.7617 -40.6918  -7.5068  -6.9783  -6.2558  -6.0358
    -4.4484  -3.7068  -3.5462  -3.5217  -3.4096  -2.9394  -2.7900  -2.3747
    -1.4342  -0.8168  -0.6996  -0.3433  -0.2942   0.2011   4.4642   4.4795
     5.4478

          k =-0.4954-0.4592-0.3416 ( 10128 PWs)   bands (ev):

   -73.6539 -40.7718 -40.7617 -40.6918  -7.4989  -6.8801  -6.3537  -6.0118
    -4.6801  -4.0462  -3.8754  -3.6583  -3.0072  -2.4454  -1.9944  -1.8569
    -1.5613  -1.3597  -0.8870  -0.6560  -0.3938   0.2404   3.8847   4.1551
     4.7645

     the Fermi energy is    -0.5298 ev

!    total energy              =    -321.56120795 Ry
     estimated scf accuracy    <       0.00000017 Ry
     smearing contrib. (-TS)   =      -0.00049146 Ry
     internal energy E=F+TS    =    -321.56071649 Ry

     The total energy is F=E-TS. E is the sum of the following terms:
     one-electron contribution =    -141.28995525 Ry
     hartree contribution      =      48.54898578 Ry
     xc contribution           =     -36.65885037 Ry
     ewald contribution        =     -61.02969709 Ry
     one-center paw contrib.   =    -131.13119957 Ry

     convergence has been achieved in  10 iterations

     Forces acting on atoms (cartesian axes, Ry/au):

     atom    1 type  1   force =     0.00254517    0.00000000    0.00434183
     atom    2 type  1   force =    -0.00059193    0.00000000   -0.00133247
     atom    3 type  4   force =     0.00385188    0.00000000    0.01427581
     atom    4 type  1   force =    -0.00073332    0.00000000   -0.00352244
     atom    5 type  1   force =    -0.00766323    0.00000000   -0.01104096
     atom    6 type  3   force =    -0.00311077    0.00000000   -0.00172541
     atom    7 type  2   force =     0.00009451    0.00233661   -0.00052438
     atom    8 type  2   force =     0.00681485    0.00000000    0.00271681
     atom    9 type  2   force =    -0.00195681    0.00000000    0.00054307
     atom   10 type  2   force =    -0.00043060    0.00358903    0.00170422
     atom   11 type  2   force =    -0.00317918    0.00000000    0.00755773
     atom   12 type  2   force =     0.01464076    0.00000000    0.00000857
     atom   13 type  2   force =     0.00558182    0.02055752    0.00474709
     atom   14 type  2   force =    -0.00042902    0.00000000    0.00249414
     atom   15 type  2   force =     0.00163558    0.00000000    0.00432888
     atom   16 type  2   force =     0.00035696    0.00000000   -0.00009310
     atom   17 type  2   force =    -0.00547843    0.00000000   -0.00395049
     atom   18 type  2   force =     0.00417914    0.00000000   -0.00426263
     atom   19 type  2   force =    -0.00503563    0.00997555   -0.00776420
     atom   20 type  2   force =     0.00558182   -0.02055752    0.00474709
     atom   21 type  2   force =    -0.00043060   -0.00358903    0.00170422
     atom   22 type  2   force =    -0.00503563   -0.00997555   -0.00776420
     atom   23 type  2   force =     0.00009451   -0.00233661   -0.00052438
     atom   24 type  2   force =    -0.01130182    0.00000000   -0.00666481

     Total force =     0.049392     Total SCF correction =     0.000505


     Computing stress (Cartesian axis) and pressure

          total   stress  (Ry/bohr**3)                   (kbar)     P=       13.08
   0.00015444   0.00000000   0.00001871           22.72        0.00        2.75
   0.00000000   0.00007593   0.00000000            0.00       11.17        0.00
   0.00001871   0.00000000   0.00003648            2.75        0.00        5.37

     Energy error            =      6.3E-03
     Gradient error          =      2.1E-02
     Cell gradient error     =      1.5E-04


     number of scf cycles    =   2
     number of bfgs steps    =   1

     enthalpy old            =    -321.5549173236 Ry
     enthalpy new            =    -321.5612079487 Ry

     CASE: enthalpy_new < enthalpy_old

     new trust radius        =       0.0687938072 bohr
     new conv_thr            =       0.0000002056 Ry

     new unit-cell volume =   1749.49218 a.u.^3 (   259.24799 Ang^3 )
     density =      0.15373 g/cm^3

CELL_PARAMETERS (angstrom)
   5.511206123   0.000000000   0.035408747
   0.000000000   5.944292488  -0.000000000
   0.049341772  -0.000000000   7.913816498

ATOMIC_POSITIONS (angstrom)
Al            1.2220360152        0.0000000000        7.2552523474
Al            4.3634450070        0.0000000000        0.7349994225
Mg            3.9520907164        2.9721462441        4.8345965129
Al            0.0254978529        2.9721462441        0.0431112839
Al            1.5649923555        2.9721462441        3.2012927129
Li            2.8207693176        0.0000000000        3.9966775528
H             4.4319231386        4.1762223800        0.7251104660
H             0.6026894678        0.0000000000        1.0089804855
H             4.7262467425        2.9721462441        6.5540926752
H             1.1966679958        4.1762100839        7.3298098504
H             3.9115183945        0.0000000000        2.3252647983
H             3.2188899102        2.9721462441        2.7289857094
H             3.9933320271        4.7721992407        4.7459342454
H             2.0306677866        2.9721462441        4.9170037643
H             0.9264976437        2.9721462441        1.5129152698
H             2.7762574767        0.0000000000        0.0192706888
H             4.9797826797        0.0000000000        6.9900008517
H             1.5879755348        0.0000000000        5.6356005100
H             1.6131367905        4.6550107984        3.1636822218
H             3.9933320271        1.1720932474        4.7459342454
H             1.1966679958        1.7680813966        7.3298098504
H             1.6131367905        1.2892816898        3.1636822218
H             4.4319231386        1.7680701082        0.7251104660
H            -0.0134601022        2.9721462441        3.7543545081



     Writing output data file ./tmp/LiMgAl2H92.save/
     NEW-OLD atomic charge density approx. for the potential
     extrapolated charge   41.58448, renormalised to   41.00000

     total cpu time spent up to now is      358.6 secs

     Self-consistent Calculation

     iteration #  1     ecut=    50.00 Ry     beta= 0.70
     Davidson diagonalization with overlap
     ethr =  1.00E-06,  avg # of iterations =  9.0

     total cpu time spent up to now is      371.3 secs

     total energy              =    -321.53035807 Ry
     estimated scf accuracy    <       0.03171799 Ry

     iteration #  2     ecut=    50.00 Ry     beta= 0.70
     Davidson diagonalization with overlap
     ethr =  7.74E-05,  avg # of iterations =  3.4

     total cpu time spent up to now is      379.4 secs

     total energy              =    -321.52927208 Ry
     estimated scf accuracy    <       0.53026831 Ry

     iteration #  3     ecut=    50.00 Ry     beta= 0.70
     Davidson diagonalization with overlap
     ethr =  7.74E-05,  avg # of iterations =  2.4

     total cpu time spent up to now is      387.0 secs

     total energy              =    -321.56535574 Ry
     estimated scf accuracy    <       0.04145020 Ry

     iteration #  4     ecut=    50.00 Ry     beta= 0.70
     Davidson diagonalization with overlap
     ethr =  7.74E-05,  avg # of iterations =  1.1

     total cpu time spent up to now is      393.4 secs

     total energy              =    -321.56746767 Ry
     estimated scf accuracy    <       0.01128738 Ry

     iteration #  5     ecut=    50.00 Ry     beta= 0.70
     Davidson diagonalization with overlap
     ethr =  2.75E-05,  avg # of iterations =  1.6

     total cpu time spent up to now is      399.9 secs

     total energy              =    -321.56735450 Ry
     estimated scf accuracy    <       0.00474881 Ry

     iteration #  6     ecut=    50.00 Ry     beta= 0.70
     Davidson diagonalization with overlap
     ethr =  1.16E-05,  avg # of iterations =  2.1

     total cpu time spent up to now is      406.6 secs

     total energy              =    -321.56729654 Ry
     estimated scf accuracy    <       0.00147449 Ry

     iteration #  7     ecut=    50.00 Ry     beta= 0.70
     Davidson diagonalization with overlap
     ethr =  3.60E-06,  avg # of iterations =  5.1

     total cpu time spent up to now is      413.8 secs

     total energy              =    -321.56729932 Ry
     estimated scf accuracy    <       0.00032095 Ry

     iteration #  8     ecut=    50.00 Ry     beta= 0.70
     Davidson diagonalization with overlap
     ethr =  7.83E-07,  avg # of iterations =  3.1

     total cpu time spent up to now is      421.0 secs

     total energy              =    -321.56733775 Ry
     estimated scf accuracy    <       0.00001319 Ry

     iteration #  9     ecut=    50.00 Ry     beta= 0.70
     Davidson diagonalization with overlap
     ethr =  3.22E-08,  avg # of iterations =  4.0

     total cpu time spent up to now is      429.1 secs

     total energy              =    -321.56734302 Ry
     estimated scf accuracy    <       0.00000088 Ry

     iteration # 10     ecut=    50.00 Ry     beta= 0.70
     Davidson diagonalization with overlap
     ethr =  2.14E-09,  avg # of iterations =  2.6

     total cpu time spent up to now is      436.5 secs

     total energy              =    -321.56734325 Ry
     estimated scf accuracy    <       0.00000035 Ry

     iteration # 11     ecut=    50.00 Ry     beta= 0.70
     Davidson diagonalization with overlap
     ethr =  8.42E-10,  avg # of iterations =  1.9

     total cpu time spent up to now is      443.1 secs

     End of self-consistent calculation

          k = 0.0000 0.0000 0.0000 ( 10169 PWs)   bands (ev):

   -73.8053 -40.9222 -40.9114 -40.8446  -8.5610  -6.8321  -5.1267  -5.0787
    -4.2592  -4.2134  -3.6739  -2.9314  -2.7667  -2.7469  -2.4499  -2.0639
    -2.0377  -1.8332  -1.4832  -1.3691  -0.7963  -0.3474   3.4177   4.2288
     4.7334

          k = 0.0022 0.0000-0.3435 ( 10212 PWs)   bands (ev):

   -73.8053 -40.9222 -40.9114 -40.8446  -8.5100  -7.0237  -5.2690  -4.8255
    -4.1917  -3.7409  -3.6017  -3.1613  -3.0016  -2.8279  -2.5966  -2.4118
    -2.0250  -1.7029  -1.4806  -0.7680  -0.7564  -0.6844   3.3783   4.1022
     4.8547

          k = 0.0000-0.4573 0.0000 ( 10254 PWs)   bands (ev):

   -73.8053 -40.9222 -40.9114 -40.8446  -7.9989  -7.3413  -6.2208  -4.5724
    -4.1256  -3.9116  -3.5689  -3.5637  -3.0014  -2.9559  -2.0895  -1.9276
    -1.8035  -1.4858  -1.3193  -1.1432  -0.7727  -0.3244   3.3589   4.7818
     4.8444

          k = 0.0022-0.4573-0.3435 ( 10172 PWs)   bands (ev):

   -73.8053 -40.9222 -40.9114 -40.8446  -7.9874  -7.1420  -6.6368  -4.8484
    -3.7186  -3.5778  -3.4225  -3.3009  -2.9139  -2.6446  -2.5697  -2.3396
    -2.0281  -1.7778  -1.5858  -0.8374  -0.5207  -0.3441   3.7614   4.6296
     4.8669

          k =-0.4932 0.0000 0.0031 ( 10180 PWs)   bands (ev):

   -73.8053 -40.9222 -40.9114 -40.8446  -8.1482  -6.7056  -6.0833  -4.9956
    -4.3586  -4.0967  -4.0277  -3.4430  -2.9607  -2.6969  -2.4169  -2.3002
    -2.2727  -1.3270  -1.0042  -0.8460  -0.4581  -0.2429   3.6053   4.3378
     4.8817

          k =-0.4910 0.0000-0.3404 ( 10192 PWs)   bands (ev):

   -73.8053 -40.9222 -40.9114 -40.8446  -8.1195  -6.6318  -6.2567  -4.9883
    -4.8508  -4.0216  -3.5494  -3.2790  -2.8128  -2.6582  -2.3510  -2.2353
    -2.0462  -1.6135  -1.0365  -1.0321  -0.6909  -0.4977   3.8925   4.6567
     4.9223

          k =-0.4932-0.4573 0.0031 ( 10136 PWs)   bands (ev):

   -73.8053 -40.9222 -40.9114 -40.8446  -7.4982  -6.9880  -6.2317  -6.0476
    -4.4624  -3.7244  -3.5701  -3.5594  -3.4340  -2.9729  -2.8164  -2.4575
    -1.4771  -0.8713  -0.7735  -0.3824  -0.3397   0.1352   4.3186   4.3474
     5.3781

          k =-0.4910-0.4573-0.3404 ( 10128 PWs)   bands (ev):

   -73.8053 -40.9222 -40.9114 -40.8446  -7.4901  -6.8922  -6.3296  -6.0230
    -4.6926  -4.0758  -3.9001  -3.6872  -3.0259  -2.4883  -2.0663  -1.9093
    -1.5810  -1.4055  -0.9369  -0.7274  -0.4363   0.1741   3.7591   4.0425
     4.6941

     the Fermi energy is    -0.5915 ev

!    total energy              =    -321.56734329 Ry
     estimated scf accuracy    <       0.00000004 Ry
     smearing contrib. (-TS)   =       0.00006987 Ry
     internal energy E=F+TS    =    -321.56741316 Ry

     The total energy is F=E-TS. E is the sum of the following terms:
     one-electron contribution =    -141.25733735 Ry
     hartree contribution      =      48.40112570 Ry
     xc contribution           =     -36.56734313 Ry
     ewald contribution        =     -61.01158416 Ry
     one-center paw contrib.   =    -131.13227422 Ry

     convergence has been achieved in  11 iterations

     Forces acting on atoms (cartesian axes, Ry/au):

     atom    1 type  1   force =     0.00068741    0.00000000    0.00168355
     atom    2 type  1   force =     0.00053894    0.00000000    0.00052151
     atom    3 type  4   force =    -0.00023685    0.00000000    0.01029812
     atom    4 type  1   force =    -0.00004682    0.00000000   -0.00214509
     atom    5 type  1   force =    -0.00085295    0.00000000   -0.00636877
     atom    6 type  3   force =    -0.00378027    0.00000000   -0.00199218
     atom    7 type  2   force =     0.00211980    0.00157533   -0.00104374
     atom    8 type  2   force =     0.00236152    0.00000000    0.00093606
     atom    9 type  2   force =    -0.00038846    0.00000000    0.00230353
     atom   10 type  2   force =    -0.00223988    0.00210874    0.00234285
     atom   11 type  2   force =    -0.00133633    0.00000000    0.00223552
     atom   12 type  2   force =     0.00625469    0.00000000    0.00280833
     atom   13 type  2   force =     0.00493288    0.01517628    0.00455513
     atom   14 type  2   force =     0.00077462    0.00000000   -0.00119490
     atom   15 type  2   force =    -0.00039755    0.00000000    0.00075736
     atom   16 type  2   force =     0.00076321    0.00000000    0.00015764
     atom   17 type  2   force =    -0.00099367    0.00000000   -0.00128739
     atom   18 type  2   force =     0.00270251    0.00000000    0.00056891
     atom   19 type  2   force =    -0.00434771    0.00402434   -0.00683773
     atom   20 type  2   force =     0.00493288   -0.01517628    0.00455513
     atom   21 type  2   force =    -0.00223988   -0.00210874    0.00234285
     atom   22 type  2   force =    -0.00434771   -0.00402434   -0.00683773
     atom   23 type  2   force =     0.00211980   -0.00157533   -0.00104374
     atom   24 type  2   force =    -0.00698022    0.00000000   -0.00731522

     Total force =     0.033410     Total SCF correction =     0.000236


     Computing stress (Cartesian axis) and pressure

          total   stress  (Ry/bohr**3)                   (kbar)     P=        2.64
   0.00006629   0.00000000   0.00001879            9.75        0.00        2.76
   0.00000000  -0.00000239   0.00000000            0.00       -0.35        0.00
   0.00001879   0.00000000  -0.00001006            2.76        0.00       -1.48

     Energy error            =      6.1E-03
     Gradient error          =      1.5E-02
     Cell gradient error     =      6.6E-05


     number of scf cycles    =   3
     number of bfgs steps    =   2

     enthalpy old            =    -321.5612079487 Ry
     enthalpy new            =    -321.5673432899 Ry

     CASE: enthalpy_new < enthalpy_old

     new trust radius        =       0.0793427387 bohr
     new conv_thr            =       0.0000001518 Ry

     new unit-cell volume =   1773.17520 a.u.^3 (   262.75746 Ang^3 )
     density =      0.15167 g/cm^3

CELL_PARAMETERS (angstrom)
   5.562772789   0.000000000   0.044293991
   0.000000000   5.962431532  -0.000000000
   0.062575268  -0.000000000   7.922598270

ATOMIC_POSITIONS (angstrom)
Al            1.2482588440        0.0000000000        7.2707502250
Al            4.4053569924        0.0000000000        0.7420505784
Mg            4.0000053491        2.9812157658        4.8686284059
Al            0.0250972701        2.9812157658        0.0380560951
Al            1.5767548382        2.9812157658        3.1914951387
Li            2.8469636730        0.0000000000        4.0021079220
H             4.4767233532        4.1925610604        0.7315767144
H             0.6184692916        0.0000000000        1.0144279108
H             4.7788542057        2.9812157658        6.5715632530
H             1.2170831879        4.1941663602        7.3435448551
H             3.9476426068        0.0000000000        2.3430221304
H             3.2729891483        2.9812157658        2.7399097760
H             4.0483164676        4.8199052262        4.7662252845
H             2.0579784560        2.9812157658        4.9267661978
H             0.9387020983        2.9812157658        1.5206129763
H             2.8033212135        0.0000000000        0.0238261383
H             5.0316584708        0.0000000000        7.0009346180
H             1.6183926091        0.0000000000        5.6410753522
H             1.6243924740        4.6820668296        3.1562411367
H             4.0483164676        1.1425263053        4.7662252845
H             1.2170831879        1.7682641606        7.3435448551
H             1.6243924740        1.2803647019        3.1562411367
H             4.4767233532        1.7698704712        0.7315767144
H            -0.0246576559        2.9812157658        3.7454071131



     Writing output data file ./tmp/LiMgAl2H92.save/
     NEW-OLD atomic charge density approx. for the potential
     extrapolated charge   41.54741, renormalised to   41.00000

     total cpu time spent up to now is      525.3 secs

     Self-consistent Calculation

     iteration #  1     ecut=    50.00 Ry     beta= 0.70
     Davidson diagonalization with overlap
     ethr =  1.00E-06,  avg # of iterations =  9.6

     total cpu time spent up to now is      538.7 secs

     total energy              =    -321.53188854 Ry
     estimated scf accuracy    <       0.03674246 Ry

     iteration #  2     ecut=    50.00 Ry     beta= 0.70
     Davidson diagonalization with overlap
     ethr =  8.96E-05,  avg # of iterations =  3.2

     total cpu time spent up to now is      546.9 secs

     total energy              =    -321.52902281 Ry
     estimated scf accuracy    <       0.55142128 Ry

     iteration #  3     ecut=    50.00 Ry     beta= 0.70
     Davidson diagonalization with overlap
     ethr =  8.96E-05,  avg # of iterations =  2.2

     total cpu time spent up to now is      554.5 secs

     total energy              =    -321.56855949 Ry
     estimated scf accuracy    <       0.04652361 Ry

     iteration #  4     ecut=    50.00 Ry     beta= 0.70
     Davidson diagonalization with overlap
     ethr =  8.96E-05,  avg # of iterations =  1.1

     total cpu time spent up to now is      561.0 secs

     total energy              =    -321.57104002 Ry
     estimated scf accuracy    <       0.01064601 Ry

     iteration #  5     ecut=    50.00 Ry     beta= 0.70
     Davidson diagonalization with overlap
     ethr =  2.60E-05,  avg # of iterations =  2.1

     total cpu time spent up to now is      567.7 secs

     total energy              =    -321.57091243 Ry
     estimated scf accuracy    <       0.00445910 Ry

     iteration #  6     ecut=    50.00 Ry     beta= 0.70
     Davidson diagonalization with overlap
     ethr =  1.09E-05,  avg # of iterations =  2.4

     total cpu time spent up to now is      574.5 secs

     total energy              =    -321.57091182 Ry
     estimated scf accuracy    <       0.00114714 Ry

     iteration #  7     ecut=    50.00 Ry     beta= 0.70
     Davidson diagonalization with overlap
     ethr =  2.80E-06,  avg # of iterations =  5.6

     total cpu time spent up to now is      582.0 secs

     total energy              =    -321.57092790 Ry
     estimated scf accuracy    <       0.00021780 Ry

     iteration #  8     ecut=    50.00 Ry     beta= 0.70
     Davidson diagonalization with overlap
     ethr =  5.31E-07,  avg # of iterations =  3.5

     total cpu time spent up to now is      589.3 secs

     total energy              =    -321.57095788 Ry
     estimated scf accuracy    <       0.00000842 Ry

     iteration #  9     ecut=    50.00 Ry     beta= 0.70
     Davidson diagonalization with overlap
     ethr =  2.05E-08,  avg # of iterations =  4.0

     total cpu time spent up to now is      597.1 secs

     total energy              =    -321.57096073 Ry
     estimated scf accuracy    <       0.00000074 Ry

     iteration # 10     ecut=    50.00 Ry     beta= 0.70
     Davidson diagonalization with overlap
     ethr =  1.81E-09,  avg # of iterations =  3.8

     total cpu time spent up to now is      604.9 secs

     total energy              =    -321.57096093 Ry
     estimated scf accuracy    <       0.00000050 Ry

     iteration # 11     ecut=    50.00 Ry     beta= 0.70
     Davidson diagonalization with overlap
     ethr =  1.21E-09,  avg # of iterations =  1.5

     total cpu time spent up to now is      611.5 secs

     End of self-consistent calculation

          k = 0.0000 0.0000 0.0000 ( 10169 PWs)   bands (ev):

   -73.9754 -41.0910 -41.0784 -41.0180  -8.5426  -6.7876  -5.1374  -5.0951
    -4.3352  -4.2394  -3.6637  -2.9389  -2.7862  -2.7262  -2.4978  -2.1209
    -2.0816  -1.8858  -1.5411  -1.4303  -0.8157  -0.4216   3.3192   4.0735
     4.5409

          k = 0.0027 0.0000-0.3431 ( 10212 PWs)   bands (ev):

   -73.9754 -41.0910 -41.0784 -41.0180  -8.4921  -6.9827  -5.2843  -4.8576
    -4.2190  -3.7341  -3.6492  -3.2226  -3.0128  -2.8071  -2.6182  -2.4360
    -2.0817  -1.7436  -1.5194  -0.8424  -0.7876  -0.7647   3.2668   3.9161
     4.7419

          k = 0.0000-0.4559 0.0000 ( 10254 PWs)   bands (ev):

   -73.9754 -41.0910 -41.0784 -41.0180  -7.9745  -7.3311  -6.1930  -4.5977
    -4.1500  -3.9216  -3.6202  -3.5652  -3.0797  -2.9602  -2.1424  -1.9651
    -1.8732  -1.5469  -1.3573  -1.1615  -0.8186  -0.3475   3.2497   4.6899
     4.7801

          k = 0.0027-0.4559-0.3431 ( 10172 PWs)   bands (ev):

   -73.9754 -41.0910 -41.0784 -41.0180  -7.9627  -7.1375  -6.6073  -4.8673
    -3.7130  -3.6374  -3.4837  -3.3274  -2.9145  -2.6743  -2.6058  -2.3702
    -2.1143  -1.8072  -1.6173  -0.8918  -0.5741  -0.3649   3.6351   4.5582
     4.7724

          k =-0.4887 0.0000 0.0039 ( 10180 PWs)   bands (ev):

   -73.9754 -41.0910 -41.0784 -41.0180  -8.1452  -6.6801  -6.0729  -5.0040
    -4.3652  -4.1163  -4.0636  -3.4571  -3.0096  -2.6899  -2.4590  -2.3369
    -2.2923  -1.3889  -1.0100  -0.9438  -0.5001  -0.2865   3.4593   4.1947
     4.8190

          k =-0.4859 0.0000-0.3392 ( 10192 PWs)   bands (ev):

   -73.9754 -41.0910 -41.0784 -41.0180  -8.1162  -6.6005  -6.2519  -5.0060
    -4.8656  -4.0575  -3.5463  -3.2899  -2.8460  -2.6439  -2.3949  -2.2642
    -2.1040  -1.6869  -1.0978  -1.0426  -0.7342  -0.5574   3.7473   4.5085
     4.8053

          k =-0.4887-0.4559 0.0039 ( 10136 PWs)   bands (ev):

   -73.9754 -41.0910 -41.0784 -41.0180  -7.4879  -6.9998  -6.1992  -6.0455
    -4.4647  -3.7337  -3.6173  -3.5606  -3.4530  -2.9997  -2.8354  -2.5591
    -1.5109  -0.9165  -0.8424  -0.4060  -0.3723   0.0867   4.1897   4.2230
     5.3188

          k =-0.4859-0.4559-0.3392 ( 10128 PWs)   bands (ev):

   -73.9754 -41.0910 -41.0784 -41.0180  -7.4795  -6.9075  -6.2959  -6.0194
    -4.6956  -4.1029  -3.9199  -3.7150  -3.0272  -2.5307  -2.1444  -1.9591
    -1.5859  -1.4456  -0.9784  -0.7904  -0.4624   0.1246   3.6522   3.9376
     4.6348

     the Fermi energy is    -0.6428 ev

!    total energy              =    -321.57096100 Ry
     estimated scf accuracy    <       0.00000001 Ry
     smearing contrib. (-TS)   =       0.00064607 Ry
     internal energy E=F+TS    =    -321.57160708 Ry

     The total energy is F=E-TS. E is the sum of the following terms:
     one-electron contribution =    -141.06967350 Ry
     hartree contribution      =      48.18076406 Ry
     xc contribution           =     -36.47973917 Ry
     ewald contribution        =     -61.06711797 Ry
     one-center paw contrib.   =    -131.13584050 Ry

     convergence has been achieved in  11 iterations

     Forces acting on atoms (cartesian axes, Ry/au):

     atom    1 type  1   force =    -0.00033713    0.00000000   -0.00045424
     atom    2 type  1   force =     0.00095284    0.00000000    0.00173504
     atom    3 type  4   force =    -0.00363306    0.00000000    0.00532382
     atom    4 type  1   force =     0.00081763    0.00000000   -0.00002686
     atom    5 type  1   force =     0.00437427    0.00000000   -0.00071238
     atom    6 type  3   force =    -0.00478226    0.00000000   -0.00248314
     atom    7 type  2   force =     0.00392311    0.00050959   -0.00130750
     atom    8 type  2   force =    -0.00200263    0.00000000   -0.00045003
     atom    9 type  2   force =     0.00092070    0.00000000    0.00336028
     atom   10 type  2   force =    -0.00376256    0.00019160    0.00261987
     atom   11 type  2   force =     0.00025833    0.00000000   -0.00236281
     atom   12 type  2   force =    -0.00102364    0.00000000    0.00500922
     atom   13 type  2   force =     0.00419838    0.01022787    0.00431071
     atom   14 type  2   force =     0.00183055    0.00000000   -0.00429616
     atom   15 type  2   force =    -0.00221656    0.00000000   -0.00295556
     atom   16 type  2   force =     0.00100898    0.00000000    0.00034587
     atom   17 type  2   force =     0.00330006    0.00000000    0.00127219
     atom   18 type  2   force =     0.00134377    0.00000000    0.00446178
     atom   19 type  2   force =    -0.00345959   -0.00132106   -0.00569469
     atom   20 type  2   force =     0.00419838   -0.01022787    0.00431071
     atom   21 type  2   force =    -0.00376256   -0.00019160    0.00261987
     atom   22 type  2   force =    -0.00345959    0.00132106   -0.00569469
     atom   23 type  2   force =     0.00392311   -0.00050959   -0.00130750
     atom   24 type  2   force =    -0.00261054    0.00000000   -0.00762378

     Total force =     0.027014     Total SCF correction =     0.000124


     Computing stress (Cartesian axis) and pressure

          total   stress  (Ry/bohr**3)                   (kbar)     P=       -7.34
  -0.00002447   0.00000000   0.00001488           -3.60        0.00        2.19
   0.00000000  -0.00007665   0.00000000            0.00      -11.28        0.00
   0.00001488   0.00000000  -0.00004847            2.19        0.00       -7.13

     Energy error            =      3.6E-03
     Gradient error          =      1.0E-02
     Cell gradient error     =      7.7E-05


     number of scf cycles    =   4
     number of bfgs steps    =   3

     enthalpy old            =    -321.5673432899 Ry
     enthalpy new            =    -321.5709610046 Ry

     CASE: enthalpy_new < enthalpy_old

     new trust radius        =       0.0462434935 bohr
     new conv_thr            =       0.0000001023 Ry

     new unit-cell volume =   1777.39761 a.u.^3 (   263.38315 Ang^3 )
     density =      0.15131 g/cm^3

CELL_PARAMETERS (angstrom)
   5.584012733   0.000000000   0.050691513
   0.000000000   5.958558205  -0.000000000
   0.072095435  -0.000000000   7.916556398

ATOMIC_POSITIONS (angstrom)
Al            1.2630050120        0.0000000000        7.2691358038
Al            4.4234359034        0.0000000000        0.7470880380
Mg            4.0202973752        2.9792791024        4.8832270942
Al            0.0254313707        2.9792791024        0.0356757099
Al            1.5849220365        2.9792791024        3.1829635321
Li            2.8562394543        0.0000000000        3.9990831418
H             4.4980983995        4.1918317223        0.7347798775
H             0.6249474454        0.0000000000        1.0158017267
H             4.8042553405        2.9792791024        6.5751914054
H             1.2267934776        4.1940026895        7.3425814468
H             3.9634884251        0.0000000000        2.3488745850
H             3.2978708499        2.9792791024        2.7457739041
H             4.0768066950        4.8390612984        4.7740102523
H             2.0728757816        2.9792791024        4.9234575712
H             0.9432540043        2.9792791024        1.5209515848
H             2.8151573305        0.0000000000        0.0272891803
H             5.0581374329        0.0000000000        6.9997983548
H             1.6352047170        0.0000000000        5.6394686986
H             1.6277886857        4.6845899949        3.1457692961
H             4.0768066950        1.1194969064        4.7740102523
H             1.2267934776        1.7645545052        7.3425814468
H             1.6277886857        1.2739682098        3.1457692961
H             4.4980983995        1.7667264825        0.7347798775
H            -0.0303174435        2.9792791024        3.7316598762



     Writing output data file ./tmp/LiMgAl2H92.save/
     NEW-OLD atomic charge density approx. for the potential
     extrapolated charge   41.09736, renormalised to   41.00000

     total cpu time spent up to now is      693.6 secs

     Self-consistent Calculation

     iteration #  1     ecut=    50.00 Ry     beta= 0.70
     Davidson diagonalization with overlap
     ethr =  1.00E-06,  avg # of iterations =  6.0

     total cpu time spent up to now is      704.5 secs

     total energy              =    -321.56914090 Ry
     estimated scf accuracy    <       0.00464816 Ry

     iteration #  2     ecut=    50.00 Ry     beta= 0.70
     Davidson diagonalization with overlap
     ethr =  1.13E-05,  avg # of iterations =  3.6

     total cpu time spent up to now is      712.5 secs

     total energy              =    -321.56575641 Ry
     estimated scf accuracy    <       0.07423036 Ry

     iteration #  3     ecut=    50.00 Ry     beta= 0.70
     Davidson diagonalization with overlap
     ethr =  1.13E-05,  avg # of iterations =  2.9

     total cpu time spent up to now is      720.2 secs

     total energy              =    -321.57233382 Ry
     estimated scf accuracy    <       0.00377867 Ry

     iteration #  4     ecut=    50.00 Ry     beta= 0.70
     Davidson diagonalization with overlap
     ethr =  9.22E-06,  avg # of iterations =  1.1

     total cpu time spent up to now is      726.8 secs

     total energy              =    -321.57265224 Ry
     estimated scf accuracy    <       0.00041225 Ry

     iteration #  5     ecut=    50.00 Ry     beta= 0.70
     Davidson diagonalization with overlap
     ethr =  1.01E-06,  avg # of iterations =  2.0

     total cpu time spent up to now is      733.7 secs

     total energy              =    -321.57266365 Ry
     estimated scf accuracy    <       0.00009987 Ry

     iteration #  6     ecut=    50.00 Ry     beta= 0.70
     Davidson diagonalization with overlap
     ethr =  2.44E-07,  avg # of iterations =  2.2

     total cpu time spent up to now is      740.5 secs

     total energy              =    -321.57267128 Ry
     estimated scf accuracy    <       0.00000402 Ry

     iteration #  7     ecut=    50.00 Ry     beta= 0.70
     Davidson diagonalization with overlap
     ethr =  9.81E-09,  avg # of iterations =  4.2

     total cpu time spent up to now is      749.0 secs

     total energy              =    -321.57267281 Ry
     estimated scf accuracy    <       0.00000205 Ry

     iteration #  8     ecut=    50.00 Ry     beta= 0.70
     Davidson diagonalization with overlap
     ethr =  5.01E-09,  avg # of iterations =  2.0

     total cpu time spent up to now is      755.9 secs

     total energy              =    -321.57267307 Ry
     estimated scf accuracy    <       0.00000031 Ry

     iteration #  9     ecut=    50.00 Ry     beta= 0.70
     Davidson diagonalization with overlap
     ethr =  7.49E-10,  avg # of iterations =  2.0

     total cpu time spent up to now is      762.8 secs

     End of self-consistent calculation

          k = 0.0000 0.0000 0.0000 ( 10169 PWs)   bands (ev):

   -74.0473 -41.1621 -41.1481 -41.0927  -8.5352  -6.7576  -5.1281  -5.0952
    -4.3648  -4.2471  -3.6406  -2.9269  -2.7753  -2.7000  -2.5103  -2.1321
    -2.0884  -1.8995  -1.5516  -1.4387  -0.7981  -0.4376   3.3185   4.0345
     4.4745

          k = 0.0031 0.0000-0.3434 ( 10212 PWs)   bands (ev):

   -74.0473 -41.1621 -41.1481 -41.0927  -8.4847  -6.9567  -5.2755  -4.8640
    -4.2274  -3.7155  -3.6646  -3.2473  -2.9993  -2.7810  -2.6083  -2.4293
    -2.0926  -1.7471  -1.5170  -0.8755  -0.7787  -0.7699   3.2574   3.8647
     4.7041

          k = 0.0000-0.4562 0.0000 ( 10254 PWs)   bands (ev):

   -74.0473 -41.1621 -41.1481 -41.0927  -7.9588  -7.3239  -6.1738  -4.5994
    -4.1487  -3.9167  -3.6373  -3.5457  -3.1091  -2.9459  -2.1562  -1.9645
    -1.8931  -1.5564  -1.3576  -1.1487  -0.8214  -0.3297   3.2353   4.6926
     4.7780

          k = 0.0031-0.4562-0.3434 ( 10172 PWs)   bands (ev):

   -74.0473 -41.1621 -41.1481 -41.0927  -7.9466  -7.1333  -6.5868  -4.8683
    -3.6932  -3.6581  -3.5030  -3.3274  -2.9001  -2.6645  -2.6123  -2.3674
    -2.1505  -1.8041  -1.6115  -0.8947  -0.5807  -0.3458   3.6179   4.5463
     4.7587

          k =-0.4868 0.0000 0.0044 ( 10180 PWs)   bands (ev):

   -74.0473 -41.1621 -41.1481 -41.0927  -8.1470  -6.6614  -6.0537  -4.9943
    -4.3557  -4.1163  -4.0768  -3.4528  -3.0159  -2.6719  -2.4664  -2.3368
    -2.2827  -1.4047  -0.9848  -0.9742  -0.4981  -0.2862   3.4309   4.1678
     4.8064

          k =-0.4837 0.0000-0.3389 ( 10192 PWs)   bands (ev):

   -74.0473 -41.1621 -41.1481 -41.0927  -8.1179  -6.5784  -6.2368  -5.0097
    -4.8558  -4.0707  -3.5279  -3.2740  -2.8491  -2.6216  -2.3992  -2.2617
    -2.1258  -1.7119  -1.1105  -1.0180  -0.7309  -0.5636   3.7199   4.4797
     4.7854

          k =-0.4868-0.4562 0.0044 ( 10136 PWs)   bands (ev):

   -74.0473 -41.1621 -41.1481 -41.0927  -7.4815  -7.0034  -6.1782  -6.0291
    -4.4519  -3.7272  -3.6252  -3.5460  -3.4517  -2.9984  -2.8291  -2.6130
    -1.5072  -0.9164  -0.8553  -0.3928  -0.3652   0.0937   4.1804   4.1995
     5.3155

          k =-0.4837-0.4562-0.3389 ( 10128 PWs)   bands (ev):

   -74.0473 -41.1621 -41.1481 -41.0927  -7.4728  -6.9132  -6.2731  -6.0019
    -4.6856  -4.1063  -3.9192  -3.7215  -3.0048  -2.5426  -2.1702  -1.9706
    -1.5694  -1.4482  -0.9790  -0.7982  -0.4489   0.1309   3.6503   3.9206
     4.6336

     the Fermi energy is    -0.6444 ev

!    total energy              =    -321.57267312 Ry
     estimated scf accuracy    <       0.00000002 Ry
     smearing contrib. (-TS)   =       0.00084702 Ry
     internal energy E=F+TS    =    -321.57352014 Ry

     The total energy is F=E-TS. E is the sum of the following terms:
     one-electron contribution =    -140.79657246 Ry
     hartree contribution      =      48.01667188 Ry
     xc contribution           =     -36.45880427 Ry
     ewald contribution        =     -61.19489338 Ry
     one-center paw contrib.   =    -131.13992190 Ry

     convergence has been achieved in   9 iterations

     Forces acting on atoms (cartesian axes, Ry/au):

     atom    1 type  1   force =    -0.00029550    0.00000000   -0.00080390
     atom    2 type  1   force =     0.00072033    0.00000000    0.00168454
     atom    3 type  4   force =    -0.00430555    0.00000000    0.00292929
     atom    4 type  1   force =     0.00123027    0.00000000    0.00141964
     atom    5 type  1   force =     0.00538437    0.00000000    0.00178271
     atom    6 type  3   force =    -0.00543735    0.00000000   -0.00291311
     atom    7 type  2   force =     0.00415684   -0.00017891   -0.00112220
     atom    8 type  2   force =    -0.00352575    0.00000000   -0.00044606
     atom    9 type  2   force =     0.00098876    0.00000000    0.00284116
     atom   10 type  2   force =    -0.00378315   -0.00083920    0.00226657
     atom   11 type  2   force =     0.00054109    0.00000000   -0.00323878
     atom   12 type  2   force =    -0.00303822    0.00000000    0.00545641
     atom   13 type  2   force =     0.00387519    0.00875067    0.00416264
     atom   14 type  2   force =     0.00202170    0.00000000   -0.00477714
     atom   15 type  2   force =    -0.00249686    0.00000000   -0.00412417
     atom   16 type  2   force =     0.00099133    0.00000000    0.00034185
     atom   17 type  2   force =     0.00479183    0.00000000    0.00188940
     atom   18 type  2   force =     0.00102034    0.00000000    0.00484049
     atom   19 type  2   force =    -0.00294412   -0.00257409   -0.00508415
     atom   20 type  2   force =     0.00387519   -0.00875067    0.00416264
     atom   21 type  2   force =    -0.00378315    0.00083920    0.00226657
     atom   22 type  2   force =    -0.00294412    0.00257409   -0.00508415
     atom   23 type  2   force =     0.00415684    0.00017891   -0.00112220
     atom   24 type  2   force =    -0.00120031    0.00000000   -0.00732804

     Total force =     0.026672     Total SCF correction =     0.000099


     Computing stress (Cartesian axis) and pressure

          total   stress  (Ry/bohr**3)                   (kbar)     P=       -9.81
  -0.00005507   0.00000000   0.00001007           -8.10        0.00        1.48
   0.00000000  -0.00009432   0.00000000            0.00      -13.88        0.00
   0.00001007   0.00000000  -0.00005061            1.48        0.00       -7.44

     Energy error            =      1.7E-03
     Gradient error          =      8.8E-03
     Cell gradient error     =      9.4E-05


     number of scf cycles    =   5
     number of bfgs steps    =   4

     enthalpy old            =    -321.5709610046 Ry
     enthalpy new            =    -321.5726731194 Ry

     CASE: enthalpy_new < enthalpy_old

     new trust radius        =       0.0693619036 bohr
     new conv_thr            =       0.0000000875 Ry

     new unit-cell volume =   1775.57642 a.u.^3 (   263.11328 Ang^3 )
     density =      0.15147 g/cm^3

CELL_PARAMETERS (angstrom)
   5.604892835   0.000000000   0.059787322
   0.000000000   5.941805703  -0.000000000
   0.085637938  -0.000000000   7.901457704

ATOMIC_POSITIONS (angstrom)
Al            1.2819129762        0.0000000000        7.2603786604
Al            4.4418696038        0.0000000000        0.7541452994
Mg            4.0406961174        2.9709028517        4.8991596311
Al            0.0265133507        2.9709028517        0.0335598444
Al            1.5962686337        2.9709028517        3.1704117106
Li            2.8625959652        0.0000000000        3.9904119682
H             4.5224813986        4.1823950246        0.7385774104
H             0.6310563399        0.0000000000        1.0167288475
H             4.8328707110        2.9709028517        6.5755313382
H             1.2374425505        4.1849461701        7.3355986954
H             3.9798077647        0.0000000000        2.3537138812
H             3.3255866102        2.9709028517        2.7537292088
H             4.1116454794        4.8584948449        4.7822762032
H             2.0914236779        2.9709028517        4.9130167348
H             0.9471611089        2.9709028517        1.5182170343
H             2.8275991692        0.0000000000        0.0323219157
H             5.0899166144        0.0000000000        6.9934766987
H             1.6565987499        0.0000000000        5.6342913593
H             1.6292852138        4.6776612778        3.1272737854
H             4.1116454794        1.0833108585        4.7822762032
H             1.2374425505        1.7568585261        7.3355986954
H             1.6292852138        1.2641444257        3.1272737854
H             4.5224813986        1.7594106788        0.7385774104
H            -0.0377585166        2.9709028517        3.7071438978



     Writing output data file ./tmp/LiMgAl2H92.save/
     NEW-OLD atomic charge density approx. for the potential
     extrapolated charge   40.95796, renormalised to   41.00000

     total cpu time spent up to now is      844.7 secs

     Self-consistent Calculation

     iteration #  1     ecut=    50.00 Ry     beta= 0.70
     Davidson diagonalization with overlap
     ethr =  1.00E-06,  avg # of iterations =  8.4

     total cpu time spent up to now is      856.7 secs

     total energy              =    -321.57246326 Ry
     estimated scf accuracy    <       0.00511557 Ry

     iteration #  2     ecut=    50.00 Ry     beta= 0.70
     Davidson diagonalization with overlap
     ethr =  1.25E-05,  avg # of iterations =  4.4

     total cpu time spent up to now is      864.7 secs

     total energy              =    -321.56927036 Ry
     estimated scf accuracy    <       0.05720441 Ry

     iteration #  3     ecut=    50.00 Ry     beta= 0.70
     Davidson diagonalization with overlap
     ethr =  1.25E-05,  avg # of iterations =  3.8

     total cpu time spent up to now is      872.3 secs

     total energy              =    -321.57505549 Ry
     estimated scf accuracy    <       0.00203309 Ry

     iteration #  4     ecut=    50.00 Ry     beta= 0.70
     Davidson diagonalization with overlap
     ethr =  4.96E-06,  avg # of iterations =  1.6

     total cpu time spent up to now is      878.8 secs

     total energy              =    -321.57525034 Ry
     estimated scf accuracy    <       0.00023403 Ry

     iteration #  5     ecut=    50.00 Ry     beta= 0.70
     Davidson diagonalization with overlap
     ethr =  5.71E-07,  avg # of iterations =  2.0

     total cpu time spent up to now is      885.8 secs

     total energy              =    -321.57527330 Ry
     estimated scf accuracy    <       0.00004286 Ry

     iteration #  6     ecut=    50.00 Ry     beta= 0.70
     Davidson diagonalization with overlap
     ethr =  1.05E-07,  avg # of iterations =  2.0

     total cpu time spent up to now is      892.6 secs

     total energy              =    -321.57528024 Ry
     estimated scf accuracy    <       0.00000419 Ry

     iteration #  7     ecut=    50.00 Ry     beta= 0.70
     Davidson diagonalization with overlap
     ethr =  1.02E-08,  avg # of iterations =  3.5

     total cpu time spent up to now is      900.2 secs

     total energy              =    -321.57528118 Ry
     estimated scf accuracy    <       0.00000066 Ry

     iteration #  8     ecut=    50.00 Ry     beta= 0.70
     Davidson diagonalization with overlap
     ethr =  1.61E-09,  avg # of iterations =  3.0

     total cpu time spent up to now is      907.6 secs

     total energy              =    -321.57528128 Ry
     estimated scf accuracy    <       0.00000011 Ry

     iteration #  9     ecut=    50.00 Ry     beta= 0.70
     Davidson diagonalization with overlap
     ethr =  2.80E-10,  avg # of iterations =  2.8

     total cpu time spent up to now is      914.9 secs

     End of self-consistent calculation

          k = 0.0000 0.0000 0.0000 ( 10169 PWs)   bands (ev):

   -74.1248 -41.2379 -41.2218 -41.1751  -8.5264  -6.7132  -5.1026  -5.0864
    -4.3927  -4.2502  -3.5963  -2.8995  -2.7442  -2.6523  -2.5148  -2.1287
    -2.0818  -1.9015  -1.5491  -1.4268  -0.7498  -0.4379   3.3602   4.0209
     4.4205

          k = 0.0037 0.0000-0.3440 ( 10212 PWs)   bands (ev):

   -74.1248 -41.2379 -41.2218 -41.1751  -8.4758  -6.9194  -5.2482  -4.8610
    -4.2314  -3.6870  -3.6672  -3.2747  -2.9654  -2.7337  -2.5757  -2.4035
    -2.0886  -1.7348  -1.4932  -0.9070  -0.7718  -0.7214   3.2852   3.8393
     4.6747

          k = 0.0000-0.4575 0.0000 ( 10254 PWs)   bands (ev):

   -74.1248 -41.2379 -41.2218 -41.1751  -7.9347  -7.3122  -6.1448  -4.5889
    -4.1342  -3.9025  -3.6473  -3.5074  -3.1373  -2.9135  -2.1627  -1.9428
    -1.9016  -1.5488  -1.3391  -1.1121  -0.8054  -0.2794   3.2543   4.7388
     4.8036

          k = 0.0037-0.4575-0.3440 ( 10172 PWs)   bands (ev):

   -74.1248 -41.2379 -41.2218 -41.1751  -7.9220  -7.1260  -6.5552  -4.8603
    -3.6735  -3.6545  -3.5150  -3.3150  -2.8730  -2.6246  -2.6145  -2.3464
    -2.1865  -1.7845  -1.5827  -0.8741  -0.5696  -0.2939   3.6383   4.5555
     4.7705

          k =-0.4850 0.0000 0.0053 ( 10180 PWs)   bands (ev):

   -74.1248 -41.2379 -41.2218 -41.1751  -8.1499  -6.6319  -6.0179  -4.9684
    -4.3356  -4.1061  -4.0869  -3.4365  -3.0050  -2.6352  -2.4640  -2.3190
    -2.2520  -1.4142  -0.9918  -0.9270  -0.4742  -0.2643   3.4368   4.1758
     4.8083

          k =-0.4813 0.0000-0.3388 ( 10192 PWs)   bands (ev):

   -74.1248 -41.2379 -41.2218 -41.1751  -8.1207  -6.5439  -6.2072  -5.0112
    -4.8260  -4.0809  -3.4893  -3.2345  -2.8395  -2.5792  -2.3872  -2.2439
    -2.1481  -1.7314  -1.1078  -0.9611  -0.7033  -0.5485   3.7276   4.4860
     4.7958

          k =-0.4850-0.4575 0.0053 ( 10136 PWs)   bands (ev):

   -74.1248 -41.2379 -41.2218 -41.1751  -7.4695  -7.0048  -6.1460  -5.9956
    -4.4254  -3.7137  -3.6150  -3.5131  -3.4395  -2.9830  -2.8048  -2.6864
    -1.4819  -0.8937  -0.8507  -0.3524  -0.3343   0.1319   4.2058   4.2214
     5.3248

          k =-0.4813-0.4575-0.3388 ( 10128 PWs)   bands (ev):

   -74.1248 -41.2379 -41.2218 -41.1751  -7.4605  -6.9178  -6.2375  -5.9664
    -4.6640  -4.1006  -3.9073  -3.7247  -2.9570  -2.5500  -2.1867  -1.9726
    -1.5314  -1.4335  -0.9612  -0.7848  -0.4067   0.1685   3.6967   3.9320
     4.6572

     the Fermi energy is    -0.6226 ev

!    total energy              =    -321.57528130 Ry
     estimated scf accuracy    <       0.00000003 Ry
     smearing contrib. (-TS)   =       0.00089715 Ry
     internal energy E=F+TS    =    -321.57617845 Ry

     The total energy is F=E-TS. E is the sum of the following terms:
     one-electron contribution =    -140.30187437 Ry
     hartree contribution      =      47.76788819 Ry
     xc contribution           =     -36.45321447 Ry
     ewald contribution        =     -61.44208916 Ry
     one-center paw contrib.   =    -131.14688864 Ry

     convergence has been achieved in   9 iterations

     Forces acting on atoms (cartesian axes, Ry/au):

     atom    1 type  1   force =     0.00002909    0.00000000   -0.00077396
     atom    2 type  1   force =     0.00024714    0.00000000    0.00136381
     atom    3 type  4   force =    -0.00449350    0.00000000   -0.00072764
     atom    4 type  1   force =     0.00153998    0.00000000    0.00338914
     atom    5 type  1   force =     0.00552963    0.00000000    0.00435273
     atom    6 type  3   force =    -0.00626572    0.00000000   -0.00353067
     atom    7 type  2   force =     0.00381241   -0.00110474   -0.00062151
     atom    8 type  2   force =    -0.00482995    0.00000000    0.00010861
     atom    9 type  2   force =     0.00065008    0.00000000    0.00149270
     atom   10 type  2   force =    -0.00310274   -0.00201232    0.00143218
     atom   11 type  2   force =     0.00050518    0.00000000   -0.00329860
     atom   12 type  2   force =    -0.00432581    0.00000000    0.00560939
     atom   13 type  2   force =     0.00349678    0.00825237    0.00395784
     atom   14 type  2   force =     0.00201712    0.00000000   -0.00447287
     atom   15 type  2   force =    -0.00221804    0.00000000   -0.00476029
     atom   16 type  2   force =     0.00087903    0.00000000    0.00028464
     atom   17 type  2   force =     0.00607492    0.00000000    0.00215151
     atom   18 type  2   force =     0.00091867    0.00000000    0.00419825
     atom   19 type  2   force =    -0.00222898   -0.00301247   -0.00422486
     atom   20 type  2   force =     0.00349678   -0.00825237    0.00395784
     atom   21 type  2   force =    -0.00310274    0.00201232    0.00143218
     atom   22 type  2   force =    -0.00222898    0.00301247   -0.00422486
     atom   23 type  2   force =     0.00381241    0.00110474   -0.00062151
     atom   24 type  2   force =    -0.00021276    0.00000000   -0.00647406

     Total force =     0.026451     Total SCF correction =     0.000059


     Computing stress (Cartesian axis) and pressure

          total   stress  (Ry/bohr**3)                   (kbar)     P=      -10.89
  -0.00008095   0.00000000   0.00000209          -11.91        0.00        0.31
   0.00000000  -0.00010010   0.00000000            0.00      -14.73        0.00
   0.00000209   0.00000000  -0.00004113            0.31        0.00       -6.05

     Energy error            =      2.6E-03
     Gradient error          =      8.3E-03
     Cell gradient error     =      1.0E-04


     number of scf cycles    =   6
     number of bfgs steps    =   5

     enthalpy old            =    -321.5726731194 Ry
     enthalpy new            =    -321.5752812992 Ry

     CASE: enthalpy_new < enthalpy_old

     new trust radius        =       0.1038582940 bohr
     new conv_thr            =       0.0000000825 Ry

     new unit-cell volume =   1766.41027 a.u.^3 (   261.75500 Ang^3 )
     density =      0.15225 g/cm^3

CELL_PARAMETERS (angstrom)
   5.625310232   0.000000000   0.071986999
   0.000000000   5.908458386  -0.000000000
   0.103823187  -0.000000000   7.876759427

ATOMIC_POSITIONS (angstrom)
Al            1.3060290084        0.0000000000        7.2445881900
Al            4.4605331739        0.0000000000        0.7635874533
Mg            4.0608797263        2.9542291930        4.9171942444
Al            0.0286646851        2.9542291930        0.0324608676
Al            1.6112223781        2.9542291930        3.1536119836
Li            2.8638113537        0.0000000000        3.9746834139
H             4.5507317693        4.1614962257        0.7432069168
H             0.6364374917        0.0000000000        1.0178082741
H             4.8648787078        2.9542291930        6.5725625264
H             1.2489505596        4.1641994823        7.3225160371
H             3.9962721817        0.0000000000        2.3580861185
H             3.3573924661        2.9542291930        2.7652653141
H             4.1550146296        4.8803704894        4.7927020872
H             2.1144102770        2.9542291930        4.8947417090
H             0.9503329372        2.9542291930        1.5118701191
H             2.8408769225        0.0000000000        0.0391837210
H             5.1284703041        0.0000000000        6.9818227724
H             1.6839852342        0.0000000000        5.6254353991
H             1.6277387962        4.6591368370        3.0986176827
H             4.1550146296        1.0280878966        4.7927020872
H             1.2489505596        1.7442579023        7.3225160371
H             1.6277387962        1.2493215491        3.0986176827
H             4.5507317693        1.7469621604        0.7432069168
H            -0.0486111341        2.9542291930        3.6692180585



     Writing output data file ./tmp/LiMgAl2H92.save/
     NEW-OLD atomic charge density approx. for the potential
     extrapolated charge   40.78732, renormalised to   41.00000

     total cpu time spent up to now is      997.2 secs

     Self-consistent Calculation

     iteration #  1     ecut=    50.00 Ry     beta= 0.70
     Davidson diagonalization with overlap
     c_bands:  1 eigenvalues not converged
     ethr =  1.00E-06,  avg # of iterations =  9.9

     total cpu time spent up to now is     1010.2 secs

     total energy              =    -321.57271192 Ry
     estimated scf accuracy    <       0.01079114 Ry

     iteration #  2     ecut=    50.00 Ry     beta= 0.70
     Davidson diagonalization with overlap
     ethr =  2.63E-05,  avg # of iterations =  2.9

     total cpu time spent up to now is     1018.1 secs

     total energy              =    -321.56855486 Ry
     estimated scf accuracy    <       0.09406905 Ry

     iteration #  3     ecut=    50.00 Ry     beta= 0.70
     Davidson diagonalization with overlap
     ethr =  2.63E-05,  avg # of iterations =  2.4

     total cpu time spent up to now is     1025.4 secs

     total energy              =    -321.57880733 Ry
     estimated scf accuracy    <       0.00281957 Ry

     iteration #  4     ecut=    50.00 Ry     beta= 0.70
     Davidson diagonalization with overlap
     ethr =  6.88E-06,  avg # of iterations =  1.5

     total cpu time spent up to now is     1032.1 secs

     total energy              =    -321.57897353 Ry
     estimated scf accuracy    <       0.00040691 Ry

     iteration #  5     ecut=    50.00 Ry     beta= 0.70
     Davidson diagonalization with overlap
     ethr =  9.92E-07,  avg # of iterations =  2.0

     total cpu time spent up to now is     1039.3 secs

     total energy              =    -321.57899748 Ry
     estimated scf accuracy    <       0.00026703 Ry

     iteration #  6     ecut=    50.00 Ry     beta= 0.70
     Davidson diagonalization with overlap
     ethr =  6.51E-07,  avg # of iterations =  1.4

     total cpu time spent up to now is     1045.9 secs

     total energy              =    -321.57902522 Ry
     estimated scf accuracy    <       0.00001838 Ry

     iteration #  7     ecut=    50.00 Ry     beta= 0.70
     Davidson diagonalization with overlap
     ethr =  4.48E-08,  avg # of iterations =  3.6

     total cpu time spent up to now is     1053.6 secs

     total energy              =    -321.57903093 Ry
     estimated scf accuracy    <       0.00000245 Ry

     iteration #  8     ecut=    50.00 Ry     beta= 0.70
     Davidson diagonalization with overlap
     ethr =  5.97E-09,  avg # of iterations =  2.5

     total cpu time spent up to now is     1060.9 secs

     total energy              =    -321.57903144 Ry
     estimated scf accuracy    <       0.00000039 Ry

     iteration #  9     ecut=    50.00 Ry     beta= 0.70
     Davidson diagonalization with overlap
     ethr =  9.61E-10,  avg # of iterations =  2.5

     total cpu time spent up to now is     1068.1 secs

     End of self-consistent calculation

          k = 0.0000 0.0000 0.0000 ( 10169 PWs)   bands (ev):

   -74.2197 -41.3298 -41.3108 -41.2788  -8.5125  -6.6479  -5.0641  -5.0517
    -4.4203  -4.2436  -3.5224  -2.8569  -2.6980  -2.5733  -2.5024  -2.1028
    -2.0552  -1.8842  -1.5322  -1.3845  -0.6563  -0.4175   3.4554   4.0310
     4.3817

          k = 0.0044 0.0000-0.3451 ( 10212 PWs)   bands (ev):

   -74.2197 -41.3298 -41.3108 -41.2788  -8.4614  -6.8661  -5.1931  -4.8423
    -4.2258  -3.6875  -3.6128  -3.3121  -2.9039  -2.6554  -2.5108  -2.3522
    -2.0616  -1.7021  -1.4391  -0.9396  -0.7359  -0.6276   3.3545   3.8452
     4.6550

          k = 0.0000-0.4600 0.0000 ( 10254 PWs)   bands (ev):

   -74.2197 -41.3298 -41.3108 -41.2788  -7.8958  -7.2924  -6.0995  -4.5580
    -4.1021  -3.8798  -3.6448  -3.4445  -3.1722  -2.8567  -2.1648  -1.8896
    -1.8891  -1.5192  -1.2911  -1.0416  -0.7629  -0.1823   3.3151   4.8391
     4.8654

          k = 0.0044-0.4600-0.3451 ( 10172 PWs)   bands (ev):

   -74.2197 -41.3298 -41.3108 -41.2788  -7.8823  -7.1123  -6.5057  -4.8396
    -3.6791  -3.5900  -3.5180  -3.2848  -2.8341  -2.6325  -2.5367  -2.3040
    -2.2058  -1.7433  -1.5195  -0.8201  -0.5340  -0.1947   3.7044   4.5961
     4.8085

          k =-0.4833 0.0000 0.0064 ( 10180 PWs)   bands (ev):

   -74.2197 -41.3298 -41.3108 -41.2788  -8.1504  -6.5856  -5.9582  -4.9198
    -4.3066  -4.0887  -4.0823  -3.4040  -2.9677  -2.5710  -2.4537  -2.2743
    -2.1913  -1.4252  -0.9867  -0.8216  -0.4198  -0.2115   3.4855   4.2283
     4.8286

          k =-0.4789 0.0000-0.3388 ( 10192 PWs)   bands (ev):

   -74.2197 -41.3298 -41.3108 -41.2788  -8.1211  -6.4899  -6.1571  -5.0147
    -4.7656  -4.0828  -3.4219  -3.1633  -2.8162  -2.5071  -2.3506  -2.2089
    -2.1749  -1.7434  -1.0850  -0.8572  -0.6422  -0.5019   3.7788   4.5351
     4.8433

          k =-0.4833-0.4600 0.0064 ( 10136 PWs)   bands (ev):

   -74.2197 -41.3298 -41.3108 -41.2788  -7.4454  -7.0002  -6.0953  -5.9382
    -4.3826  -3.6950  -3.5733  -3.4560  -3.4094  -2.9640  -2.7845  -2.7548
    -1.4237  -0.8377  -0.8213  -0.2732  -0.2711   0.2147   4.2496   4.3301
     5.3310

          k =-0.4789-0.4600-0.3388 ( 10128 PWs)   bands (ev):

   -74.2197 -41.3298 -41.3108 -41.2788  -7.4358  -6.9177  -6.1811  -5.9057
    -4.6286  -4.0805  -3.8793  -3.7332  -2.8748  -2.5563  -2.1887  -1.9617
    -1.4624  -1.3920  -0.9185  -0.7409  -0.3238   0.2506   3.8073   3.9792
     4.7105

     the Fermi energy is    -0.5658 ev

!    total energy              =    -321.57903153 Ry
     estimated scf accuracy    <       0.00000003 Ry
     smearing contrib. (-TS)   =       0.00052279 Ry
     internal energy E=F+TS    =    -321.57955432 Ry

     The total energy is F=E-TS. E is the sum of the following terms:
     one-electron contribution =    -139.52147215 Ry
     hartree contribution      =      47.40761625 Ry
     xc contribution           =     -36.46581104 Ry
     ewald contribution        =     -61.84263554 Ry
     one-center paw contrib.   =    -131.15725184 Ry

     convergence has been achieved in   9 iterations

     Forces acting on atoms (cartesian axes, Ry/au):

     atom    1 type  1   force =     0.00050255    0.00000000   -0.00044600
     atom    2 type  1   force =    -0.00034732    0.00000000    0.00103320
     atom    3 type  4   force =    -0.00416092    0.00000000   -0.00544693
     atom    4 type  1   force =     0.00149185    0.00000000    0.00589083
     atom    5 type  1   force =     0.00482665    0.00000000    0.00670360
     atom    6 type  3   force =    -0.00726358    0.00000000   -0.00446980
     atom    7 type  2   force =     0.00271046   -0.00231805    0.00020204
     atom    8 type  2   force =    -0.00592987    0.00000000    0.00121610
     atom    9 type  2   force =    -0.00007965    0.00000000   -0.00083307
     atom   10 type  2   force =    -0.00148896   -0.00326492   -0.00005037
     atom   11 type  2   force =     0.00010493    0.00000000   -0.00266155
     atom   12 type  2   force =    -0.00501054    0.00000000    0.00547801
     atom   13 type  2   force =     0.00299717    0.01030535    0.00356956
     atom   14 type  2   force =     0.00180105    0.00000000   -0.00324557
     atom   15 type  2   force =    -0.00120358    0.00000000   -0.00465230
     atom   16 type  2   force =     0.00067007    0.00000000    0.00014986
     atom   17 type  2   force =     0.00718352    0.00000000    0.00208698
     atom   18 type  2   force =     0.00109450    0.00000000    0.00248713
     atom   19 type  2   force =    -0.00124000   -0.00263206   -0.00294541
     atom   20 type  2   force =     0.00299717   -0.01030535    0.00356956
     atom   21 type  2   force =    -0.00148896    0.00326492   -0.00005037
     atom   22 type  2   force =    -0.00124000    0.00263206   -0.00294541
     atom   23 type  2   force =     0.00271046    0.00231805    0.00020204
     atom   24 type  2   force =     0.00036298    0.00000000   -0.00484217

     Total force =     0.028138     Total SCF correction =     0.000127


     Computing stress (Cartesian axis) and pressure

          total   stress  (Ry/bohr**3)                   (kbar)     P=      -10.56
  -0.00010329   0.00000000  -0.00000957          -15.19        0.00       -1.41
   0.00000000  -0.00009191   0.00000000            0.00      -13.52        0.00
  -0.00000957   0.00000000  -0.00002023           -1.41        0.00       -2.98

     Energy error            =      3.8E-03
     Gradient error          =      1.0E-02
     Cell gradient error     =      1.0E-04


     number of scf cycles    =   7
     number of bfgs steps    =   6

     enthalpy old            =    -321.5752812992 Ry
     enthalpy new            =    -321.5790315328 Ry

     CASE: enthalpy_new < enthalpy_old

     new trust radius        =       0.1551618431 bohr
     new conv_thr            =       0.0000001031 Ry

     new unit-cell volume =   1749.72303 a.u.^3 (   259.28220 Ang^3 )
     density =      0.15370 g/cm^3

CELL_PARAMETERS (angstrom)
   5.646564816   0.000000000   0.087668336
   0.000000000   5.856066839  -0.000000000
   0.127240683  -0.000000000   7.843172512

ATOMIC_POSITIONS (angstrom)
Al            1.3368173866        0.0000000000        7.2232640503
Al            4.4804197384        0.0000000000        0.7759861917
Mg            4.0816815398        2.9280334194        4.9393525694
Al            0.0320242205        2.9280334194        0.0332458093
Al            1.6301703804        2.9280334194        3.1322178003
Li            2.8577045853        0.0000000000        3.9506519171
H             4.5847203340        4.1272394598        0.7490524584
H             0.6410896618        0.0000000000        1.0200893154
H             4.9014226475        2.9280334194        6.5670071591
H             1.2617290726        4.1299732123        7.3042767384
H             4.0132369609        0.0000000000        2.3632664983
H             3.3961633349        2.9280334194        2.7824677574
H             4.2106088911        4.9105231711        4.8080307266
H             2.1431195096        2.9280334194        4.8689858222
H             0.9532031812        2.9280334194        1.5019589166
H             2.8559712032        0.0000000000        0.0480992055
H             5.1764867057        0.0000000000        6.9655931795
H             1.7195847637        0.0000000000        5.6133244481
H             1.6220325143        4.6284630881        3.0577528047
H             4.2106088911        0.9455436676        4.8080307266
H             1.2617290726        1.7260926338        7.3042767384
H             1.6220325143        1.2276037506        3.0577528047
H             4.5847203340        1.7288273789        0.7490524584
H            -0.0654273942        2.9280334194        3.6155081498



     Writing output data file ./tmp/LiMgAl2H92.save/
     NEW-OLD atomic charge density approx. for the potential
     extrapolated charge   40.60912, renormalised to   41.00000

     total cpu time spent up to now is     1150.4 secs

     Self-consistent Calculation

     iteration #  1     ecut=    50.00 Ry     beta= 0.70
     Davidson diagonalization with overlap
     ethr =  1.00E-06,  avg # of iterations = 10.8

     total cpu time spent up to now is     1164.4 secs

     total energy              =    -321.56146145 Ry
     estimated scf accuracy    <       0.03697869 Ry

     iteration #  2     ecut=    50.00 Ry     beta= 0.70
     Davidson diagonalization with overlap
     ethr =  9.02E-05,  avg # of iterations =  3.0

     total cpu time spent up to now is     1172.1 secs

     total energy              =    -321.54747165 Ry
     estimated scf accuracy    <       0.34220748 Ry

     iteration #  3     ecut=    50.00 Ry     beta= 0.70
     Davidson diagonalization with overlap
     ethr =  9.02E-05,  avg # of iterations =  2.4

     total cpu time spent up to now is     1179.5 secs

     total energy              =    -321.58373069 Ry
     estimated scf accuracy    <       0.00928598 Ry

     iteration #  4     ecut=    50.00 Ry     beta= 0.70
     Davidson diagonalization with overlap
     ethr =  2.26E-05,  avg # of iterations =  2.0

     total cpu time spent up to now is     1186.1 secs

     total energy              =    -321.58439117 Ry
     estimated scf accuracy    <       0.00120573 Ry

     iteration #  5     ecut=    50.00 Ry     beta= 0.70
     Davidson diagonalization with overlap
     ethr =  2.94E-06,  avg # of iterations =  3.5

     total cpu time spent up to now is     1193.6 secs

     total energy              =    -321.58444160 Ry
     estimated scf accuracy    <       0.00076867 Ry

     iteration #  6     ecut=    50.00 Ry     beta= 0.70
     Davidson diagonalization with overlap
     ethr =  1.87E-06,  avg # of iterations =  1.5

     total cpu time spent up to now is     1200.0 secs

     total energy              =    -321.58451212 Ry
     estimated scf accuracy    <       0.00005271 Ry

     iteration #  7     ecut=    50.00 Ry     beta= 0.70
     Davidson diagonalization with overlap
     ethr =  1.29E-07,  avg # of iterations =  4.1

     total cpu time spent up to now is     1207.8 secs

     total energy              =    -321.58452985 Ry
     estimated scf accuracy    <       0.00001068 Ry

     iteration #  8     ecut=    50.00 Ry     beta= 0.70
     Davidson diagonalization with overlap
     ethr =  2.60E-08,  avg # of iterations =  2.0

     total cpu time spent up to now is     1214.7 secs

     total energy              =    -321.58453186 Ry
     estimated scf accuracy    <       0.00000199 Ry

     iteration #  9     ecut=    50.00 Ry     beta= 0.70
     Davidson diagonalization with overlap
     ethr =  4.84E-09,  avg # of iterations =  2.0

     total cpu time spent up to now is     1221.8 secs

     total energy              =    -321.58453231 Ry
     estimated scf accuracy    <       0.00000027 Ry

     iteration # 10     ecut=    50.00 Ry     beta= 0.70
     Davidson diagonalization with overlap
     ethr =  6.69E-10,  avg # of iterations =  2.6

     total cpu time spent up to now is     1228.8 secs

     End of self-consistent calculation

          k = 0.0000 0.0000 0.0000 ( 10169 PWs)   bands (ev):

   -74.3596 -41.4638 -41.4404 -41.4350  -8.4831  -6.5520  -5.0180  -4.9634
    -4.4566  -4.2153  -3.4060  -2.8399  -2.6607  -2.4482  -2.4313  -2.0412
    -1.9962  -1.8363  -1.5008  -1.2961  -0.4972  -0.3699   3.6141   4.0383
     4.3714

          k = 0.0054 0.0000-0.3466 ( 10212 PWs)   bands (ev):

   -74.3596 -41.4638 -41.4404 -41.4350  -8.4307  -6.7905  -5.0954  -4.7969
    -4.1987  -3.7122  -3.5235  -3.3651  -2.8052  -2.5321  -2.4014  -2.2710
    -1.9981  -1.6468  -1.3416  -0.9767  -0.6595  -0.4678   3.4548   3.8889
     4.6438

          k = 0.0000-0.4641 0.0000 ( 10254 PWs)   bands (ev):

   -74.3596 -41.4638 -41.4404 -41.4350  -7.8293  -7.2550  -6.0260  -4.4935
    -4.0469  -3.8686  -3.6188  -3.3480  -3.2405  -2.7683  -2.1690  -1.8361
    -1.7903  -1.4620  -1.1960  -0.9228  -0.6823  -0.0182   3.4222   4.9675
     4.9999

          k = 0.0054-0.4641-0.3466 ( 10172 PWs)   bands (ev):

   -74.3596 -41.4638 -41.4404 -41.4350  -7.8142  -7.0827  -6.4272  -4.8057
    -3.6656  -3.5200  -3.4888  -3.2273  -2.7815  -2.7357  -2.3814  -2.2404
    -2.1514  -1.6750  -1.4035  -0.7196  -0.4653  -0.0277   3.8164   4.6848
     4.8637

          k =-0.4815 0.0000 0.0078 ( 10180 PWs)   bands (ev):

   -74.3596 -41.4638 -41.4404 -41.4350  -8.1372  -6.5133  -5.8631  -4.8431
    -4.2758  -4.0706  -4.0460  -3.3515  -2.8897  -2.4665  -2.4523  -2.1879
    -2.0902  -1.4507  -0.9401  -0.6481  -0.3226  -0.1140   3.5816   4.3309
     4.8695

          k =-0.4761 0.0000-0.3388 ( 10192 PWs)   bands (ev):

   -74.3596 -41.4638 -41.4404 -41.4350  -8.1075  -6.4045  -6.0763  -5.0357
    -4.6566  -4.0647  -3.3125  -3.0524  -2.7993  -2.3918  -2.2753  -2.2407
    -2.1321  -1.7383  -1.0342  -0.6861  -0.5354  -0.4082   3.8786   4.6262
     4.9307

          k =-0.4815-0.4641 0.0078 ( 10136 PWs)   bands (ev):

   -74.3596 -41.4638 -41.4404 -41.4350  -7.3956  -6.9799  -6.0132  -5.8466
    -4.3206  -3.6653  -3.4879  -3.3952  -3.3344  -3.0980  -2.7888  -2.6685
    -1.3146  -0.7564  -0.7330  -0.1655  -0.1384   0.3598   4.3359   4.5247
     5.3411

          k =-0.4761-0.4641-0.3388 ( 10128 PWs)   bands (ev):

   -74.3596 -41.4638 -41.4404 -41.4350  -7.3849  -6.9028  -6.0904  -5.8079
    -4.5785  -4.0359  -3.8464  -3.7705  -2.7463  -2.5712  -2.1671  -1.9291
    -1.3486  -1.3062  -0.8410  -0.6535  -0.1828   0.3953   3.9986   4.0662
     4.7953

     the Fermi energy is    -0.4582 ev

!    total energy              =    -321.58453232 Ry
     estimated scf accuracy    <       0.00000009 Ry
     smearing contrib. (-TS)   =      -0.00046287 Ry
     internal energy E=F+TS    =    -321.58406945 Ry

     The total energy is F=E-TS. E is the sum of the following terms:
     one-electron contribution =    -138.40674912 Ry
     hartree contribution      =      46.91278051 Ry
     xc contribution           =     -36.49765619 Ry
     ewald contribution        =     -62.42136949 Ry
     one-center paw contrib.   =    -131.17107515 Ry

     convergence has been achieved in  10 iterations

     Forces acting on atoms (cartesian axes, Ry/au):

     atom    1 type  1   force =     0.00091136    0.00000000   -0.00017467
     atom    2 type  1   force =    -0.00087012    0.00000000    0.00128927
     atom    3 type  4   force =    -0.00306345    0.00000000   -0.01156015
     atom    4 type  1   force =     0.00101065    0.00000000    0.00898930
     atom    5 type  1   force =     0.00334209    0.00000000    0.00809958
     atom    6 type  3   force =    -0.00846519    0.00000000   -0.00588260
     atom    7 type  2   force =     0.00063324   -0.00389739    0.00131124
     atom    8 type  2   force =    -0.00700216    0.00000000    0.00278336
     atom    9 type  2   force =    -0.00122974    0.00000000   -0.00425262
     atom   10 type  2   force =     0.00119602   -0.00463466   -0.00230327
     atom   11 type  2   force =    -0.00062255    0.00000000   -0.00175562
     atom   12 type  2   force =    -0.00540914    0.00000000    0.00516372
     atom   13 type  2   force =     0.00232354    0.01900797    0.00281283
     atom   14 type  2   force =     0.00148891    0.00000000   -0.00093337
     atom   15 type  2   force =     0.00062832    0.00000000   -0.00351084
     atom   16 type  2   force =     0.00035806    0.00000000   -0.00010563
     atom   17 type  2   force =     0.00824652    0.00000000    0.00191903
     atom   18 type  2   force =     0.00153219    0.00000000   -0.00000906
     atom   19 type  2   force =     0.00014863   -0.00175118   -0.00085800
     atom   20 type  2   force =     0.00232354   -0.01900797    0.00281283
     atom   21 type  2   force =     0.00119602    0.00463466   -0.00230327
     atom   22 type  2   force =     0.00014863    0.00175118   -0.00085800
     atom   23 type  2   force =     0.00063324    0.00389739    0.00131124
     atom   24 type  2   force =     0.00054140    0.00000000   -0.00198531

     Total force =     0.038589     Total SCF correction =     0.000255


     Computing stress (Cartesian axis) and pressure

          total   stress  (Ry/bohr**3)                   (kbar)     P=       -8.74
  -0.00012300   0.00000000  -0.00002493          -18.09        0.00       -3.67
   0.00000000  -0.00006805   0.00000000            0.00      -10.01        0.00
  -0.00002493   0.00000000   0.00001290           -3.67        0.00        1.90

     Energy error            =      5.5E-03
     Gradient error          =      1.9E-02
     Cell gradient error     =      1.2E-04


     number of scf cycles    =   8
     number of bfgs steps    =   7

     enthalpy old            =    -321.5790315328 Ry
     enthalpy new            =    -321.5845323188 Ry

     CASE: enthalpy_new < enthalpy_old


     WARNING: bfgs curvature condition failed, Theta= 0.808
     new trust radius        =       0.2311895493 bohr
     new conv_thr            =       0.0000001901 Ry

     new unit-cell volume =   1724.76789 a.u.^3 (   255.58423 Ang^3 )
     density =      0.15593 g/cm^3

CELL_PARAMETERS (angstrom)
   5.678356705   0.000000000   0.111052078
   0.000000000   5.777885577  -0.000000000
   0.162163031  -0.000000000   7.793260982

ATOMIC_POSITIONS (angstrom)
Al            1.3829249719        0.0000000000        7.1916244590
Al            4.5101905248        0.0000000000        0.7944781453
Mg            4.1129843811        2.8889427884        4.9719564953
Al            0.0370897721        2.8889427884        0.0345095123
Al            1.6583339475        2.8889427884        3.1005521294
Li            2.8478875014        0.0000000000        3.9147178805
H             4.6356684589        4.0760102347        0.7580066548
H             0.6480645369        0.0000000000        1.0234987000
H             4.9560414728        2.8889427884        6.5586770549
H             1.2807278586        4.0787976624        7.2769440505
H             4.0385246627        0.0000000000        2.3709854250
H             3.4546236992        2.8889427884        2.8081592619
H             4.2943470765        4.9536966428        4.8310052746
H             2.1859695385        2.8889427884        4.8309326408
H             0.9573916713        2.8889427884        1.4872672288
H             2.8786166334        0.0000000000        0.0614222654
H             5.2483498859        0.0000000000        6.9416292204
H             1.7730509129        0.0000000000        5.5953768551
H             1.6128235331        4.5824276876        2.9970377246
H             4.2943470765        0.8241889339        4.8310052746
H             1.2807278586        1.6990869349        7.2769440505
H             1.6128235331        1.1954578892        2.9970377246
H             4.6356684589        1.7018753421        0.7580066548
H            -0.0914713985        2.8889427884        3.5356638736



     Writing output data file ./tmp/LiMgAl2H92.save/
     NEW-OLD atomic charge density approx. for the potential
     extrapolated charge   40.40700, renormalised to   41.00000

     total cpu time spent up to now is     1311.0 secs

     Self-consistent Calculation

     iteration #  1     ecut=    50.00 Ry     beta= 0.70
     Davidson diagonalization with overlap
     c_bands:  1 eigenvalues not converged
     ethr =  1.00E-06,  avg # of iterations = 12.4

     total cpu time spent up to now is     1326.5 secs

     total energy              =    -321.52906877 Ry
     estimated scf accuracy    <       0.11195255 Ry

     iteration #  2     ecut=    50.00 Ry     beta= 0.70
     Davidson diagonalization with overlap
     ethr =  2.73E-04,  avg # of iterations =  3.6

     total cpu time spent up to now is     1334.3 secs

     total energy              =    -321.51179017 Ry
     estimated scf accuracy    <       0.86308879 Ry

     iteration #  3     ecut=    50.00 Ry     beta= 0.70
     Davidson diagonalization with overlap
     ethr =  2.73E-04,  avg # of iterations =  2.4

     total cpu time spent up to now is     1341.7 secs

     total energy              =    -321.59302219 Ry
     estimated scf accuracy    <       0.02351009 Ry

     iteration #  4     ecut=    50.00 Ry     beta= 0.70
     Davidson diagonalization with overlap
     ethr =  5.73E-05,  avg # of iterations =  2.0

     total cpu time spent up to now is     1348.4 secs

     total energy              =    -321.59470954 Ry
     estimated scf accuracy    <       0.00283704 Ry

     iteration #  5     ecut=    50.00 Ry     beta= 0.70
     Davidson diagonalization with overlap
     c_bands:  1 eigenvalues not converged
     ethr =  6.92E-06,  avg # of iterations =  7.2

     total cpu time spent up to now is     1356.7 secs

     total energy              =    -321.59484768 Ry
     estimated scf accuracy    <       0.00169890 Ry

     iteration #  6     ecut=    50.00 Ry     beta= 0.70
     Davidson diagonalization with overlap
     ethr =  4.14E-06,  avg # of iterations =  2.1

     total cpu time spent up to now is     1363.4 secs

     total energy              =    -321.59501470 Ry
     estimated scf accuracy    <       0.00007989 Ry

     iteration #  7     ecut=    50.00 Ry     beta= 0.70
     Davidson diagonalization with overlap
     ethr =  1.95E-07,  avg # of iterations =  4.0

     total cpu time spent up to now is     1371.4 secs

     total energy              =    -321.59504000 Ry
     estimated scf accuracy    <       0.00001511 Ry

     iteration #  8     ecut=    50.00 Ry     beta= 0.70
     Davidson diagonalization with overlap
     ethr =  3.69E-08,  avg # of iterations =  2.2

     total cpu time spent up to now is     1378.6 secs

     total energy              =    -321.59504326 Ry
     estimated scf accuracy    <       0.00000423 Ry

     iteration #  9     ecut=    50.00 Ry     beta= 0.70
     Davidson diagonalization with overlap
     ethr =  1.03E-08,  avg # of iterations =  2.0

     total cpu time spent up to now is     1385.4 secs

     total energy              =    -321.59504415 Ry
     estimated scf accuracy    <       0.00000023 Ry

     iteration # 10     ecut=    50.00 Ry     beta= 0.70
     Davidson diagonalization with overlap
     ethr =  5.50E-10,  avg # of iterations =  4.0

     total cpu time spent up to now is     1393.3 secs

     End of self-consistent calculation

          k = 0.0000 0.0000 0.0000 ( 10169 PWs)   bands (ev):

   -74.5899 -41.6948 -41.6833 -41.6530  -8.4183  -6.4033  -4.9455  -4.8153
    -4.5490  -4.1448  -3.2149  -3.0293  -2.5532  -2.2519  -2.2421  -1.9174
    -1.8801  -1.7345  -1.4342  -1.1315  -0.2654  -0.2249   3.8486   4.0030
     4.4331

          k = 0.0068 0.0000-0.3489 ( 10212 PWs)   bands (ev):

   -74.5899 -41.6948 -41.6833 -41.6530  -8.3622  -6.6820  -4.9286  -4.7063
    -4.1295  -3.9246  -3.4492  -3.3081  -2.6484  -2.3295  -2.2242  -2.1668
    -1.8708  -1.5512  -1.1679  -0.9940  -0.5141  -0.1945   3.5390   4.0229
     4.6382

          k = 0.0000-0.4704 0.0000 ( 10254 PWs)   bands (ev):

   -74.5899 -41.6948 -41.6833 -41.6530  -7.7084  -7.1809  -5.8999  -4.3761
    -4.0268  -3.9614  -3.5467  -3.3465  -3.1853  -2.6366  -2.1482  -1.7089
    -1.6230  -1.3584  -1.0117  -0.7201  -0.5344   0.2655   3.5838   5.0972
     5.2035

          k = 0.0068-0.4704-0.3489 ( 10172 PWs)   bands (ev):

   -74.5899 -41.6948 -41.6833 -41.6530  -7.6897  -7.0167  -6.2985  -4.7942
    -3.6216  -3.6096  -3.3187  -3.1204  -2.9675  -2.7097  -2.1237  -2.0965
    -1.9878  -1.5611  -1.1928  -0.5448  -0.3447   0.2605   3.9700   4.8584
     4.9149

          k =-0.4789 0.0000 0.0100 ( 10180 PWs)   bands (ev):

   -74.5899 -41.6948 -41.6833 -41.6530  -8.0926  -6.3991  -5.7041  -4.7669
    -4.2643  -4.0135  -4.0121  -3.2697  -2.7444  -2.5083  -2.2927  -2.0253
    -1.9236  -1.4585  -0.8093  -0.3574  -0.1482   0.0584   3.7307   4.4915
     4.9316

          k =-0.4720 0.0000-0.3390 ( 10192 PWs)   bands (ev):

   -74.5899 -41.6948 -41.6833 -41.6530  -8.0615  -6.2625  -5.9407  -5.1360
    -4.4647  -4.0077  -3.1282  -2.9974  -2.8207  -2.2771  -2.2041  -2.1273
    -2.0218  -1.6793  -0.9189  -0.3998  -0.3540  -0.2270   4.0375   4.7276
     5.0355

          k =-0.4789-0.4704 0.0100 ( 10136 PWs)   bands (ev):

   -74.5899 -41.6948 -41.6833 -41.6530  -7.2960  -6.9260  -5.8755  -5.6980
    -4.2282  -3.6814  -3.6109  -3.3377  -3.2461  -3.1393  -2.6432  -2.5242
    -1.1141  -0.6347  -0.5445   0.0077   0.0921   0.6116   4.4728   4.8485
     5.3365

          k =-0.4720-0.4704-0.3390 ( 10128 PWs)   bands (ev):

   -74.5899 -41.6948 -41.6833 -41.6530  -7.2828  -6.8549  -5.9390  -5.6426
    -4.5127  -4.0965  -3.9453  -3.7029  -2.5726  -2.5420  -2.1091  -1.8381
    -1.1566  -1.1368  -0.7048  -0.4939   0.0576   0.6463   4.2005   4.3116
     4.9150

     the Fermi energy is    -0.2606 ev

!    total energy              =    -321.59504422 Ry
     estimated scf accuracy    <       0.00000008 Ry
     smearing contrib. (-TS)   =      -0.00131578 Ry
     internal energy E=F+TS    =    -321.59372843 Ry

     The total energy is F=E-TS. E is the sum of the following terms:
     one-electron contribution =    -136.91998304 Ry
     hartree contribution      =      46.27312539 Ry
     xc contribution           =     -36.55940895 Ry
     ewald contribution        =     -63.19891358 Ry
     one-center paw contrib.   =    -131.18854825 Ry

     convergence has been achieved in  10 iterations

     Forces acting on atoms (cartesian axes, Ry/au):

     atom    1 type  1   force =     0.00125380    0.00000000    0.00015889
     atom    2 type  1   force =    -0.00115046    0.00000000    0.00284731
     atom    3 type  4   force =    -0.00219548    0.00000000   -0.01984600
     atom    4 type  1   force =     0.00069607    0.00000000    0.01503097
     atom    5 type  1   force =     0.00121220    0.00000000    0.00660463
     atom    6 type  3   force =    -0.01016346    0.00000000   -0.00828511
     atom    7 type  2   force =    -0.00278192   -0.00658162    0.00272505
     atom    8 type  2   force =    -0.00899325    0.00000000    0.00518186
     atom    9 type  2   force =    -0.00354849    0.00000000   -0.00997641
     atom   10 type  2   force =     0.00547146   -0.00668951   -0.00612138
     atom   11 type  2   force =    -0.00184377    0.00000000   -0.00012172
     atom   12 type  2   force =    -0.00645927    0.00000000    0.00447947
     atom   13 type  2   force =     0.00162241    0.04572016    0.00129249
     atom   14 type  2   force =     0.00155825    0.00000000    0.00327218
     atom   15 type  2   force =     0.00328553    0.00000000   -0.00121395
     atom   16 type  2   force =    -0.00015813    0.00000000   -0.00065784
     atom   17 type  2   force =     0.01013915    0.00000000    0.00155668
     atom   18 type  2   force =     0.00286997    0.00000000   -0.00425961
     atom   19 type  2   force =     0.00238078   -0.00067640    0.00295884
     atom   20 type  2   force =     0.00162241   -0.04572016    0.00129249
     atom   21 type  2   force =     0.00547146    0.00668951   -0.00612138
     atom   22 type  2   force =     0.00238078    0.00067640    0.00295884
     atom   23 type  2   force =    -0.00278192    0.00658162    0.00272505
     atom   24 type  2   force =     0.00011185    0.00000000    0.00351864

     Total force =     0.076605     Total SCF correction =     0.000181


     Computing stress (Cartesian axis) and pressure

          total   stress  (Ry/bohr**3)                   (kbar)     P=       -4.97
  -0.00014848   0.00000000  -0.00004638          -21.84        0.00       -6.82
   0.00000000  -0.00001909   0.00000000            0.00       -2.81        0.00
  -0.00004638   0.00000000   0.00006614           -6.82        0.00        9.73

     Energy error            =      1.1E-02
     Gradient error          =      4.6E-02
     Cell gradient error     =      1.5E-04


     number of scf cycles    =   9
     number of bfgs steps    =   8

     enthalpy old            =    -321.5845323188 Ry
     enthalpy new            =    -321.5950442155 Ry

     CASE: enthalpy_new < enthalpy_old


     WARNING: bfgs curvature condition failed, Theta= 0.000
     new trust radius        =       0.3433189745 bohr
     new conv_thr            =       0.0000004572 Ry

     new unit-cell volume =   1687.07375 a.u.^3 (   249.99854 Ang^3 )
     density =      0.15941 g/cm^3

CELL_PARAMETERS (angstrom)
   5.726047086   0.000000000   0.146127878
   0.000000000   5.660616636  -0.000000000
   0.214546832  -0.000000000   7.718394879

ATOMIC_POSITIONS (angstrom)
Al            1.4523850879        0.0000000000        7.1440573921
Al            4.5549524196        0.0000000000        0.8221304666
Mg            4.1604439223        2.8303083181        5.0195117239
Al            0.0448080517        2.8303083181        0.0364475680
Al            1.7003900675        2.8303083181        3.0535884939
Li            2.8319052677        0.0000000000        3.8606854750
H             4.7124580838        3.9989721935        0.7719293158
H             0.6586249286        0.0000000000        1.0284197563
H             5.0381601700        2.8303083181        6.5458428482
H             1.3090500752        4.0018356638        7.2352813890
H             4.0764027807        0.0000000000        2.3823040466
H             3.5433613974        2.8303083181        2.8464225737
H             4.4213597469        5.0129424735        4.8652162797
H             2.2501868060        2.8303083181        4.7743935473
H             0.9633679703        2.8303083181        1.4653292980
H             2.9127462812        0.0000000000        0.0814741602
H             5.3563905202        0.0000000000        6.9059132134
H             1.8538303753        0.0000000000        5.5685004658
H             1.5975735617        4.5125776760        2.9066302542
H             4.4213597469        0.6476741627        4.8652162797
H             1.3090500752        1.6587800128        7.2352813890
H             1.5975735617        1.1480389602        2.9066302542
H             4.7124580838        1.6616444427        0.7719293158
H            -0.1323165261        2.8303083181        3.4166097128



     Writing output data file ./tmp/LiMgAl2H92.save/
     NEW-OLD atomic charge density approx. for the potential
     extrapolated charge   40.08427, renormalised to   41.00000

     total cpu time spent up to now is     1475.3 secs

     Self-consistent Calculation

     iteration #  1     ecut=    50.00 Ry     beta= 0.70
     Davidson diagonalization with overlap
     c_bands:  1 eigenvalues not converged
     c_bands:  2 eigenvalues not converged
     ethr =  1.00E-06,  avg # of iterations = 15.4

     total cpu time spent up to now is     1492.7 secs

     total energy              =    -321.59584714 Ry
     estimated scf accuracy    <       0.08627688 Ry

     iteration #  2     ecut=    50.00 Ry     beta= 0.70
     Davidson diagonalization with overlap
     ethr =  2.10E-04,  avg # of iterations =  3.2

     total cpu time spent up to now is     1500.6 secs

     total energy              =    -321.55048621 Ry
     estimated scf accuracy    <       0.46403059 Ry

     iteration #  3     ecut=    50.00 Ry     beta= 0.70
     Davidson diagonalization with overlap
     ethr =  2.10E-04,  avg # of iterations =  2.1

     total cpu time spent up to now is     1507.8 secs

     total energy              =    -321.63146234 Ry
     estimated scf accuracy    <       0.05997878 Ry

     iteration #  4     ecut=    50.00 Ry     beta= 0.70
     Davidson diagonalization with overlap
     ethr =  1.46E-04,  avg # of iterations =  1.0

     total cpu time spent up to now is     1514.2 secs

     total energy              =    -321.62796038 Ry
     estimated scf accuracy    <       0.02717249 Ry

     iteration #  5     ecut=    50.00 Ry     beta= 0.70
     Davidson diagonalization with overlap
     ethr =  6.63E-05,  avg # of iterations =  1.0

     total cpu time spent up to now is     1520.7 secs

     total energy              =    -321.62834951 Ry
     estimated scf accuracy    <       0.00625723 Ry

     iteration #  6     ecut=    50.00 Ry     beta= 0.70
     Davidson diagonalization with overlap
     ethr =  1.53E-05,  avg # of iterations =  1.9

     total cpu time spent up to now is     1527.3 secs

     total energy              =    -321.62890310 Ry
     estimated scf accuracy    <       0.00043708 Ry

     iteration #  7     ecut=    50.00 Ry     beta= 0.70
     Davidson diagonalization with overlap
     ethr =  1.07E-06,  avg # of iterations =  5.1

     total cpu time spent up to now is     1535.5 secs

     total energy              =    -321.62903207 Ry
     estimated scf accuracy    <       0.00007127 Ry

     iteration #  8     ecut=    50.00 Ry     beta= 0.70
     Davidson diagonalization with overlap
     ethr =  1.74E-07,  avg # of iterations =  2.2

     total cpu time spent up to now is     1542.6 secs

     total energy              =    -321.62904021 Ry
     estimated scf accuracy    <       0.00005112 Ry

     iteration #  9     ecut=    50.00 Ry     beta= 0.70
     Davidson diagonalization with overlap
     ethr =  1.25E-07,  avg # of iterations =  1.0

     total cpu time spent up to now is     1549.1 secs

     total energy              =    -321.62904563 Ry
     estimated scf accuracy    <       0.00000132 Ry

     iteration # 10     ecut=    50.00 Ry     beta= 0.70
     Davidson diagonalization with overlap
     ethr =  3.23E-09,  avg # of iterations =  3.8

     total cpu time spent up to now is     1556.8 secs

     End of self-consistent calculation

          k = 0.0000 0.0000 0.0000 ( 10169 PWs)   bands (ev):

   -74.9828 -42.1447 -42.0553 -42.0137  -8.2871  -6.1923  -5.3013  -4.6846
    -4.4828  -3.9921  -3.4636  -2.8389  -2.3268  -1.9534  -1.8777  -1.6790
    -1.6720  -1.5158  -1.2223  -0.8084  -0.0199   0.3311   3.7635   4.3590
     4.6206

          k = 0.0090 0.0000-0.3524 ( 10212 PWs)   bands (ev):

   -74.9828 -42.1447 -42.0553 -42.0137  -8.2184  -6.5853  -4.9409  -4.5375
    -4.4913  -3.9784  -3.3295  -3.0342  -2.3922  -2.1007  -1.9759  -1.9033
    -1.6222  -1.2928  -0.8904  -0.8164  -0.2278   0.3641   3.5065   4.3644
     4.6702

          k = 0.0000-0.4802 0.0000 ( 10254 PWs)   bands (ev):

   -74.9828 -42.1448 -42.0553 -42.0137  -7.4889  -7.0366  -5.6716  -5.0789
    -4.1255  -3.8317  -3.3856  -3.2642  -2.8866  -2.4275  -1.9750  -1.4590
    -1.3831  -1.0894  -0.6467  -0.3373  -0.2669   0.8325   3.8184   5.0367
     5.2603

          k = 0.0090-0.4802-0.3524 ( 10172 PWs)   bands (ev):

   -74.9828 -42.1447 -42.0553 -42.0137  -7.4569  -6.8811  -6.0739  -5.3189
    -3.9381  -3.5222  -3.0366  -2.9911  -2.9240  -2.5926  -1.7779  -1.7151
    -1.6853  -1.3110  -0.7953  -0.2117  -0.1446   0.8367   4.1578   4.8902
     5.1960

          k =-0.4750 0.0000 0.0132 ( 10180 PWs)   bands (ev):

   -74.9828 -42.1447 -42.0552 -42.0137  -7.9824  -6.2712  -5.4868  -5.1176
    -4.2089  -3.9525  -3.8784  -3.1182  -2.6179  -2.4304  -1.9937  -1.7123
    -1.6387  -1.3072  -0.5061   0.1888   0.2212   0.3895   3.9420   4.7343
     4.9771

          k =-0.4660 0.0000-0.3392 ( 10192 PWs)   bands (ev):

   -74.9828 -42.1447 -42.0553 -42.0137  -7.9457  -6.0071  -5.8310  -5.5463
    -4.1292  -3.8726  -3.5561  -2.7937  -2.5297  -2.1207  -1.9062  -1.8519
    -1.8148  -1.4813  -0.6460  -0.0214   0.1446   0.1683   4.2698   4.6478
     5.0344

          k =-0.4750-0.4802 0.0132 ( 10136 PWs)   bands (ev):

   -74.9828 -42.1447 -42.0552 -42.0137  -7.0976  -6.8068  -5.6312  -5.5766
    -4.7793  -4.0651  -3.5113  -3.0925  -3.0631  -2.8203  -2.3749  -2.2663
    -0.7408  -0.3981  -0.1813   0.3034   0.5229   1.1385   4.6882   5.2857
     5.4240

          k =-0.4660-0.4802-0.3392 ( 10128 PWs)   bands (ev):

   -74.9828 -42.1447 -42.0552 -42.0137  -7.0742  -6.7429  -5.6672  -5.4195
    -5.0980  -4.4172  -3.7688  -3.5052  -2.4174  -2.2564  -1.9346  -1.6304
    -0.7988  -0.7979  -0.4668  -0.1790   0.5032   1.1692   4.3856   4.8387
     5.0627

     the Fermi energy is     0.1604 ev

!    total energy              =    -321.62904587 Ry
     estimated scf accuracy    <       0.00000038 Ry
     smearing contrib. (-TS)   =      -0.00026182 Ry
     internal energy E=F+TS    =    -321.62878405 Ry

     The total energy is F=E-TS. E is the sum of the following terms:
     one-electron contribution =    -135.11826522 Ry
     hartree contribution      =      45.55419843 Ry
     xc contribution           =     -36.70037231 Ry
     ewald contribution        =     -64.15507699 Ry
     one-center paw contrib.   =    -131.20926795 Ry

     convergence has been achieved in  10 iterations

     Forces acting on atoms (cartesian axes, Ry/au):

     atom    1 type  1   force =     0.00092204    0.00000000    0.00391420
     atom    2 type  1   force =     0.00028920    0.00000000    0.00539873
     atom    3 type  4   force =    -0.00483543    0.00000000   -0.03205818
     atom    4 type  1   force =     0.00208289    0.00000000    0.02866719
     atom    5 type  1   force =    -0.00226803    0.00000000   -0.00231970
     atom    6 type  3   force =    -0.01566017    0.00000000   -0.01458359
     atom    7 type  2   force =    -0.00902990   -0.01120842    0.00462497
     atom    8 type  2   force =    -0.01304856    0.00000000    0.00812269
     atom    9 type  2   force =    -0.00806174    0.00000000   -0.01886487
     atom   10 type  2   force =     0.01273736   -0.00953986   -0.01365233
     atom   11 type  2   force =    -0.00397089    0.00000000    0.00534080
     atom   12 type  2   force =    -0.00962543    0.00000000    0.00236110
     atom   13 type  2   force =     0.00310239    0.11941317   -0.00124633
     atom   14 type  2   force =     0.00298609    0.00000000    0.01199619
     atom   15 type  2   force =     0.00692019    0.00000000    0.00228167
     atom   16 type  2   force =    -0.00106555    0.00000000   -0.00190101
     atom   17 type  2   force =     0.01334519    0.00000000    0.00062573
     atom   18 type  2   force =     0.00737740    0.00000000   -0.01356848
     atom   19 type  2   force =     0.00618342    0.00036608    0.01021390
     atom   20 type  2   force =     0.00310239   -0.11941317   -0.00124633
     atom   21 type  2   force =     0.01273736    0.00953986   -0.01365233
     atom   22 type  2   force =     0.00618342   -0.00036608    0.01021390
     atom   23 type  2   force =    -0.00902990    0.01120842    0.00462497
     atom   24 type  2   force =    -0.00137374    0.00000000    0.01470713

     Total force =     0.184932     Total SCF correction =     0.000327


     Computing stress (Cartesian axis) and pressure

          total   stress  (Ry/bohr**3)                   (kbar)     P=        3.84
  -0.00016934   0.00000000  -0.00006948          -24.91        0.00      -10.22
   0.00000000   0.00008941   0.00000000            0.00       13.15        0.00
  -0.00006948   0.00000000   0.00015815          -10.22        0.00       23.26

     Energy error            =      3.4E-02
     Gradient error          =      1.2E-01
     Cell gradient error     =      1.7E-04


     number of scf cycles    =  10
     number of bfgs steps    =   9

     enthalpy old            =    -321.5950442155 Ry
     enthalpy new            =    -321.6290458674 Ry

     CASE: enthalpy_new < enthalpy_old


     WARNING: bfgs curvature condition failed, Theta= 0.000
     new trust radius        =       0.5072360844 bohr
     new conv_thr            =       0.0000010000 Ry

     new unit-cell volume =   1629.99322 a.u.^3 (   241.54008 Ang^3 )
     density =      0.16500 g/cm^3

CELL_PARAMETERS (angstrom)
   5.797586704   0.000000000   0.198742171
   0.000000000   5.484716956  -0.000000000
   0.293123417  -0.000000000   7.606096754

ATOMIC_POSITIONS (angstrom)
Al            1.5572473418        0.0000000000        7.0724631808
Al            4.6223318504        0.0000000000        0.8634161992
Mg            4.2327685411        2.7423584778        5.0878045298
Al            0.0566555308        2.7423584778        0.0394505009
Al            1.7630485732        2.7423584778        2.9843466487
Li            2.8051028730        0.0000000000        3.7793401281
H             4.8284683847        3.8829760798        0.7939188527
H             0.6746856569        0.0000000000        1.0353668203
H             5.1617656963        2.7423584778        6.5258277620
H             1.3511369677        3.8859434488        7.1712928825
H             4.1330986636        0.0000000000        2.3986969488
H             3.6788229028        2.7423584778        2.9032012607
H             4.6150404314        5.0894014165        4.9159681010
H             2.3463824346        2.7423584778        4.6908000012
H             0.9716424397        2.7423584778        1.4326456343
H             2.9643034012        0.0000000000        0.1117035721
H             5.5190038909        0.0000000000        6.8528554338
H             1.9763049748        0.0000000000        5.5282863800
H             1.5714656982        4.4060071131        2.7725144654
H             4.6150404314        0.3953155392        4.9159681010
H             1.3511369677        1.5987725771        7.1712928825
H             1.5714656982        1.0787098426        2.7725144654
H             4.8284683847        1.6017408759        0.7939188527
H            -0.1975872291        2.7423584778        3.2396294296



     Writing output data file ./tmp/LiMgAl2H92.save/
     NEW-OLD atomic charge density approx. for the potential
     extrapolated charge   39.56475, renormalised to   41.00000

     total cpu time spent up to now is     1638.8 secs

     Self-consistent Calculation

     iteration #  1     ecut=    50.00 Ry     beta= 0.70
     Davidson diagonalization with overlap
     c_bands:  2 eigenvalues not converged
     c_bands:  1 eigenvalues not converged
     ethr =  1.00E-06,  avg # of iterations = 17.0

     total cpu time spent up to now is     1658.1 secs

     total energy              =    -321.66996608 Ry
     estimated scf accuracy    <       0.06074616 Ry

     iteration #  2     ecut=    50.00 Ry     beta= 0.70
     Davidson diagonalization with overlap
     ethr =  1.48E-04,  avg # of iterations =  4.1

     total cpu time spent up to now is     1666.3 secs

     total energy              =    -321.68553554 Ry
     estimated scf accuracy    <       0.08931685 Ry

     iteration #  3     ecut=    50.00 Ry     beta= 0.70
     Davidson diagonalization with overlap
     ethr =  1.48E-04,  avg # of iterations =  2.0

     total cpu time spent up to now is     1673.2 secs

     total energy              =    -321.69792123 Ry
     estimated scf accuracy    <       0.01799293 Ry

     iteration #  4     ecut=    50.00 Ry     beta= 0.70
     Davidson diagonalization with overlap
     ethr =  4.39E-05,  avg # of iterations =  2.2

     total cpu time spent up to now is     1680.2 secs

     total energy              =    -321.70016444 Ry
     estimated scf accuracy    <       0.00417902 Ry

     iteration #  5     ecut=    50.00 Ry     beta= 0.70
     Davidson diagonalization with overlap
     ethr =  1.02E-05,  avg # of iterations =  3.1

     total cpu time spent up to now is     1687.0 secs

     total energy              =    -321.70089174 Ry
     estimated scf accuracy    <       0.00063200 Ry

     iteration #  6     ecut=    50.00 Ry     beta= 0.70
     Davidson diagonalization with overlap
     ethr =  1.54E-06,  avg # of iterations =  5.6

     total cpu time spent up to now is     1694.7 secs

     total energy              =    -321.70103916 Ry
     estimated scf accuracy    <       0.00002858 Ry

     iteration #  7     ecut=    50.00 Ry     beta= 0.70
     Davidson diagonalization with overlap
     ethr =  6.97E-08,  avg # of iterations =  4.1

     total cpu time spent up to now is     1702.7 secs

     total energy              =    -321.70104908 Ry
     estimated scf accuracy    <       0.00000583 Ry

     iteration #  8     ecut=    50.00 Ry     beta= 0.70
     Davidson diagonalization with overlap
     ethr =  1.42E-08,  avg # of iterations =  2.0

     total cpu time spent up to now is     1710.0 secs

     End of self-consistent calculation

          k = 0.0000 0.0000 0.0000 ( 10169 PWs)   bands (ev):

   -75.2734 -42.4738 -42.3370 -42.2772  -8.2987  -6.9292  -5.7333  -4.6283
    -4.1790  -3.9438  -3.6952  -2.4154  -2.1429  -1.6483  -1.5185  -1.4456
    -1.3330  -1.2366  -0.8069  -0.3793   0.3089   2.3122   3.5989   4.8623
     4.9578

          k = 0.0123 0.0000-0.3578 ( 10212 PWs)   bands (ev):

   -75.2734 -42.4738 -42.3370 -42.2772  -8.2063  -7.1515  -5.7432  -4.5280
    -4.1547  -3.9343  -3.1970  -2.8007  -2.2223  -1.9069  -1.5785  -1.5382
    -1.3067  -0.8897  -0.6460  -0.3376   0.1305   2.3631   3.3900   4.8089
     4.9196

          k = 0.0000-0.4956 0.0000 ( 10254 PWs)   bands (ev):

   -75.2734 -42.4738 -42.3370 -42.2772  -7.4796  -6.9979  -6.6419  -5.4015
    -3.9472  -3.7322  -3.2921  -3.0751  -2.5874  -2.1885  -1.6549  -1.2153
    -1.1845  -0.5926  -0.1661   0.0103   0.1915   2.4163   4.2361   4.7095
     5.6777

          k = 0.0123-0.4956-0.3578 ( 10172 PWs)   bands (ev):

   -75.2734 -42.4738 -42.3370 -42.2772  -7.3944  -6.8796  -6.7774  -5.7734
    -3.9617  -3.5388  -2.9090  -2.7539  -2.7026  -2.4112  -1.3456  -1.3436
    -1.3334  -0.7929  -0.2876  -0.0136   0.2227   2.4869   4.4842   4.7620
     5.6402

          k =-0.4695 0.0000 0.0181 ( 10180 PWs)   bands (ev):

   -75.2734 -42.4738 -42.3370 -42.2772  -8.0216  -7.0371  -5.7813  -5.0586
    -4.0459  -3.8559  -3.8464  -2.9100  -2.5006  -2.0949  -1.7308  -1.3253
    -1.2645  -1.0264  -0.0983   0.5851   0.8695   2.2692   4.0549   4.7218
     5.0284

          k =-0.4572 0.0000-0.3397 ( 10192 PWs)   bands (ev):

   -75.2734 -42.4738 -42.3370 -42.2772  -7.9662  -7.0657  -5.7393  -5.4519
    -4.0716  -3.8512  -3.6818  -2.3881  -2.1886  -1.8820  -1.6931  -1.6910
    -1.3250  -1.2311  -0.2688   0.3822   0.7071   2.1489   4.2061   4.5983
     5.1842

          k =-0.4695-0.4956 0.0181 ( 10136 PWs)   bands (ev):

   -75.2734 -42.4738 -42.3370 -42.2772  -7.1832  -6.8156  -6.6714  -5.3486
    -4.9811  -3.8615  -3.5029  -2.8749  -2.7989  -2.4046  -2.0930  -1.9470
    -0.3336  -0.1642   0.3098   0.6244   1.1614   2.8325   4.7936   5.0556
     5.2952

          k =-0.4572-0.4956-0.3397 ( 10128 PWs)   bands (ev):

   -75.2734 -42.4738 -42.3370 -42.2772  -7.0940  -6.7660  -6.7624  -5.3425
    -5.0249  -4.2805  -3.6646  -3.2915  -2.1080  -2.0690  -1.5982  -1.4324
    -0.3903  -0.2724  -0.2453   0.2339   1.1563   2.8089   4.5186   5.1862
     5.3316

     the Fermi energy is     0.6761 ev

!    total energy              =    -321.70104975 Ry
     estimated scf accuracy    <       0.00000085 Ry
     smearing contrib. (-TS)   =       0.00012424 Ry
     internal energy E=F+TS    =    -321.70117400 Ry

     The total energy is F=E-TS. E is the sum of the following terms:
     one-electron contribution =    -133.49378586 Ry
     hartree contribution      =      45.06180075 Ry
     xc contribution           =     -37.04581914 Ry
     ewald contribution        =     -64.98458680 Ry
     one-center paw contrib.   =    -131.23878295 Ry

     convergence has been achieved in   8 iterations

     Forces acting on atoms (cartesian axes, Ry/au):

     atom    1 type  1   force =     0.00006364    0.00000000    0.01295383
     atom    2 type  1   force =     0.00258071    0.00000000    0.00202679
     atom    3 type  4   force =    -0.01151627    0.00000000   -0.04848929
     atom    4 type  1   force =    -0.00114890    0.00000000    0.04005996
     atom    5 type  1   force =    -0.01038741    0.00000000   -0.01031830
     atom    6 type  3   force =    -0.01886323    0.00000000   -0.01988234
     atom    7 type  2   force =    -0.02008359   -0.01779122    0.01092347
     atom    8 type  2   force =    -0.01870512    0.00000000    0.01167015
     atom    9 type  2   force =    -0.00942040    0.00000000   -0.02289054
     atom   10 type  2   force =     0.02672851   -0.01209264   -0.02640920
     atom   11 type  2   force =    -0.00715948    0.00000000    0.01791753
     atom   12 type  2   force =    -0.00825210    0.00000000   -0.00133828
     atom   13 type  2   force =     0.00315089    0.05097054   -0.00440134
     atom   14 type  2   force =     0.00292834    0.00000000    0.02102626
     atom   15 type  2   force =     0.01001536    0.00000000    0.00446692
     atom   16 type  2   force =    -0.00191078    0.00000000   -0.00293721
     atom   17 type  2   force =     0.01727512    0.00000000    0.00028715
     atom   18 type  2   force =     0.01567805    0.00000000   -0.02934216
     atom   19 type  2   force =     0.01219737   -0.00471288    0.01943315
     atom   20 type  2   force =     0.00315089   -0.05097054   -0.00440134
     atom   21 type  2   force =     0.02672851    0.01209264   -0.02640920
     atom   22 type  2   force =     0.01219737    0.00471288    0.01943315
     atom   23 type  2   force =    -0.02008359    0.01779122    0.01092347
     atom   24 type  2   force =    -0.00516389    0.00000000    0.02569737

     Total force =     0.143516     Total SCF correction =     0.001151


     Computing stress (Cartesian axis) and pressure

          total   stress  (Ry/bohr**3)                   (kbar)     P=       31.27
  -0.00017329   0.00000000  -0.00010030          -25.49        0.00      -14.75
   0.00000000   0.00051765   0.00000000            0.00       76.15        0.00
  -0.00010030   0.00000000   0.00029343          -14.75        0.00       43.16

     Energy error            =      7.2E-02
     Gradient error          =      5.1E-02
     Cell gradient error     =      5.2E-04


     number of scf cycles    =  11
     number of bfgs steps    =  10

     enthalpy old            =    -321.6290458674 Ry
     enthalpy new            =    -321.7010497524 Ry

     CASE: enthalpy_new < enthalpy_old

     new trust radius        =       0.1206576309 bohr
     new conv_thr            =       0.0000005097 Ry

     new unit-cell volume =   1657.43031 a.u.^3 (   245.60583 Ang^3 )
     density =      0.16226 g/cm^3

CELL_PARAMETERS (angstrom)
   5.780829645   0.000000000   0.188099380
   0.000000000   5.566673969  -0.000000000
   0.277731854  -0.000000000   7.641289268

ATOMIC_POSITIONS (angstrom)
Al            1.5344841960        0.0000000000        7.1023659803
Al            4.6099476640        0.0000000000        0.8565471205
Mg            4.2082328206        2.7833369845        5.0783276709
Al            0.0559630528        2.7833369845        0.0463278072
Al            1.7485974733        2.7833369845        2.9943727374
Li            2.8072017149        0.0000000000        3.7989298574
H             4.7988702734        3.9368913711        0.7913462564
H             0.6663871224        0.0000000000        1.0351251010
H             5.1338168867        2.7833369845        6.5397323204
H             1.3474825008        3.9414475364        7.1916133483
H             4.1198404104        0.0000000000        2.4034965632
H             3.6458589745        2.7833369845        2.8945674499
H             4.5756064206        5.1166359307        4.9118873774
H             2.3286859904        2.7833369845        4.7184442057
H             0.9692624205        2.7833369845        1.4410854682
H             2.9522463483        0.0000000000        0.1049546430
H             5.4879347915        0.0000000000        6.8751006682
H             1.9556574778        0.0000000000        5.5402640338
H             1.5801670049        4.4603603491        2.8088116365
H             4.5756064206        0.4500380382        4.9118873774
H             1.3474825008        1.6252254890        7.1916133483
H             1.5801670049        1.1063136199        2.8088116365
H             4.7988702734        1.6297825979        0.7913462564
H            -0.1842040326        2.7833369845        3.2863111192



     Writing output data file ./tmp/LiMgAl2H92.save/
     NEW-OLD atomic charge density approx. for the potential
     extrapolated charge   41.67847, renormalised to   41.00000

     total cpu time spent up to now is     1792.1 secs

     Self-consistent Calculation

     iteration #  1     ecut=    50.00 Ry     beta= 0.70
     Davidson diagonalization with overlap
     c_bands:  1 eigenvalues not converged
     ethr =  1.00E-06,  avg # of iterations = 11.9

     total cpu time spent up to now is     1806.1 secs

     total energy              =    -321.68922988 Ry
     estimated scf accuracy    <       0.00894795 Ry

     iteration #  2     ecut=    50.00 Ry     beta= 0.70
     Davidson diagonalization with overlap
     ethr =  2.18E-05,  avg # of iterations =  3.8

     total cpu time spent up to now is     1814.5 secs

     total energy              =    -321.70625424 Ry
     estimated scf accuracy    <       0.01561310 Ry

     iteration #  3     ecut=    50.00 Ry     beta= 0.70
     Davidson diagonalization with overlap
     ethr =  2.18E-05,  avg # of iterations =  2.0

     total cpu time spent up to now is     1821.5 secs

     total energy              =    -321.70797023 Ry
     estimated scf accuracy    <       0.00182759 Ry

     iteration #  4     ecut=    50.00 Ry     beta= 0.70
     Davidson diagonalization with overlap
     ethr =  4.46E-06,  avg # of iterations =  2.4

     total cpu time spent up to now is     1828.4 secs

     total energy              =    -321.70815266 Ry
     estimated scf accuracy    <       0.00105030 Ry

     iteration #  5     ecut=    50.00 Ry     beta= 0.70
     Davidson diagonalization with overlap
     ethr =  2.56E-06,  avg # of iterations =  2.9

     total cpu time spent up to now is     1835.1 secs

     total energy              =    -321.70826624 Ry
     estimated scf accuracy    <       0.00013195 Ry

     iteration #  6     ecut=    50.00 Ry     beta= 0.70
     Davidson diagonalization with overlap
     ethr =  3.22E-07,  avg # of iterations =  3.5

     total cpu time spent up to now is     1842.2 secs

     total energy              =    -321.70829135 Ry
     estimated scf accuracy    <       0.00000822 Ry

     iteration #  7     ecut=    50.00 Ry     beta= 0.70
     Davidson diagonalization with overlap
     ethr =  2.00E-08,  avg # of iterations =  4.2

     total cpu time spent up to now is     1850.4 secs

     total energy              =    -321.70829516 Ry
     estimated scf accuracy    <       0.00000094 Ry

     iteration #  8     ecut=    50.00 Ry     beta= 0.70
     Davidson diagonalization with overlap
     ethr =  2.29E-09,  avg # of iterations =  2.0

     total cpu time spent up to now is     1857.4 secs

     End of self-consistent calculation

          k = 0.0000 0.0000 0.0000 ( 10169 PWs)   bands (ev):

   -75.2936 -42.4950 -42.3551 -42.2985  -8.2577  -6.6462  -5.7759  -4.6071
    -4.2813  -3.9397  -3.6964  -2.5401  -2.1754  -1.7498  -1.5576  -1.5088
    -1.4728  -1.3236  -0.9297  -0.5194   0.1768   1.8106   3.5578   4.7020
     4.7638

          k = 0.0116 0.0000-0.3561 ( 10212 PWs)   bands (ev):

   -75.2936 -42.4950 -42.3551 -42.2985  -8.1702  -6.9361  -5.6809  -4.4992
    -4.2911  -3.9291  -3.2406  -2.8545  -2.2626  -1.9868  -1.6550  -1.6396
    -1.4110  -1.0066  -0.7507  -0.4878   0.0033   1.8536   3.3444   4.6413
     4.7749

          k = 0.0000-0.4883 0.0000 ( 10254 PWs)   bands (ev):

   -75.2936 -42.4950 -42.3551 -42.2985  -7.4270  -6.9890  -6.3823  -5.4605
    -3.9738  -3.7687  -3.2936  -3.1127  -2.6551  -2.2485  -1.7428  -1.2843
    -1.2382  -0.7304  -0.3514  -0.0788   0.0097   2.0481   4.0728   4.7072
     5.4971

          k = 0.0116-0.4883-0.3561 ( 10172 PWs)   bands (ev):

   -75.2936 -42.4950 -42.3551 -42.2985  -7.3545  -6.8597  -6.5200  -5.8461
    -3.9652  -3.5236  -2.9226  -2.7902  -2.7748  -2.4627  -1.4574  -1.4337
    -1.4254  -0.9519  -0.4787  -0.0627   0.0615   2.1008   4.3632   4.7205
     5.3177

          k =-0.4707 0.0000 0.0171 ( 10180 PWs)   bands (ev):

   -75.2936 -42.4950 -42.3551 -42.2985  -7.9711  -6.7731  -5.7632  -5.1108
    -4.1197  -3.8988  -3.8443  -2.9673  -2.5789  -2.2033  -1.7834  -1.4173
    -1.3972  -1.1284  -0.2330   0.4640   0.7263   1.7470   3.9969   4.7137
     4.8972

          k =-0.4592 0.0000-0.3390 ( 10192 PWs)   bands (ev):

   -75.2936 -42.4950 -42.3551 -42.2985  -7.9213  -6.7719  -5.7899  -5.4715
    -4.0543  -3.8392  -3.8189  -2.4931  -2.2939  -1.9524  -1.7319  -1.7262
    -1.4685  -1.3135  -0.4125   0.2590   0.5414   1.6499   4.1887   4.5371
     5.0871

          k =-0.4707-0.4883 0.0171 ( 10136 PWs)   bands (ev):

   -75.2936 -42.4950 -42.3551 -42.2985  -7.0690  -6.7921  -6.4742  -5.4146
    -5.0146  -3.9140  -3.4995  -2.9075  -2.8629  -2.5181  -2.1646  -2.0405
    -0.4604  -0.2522   0.1359   0.5204   0.9894   2.4247   4.7447   5.0315
     5.2565

          k =-0.4592-0.4883-0.3390 ( 10128 PWs)   bands (ev):

   -75.2936 -42.4950 -42.3551 -42.2985  -6.9913  -6.7385  -6.5475  -5.4191
    -5.0786  -4.3259  -3.6677  -3.3311  -2.2044  -2.1066  -1.7025  -1.4769
    -0.5300  -0.4456  -0.3238   0.1085   0.9760   2.4142   4.4348   5.1194
     5.2860

     the Fermi energy is     0.5464 ev

!    total energy              =    -321.70829535 Ry
     estimated scf accuracy    <       0.00000006 Ry
     smearing contrib. (-TS)   =      -0.00003426 Ry
     internal energy E=F+TS    =    -321.70826109 Ry

     The total energy is F=E-TS. E is the sum of the following terms:
     one-electron contribution =    -134.01281603 Ry
     hartree contribution      =      45.17183008 Ry
     xc contribution           =     -36.91838251 Ry
     ewald contribution        =     -64.72167856 Ry
     one-center paw contrib.   =    -131.22721408 Ry

     convergence has been achieved in   8 iterations

     Forces acting on atoms (cartesian axes, Ry/au):

     atom    1 type  1   force =     0.00124342    0.00000000    0.00697070
     atom    2 type  1   force =     0.00190297    0.00000000    0.00417367
     atom    3 type  4   force =    -0.00869172    0.00000000   -0.04277527
     atom    4 type  1   force =     0.00059796    0.00000000    0.03359001
     atom    5 type  1   force =    -0.00761005    0.00000000   -0.00588022
     atom    6 type  3   force =    -0.01916750    0.00000000   -0.01931017
     atom    7 type  2   force =    -0.01692887   -0.01289895    0.00879695
     atom    8 type  2   force =    -0.01724995    0.00000000    0.01062897
     atom    9 type  2   force =    -0.00933714    0.00000000   -0.02242489
     atom   10 type  2   force =     0.02137487   -0.01043867   -0.02230780
     atom   11 type  2   force =    -0.00547842    0.00000000    0.01208600
     atom   12 type  2   force =    -0.00968837    0.00000000   -0.00112311
     atom   13 type  2   force =     0.00398432    0.12797935   -0.00369612
     atom   14 type  2   force =     0.00185116    0.00000000    0.01788215
     atom   15 type  2   force =     0.01006916    0.00000000    0.00439180
     atom   16 type  2   force =    -0.00139935    0.00000000   -0.00242338
     atom   17 type  2   force =     0.01582638    0.00000000    0.00114300
     atom   18 type  2   force =     0.01241958    0.00000000   -0.02126444
     atom   19 type  2   force =     0.01082493   -0.00622913    0.01727376
     atom   20 type  2   force =     0.00398432   -0.12797935   -0.00369612
     atom   21 type  2   force =     0.02137487    0.01043867   -0.02230780
     atom   22 type  2   force =     0.01082493    0.00622913    0.01727376
     atom   23 type  2   force =    -0.01692887    0.01289895    0.00879695
     atom   24 type  2   force =    -0.00379863    0.00000000    0.02420160

     Total force =     0.209840     Total SCF correction =     0.000159


     Computing stress (Cartesian axis) and pressure

          total   stress  (Ry/bohr**3)                   (kbar)     P=       16.75
  -0.00018944   0.00000000  -0.00008661          -27.87        0.00      -12.74
   0.00000000   0.00029806   0.00000000            0.00       43.85        0.00
  -0.00008661   0.00000000   0.00023297          -12.74        0.00       34.27

     Energy error            =      7.2E-03
     Gradient error          =      1.3E-01
     Cell gradient error     =      3.0E-04


     number of scf cycles    =  12
     number of bfgs steps    =  11

     enthalpy old            =    -321.7010497524 Ry
     enthalpy new            =    -321.7082953475 Ry

     CASE: enthalpy_new < enthalpy_old

     new trust radius        =       0.1624292723 bohr
     new conv_thr            =       0.0000007246 Ry

     new unit-cell volume =   1696.58848 a.u.^3 (   251.40847 Ang^3 )
     density =      0.15852 g/cm^3

CELL_PARAMETERS (angstrom)
   5.790433813   0.000000000   0.198559587
   0.000000000   5.677722407  -0.000000000
   0.294975257  -0.000000000   7.657177774

ATOMIC_POSITIONS (angstrom)
Al            1.5515641534        0.0000000000        7.1340634839
Al            4.6290191154        0.0000000000        0.8683080629
Mg            4.1959890656        2.8388612037        5.1037060811
Al            0.0627686377        2.8388612037        0.0662666270
Al            1.7546364169        2.8388612037        2.9703863129
Li            2.7949100702        0.0000000000        3.7939660532
H             4.8037703122        4.0111660990        0.8023005421
H             0.6557074449        0.0000000000        1.0393453726
H             5.1523196991        2.8388612037        6.5661071822
H             1.3719123834        4.0201881246        7.2004711468
H             4.1279734629        0.0000000000        2.4313157911
H             3.6583640771        2.8388612037        2.9118422493
H             4.6142755811        5.2591274983        4.9387750691
H             2.3523987443        2.8388612037        4.7355487673
H             0.9696701301        2.8388612037        1.4412479296
H             2.9586670280        0.0000000000        0.1092013934
H             5.5260067218        0.0000000000        6.9000640394
H             1.9926228561        0.0000000000        5.5444967922
H             1.5867224378        4.5399488951        2.8131005736
H             4.6142755811        0.4185949090        4.9387750691
H             1.3719123834        1.6575333203        7.2004711468
H             1.5867224378        1.1377735123        2.8131005736
H             4.8037703122        1.6665563084        0.8023005421
H            -0.1964900930        2.8388612037        3.2879449892



     Writing output data file ./tmp/LiMgAl2H92.save/
     NEW-OLD atomic charge density approx. for the potential
     extrapolated charge   41.94596, renormalised to   41.00000

     total cpu time spent up to now is     1939.7 secs

     Self-consistent Calculation

     iteration #  1     ecut=    50.00 Ry     beta= 0.70
     Davidson diagonalization with overlap
     c_bands:  1 eigenvalues not converged
     ethr =  1.00E-06,  avg # of iterations = 12.5

     total cpu time spent up to now is     1954.9 secs

     total energy              =    -321.70154903 Ry
     estimated scf accuracy    <       0.01311769 Ry

     iteration #  2     ecut=    50.00 Ry     beta= 0.70
     Davidson diagonalization with overlap
     ethr =  3.20E-05,  avg # of iterations =  4.9

     total cpu time spent up to now is     1963.6 secs

     total energy              =    -321.73403207 Ry
     estimated scf accuracy    <       0.04194997 Ry

     iteration #  3     ecut=    50.00 Ry     beta= 0.70
     Davidson diagonalization with overlap
     ethr =  3.20E-05,  avg # of iterations =  2.0

     total cpu time spent up to now is     1970.5 secs

     total energy              =    -321.73789559 Ry
     estimated scf accuracy    <       0.00489509 Ry

     iteration #  4     ecut=    50.00 Ry     beta= 0.70
     Davidson diagonalization with overlap
     ethr =  1.19E-05,  avg # of iterations =  2.0

     total cpu time spent up to now is     1977.3 secs

     total energy              =    -321.73803466 Ry
     estimated scf accuracy    <       0.00185422 Ry

     iteration #  5     ecut=    50.00 Ry     beta= 0.70
     Davidson diagonalization with overlap
     ethr =  4.52E-06,  avg # of iterations =  3.2

     total cpu time spent up to now is     1984.2 secs

     total energy              =    -321.73804658 Ry
     estimated scf accuracy    <       0.00040633 Ry

     iteration #  6     ecut=    50.00 Ry     beta= 0.70
     Davidson diagonalization with overlap
     ethr =  9.91E-07,  avg # of iterations =  4.1

     total cpu time spent up to now is     1991.8 secs

     total energy              =    -321.73812654 Ry
     estimated scf accuracy    <       0.00001397 Ry

     iteration #  7     ecut=    50.00 Ry     beta= 0.70
     Davidson diagonalization with overlap
     ethr =  3.41E-08,  avg # of iterations =  4.1

     total cpu time spent up to now is     2000.0 secs

     total energy              =    -321.73813403 Ry
     estimated scf accuracy    <       0.00000214 Ry

     iteration #  8     ecut=    50.00 Ry     beta= 0.70
     Davidson diagonalization with overlap
     ethr =  5.23E-09,  avg # of iterations =  2.0

     total cpu time spent up to now is     2007.0 secs

     End of self-consistent calculation

          k = 0.0000 0.0000 0.0000 ( 10169 PWs)   bands (ev):

   -75.3926 -42.5943 -42.4571 -42.3940  -8.2551  -6.7466  -5.8754  -4.5818
    -4.4056  -3.9772  -3.8469  -2.6834  -2.2280  -1.8911  -1.6401  -1.6068
    -1.5618  -1.4106  -1.0198  -0.6728  -0.0138   2.0735   3.3550   4.4128
     4.5430

          k = 0.0122 0.0000-0.3554 ( 10212 PWs)   bands (ev):

   -75.3926 -42.5943 -42.4571 -42.3940  -8.1657  -7.0130  -5.8027  -4.4980
    -4.4621  -3.9661  -3.3269  -2.9452  -2.3701  -2.0598  -1.7452  -1.7417
    -1.4916  -1.1524  -0.8785  -0.6288  -0.1589   2.1240   3.1381   4.3773
     4.6465

          k = 0.0000-0.4787 0.0000 ( 10254 PWs)   bands (ev):

   -75.3926 -42.5943 -42.4571 -42.3940  -7.4889  -7.0252  -6.5183  -5.5009
    -3.9968  -3.8663  -3.2895  -3.1621  -2.7486  -2.2925  -1.8263  -1.3825
    -1.3477  -0.8007  -0.5986  -0.2251  -0.1909   2.1549   3.9935   4.5191
     5.3028

          k = 0.0122-0.4787-0.3554 ( 10172 PWs)   bands (ev):

   -75.3926 -42.5943 -42.4571 -42.3940  -7.4131  -6.8944  -6.6548  -5.8931
    -3.9927  -3.5769  -2.9677  -2.8637  -2.8313  -2.4984  -1.5693  -1.5351
    -1.5095  -1.0284  -0.7323  -0.1752  -0.1706   2.2345   4.3219   4.5098
     5.1946

          k =-0.4700 0.0000 0.0181 ( 10180 PWs)   bands (ev):

   -75.3926 -42.5943 -42.4571 -42.3940  -7.9662  -6.8640  -5.8266  -5.1532
    -4.3060  -3.9677  -3.8783  -3.0344  -2.7062  -2.3504  -1.8490  -1.5194
    -1.5159  -1.2545  -0.3968   0.3048   0.6092   2.0278   3.8370   4.5507
     4.6950

          k =-0.4578 0.0000-0.3373 ( 10192 PWs)   bands (ev):

   -75.3926 -42.5943 -42.4571 -42.3940  -7.9145  -6.8743  -5.8505  -5.4709
    -4.1757  -4.0635  -3.8730  -2.5859  -2.4250  -2.0444  -1.7834  -1.7439
    -1.6025  -1.4131  -0.6109   0.1133   0.4112   1.9103   3.9830   4.3742
     4.9424

          k =-0.4700-0.4787 0.0181 ( 10136 PWs)   bands (ev):

   -75.3926 -42.5943 -42.4571 -42.3940  -7.1444  -6.8189  -6.5909  -5.4770
    -5.0585  -4.0006  -3.5313  -2.9730  -2.8527  -2.6025  -2.2237  -2.1446
    -0.6832  -0.3448  -0.0820   0.3632   0.8445   2.6279   4.5165   4.8378
     5.1407

          k =-0.4578-0.4787-0.3373 ( 10128 PWs)   bands (ev):

   -75.3926 -42.5943 -42.4571 -42.3940  -7.0599  -6.7635  -6.6752  -5.4882
    -5.1140  -4.3955  -3.6771  -3.3794  -2.3168  -2.1260  -1.8086  -1.5504
    -0.7518  -0.6318  -0.4033  -0.0256   0.8169   2.5986   4.2409   4.9843
     5.0613

     the Fermi energy is     0.4059 ev

!    total energy              =    -321.73813450 Ry
     estimated scf accuracy    <       0.00000007 Ry
     smearing contrib. (-TS)   =      -0.00007345 Ry
     internal energy E=F+TS    =    -321.73806104 Ry

     The total energy is F=E-TS. E is the sum of the following terms:
     one-electron contribution =    -134.78106405 Ry
     hartree contribution      =      45.36556575 Ry
     xc contribution           =     -36.84755517 Ry
     ewald contribution        =     -64.25963495 Ry
     one-center paw contrib.   =    -131.21537262 Ry

     convergence has been achieved in   8 iterations

     Forces acting on atoms (cartesian axes, Ry/au):

     atom    1 type  1   force =     0.00548323    0.00000000   -0.00615786
     atom    2 type  1   force =    -0.00145916    0.00000000    0.00725670
     atom    3 type  4   force =    -0.00347013    0.00000000   -0.03748675
     atom    4 type  1   force =    -0.00224027    0.00000000    0.01823568
     atom    5 type  1   force =    -0.00674931    0.00000000    0.00424567
     atom    6 type  3   force =    -0.01730531    0.00000000   -0.01733526
     atom    7 type  2   force =    -0.01498594   -0.00519260    0.00847447
     atom    8 type  2   force =    -0.01619846    0.00000000    0.01204979
     atom    9 type  2   force =    -0.00784772    0.00000000   -0.02138704
     atom   10 type  2   force =     0.01722376   -0.00723667   -0.01911940
     atom   11 type  2   force =    -0.00310913    0.00000000    0.00448678
     atom   12 type  2   force =    -0.00858150    0.00000000   -0.00232131
     atom   13 type  2   force =     0.00341778    0.09150813   -0.00365394
     atom   14 type  2   force =    -0.00330213    0.00000000    0.01208595
     atom   15 type  2   force =     0.01216449    0.00000000    0.00598335
     atom   16 type  2   force =    -0.00066044    0.00000000   -0.00109256
     atom   17 type  2   force =     0.01479703    0.00000000    0.00392134
     atom   18 type  2   force =     0.00894002    0.00000000   -0.01015202
     atom   19 type  2   force =     0.01088561   -0.01489350    0.01678672
     atom   20 type  2   force =     0.00341778   -0.09150813   -0.00365394
     atom   21 type  2   force =     0.01722376    0.00723667   -0.01911940
     atom   22 type  2   force =     0.01088561    0.01489350    0.01678672
     atom   23 type  2   force =    -0.01498594    0.00519260    0.00847447
     atom   24 type  2   force =    -0.00354361    0.00000000    0.02269182

     Total force =     0.158055     Total SCF correction =     0.000197


     Computing stress (Cartesian axis) and pressure

          total   stress  (Ry/bohr**3)                   (kbar)     P=        6.19
  -0.00021995   0.00000000  -0.00007691          -32.36        0.00      -11.31
   0.00000000   0.00017320   0.00000000            0.00       25.48        0.00
  -0.00007691   0.00000000   0.00017297          -11.31        0.00       25.44

     Energy error            =      3.0E-02
     Gradient error          =      9.2E-02
     Cell gradient error     =      2.2E-04


     number of scf cycles    =  13
     number of bfgs steps    =  12

     enthalpy old            =    -321.7082953475 Ry
     enthalpy new            =    -321.7381344969 Ry

     CASE: enthalpy_new < enthalpy_old

     new trust radius        =       0.2416839483 bohr
     new conv_thr            =       0.0000009151 Ry

     new unit-cell volume =   1746.17216 a.u.^3 (   258.75602 Ang^3 )
     density =      0.15402 g/cm^3

CELL_PARAMETERS (angstrom)
   5.772875694   0.000000000   0.209946104
   0.000000000   5.844295065  -0.000000000
   0.315416085  -0.000000000   7.680954452

ATOMIC_POSITIONS (angstrom)
Al            1.5677934434        0.0000000000        7.1691211074
Al            4.6305107548        0.0000000000        0.8870863591
Mg            4.1505946159        2.9221475324        5.1274795447
Al            0.0699670313        2.9221475324        0.0917339938
Al            1.7534915400        2.9221475324        2.9405147931
Li            2.7580959078        0.0000000000        3.7820037258
H             4.7789746338        4.1256887465        0.8172833602
H             0.6283679909        0.0000000000        1.0468721255
H             5.1475755501        2.9221475324        6.5973788320
H             1.4009613803        4.1380018537        7.2079791526
H             4.1187828098        0.0000000000        2.4647587035
H             3.6461574670        2.9221475324        2.9306809812
H             4.6419460185        5.4681092093        4.9710001892
H             2.3675175664        2.9221475324        4.7590537899
H             0.9691879643        2.9221475324        1.4429171850
H             2.9519387972        0.0000000000        0.1138657702
H             5.5547344641        0.0000000000        6.9385187030
H             2.0337822523        0.0000000000        5.5547496809
H             1.5947074627        4.6415173018        2.8291360318
H             4.6419460185        0.3761858555        4.9710001892
H             1.4009613803        1.7062922205        7.2079791526
H             1.5947074627        1.2027777631        2.8291360318
H             4.7789746338        1.7186063183        0.8172833602
H            -0.2104783718        2.9221475324        3.3023681543



     Writing output data file ./tmp/LiMgAl2H92.save/
     NEW-OLD atomic charge density approx. for the potential
     extrapolated charge   42.16380, renormalised to   41.00000

     total cpu time spent up to now is     2089.0 secs

     Self-consistent Calculation

     iteration #  1     ecut=    50.00 Ry     beta= 0.70
     Davidson diagonalization with overlap
     c_bands:  1 eigenvalues not converged
     ethr =  1.00E-06,  avg # of iterations = 14.0

     total cpu time spent up to now is     2105.2 secs

     total energy              =    -321.70523419 Ry
     estimated scf accuracy    <       0.02006265 Ry

     iteration #  2     ecut=    50.00 Ry     beta= 0.70
     Davidson diagonalization with overlap
     ethr =  4.89E-05,  avg # of iterations =  4.1

     total cpu time spent up to now is     2113.8 secs

     total energy              =    -321.75985867 Ry
     estimated scf accuracy    <       0.05189272 Ry

     iteration #  3     ecut=    50.00 Ry     beta= 0.70
     Davidson diagonalization with overlap
     ethr =  4.89E-05,  avg # of iterations =  2.0

     total cpu time spent up to now is     2120.7 secs

     total energy              =    -321.76423761 Ry
     estimated scf accuracy    <       0.00607191 Ry

     iteration #  4     ecut=    50.00 Ry     beta= 0.70
     Davidson diagonalization with overlap
     ethr =  1.48E-05,  avg # of iterations =  2.2

     total cpu time spent up to now is     2127.6 secs

     total energy              =    -321.76433605 Ry
     estimated scf accuracy    <       0.00292298 Ry

     iteration #  5     ecut=    50.00 Ry     beta= 0.70
     Davidson diagonalization with overlap
     ethr =  7.13E-06,  avg # of iterations =  2.0

     total cpu time spent up to now is     2134.2 secs

     total energy              =    -321.76450516 Ry
     estimated scf accuracy    <       0.00047295 Ry

     iteration #  6     ecut=    50.00 Ry     beta= 0.70
     Davidson diagonalization with overlap
     ethr =  1.15E-06,  avg # of iterations =  4.4

     total cpu time spent up to now is     2142.0 secs

     total energy              =    -321.76461142 Ry
     estimated scf accuracy    <       0.00001828 Ry

     iteration #  7     ecut=    50.00 Ry     beta= 0.70
     Davidson diagonalization with overlap
     ethr =  4.46E-08,  avg # of iterations =  4.1

     total cpu time spent up to now is     2149.9 secs

     total energy              =    -321.76462017 Ry
     estimated scf accuracy    <       0.00000342 Ry

     iteration #  8     ecut=    50.00 Ry     beta= 0.70
     Davidson diagonalization with overlap
     ethr =  8.35E-09,  avg # of iterations =  2.0

     total cpu time spent up to now is     2156.8 secs

     End of self-consistent calculation

          k = 0.0000 0.0000 0.0000 ( 10169 PWs)   bands (ev):

   -75.4674 -42.6690 -42.5359 -42.4651  -8.2511  -6.8998  -6.0524  -4.5916
    -4.5295  -4.0338  -3.9949  -2.8875  -2.3117  -2.0514  -1.8722  -1.7308
    -1.5902  -1.5347  -1.1353  -0.8885  -0.2542   2.3880   3.1574   4.0326
     4.2862

          k = 0.0129 0.0000-0.3544 ( 10212 PWs)   bands (ev):

   -75.4674 -42.6690 -42.5359 -42.4651  -8.1566  -7.1405  -5.9989  -4.7538
    -4.4245  -3.9822  -3.4515  -3.0810  -2.4808  -2.1604  -1.9465  -1.8919
    -1.5508  -1.3663  -1.0254  -0.8343  -0.3557   2.4552   2.9273   4.0295
     4.5280

          k = 0.0000-0.4651 0.0000 ( 10254 PWs)   bands (ev):

   -75.4674 -42.6690 -42.5359 -42.4651  -7.5860  -7.0764  -6.7033  -5.5744
    -4.0367  -4.0079  -3.2483  -3.2297  -2.8768  -2.3386  -1.9424  -1.5178
    -1.4915  -0.9247  -0.9193  -0.5634  -0.3309   2.2514   3.8846   4.2877
     5.0632

          k = 0.0129-0.4651-0.3544 ( 10172 PWs)   bands (ev):

   -75.4674 -42.6690 -42.5359 -42.4651  -7.5059  -6.9402  -6.8390  -5.9789
    -4.0372  -3.6527  -3.0283  -2.9725  -2.8596  -2.5196  -1.7333  -1.6894
    -1.6323  -1.1648  -1.0611  -0.5056  -0.3016   2.3555   4.2314   4.3016
     5.0742

          k =-0.4715 0.0000 0.0194 ( 10180 PWs)   bands (ev):

   -75.4674 -42.6690 -42.5359 -42.4651  -7.9493  -7.0024  -5.9418  -5.2455
    -4.5561  -4.0600  -3.8855  -3.1569  -2.8388  -2.5594  -1.9781  -1.6709
    -1.6457  -1.4318  -0.5947   0.0886   0.4504   2.3688   3.6813   4.3865
     4.4616

          k =-0.4587 0.0000-0.3350 ( 10192 PWs)   bands (ev):

   -75.4674 -42.6690 -42.5359 -42.4651  -7.8934  -7.0254  -5.9749  -5.4774
    -4.4067  -4.3219  -3.8794  -2.7592  -2.5851  -2.1806  -1.9100  -1.7642
    -1.7619  -1.5261  -0.8675  -0.0695   0.2313   2.2182   3.7602   4.2073
     4.7885

          k =-0.4715-0.4651 0.0194 ( 10136 PWs)   bands (ev):

   -75.4674 -42.6690 -42.5359 -42.4651  -7.2581  -6.8441  -6.7447  -5.5896
    -5.1267  -4.1416  -3.5352  -3.0750  -2.8370  -2.7335  -2.3211  -2.2932
    -0.9982  -0.4066  -0.3907   0.1460   0.6272   2.8734   4.2238   4.6520
     5.0196

          k =-0.4587-0.4651-0.3350 ( 10128 PWs)   bands (ev):

   -75.4674 -42.6690 -42.5359 -42.4651  -7.1669  -6.8404  -6.7843  -5.6146
    -5.1711  -4.4970  -3.6692  -3.4520  -2.4928  -2.1405  -1.9631  -1.6838
    -1.0512  -0.9021  -0.4708  -0.1870   0.5794   2.8182   4.0043   4.6779
     4.7850

     the Fermi energy is     0.2089 ev

!    total energy              =    -321.76462085 Ry
     estimated scf accuracy    <       0.00000018 Ry
     smearing contrib. (-TS)   =       0.00023214 Ry
     internal energy E=F+TS    =    -321.76485299 Ry

     The total energy is F=E-TS. E is the sum of the following terms:
     one-electron contribution =    -135.89977502 Ry
     hartree contribution      =      45.70193509 Ry
     xc contribution           =     -36.78614412 Ry
     ewald contribution        =     -63.58112059 Ry
     one-center paw contrib.   =    -131.19974835 Ry

     convergence has been achieved in   8 iterations

     Forces acting on atoms (cartesian axes, Ry/au):

     atom    1 type  1   force =     0.00968155    0.00000000   -0.01588779
     atom    2 type  1   force =    -0.00741606    0.00000000    0.00864927
     atom    3 type  4   force =     0.00833482    0.00000000   -0.02796056
     atom    4 type  1   force =    -0.00807278    0.00000000   -0.00231724
     atom    5 type  1   force =    -0.00515113    0.00000000    0.01817742
     atom    6 type  3   force =    -0.01464106    0.00000000   -0.01434595
     atom    7 type  2   force =    -0.01108609    0.00190241    0.00735794
     atom    8 type  2   force =    -0.00997938    0.00000000    0.01218421
     atom    9 type  2   force =    -0.00682829    0.00000000   -0.02053335
     atom   10 type  2   force =     0.01174147   -0.00336433   -0.01337176
     atom   11 type  2   force =    -0.00148791    0.00000000   -0.00218909
     atom   12 type  2   force =    -0.00585494    0.00000000   -0.00367915
     atom   13 type  2   force =     0.00289770    0.00705737   -0.00340999
     atom   14 type  2   force =    -0.01305364    0.00000000    0.00550530
     atom   15 type  2   force =     0.01428702    0.00000000    0.00685920
     atom   16 type  2   force =    -0.00004220    0.00000000    0.00063875
     atom   17 type  2   force =     0.01112973    0.00000000    0.00590045
     atom   18 type  2   force =     0.00566037    0.00000000   -0.00125639
     atom   19 type  2   force =     0.00973991   -0.02184614    0.01477864
     atom   20 type  2   force =     0.00289770   -0.00705737   -0.00340999
     atom   21 type  2   force =     0.01174147    0.00336433   -0.01337176
     atom   22 type  2   force =     0.00973991    0.02184614    0.01477864
     atom   23 type  2   force =    -0.01108609   -0.00190241    0.00735794
     atom   24 type  2   force =    -0.00315209    0.00000000    0.01954529

     Total force =     0.081979     Total SCF correction =     0.000439


     Computing stress (Cartesian axis) and pressure

          total   stress  (Ry/bohr**3)                   (kbar)     P=       -2.86
  -0.00022416   0.00000000  -0.00005652          -32.97        0.00       -8.31
   0.00000000   0.00005174   0.00000000            0.00        7.61        0.00
  -0.00005652   0.00000000   0.00011407           -8.31        0.00       16.78

     Energy error            =      2.6E-02
     Gradient error          =      2.8E-02
     Cell gradient error     =      2.2E-04


     number of scf cycles    =  14
     number of bfgs steps    =  13

     enthalpy old            =    -321.7381344969 Ry
     enthalpy new            =    -321.7646208463 Ry

     CASE: enthalpy_new < enthalpy_old

     new trust radius        =       0.2248477112 bohr
     new conv_thr            =       0.0000002796 Ry

     new unit-cell volume =   1783.72381 a.u.^3 (   264.32060 Ang^3 )
     density =      0.15077 g/cm^3

CELL_PARAMETERS (angstrom)
   5.713797616   0.000000000   0.208610878
   0.000000000   6.001529290  -0.000000000
   0.317559435  -0.000000000   7.719638793

ATOMIC_POSITIONS (angstrom)
Al            1.5583067707        0.0000000000        7.2012662786
Al            4.5913947631        0.0000000000        0.8989978900
Mg            4.0796028046        3.0007646451        5.1269062495
Al            0.0694101265        3.0007646451        0.1075322198
Al            1.7350324889        3.0007646451        2.9347644248
Li            2.7101188941        0.0000000000        3.7788537933
H             4.7092163856        4.2354155527        0.8259962251
H             0.5945485021        0.0000000000        1.0542123312
H             5.0912440506        3.0007646451        6.6190138063
H             1.4120951904        4.2472625204        7.2208379525
H             4.0794380290        0.0000000000        2.4844316187
H             3.5848428927        3.0007646451        2.9335014950
H             4.6078077343        5.6200874752        4.9856855681
H             2.3429338093        3.0007646451        4.7905956160
H             0.9672948622        3.0007646451        1.4506878737
H             2.9214765984        0.0000000000        0.1123225029
H             5.5262087115        0.0000000000        6.9823032050
H             2.0378725573        0.0000000000        5.5732057545
H             1.6024194206        4.7165424908        2.8720007274
H             4.6078077343        0.3814418149        4.9856855681
H             1.4120951904        1.7542657524        7.2208379525
H             1.6024194206        1.2849867993        2.8720007274
H             4.7092163856        1.7661137375        0.8259962251
H            -0.2078864393        3.0007646451        3.3531051504



     Writing output data file ./tmp/LiMgAl2H92.save/
     NEW-OLD atomic charge density approx. for the potential
     extrapolated charge   41.86284, renormalised to   41.00000

     total cpu time spent up to now is     2238.9 secs

     Self-consistent Calculation

     iteration #  1     ecut=    50.00 Ry     beta= 0.70
     Davidson diagonalization with overlap
     c_bands:  1 eigenvalues not converged
     c_bands:  1 eigenvalues not converged
     ethr =  1.00E-06,  avg # of iterations = 15.2

     total cpu time spent up to now is     2254.7 secs

     total energy              =    -321.74739363 Ry
     estimated scf accuracy    <       0.00980317 Ry

     iteration #  2     ecut=    50.00 Ry     beta= 0.70
     Davidson diagonalization with overlap
     ethr =  2.39E-05,  avg # of iterations =  5.2

     total cpu time spent up to now is     2263.5 secs

     total energy              =    -321.77904138 Ry
     estimated scf accuracy    <       0.02137465 Ry

     iteration #  3     ecut=    50.00 Ry     beta= 0.70
     Davidson diagonalization with overlap
     ethr =  2.39E-05,  avg # of iterations =  2.0

     total cpu time spent up to now is     2270.4 secs

     total energy              =    -321.78043031 Ry
     estimated scf accuracy    <       0.00222807 Ry

     iteration #  4     ecut=    50.00 Ry     beta= 0.70
     Davidson diagonalization with overlap
     ethr =  5.43E-06,  avg # of iterations =  2.4

     total cpu time spent up to now is     2277.4 secs

     total energy              =    -321.78029579 Ry
     estimated scf accuracy    <       0.00096219 Ry

     iteration #  5     ecut=    50.00 Ry     beta= 0.70
     Davidson diagonalization with overlap
     ethr =  2.35E-06,  avg # of iterations =  3.2

     total cpu time spent up to now is     2284.4 secs

     total energy              =    -321.78031890 Ry
     estimated scf accuracy    <       0.00040126 Ry

     iteration #  6     ecut=    50.00 Ry     beta= 0.70
     Davidson diagonalization with overlap
     ethr =  9.79E-07,  avg # of iterations =  2.6

     total cpu time spent up to now is     2291.1 secs

     total energy              =    -321.78038671 Ry
     estimated scf accuracy    <       0.00001671 Ry

     iteration #  7     ecut=    50.00 Ry     beta= 0.70
     Davidson diagonalization with overlap
     ethr =  4.07E-08,  avg # of iterations =  4.5

     total cpu time spent up to now is     2299.2 secs

     total energy              =    -321.78039528 Ry
     estimated scf accuracy    <       0.00000166 Ry

     iteration #  8     ecut=    50.00 Ry     beta= 0.70
     Davidson diagonalization with overlap
     ethr =  4.05E-09,  avg # of iterations =  2.2

     total cpu time spent up to now is     2306.4 secs

     End of self-consistent calculation

          k = 0.0000 0.0000 0.0000 ( 10169 PWs)   bands (ev):

   -75.4607 -42.6626 -42.5292 -42.4576  -8.2269  -6.7993  -6.2378  -4.7503
    -4.4788  -4.1002  -3.9550  -3.0811  -2.4227  -2.1381  -2.1318  -1.8198
    -1.6455  -1.5602  -1.2343  -1.0808  -0.4280   2.3709   3.1112   3.7311
     4.1363

          k = 0.0129 0.0000-0.3526 ( 10212 PWs)   bands (ev):

   -75.4607 -42.6626 -42.5292 -42.4576  -8.1319  -7.0868  -6.1100  -4.9746
    -4.3358  -3.9391  -3.5448  -3.2143  -2.5414  -2.2306  -2.1949  -2.0251
    -1.5715  -1.5338  -1.1341  -1.0396  -0.4877   2.4444   2.8467   3.7750
     4.4796

          k = 0.0000-0.4529 0.0000 ( 10254 PWs)   bands (ev):

   -75.4607 -42.6626 -42.5292 -42.4576  -7.6300  -7.1034  -6.6423  -5.6443
    -4.1018  -4.0841  -3.2982  -3.1598  -2.9774  -2.3931  -2.0564  -1.6292
    -1.5842  -1.1645  -1.0691  -0.8318  -0.4345   2.1910   3.7332   4.1792
     4.8756

          k = 0.0129-0.4529-0.3526 ( 10172 PWs)   bands (ev):

   -75.4607 -42.6626 -42.5292 -42.4576  -7.5581  -6.9579  -6.7777  -6.0633
    -4.0633  -3.6845  -3.1607  -2.9666  -2.8204  -2.5309  -1.9121  -1.8207
    -1.7695  -1.3555  -1.3020  -0.7527  -0.3750   2.2776   4.0771   4.2402
     4.5562

          k =-0.4764 0.0000 0.0196 ( 10180 PWs)   bands (ev):

   -75.4607 -42.6626 -42.5292 -42.4576  -7.8982  -6.9087  -6.0462  -5.3404
    -4.7490  -4.1199  -3.8257  -3.2855  -2.9165  -2.7529  -2.1823  -1.7442
    -1.7262  -1.5748  -0.7340  -0.0920   0.2929   2.3502   3.6121   4.3146
     4.3592

          k =-0.4635 0.0000-0.3330 ( 10192 PWs)   bands (ev):

   -75.4607 -42.6626 -42.5292 -42.4576  -7.8434  -6.9192  -6.1168  -5.5001
    -4.6614  -4.3962  -3.8183  -2.9471  -2.7355  -2.2971  -2.1558  -1.7766
    -1.7656  -1.6062  -1.0558  -0.2275   0.0483   2.1928   3.6430   4.1703
     4.7038

          k =-0.4764-0.4529 0.0196 ( 10136 PWs)   bands (ev):

   -75.4607 -42.6626 -42.5292 -42.4576  -7.2666  -6.8290  -6.6999  -5.6996
    -5.1967  -4.2348  -3.5153  -3.1701  -2.8794  -2.8545  -2.4341  -2.4111
    -1.2326  -0.6310  -0.4096  -0.0316   0.3973   2.8730   4.0655   4.5745
     4.7630

          k =-0.4635-0.4529-0.3330 ( 10128 PWs)   bands (ev):

   -75.4607 -42.6626 -42.5292 -42.4576  -7.1856  -6.7855  -6.7623  -5.7392
    -5.2460  -4.5698  -3.6364  -3.5174  -2.6699  -2.1992  -2.0562  -1.8267
    -1.2590  -1.1256  -0.5235  -0.2986   0.3370   2.8096   3.8536   4.3516
     4.6166

     the Fermi energy is     0.0247 ev

!    total energy              =    -321.78039575 Ry
     estimated scf accuracy    <       0.00000008 Ry
     smearing contrib. (-TS)   =       0.00083816 Ry
     internal energy E=F+TS    =    -321.78123392 Ry

     The total energy is F=E-TS. E is the sum of the following terms:
     one-electron contribution =    -136.87905875 Ry
     hartree contribution      =      46.03498732 Ry
     xc contribution           =     -36.71825354 Ry
     ewald contribution        =     -63.03334861 Ry
     one-center paw contrib.   =    -131.18556033 Ry

     convergence has been achieved in   8 iterations

     Forces acting on atoms (cartesian axes, Ry/au):

     atom    1 type  1   force =     0.01274195    0.00000000   -0.01846386
     atom    2 type  1   force =    -0.01496389    0.00000000    0.00804740
     atom    3 type  4   force =     0.02015268    0.00000000   -0.01846472
     atom    4 type  1   force =    -0.01111681    0.00000000   -0.01635764
     atom    5 type  1   force =    -0.00444058    0.00000000    0.02879046
     atom    6 type  3   force =    -0.01280757    0.00000000   -0.01171770
     atom    7 type  2   force =    -0.00644900    0.00532715    0.00525208
     atom    8 type  2   force =     0.00096213    0.00000000    0.01051253
     atom    9 type  2   force =    -0.00606172    0.00000000   -0.01864164
     atom   10 type  2   force =     0.00628611   -0.00059181   -0.00676826
     atom   11 type  2   force =    -0.00154339    0.00000000   -0.00570882
     atom   12 type  2   force =    -0.00179839    0.00000000   -0.00373777
     atom   13 type  2   force =     0.00318556    0.02024980   -0.00285187
     atom   14 type  2   force =    -0.02237066    0.00000000    0.00085845
     atom   15 type  2   force =     0.01375312    0.00000000    0.00465267
     atom   16 type  2   force =     0.00090246    0.00000000    0.00190994
     atom   17 type  2   force =     0.00474215    0.00000000    0.00530492
     atom   18 type  2   force =     0.00333531    0.00000000    0.00330469
     atom   19 type  2   force =     0.00711714   -0.02086248    0.01152304
     atom   20 type  2   force =     0.00318556   -0.02024980   -0.00285187
     atom   21 type  2   force =     0.00628611    0.00059181   -0.00676826
     atom   22 type  2   force =     0.00711714    0.02086248    0.01152304
     atom   23 type  2   force =    -0.00644900   -0.00532715    0.00525208
     atom   24 type  2   force =    -0.00176640    0.00000000    0.01540112

     Total force =     0.084368     Total SCF correction =     0.000218


     Computing stress (Cartesian axis) and pressure

          total   stress  (Ry/bohr**3)                   (kbar)     P=      -10.34
  -0.00018271   0.00000000  -0.00003236          -26.88        0.00       -4.76
   0.00000000  -0.00009680   0.00000000            0.00      -14.24        0.00
  -0.00003236   0.00000000   0.00006862           -4.76        0.00       10.09

     Energy error            =      1.6E-02
     Gradient error          =      2.9E-02
     Cell gradient error     =      1.8E-04


     number of scf cycles    =  15
     number of bfgs steps    =  14

     enthalpy old            =    -321.7646208463 Ry
     enthalpy new            =    -321.7803957526 Ry

     CASE: enthalpy_new < enthalpy_old

     new trust radius        =       0.1445033617 bohr
     new conv_thr            =       0.0000002879 Ry

     new unit-cell volume =   1795.40258 a.u.^3 (   266.05121 Ang^3 )
     density =      0.14979 g/cm^3

CELL_PARAMETERS (angstrom)
   5.632092659   0.000000000   0.207097172
   0.000000000   6.104199887  -0.000000000
   0.320264204  -0.000000000   7.750453148

ATOMIC_POSITIONS (angstrom)
Al            1.5516217462        0.0000000000        7.2148686853
Al            4.5224480394        0.0000000000        0.9133360639
Mg            4.0114668596        3.0520999434        5.1199583815
Al            0.0597739293        3.0520999434        0.1060956189
Al            1.7126026562        3.0520999434        2.9473281145
Li            2.6471480641        0.0000000000        3.7679333216
H             4.6234351765        4.3120392508        0.8347066892
H             0.5658971737        0.0000000000        1.0644951220
H             5.0144821933        3.0520999434        6.6277200903
H             1.4163092028        4.3191258355        7.2282623585
H             4.0240103864        0.0000000000        2.4943966107
H             3.5112630053        3.0520999434        2.9334976507
H             4.5581854938        5.7265885875        4.9956274110
H             2.2937275269        3.0520999434        4.8116732858
H             0.9676743992        3.0520999434        1.4574512489
H             2.8809224957        0.0000000000        0.1125696072
H             5.4765515958        0.0000000000        7.0219768116
H             2.0339651152        0.0000000000        5.5932739043
H             1.6047312501        4.7359114368        2.9135471978
H             4.5581854938        0.3776112993        4.9956274110
H             1.4163092028        1.7850730165        7.2282623585
H             1.6047312501        1.3682884499        2.9135471978
H             4.6234351765        1.7921606359        0.8347066892
H            -0.2029624757        3.0520999434        3.4021864362



     Writing output data file ./tmp/LiMgAl2H92.save/
     NEW-OLD atomic charge density approx. for the potential
     extrapolated charge   41.26660, renormalised to   41.00000

     total cpu time spent up to now is     2388.5 secs

     Self-consistent Calculation

     iteration #  1     ecut=    50.00 Ry     beta= 0.70
     Davidson diagonalization with overlap
     ethr =  1.00E-06,  avg # of iterations = 10.6

     total cpu time spent up to now is     2402.9 secs

     total energy              =    -321.78919941 Ry
     estimated scf accuracy    <       0.00499831 Ry

     iteration #  2     ecut=    50.00 Ry     beta= 0.70
     Davidson diagonalization with overlap
     ethr =  1.22E-05,  avg # of iterations =  2.9

     total cpu time spent up to now is     2410.8 secs

     total energy              =    -321.79275530 Ry
     estimated scf accuracy    <       0.00748965 Ry

     iteration #  3     ecut=    50.00 Ry     beta= 0.70
     Davidson diagonalization with overlap
     ethr =  1.22E-05,  avg # of iterations =  2.0

     total cpu time spent up to now is     2417.8 secs

     total energy              =    -321.79364919 Ry
     estimated scf accuracy    <       0.00191129 Ry

     iteration #  4     ecut=    50.00 Ry     beta= 0.70
     Davidson diagonalization with overlap
     ethr =  4.66E-06,  avg # of iterations =  1.8

     total cpu time spent up to now is     2424.4 secs

     total energy              =    -321.79394355 Ry
     estimated scf accuracy    <       0.00041889 Ry

     iteration #  5     ecut=    50.00 Ry     beta= 0.70
     Davidson diagonalization with overlap
     ethr =  1.02E-06,  avg # of iterations =  1.1

     total cpu time spent up to now is     2430.9 secs

     total energy              =    -321.79399661 Ry
     estimated scf accuracy    <       0.00001432 Ry

     iteration #  6     ecut=    50.00 Ry     beta= 0.70
     Davidson diagonalization with overlap
     ethr =  3.49E-08,  avg # of iterations =  3.9

     total cpu time spent up to now is     2438.9 secs

     total energy              =    -321.79400311 Ry
     estimated scf accuracy    <       0.00000273 Ry

     iteration #  7     ecut=    50.00 Ry     beta= 0.70
     Davidson diagonalization with overlap
     ethr =  6.67E-09,  avg # of iterations =  2.0

     total cpu time spent up to now is     2445.8 secs

     End of self-consistent calculation

          k = 0.0000 0.0000 0.0000 ( 10169 PWs)   bands (ev):

   -75.4130 -42.6154 -42.4799 -42.4111  -8.1988  -6.7580  -6.3714  -4.8282
    -4.4570  -4.0641  -3.8987  -3.2084  -2.4664  -2.3390  -2.1892  -1.8491
    -1.7157  -1.5034  -1.2795  -1.1511  -0.4871   2.4425   3.1933   3.6134
     4.1126

          k = 0.0129 0.0000-0.3512 ( 10212 PWs)   bands (ev):

   -75.4130 -42.6154 -42.4799 -42.4111  -8.0996  -7.0862  -6.1977  -5.0723
    -4.2553  -3.8789  -3.5646  -3.3071  -2.5518  -2.4005  -2.2382  -2.1062
    -1.6950  -1.4805  -1.2157  -1.1247  -0.5115   2.5219   2.8822   3.6921
     4.5196

          k = 0.0000-0.4453 0.0000 ( 10254 PWs)   bands (ev):

   -75.4130 -42.6154 -42.4799 -42.4111  -7.6636  -7.0992  -6.6221  -5.6950
    -4.1293  -4.0991  -3.3559  -3.0568  -3.0201  -2.4390  -2.0870  -1.6907
    -1.6318  -1.2835  -1.1618  -0.9419  -0.4697   2.2236   3.6880   4.1463
     4.8362

          k = 0.0129-0.4453-0.3512 ( 10172 PWs)   bands (ev):

   -75.4130 -42.6154 -42.4799 -42.4111  -7.5952  -6.9413  -6.7596  -6.1251
    -4.0894  -3.6372  -3.2696  -2.9116  -2.7429  -2.5346  -1.9989  -1.9010
    -1.8753  -1.4847  -1.4033  -0.8642  -0.3978   2.2870   4.0231   4.2214
     4.5000

          k =-0.4833 0.0000 0.0200 ( 10180 PWs)   bands (ev):

   -75.4130 -42.6154 -42.4799 -42.4111  -7.8293  -6.8701  -6.1342  -5.4039
    -4.8496  -4.1373  -3.7454  -3.3758  -2.9509  -2.8589  -2.3754  -1.8055
    -1.7158  -1.6412  -0.7596  -0.1709   0.2203   2.4169   3.6342   4.3167
     4.3946

          k =-0.4704 0.0000-0.3313 ( 10192 PWs)   bands (ev):

   -75.4130 -42.6154 -42.4799 -42.4111  -7.7723  -6.8744  -6.2140  -5.5446
    -4.7672  -4.4388  -3.7367  -3.0665  -2.8335  -2.3676  -2.3653  -1.7534
    -1.7508  -1.6331  -1.1145  -0.2989  -0.0311   2.2505   3.6095   4.2415
     4.7231

          k =-0.4833-0.4453 0.0200 ( 10136 PWs)   bands (ev):

   -75.4130 -42.6154 -42.4799 -42.4111  -7.2636  -6.7713  -6.6776  -5.7799
    -5.2821  -4.2620  -3.4946  -3.2268  -2.9769  -2.8594  -2.5071  -2.4693
    -1.3277  -0.7257  -0.3812  -0.1223   0.2593   2.9539   3.9941   4.5918
     4.5960

          k =-0.4704-0.4453-0.3313 ( 10128 PWs)   bands (ev):

   -75.4130 -42.6154 -42.4799 -42.4111  -7.1858  -6.7602  -6.6950  -5.8320
    -5.3328  -4.5967  -3.5966  -3.5462  -2.8002  -2.2648  -2.0647  -1.9276
    -1.3375  -1.2174  -0.5673  -0.2974   0.1955   2.8786   3.7924   4.2155
     4.5323

     the Fermi energy is    -0.0605 ev

!    total energy              =    -321.79400366 Ry
     estimated scf accuracy    <       0.00000022 Ry
     smearing contrib. (-TS)   =       0.00096390 Ry
     internal energy E=F+TS    =    -321.79496756 Ry

     The total energy is F=E-TS. E is the sum of the following terms:
     one-electron contribution =    -137.44625251 Ry
     hartree contribution      =      46.28450858 Ry
     xc contribution           =     -36.72903031 Ry
     ewald contribution        =     -62.72373900 Ry
     one-center paw contrib.   =    -131.18045432 Ry

     convergence has been achieved in   7 iterations

     Forces acting on atoms (cartesian axes, Ry/au):

     atom    1 type  1   force =     0.01075145    0.00000000   -0.01311456
     atom    2 type  1   force =    -0.01721100    0.00000000    0.00405434
     atom    3 type  4   force =     0.02494476    0.00000000   -0.01286067
     atom    4 type  1   force =    -0.00824452    0.00000000   -0.01763754
     atom    5 type  1   force =    -0.00770253    0.00000000    0.03222348
     atom    6 type  3   force =    -0.01155837    0.00000000   -0.00970920
     atom    7 type  2   force =    -0.00399425    0.00519362    0.00324773
     atom    8 type  2   force =     0.01252620    0.00000000    0.00740688
     atom    9 type  2   force =    -0.00492431    0.00000000   -0.01550441
     atom   10 type  2   force =     0.00315156    0.00053846   -0.00261481
     atom   11 type  2   force =    -0.00392279    0.00000000   -0.00375308
     atom   12 type  2   force =     0.00571338    0.00000000   -0.00273579
     atom   13 type  2   force =     0.00348403    0.01072590   -0.00258858
     atom   14 type  2   force =    -0.02616485    0.00000000   -0.00077605
     atom   15 type  2   force =     0.01011456    0.00000000   -0.00083699
     atom   16 type  2   force =     0.00195996    0.00000000    0.00260713
     atom   17 type  2   force =    -0.00320021    0.00000000    0.00317290
     atom   18 type  2   force =     0.00346147    0.00000000    0.00166774
     atom   19 type  2   force =     0.00450131   -0.01102045    0.00923509
     atom   20 type  2   force =     0.00348403   -0.01072590   -0.00258858
     atom   21 type  2   force =     0.00315156   -0.00053846   -0.00261481
     atom   22 type  2   force =     0.00450131    0.01102045    0.00923509
     atom   23 type  2   force =    -0.00399425   -0.00519362    0.00324773
     atom   24 type  2   force =    -0.00082849    0.00000000    0.01123699

     Total force =     0.073907     Total SCF correction =     0.000638


     Computing stress (Cartesian axis) and pressure

          total   stress  (Ry/bohr**3)                   (kbar)     P=       -9.75
  -0.00011783   0.00000000  -0.00001676          -17.33        0.00       -2.47
   0.00000000  -0.00012949   0.00000000            0.00      -19.05        0.00
  -0.00001676   0.00000000   0.00004855           -2.47        0.00        7.14

     Energy error            =      1.4E-02
     Gradient error          =      3.2E-02
     Cell gradient error     =      1.3E-04


     number of scf cycles    =  16
     number of bfgs steps    =  15

     enthalpy old            =    -321.7803957526 Ry
     enthalpy new            =    -321.7940036561 Ry

     CASE: enthalpy_new < enthalpy_old

     new trust radius        =       0.1687018891 bohr
     new conv_thr            =       0.0000003222 Ry

     new unit-cell volume =   1785.35157 a.u.^3 (   264.56181 Ang^3 )
     density =      0.15064 g/cm^3

CELL_PARAMETERS (angstrom)
   5.520207870   0.000000000   0.202555623
   0.000000000   6.165257084  -0.000000000
   0.319690997  -0.000000000   7.785300812

ATOMIC_POSITIONS (angstrom)
Al            1.5415311562        0.0000000000        7.2195694901
Al            4.4146407654        0.0000000000        0.9275541944
Mg            3.9433870346        3.0826285419        5.1035975916
Al            0.0424038279        3.0826285419        0.0871886066
Al            1.6775290859        3.0826285419        2.9899117250
Li            2.5649893308        0.0000000000        3.7526898873
H             4.5106165249        4.3650354156        0.8430442679
H             0.5480609543        0.0000000000        1.0791171100
H             4.9065255086        3.0826285419        6.6262243555
H             1.4119695085        4.3624547262        7.2378666524
H             3.9442460468        0.0000000000        2.4971024949
H             3.4207122772        3.0826285419        2.9294044054
H             4.4818649461        5.7851718174        5.0005029470
H             2.2077355045        3.0826285419        4.8304658838
H             0.9691887332        3.0826285419        1.4626406426
H             2.8267012728        0.0000000000        0.1137964259
H             5.3902098989        0.0000000000        7.0655301812
H             2.0174236878        0.0000000000        5.6192133737
H             1.6033542586        4.7092942559        2.9670044724
H             4.4818649461        0.3800852664        5.0005029470
H             1.4119695085        1.8028013125        7.2378666524
H             1.6033542586        1.4559628279        2.9670044725
H             4.5106165249        1.8002216682        0.8430442679
H            -0.1920183526        3.0826285419        3.4655724834



     Writing output data file ./tmp/LiMgAl2H92.save/
     NEW-OLD atomic charge density approx. for the potential
     extrapolated charge   40.76927, renormalised to   41.00000

     total cpu time spent up to now is     2528.1 secs

     Self-consistent Calculation

     iteration #  1     ecut=    50.00 Ry     beta= 0.70
     Davidson diagonalization with overlap
     ethr =  1.00E-06,  avg # of iterations = 11.9

     total cpu time spent up to now is     2543.8 secs

     total energy              =    -321.79968583 Ry
     estimated scf accuracy    <       0.01404676 Ry

     iteration #  2     ecut=    50.00 Ry     beta= 0.70
     Davidson diagonalization with overlap
     ethr =  3.43E-05,  avg # of iterations =  4.5

     total cpu time spent up to now is     2551.9 secs

     total energy              =    -321.80421510 Ry
     estimated scf accuracy    <       0.03760653 Ry

     iteration #  3     ecut=    50.00 Ry     beta= 0.70
     Davidson diagonalization with overlap
     ethr =  3.43E-05,  avg # of iterations =  2.4

     total cpu time spent up to now is     2559.1 secs

     total energy              =    -321.80674960 Ry
     estimated scf accuracy    <       0.00145841 Ry

     iteration #  4     ecut=    50.00 Ry     beta= 0.70
     Davidson diagonalization with overlap
     ethr =  3.56E-06,  avg # of iterations =  5.8

     total cpu time spent up to now is     2567.2 secs

     total energy              =    -321.80697529 Ry
     estimated scf accuracy    <       0.00018945 Ry

     iteration #  5     ecut=    50.00 Ry     beta= 0.70
     Davidson diagonalization with overlap
     ethr =  4.62E-07,  avg # of iterations =  2.1

     total cpu time spent up to now is     2574.1 secs

     total energy              =    -321.80700824 Ry
     estimated scf accuracy    <       0.00005270 Ry

     iteration #  6     ecut=    50.00 Ry     beta= 0.70
     Davidson diagonalization with overlap
     ethr =  1.29E-07,  avg # of iterations =  2.2

     total cpu time spent up to now is     2580.8 secs

     total energy              =    -321.80701941 Ry
     estimated scf accuracy    <       0.00000578 Ry

     iteration #  7     ecut=    50.00 Ry     beta= 0.70
     Davidson diagonalization with overlap
     ethr =  1.41E-08,  avg # of iterations =  3.0

     total cpu time spent up to now is     2588.2 secs

     End of self-consistent calculation

          k = 0.0000 0.0000 0.0000 ( 10169 PWs)   bands (ev):

   -75.3271 -42.5306 -42.3898 -42.3285  -8.1524  -6.6829  -6.4463  -4.8419
    -4.4424  -3.9144  -3.8325  -3.2833  -2.5090  -2.4495  -2.2326  -1.8264
    -1.7464  -1.4375  -1.2900  -1.1145  -0.4417   2.5080   3.3828   3.6471
     4.1946

          k = 0.0128 0.0000-0.3497 ( 10212 PWs)   bands (ev):

   -75.3271 -42.5306 -42.3898 -42.3285  -8.0470  -7.0691  -6.2210  -5.0742
    -4.1839  -3.8078  -3.4728  -3.3619  -2.5731  -2.5239  -2.2218  -2.1250
    -1.7739  -1.4139  -1.2691  -1.1048  -0.4389   2.5871   3.0216   3.7386
     4.6211

          k = 0.0000-0.4409 0.0000 ( 10254 PWs)   bands (ev):

   -75.3271 -42.5306 -42.3898 -42.3285  -7.6649  -7.0585  -6.5497  -5.7352
    -4.1661  -3.9900  -3.3946  -3.0396  -2.9386  -2.4761  -2.0182  -1.7213
    -1.6544  -1.3143  -1.2148  -0.9051  -0.4567   2.2917   3.7218   4.1966
     4.9085

          k = 0.0128-0.4409-0.3497 ( 10172 PWs)   bands (ev):

   -75.3271 -42.5306 -42.3898 -42.3285  -7.5999  -6.8800  -6.6923  -6.1781
    -4.1010  -3.4626  -3.3434  -2.8443  -2.6930  -2.4917  -1.9850  -1.9754
    -1.9621  -1.5541  -1.4106  -0.8547  -0.3795   2.3229   4.0734   4.2428
     4.5674

          k =-0.4931 0.0000 0.0202 ( 10180 PWs)   bands (ev):

   -75.3271 -42.5306 -42.3898 -42.3285  -7.7168  -6.7925  -6.1805  -5.4620
    -4.8624  -4.1082  -3.6476  -3.4489  -2.9574  -2.8818  -2.5393  -1.8433
    -1.6919  -1.6481  -0.6891  -0.1587   0.2166   2.4634   3.7335   4.4289
     4.5212

          k =-0.4803 0.0000-0.3294 ( 10192 PWs)   bands (ev):

   -75.3271 -42.5306 -42.3898 -42.3285  -7.6560  -6.7856  -6.2639  -5.6273
    -4.7325  -4.4476  -3.6377  -3.1426  -2.8906  -2.5362  -2.3961  -1.7325
    -1.7203  -1.6185  -1.0628  -0.2974  -0.0249   2.2949   3.6552   4.4035
     4.8367

          k =-0.4931-0.4409 0.0202 ( 10136 PWs)   bands (ev):

   -75.3271 -42.5306 -42.3898 -42.3285  -7.1979  -6.6555  -6.6025  -5.8345
    -5.3973  -4.2397  -3.4600  -3.2463  -3.0408  -2.8627  -2.5479  -2.4896
    -1.3227  -0.6961  -0.3422  -0.1229   0.2010   3.0454   4.0046   4.5486
     4.6890

          k =-0.4803-0.4409-0.3294 ( 10128 PWs)   bands (ev):

   -75.3271 -42.5306 -42.3898 -42.3285  -7.1210  -6.6816  -6.5606  -5.9061
    -5.4530  -4.5837  -3.5487  -3.5395  -2.8955  -2.3127  -2.0442  -1.9790
    -1.3305  -1.1948  -0.5841  -0.2291   0.1410   2.9605   3.8001   4.1950
     4.5195

     the Fermi energy is    -0.0564 ev

!    total energy              =    -321.80702097 Ry
     estimated scf accuracy    <       0.00000029 Ry
     smearing contrib. (-TS)   =       0.00050909 Ry
     internal energy E=F+TS    =    -321.80753006 Ry

     The total energy is F=E-TS. E is the sum of the following terms:
     one-electron contribution =    -137.66348638 Ry
     hartree contribution      =      46.45975630 Ry
     xc contribution           =     -36.78482328 Ry
     ewald contribution        =     -62.63566479 Ry
     one-center paw contrib.   =    -131.18331191 Ry

     convergence has been achieved in   7 iterations

     Forces acting on atoms (cartesian axes, Ry/au):

     atom    1 type  1   force =     0.00413751    0.00000000   -0.00179258
     atom    2 type  1   force =    -0.00990049    0.00000000   -0.00136178
     atom    3 type  4   force =     0.01667216    0.00000000   -0.01156488
     atom    4 type  1   force =    -0.00070038    0.00000000   -0.00779812
     atom    5 type  1   force =    -0.01516131    0.00000000    0.02694451
     atom    6 type  3   force =    -0.01069005    0.00000000   -0.00805237
     atom    7 type  2   force =    -0.00266395    0.00217757    0.00052171
     atom    8 type  2   force =     0.02069863    0.00000000    0.00266774
     atom    9 type  2   force =    -0.00289894    0.00000000   -0.00977637
     atom   10 type  2   force =     0.00126472    0.00057328   -0.00030758
     atom   11 type  2   force =    -0.00790958    0.00000000    0.00219275
     atom   12 type  2   force =     0.01663068    0.00000000   -0.00030319
     atom   13 type  2   force =     0.00403110    0.01736504   -0.00248674
     atom   14 type  2   force =    -0.01988469    0.00000000    0.00123058
     atom   15 type  2   force =     0.00501049    0.00000000   -0.00592385
     atom   16 type  2   force =     0.00215301    0.00000000    0.00230995
     atom   17 type  2   force =    -0.01232992    0.00000000    0.00015724
     atom   18 type  2   force =     0.00512878    0.00000000   -0.00431808
     atom   19 type  2   force =     0.00164658    0.01083834    0.00710532
     atom   20 type  2   force =     0.00403110   -0.01736504   -0.00248674
     atom   21 type  2   force =     0.00126472   -0.00057328   -0.00030758
     atom   22 type  2   force =     0.00164658   -0.01083834    0.00710532
     atom   23 type  2   force =    -0.00266395   -0.00217757    0.00052171
     atom   24 type  2   force =     0.00048720    0.00000000    0.00572304

     Total force =     0.065775     Total SCF correction =     0.000289


     Computing stress (Cartesian axis) and pressure

          total   stress  (Ry/bohr**3)                   (kbar)     P=       -4.10
  -0.00003599   0.00000000  -0.00001136           -5.29        0.00       -1.67
   0.00000000  -0.00009261   0.00000000            0.00      -13.62        0.00
  -0.00001136   0.00000000   0.00004489           -1.67        0.00        6.60

     Energy error            =      1.3E-02
     Gradient error          =      2.7E-02
     Cell gradient error     =      9.3E-05


     number of scf cycles    =  17
     number of bfgs steps    =  16

     enthalpy old            =    -321.7940036561 Ry
     enthalpy new            =    -321.8070209701 Ry

     CASE: enthalpy_new < enthalpy_old

     new trust radius        =       0.0703466199 bohr
     new conv_thr            =       0.0000002694 Ry

     new unit-cell volume =   1768.98591 a.u.^3 (   262.13667 Ang^3 )
     density =      0.15203 g/cm^3

CELL_PARAMETERS (angstrom)
   5.474399475   0.000000000   0.201060089
   0.000000000   6.149679621  -0.000000000
   0.320307160  -0.000000000   7.798201427

ATOMIC_POSITIONS (angstrom)
Al            1.5409970144        0.0000000000        7.2178638945
Al            4.3638878837        0.0000000000        0.9321681314
Mg            3.9289317993        3.0748398105        5.0961912103
Al            0.0341230889        3.0748398105        0.0696401737
Al            1.6557170676        3.0748398105        3.0254472913
Li            2.5255964502        0.0000000000        3.7419684232
H             4.4665602162        4.3616280836        0.8456948343
H             0.5573614673        0.0000000000        1.0873122309
H             4.8621882663        3.0748398105        6.6210703291
H             1.4076210920        4.3532471752        7.2440482546
H             3.9068759693        0.0000000000        2.4970597968
H             3.3988510633        3.0748398105        2.9300592256
H             4.4544279447        5.7747261869        5.0028998542
H             2.1605244334        3.0748398105        4.8344580916
H             0.9719064664        3.0748398105        1.4607675193
H             2.8064384550        0.0000000000        0.1164720164
H             5.3452510056        0.0000000000        7.0816645415
H             2.0126947378        0.0000000000        5.6301467852
H             1.6006936952        4.6785229759        2.9880008724
H             4.4544279447        0.3749534342        5.0028998542
H             1.4076210920        1.7964314033        7.2440482546
H             1.6006936952        1.4711566452        2.9880008724
H             4.4665602162        1.7880515375        0.8456948343
H            -0.1881883216        3.0748398105        3.4882941091



     Writing output data file ./tmp/LiMgAl2H92.save/
     NEW-OLD atomic charge density approx. for the potential
     extrapolated charge   40.62083, renormalised to   41.00000

     total cpu time spent up to now is     2670.4 secs

     Self-consistent Calculation

     iteration #  1     ecut=    50.00 Ry     beta= 0.70
     Davidson diagonalization with overlap
     ethr =  1.00E-06,  avg # of iterations = 10.1

     total cpu time spent up to now is     2684.4 secs

     total energy              =    -321.80739137 Ry
     estimated scf accuracy    <       0.00396212 Ry

     iteration #  2     ecut=    50.00 Ry     beta= 0.70
     Davidson diagonalization with overlap
     ethr =  9.66E-06,  avg # of iterations =  5.6

     total cpu time spent up to now is     2693.0 secs

     total energy              =    -321.81133311 Ry
     estimated scf accuracy    <       0.02208422 Ry

     iteration #  3     ecut=    50.00 Ry     beta= 0.70
     Davidson diagonalization with overlap
     ethr =  9.66E-06,  avg # of iterations =  2.9

     total cpu time spent up to now is     2700.3 secs

     total energy              =    -321.81310966 Ry
     estimated scf accuracy    <       0.00104421 Ry

     iteration #  4     ecut=    50.00 Ry     beta= 0.70
     Davidson diagonalization with overlap
     ethr =  2.55E-06,  avg # of iterations =  3.1

     total cpu time spent up to now is     2707.4 secs

     total energy              =    -321.81304432 Ry
     estimated scf accuracy    <       0.00058207 Ry

     iteration #  5     ecut=    50.00 Ry     beta= 0.70
     Davidson diagonalization with overlap
     ethr =  1.42E-06,  avg # of iterations =  1.5

     total cpu time spent up to now is     2714.0 secs

     total energy              =    -321.81307678 Ry
     estimated scf accuracy    <       0.00006871 Ry

     iteration #  6     ecut=    50.00 Ry     beta= 0.70
     Davidson diagonalization with overlap
     ethr =  1.68E-07,  avg # of iterations =  3.9

     total cpu time spent up to now is     2721.5 secs

     total energy              =    -321.81309308 Ry
     estimated scf accuracy    <       0.00000573 Ry

     iteration #  7     ecut=    50.00 Ry     beta= 0.70
     Davidson diagonalization with overlap
     ethr =  1.40E-08,  avg # of iterations =  3.5

     total cpu time spent up to now is     2729.1 secs

     total energy              =    -321.81309484 Ry
     estimated scf accuracy    <       0.00000072 Ry

     iteration #  8     ecut=    50.00 Ry     beta= 0.70
     Davidson diagonalization with overlap
     ethr =  1.75E-09,  avg # of iterations =  2.8

     total cpu time spent up to now is     2736.2 secs

     End of self-consistent calculation

          k = 0.0000 0.0000 0.0000 ( 10169 PWs)   bands (ev):

   -75.3025 -42.5063 -42.3624 -42.3066  -8.1208  -6.6901  -6.4316  -4.8073
    -4.4240  -3.8108  -3.8023  -3.2421  -2.5334  -2.4237  -2.2107  -1.7982
    -1.7477  -1.4095  -1.2714  -1.0482  -0.3552   2.5784   3.4742   3.7619
     4.2779

          k = 0.0128 0.0000-0.3491 ( 10212 PWs)   bands (ev):

   -75.3025 -42.5063 -42.3624 -42.3066  -8.0095  -7.0775  -6.2192  -5.0138
    -4.1573  -3.7763  -3.3783  -3.3251  -2.5988  -2.5023  -2.2214  -2.0891
    -1.7614  -1.3845  -1.2416  -1.0610  -0.3541   2.6559   3.1171   3.8198
     4.6760

          k = 0.0000-0.4420 0.0000 ( 10254 PWs)   bands (ev):

   -75.3025 -42.5063 -42.3624 -42.3066  -7.6386  -7.0167  -6.5494  -5.7424
    -4.1543  -3.9013  -3.3651  -3.0335  -2.8951  -2.4701  -1.9399  -1.7043
    -1.6678  -1.2552  -1.2069  -0.8089  -0.4191   2.3575   3.7931   4.2509
     4.9995

          k = 0.0128-0.4420-0.3491 ( 10172 PWs)   bands (ev):

   -75.3025 -42.5063 -42.3624 -42.3066  -7.5714  -6.8222  -6.6940  -6.1962
    -4.0905  -3.3356  -3.3171  -2.8182  -2.6869  -2.4541  -2.0136  -1.9712
    -1.9052  -1.5399  -1.3410  -0.7815  -0.3494   2.3728   4.1369   4.3240
     4.6289

          k =-0.4973 0.0000 0.0204 ( 10180 PWs)   bands (ev):

   -75.3025 -42.5063 -42.3624 -42.3066  -7.6527  -6.7874  -6.1706  -5.4746
    -4.7982  -4.0799  -3.6073  -3.4635  -2.9296  -2.8343  -2.5597  -1.8344
    -1.6771  -1.6124  -0.6099  -0.0908   0.2631   2.5225   3.8171   4.5015
     4.6069

          k =-0.4844 0.0000-0.3287 ( 10192 PWs)   bands (ev):

   -75.3025 -42.5063 -42.3624 -42.3066  -7.5870  -6.7883  -6.2396  -5.6596
    -4.6281  -4.4484  -3.5972  -3.1252  -2.8870  -2.5575  -2.3758  -1.7223
    -1.7044  -1.5910  -0.9672  -0.2366   0.0287   2.3527   3.7118   4.4893
     4.9227

          k =-0.4973-0.4420 0.0204 ( 10136 PWs)   bands (ev):

   -75.3025 -42.5063 -42.3624 -42.3066  -7.1413  -6.5896  -6.5808  -5.8275
    -5.4371  -4.2331  -3.4288  -3.2096  -3.0383  -2.8624  -2.5319  -2.4777
    -1.2466  -0.6148  -0.3129  -0.0626   0.2382   3.1147   4.0451   4.6177
     4.7722

          k =-0.4844-0.4420-0.3287 ( 10128 PWs)   bands (ev):

   -75.3025 -42.5063 -42.3624 -42.3066  -7.0557  -6.6768  -6.4719  -5.9140
    -5.4910  -4.5734  -3.5270  -3.5129  -2.8893  -2.3278  -2.0196  -1.9585
    -1.2619  -1.1143  -0.5530  -0.1655   0.1811   3.0271   3.8383   4.2731
     4.5529

     the Fermi energy is     0.0001 ev

!    total energy              =    -321.81309494 Ry
     estimated scf accuracy    <       0.00000006 Ry
     smearing contrib. (-TS)   =       0.00028972 Ry
     internal energy E=F+TS    =    -321.81338466 Ry

     The total energy is F=E-TS. E is the sum of the following terms:
     one-electron contribution =    -137.39952960 Ry
     hartree contribution      =      46.40038548 Ry
     xc contribution           =     -36.82920216 Ry
     ewald contribution        =     -62.79708666 Ry
     one-center paw contrib.   =    -131.18795173 Ry

     convergence has been achieved in   8 iterations

     Forces acting on atoms (cartesian axes, Ry/au):

     atom    1 type  1   force =    -0.00159498    0.00000000    0.00510552
     atom    2 type  1   force =    -0.00012096    0.00000000   -0.00235147
     atom    3 type  4   force =     0.00546590    0.00000000   -0.01334004
     atom    4 type  1   force =     0.00344330    0.00000000    0.00172439
     atom    5 type  1   force =    -0.01543718    0.00000000    0.01894979
     atom    6 type  3   force =    -0.00989182    0.00000000   -0.00733008
     atom    7 type  2   force =    -0.00267011   -0.00095457   -0.00080689
     atom    8 type  2   force =     0.01763716    0.00000000   -0.00061638
     atom    9 type  2   force =    -0.00180783    0.00000000   -0.00651052
     atom   10 type  2   force =     0.00150822   -0.00029821   -0.00102907
     atom   11 type  2   force =    -0.00906670    0.00000000    0.00524251
     atom   12 type  2   force =     0.01694513    0.00000000    0.00177609
     atom   13 type  2   force =     0.00419043    0.00442786   -0.00259700
     atom   14 type  2   force =    -0.01145359    0.00000000    0.00438548
     atom   15 type  2   force =     0.00330484    0.00000000   -0.00540911
     atom   16 type  2   force =     0.00058605    0.00000000    0.00101225
     atom   17 type  2   force =    -0.01276911    0.00000000   -0.00058777
     atom   18 type  2   force =     0.00633727    0.00000000   -0.00822573
     atom   19 type  2   force =     0.00069602    0.02074611    0.00597474
     atom   20 type  2   force =     0.00419043   -0.00442786   -0.00259700
     atom   21 type  2   force =     0.00150822    0.00029821   -0.00102907
     atom   22 type  2   force =     0.00069602   -0.02074611    0.00597474
     atom   23 type  2   force =    -0.00267011    0.00095457   -0.00080689
     atom   24 type  2   force =     0.00097341    0.00000000    0.00309149

     Total force =     0.057287     Total SCF correction =     0.000373


     Computing stress (Cartesian axis) and pressure

          total   stress  (Ry/bohr**3)                   (kbar)     P=       -0.47
  -0.00002271   0.00000000  -0.00001792           -3.34        0.00       -2.64
   0.00000000  -0.00003220   0.00000000            0.00       -4.74        0.00
  -0.00001792   0.00000000   0.00004530           -2.64        0.00        6.66

     Energy error            =      6.1E-03
     Gradient error          =      2.1E-02
     Cell gradient error     =      4.5E-05


     number of scf cycles    =  18
     number of bfgs steps    =  17

     enthalpy old            =    -321.8070209701 Ry
     enthalpy new            =    -321.8130949436 Ry

     CASE: enthalpy_new < enthalpy_old

     new trust radius        =       0.0958745042 bohr
     new conv_thr            =       0.0000002075 Ry

     new unit-cell volume =   1745.27744 a.u.^3 (   258.62343 Ang^3 )
     density =      0.15410 g/cm^3

CELL_PARAMETERS (angstrom)
   5.434088786   0.000000000   0.196933694
   0.000000000   6.100806398  -0.000000000
   0.317107539  -0.000000000   7.812557182

ATOMIC_POSITIONS (angstrom)
Al            1.5359221815        0.0000000000        7.2200522534
Al            4.3178874106        0.0000000000        0.9321077501
Mg            3.9226432921        3.0504031991        5.0836020871
Al            0.0287658837        3.0504031991        0.0490258744
Al            1.6241478578        3.0504031991        3.0768248887
Li            2.4846708443        0.0000000000        3.7296213620
H             4.4279831819        4.3351571733        0.8439823220
H             0.5841033663        0.0000000000        1.0941556119
H             4.8196563499        3.0504031991        6.6128122159
H             1.3979268492        4.3214661992        7.2544733103
H             3.8660138739        0.0000000000        2.4967610233
H             3.3950889715        3.0504031991        2.9325364849
H             4.4295630697        5.7248872432        5.0026253402
H             2.1057785125        3.0504031991        4.8396022509
H             0.9758528189        3.0504031991        1.4554274272
H             2.7890754844        0.0000000000        0.1186588104
H             5.2875053597        0.0000000000        7.0941915180
H             2.0074150714        0.0000000000        5.6381049558
H             1.5959064700        4.6470536859        3.0095787050
H             4.4295630697        0.3759191550        5.0026253402
H             1.3979268492        1.7793391648        7.2544733103
H             1.5959064700        1.4537527123        3.0095787050
H             4.4279831819        1.7656492248        0.8439823220
H            -0.1841370158        3.0504031991        3.5095904942



     Writing output data file ./tmp/LiMgAl2H92.save/
     NEW-OLD atomic charge density approx. for the potential
     extrapolated charge   40.44324, renormalised to   41.00000

     total cpu time spent up to now is     2818.1 secs

     Self-consistent Calculation

     iteration #  1     ecut=    50.00 Ry     beta= 0.70
     Davidson diagonalization with overlap
     ethr =  1.00E-06,  avg # of iterations = 10.8

     total cpu time spent up to now is     2832.7 secs

     total energy              =    -321.80931894 Ry
     estimated scf accuracy    <       0.00567254 Ry

     iteration #  2     ecut=    50.00 Ry     beta= 0.70
     Davidson diagonalization with overlap
     ethr =  1.38E-05,  avg # of iterations =  5.6

     total cpu time spent up to now is     2841.4 secs

     total energy              =    -321.81725549 Ry
     estimated scf accuracy    <       0.02932851 Ry

     iteration #  3     ecut=    50.00 Ry     beta= 0.70
     Davidson diagonalization with overlap
     ethr =  1.38E-05,  avg # of iterations =  2.8

     total cpu time spent up to now is     2848.6 secs

     total energy              =    -321.81930501 Ry
     estimated scf accuracy    <       0.00218308 Ry

     iteration #  4     ecut=    50.00 Ry     beta= 0.70
     Davidson diagonalization with overlap
     ethr =  5.32E-06,  avg # of iterations =  2.0

     total cpu time spent up to now is     2855.6 secs

     total energy              =    -321.81913357 Ry
     estimated scf accuracy    <       0.00154740 Ry

     iteration #  5     ecut=    50.00 Ry     beta= 0.70
     Davidson diagonalization with overlap
     ethr =  3.77E-06,  avg # of iterations =  1.8

     total cpu time spent up to now is     2862.3 secs

     total energy              =    -321.81921770 Ry
     estimated scf accuracy    <       0.00015939 Ry

     iteration #  6     ecut=    50.00 Ry     beta= 0.70
     Davidson diagonalization with overlap
     ethr =  3.89E-07,  avg # of iterations =  5.0

     total cpu time spent up to now is     2870.1 secs

     total energy              =    -321.81925704 Ry
     estimated scf accuracy    <       0.00002216 Ry

     iteration #  7     ecut=    50.00 Ry     beta= 0.70
     Davidson diagonalization with overlap
     ethr =  5.41E-08,  avg # of iterations =  2.1

     total cpu time spent up to now is     2877.0 secs

     total energy              =    -321.81926185 Ry
     estimated scf accuracy    <       0.00000183 Ry

     iteration #  8     ecut=    50.00 Ry     beta= 0.70
     Davidson diagonalization with overlap
     ethr =  4.46E-09,  avg # of iterations =  3.1

     total cpu time spent up to now is     2884.5 secs

     total energy              =    -321.81926220 Ry
     estimated scf accuracy    <       0.00000038 Ry

     iteration #  9     ecut=    50.00 Ry     beta= 0.70
     Davidson diagonalization with overlap
