
     Program PWSCF v.6.7MaX starts on 26Feb2026 at 20:48: 1 

     This program is part of the open-source Quantum ESPRESSO suite
     for quantum simulation of materials; please cite
         "P. Giannozzi et al., J. Phys.:Condens. Matter 21 395502 (2009);
         "P. Giannozzi et al., J. Phys.:Condens. Matter 29 465901 (2017);
          URL http://www.quantum-espresso.org", 
     in publications or presentations arising from this work. More details at
     http://www.quantum-espresso.org/quote

     Parallel version (MPI), running on     2 processors

     MPI processes distributed on     1 nodes
     R & G space division:  proc/nbgrp/npool/nimage =       2
     Waiting for input...
     Reading input from standard input

     Current dimensions of program PWSCF are:
     Max number of different atomic species (ntypx) = 10
     Max number of k-points (npk) =  40000
     Max angular momentum in pseudopotentials (lmaxx) =  3
     file H.UPF: wavefunction(s)  1S renormalized
     file Hf.UPF: wavefunction(s)  5P 4F renormalized
     file Th.UPF: wavefunction(s)  6S 6D 5F renormalized

     Subspace diagonalization in iterative solution of the eigenvalue problem:
     a serial algorithm will be used


     Parallelization info
     --------------------
     sticks:   dense  smooth     PW     G-vecs:    dense   smooth      PW
     Min        1893     945    278               151607    53642    8421
     Max        1894     946    279               151610    53647    8422
     Sum        3787    1891    557               303217   107289   16843



     bravais-lattice index     =            0
     lattice parameter (alat)  =      11.6813  a.u.
     unit-cell volume          =    2244.2712 (a.u.)^3
     number of atoms/cell      =           36
     number of atomic types    =            4
     number of electrons       =       192.00
     number of Kohn-Sham states=          115
     kinetic-energy cutoff     =      50.0000  Ry
     charge density cutoff     =     400.0000  Ry
     scf convergence threshold =      1.0E-06
     mixing beta               =       0.7000
     number of iterations used =            8  plain     mixing
     energy convergence thresh.=      1.0E-04
     force convergence thresh. =      1.0E-03
     press convergence thresh. =      5.0E-01
     Exchange-correlation= SLA  PW   PBE  PBE
                           (   1   4   3   4   0   0   0)
     nstep                     =           50


     celldm(1)=  11.681339  celldm(2)=   0.000000  celldm(3)=   0.000000
     celldm(4)=   0.000000  celldm(5)=   0.000000  celldm(6)=   0.000000

     crystal axes: (cart. coord. in units of alat)
               a(1) = (   0.500640  -0.865656   0.000211 )  
               a(2) = (   0.501669   0.866250  -0.000068 )  
               a(3) = (   0.000231  -0.000261   1.622192 )  

     reciprocal axes: (cart. coord. in units 2 pi/alat)
               b(1) = (  0.998040 -0.577992 -0.000235 )  
               b(2) = (  0.997355  0.576806 -0.000049 )  
               b(3) = ( -0.000088  0.000100  0.616450 )  


     PseudoPot. # 1 for H  read from file:
     /home/marco/ZOS_Cloud_Compute/pseudo/H.UPF
     MD5 check sum: 850d63dcbcc06c5de8b44e0ab9f952da
     Pseudo is Projector augmented-wave, Zval =  1.0
     Generated using "atomic" code by A. Dal Corso  v.5.1.2
     Shape of augmentation charge: PSQ
     Using radial grid of  929 points,  2 beta functions with: 
                l(1) =   0
                l(2) =   0
     Q(r) pseudized with 0 coefficients 


     PseudoPot. # 2 for Hf read from file:
     /home/marco/ZOS_Cloud_Compute/pseudo/Hf.UPF
     MD5 check sum: 054ab3954715fe03e42536d2af1a941a
     Pseudo is Projector augmented-wave + core cor, Zval = 36.0
     Generated using "atomic" code by A. Dal Corso  v.5.1.2
     Shape of augmentation charge: PSQ
     Using radial grid of 1271 points,  8 beta functions with: 
                l(1) =   0
                l(2) =   0
                l(3) =   1
                l(4) =   1
                l(5) =   2
                l(6) =   2
                l(7) =   3
                l(8) =   3
     Q(r) pseudized with 0 coefficients 


     PseudoPot. # 3 for Th read from file:
     /home/marco/ZOS_Cloud_Compute/pseudo/Th.UPF
     MD5 check sum: 47e5e9d98c180214f0f24c8696771f65
     Pseudo is Projector augmented-wave + core cor, Zval = 12.0
     Generated using "atomic" code by A. Dal Corso  v.5.1.2
     Shape of augmentation charge: PSQ
     Using radial grid of 1289 points,  8 beta functions with: 
                l(1) =   0
                l(2) =   0
                l(3) =   1
                l(4) =   1
                l(5) =   2
                l(6) =   2
                l(7) =   3
                l(8) =   3
     Q(r) pseudized with 0 coefficients 


     PseudoPot. # 4 for Ti read from file:
     /home/marco/ZOS_Cloud_Compute/pseudo/Ti.UPF
     MD5 check sum: 8e4df49b7f0d34bbd5052bf3f5ea0213
     Pseudo is Ultrasoft, Zval = 12.0
     Generated by new atomic code, or converted to UPF format
     Using radial grid of  851 points,  6 beta functions with: 
                l(1) =   0
                l(2) =   0
                l(3) =   1
                l(4) =   1
                l(5) =   2
                l(6) =   2
     Q(r) pseudized with  8 coefficients,  rinner =    1.000   1.000   1.000
                                                       1.000   1.000

     atomic species   valence    mass     pseudopotential
        H              1.00     1.00000     H ( 1.00)
        Hf            36.00     1.00000     Hf( 1.00)
        Th            12.00     1.00000     Th( 1.00)
        Ti            12.00     1.00000     Ti( 1.00)

     No symmetry found



   Cartesian axes

     site n.     atom                  positions (alat units)
         1           Hf  tau(   1) = (   0.5014307   0.2888169   0.7631703  )
         2           Th  tau(   2) = (   0.5012105  -0.2886037   1.5512739  )
         3           Th  tau(   3) = (   0.5011075  -0.2884935   0.8729355  )
         4           Th  tau(   4) = (   0.5013268   0.2889342   0.0682712  )
         5           Ti  tau(   5) = (   0.2600751   0.1496121   1.2072175  )
         6           Ti  tau(   6) = (   0.5008774  -0.5621898   0.4145275  )
         7           Ti  tau(   7) = (   0.2634546  -0.1516718   0.4144269  )
         8           Ti  tau(   8) = (   0.7427547   0.1499025   1.2072840  )
         9           Ti  tau(   9) = (   0.5016669   0.5667600   1.2071795  )
        10           Ti  tau(  10) = (   0.7387921  -0.1513890   0.4144884  )
        11           Ti  tau(  11) = (   0.0001215  -0.0001564   0.8245312  )
        12           Ti  tau(  12) = (  -0.0000019   0.0000045   0.0003121  )
        13           H   tau(  13) = (   0.5016300   0.5835716   0.9105016  )
        14           H   tau(  14) = (   0.2455055   0.1412805   0.9105445  )
        15           H   tau(  15) = (   0.7572468   0.1415777   0.9106171  )
        16           H   tau(  16) = (   0.2323943  -0.1337786   0.1171955  )
        17           H   tau(  17) = (   0.7753581  -0.1303970   0.7041746  )
        18           H   tau(  18) = (   0.5008119  -0.5978923   0.1172944  )
        19           H   tau(  19) = (   0.7697857  -0.1334620   0.1172798  )
        20           H   tau(  20) = (   0.5017287   0.5998814   1.5018744  )
        21           H   tau(  21) = (   0.7715807   0.1332813   1.5019767  )
        22           H   tau(  22) = (   0.2269836  -0.1307167   0.7041076  )
        23           H   tau(  23) = (   0.5008965  -0.6043114   0.7042385  )
        24           H   tau(  24) = (   0.2313156   0.1329628   1.5018942  )
        25           H   tau(  25) = (   0.2693109  -0.4220127   0.5866190  )
        26           H   tau(  26) = (   0.5013806   0.0502792   1.3798681  )
        27           H   tau(  27) = (   0.2945983   0.4078214   1.3797817  )
        28           H   tau(  28) = (   0.7326654  -0.4217363   0.5866843  )
        29           H   tau(  29) = (   0.5012265  -0.0215653   0.5865775  )
        30           H   tau(  30) = (   0.7077152   0.4076479   1.0384512  )
        31           H   tau(  31) = (   0.5013293   0.0512683   1.0384764  )
        32           H   tau(  32) = (   0.7085844   0.4080645   1.3798339  )
        33           H   tau(  33) = (   0.2953648   0.4074038   1.0383911  )
        34           H   tau(  34) = (   0.7106234  -0.4090309   0.2429765  )
        35           H   tau(  35) = (   0.2912711  -0.4092793   0.2429193  )
        36           H   tau(  36) = (   0.5011615  -0.0468506   0.2428937  )

     number of k points=     8  Methfessel-Paxton smearing, width (Ry)=  0.0200
                       cart. coord. in units 2pi/alat
        k(    1) = (   0.0000000   0.0000000   0.0000000), wk =   0.2500000
        k(    2) = (   0.0000440  -0.0000498  -0.3082250), wk =   0.2500000
        k(    3) = (  -0.4986776  -0.2884032   0.0000247), wk =   0.2500000
        k(    4) = (  -0.4986336  -0.2884530  -0.3082003), wk =   0.2500000
        k(    5) = (  -0.4990198   0.2889958   0.0001175), wk =   0.2500000
        k(    6) = (  -0.4989757   0.2889460  -0.3081074), wk =   0.2500000
        k(    7) = (  -0.9976974   0.0005926   0.0001422), wk =   0.2500000
        k(    8) = (  -0.9976534   0.0005428  -0.3080828), wk =   0.2500000

     Dense  grid:   303217 G-vectors     FFT dimensions: (  75,  75, 125)

     Smooth grid:   107289 G-vectors     FFT dimensions: (  54,  54,  90)

     Estimated max dynamical RAM per process >       1.68 GB

     Estimated total dynamical RAM >       3.35 GB

     Check: negative core charge=   -0.000002

     Initial potential from superposition of free atoms

     starting charge  183.97457, renormalised to  192.00000
     Starting wfcs are  177 randomized atomic wfcs
     Checking if some PAW data can be deallocated... 

     total cpu time spent up to now is       50.5 secs

     Self-consistent Calculation

     iteration #  1     ecut=    50.00 Ry     beta= 0.70
     Davidson diagonalization with overlap
     ethr =  1.00E-02,  avg # of iterations =  4.0

     total cpu time spent up to now is      100.0 secs

     total energy              =   -5513.08835410 Ry
     estimated scf accuracy    <     413.92697557 Ry

     iteration #  2     ecut=    50.00 Ry     beta= 0.70
     Davidson diagonalization with overlap
     c_bands:  1 eigenvalues not converged
     c_bands:  1 eigenvalues not converged
     c_bands:  1 eigenvalues not converged
     ethr =  1.00E-02,  avg # of iterations = 19.1

     total cpu time spent up to now is      248.0 secs

     total energy              =   -5398.06373579 Ry
     estimated scf accuracy    <    4486.86440259 Ry

     iteration #  3     ecut=    50.00 Ry     beta= 0.70
     Davidson diagonalization with overlap
     ethr =  1.00E-02,  avg # of iterations = 16.2

     total cpu time spent up to now is      369.2 secs

     total energy              =   -5766.58037414 Ry
     estimated scf accuracy    <     972.46535287 Ry

     iteration #  4     ecut=    50.00 Ry     beta= 0.70
     Davidson diagonalization with overlap
     ethr =  1.00E-02,  avg # of iterations = 11.6

     total cpu time spent up to now is      447.8 secs

     total energy              =   -5826.66980102 Ry
     estimated scf accuracy    <     422.71919188 Ry

     iteration #  5     ecut=    50.00 Ry     beta= 0.70
     Davidson diagonalization with overlap
     ethr =  1.00E-02,  avg # of iterations =  8.0

     total cpu time spent up to now is      510.9 secs

     total energy              =   -5839.79836329 Ry
     estimated scf accuracy    <     397.72198446 Ry

     iteration #  6     ecut=    50.00 Ry     beta= 0.70
     Davidson diagonalization with overlap
     ethr =  1.00E-02,  avg # of iterations =  7.4

     total cpu time spent up to now is      565.1 secs

     total energy              =   -5850.62852110 Ry
     estimated scf accuracy    <      86.08492140 Ry

     iteration #  7     ecut=    50.00 Ry     beta= 0.70
     Davidson diagonalization with overlap
     ethr =  1.00E-02,  avg # of iterations =  2.4

     total cpu time spent up to now is      608.2 secs

     total energy              =   -5852.26346026 Ry
     estimated scf accuracy    <      56.41917039 Ry

     iteration #  8     ecut=    50.00 Ry     beta= 0.70
     Davidson diagonalization with overlap
     ethr =  1.00E-02,  avg # of iterations =  1.1

     total cpu time spent up to now is      648.2 secs

     total energy              =   -5851.78178944 Ry
     estimated scf accuracy    <      38.20737912 Ry

     iteration #  9     ecut=    50.00 Ry     beta= 0.70
     Davidson diagonalization with overlap
     ethr =  1.00E-02,  avg # of iterations =  1.0

     total cpu time spent up to now is      688.1 secs

     total energy              =   -5850.40675546 Ry
     estimated scf accuracy    <      36.35357971 Ry

     iteration # 10     ecut=    50.00 Ry     beta= 0.70
     Davidson diagonalization with overlap
     ethr =  1.00E-02,  avg # of iterations =  1.0

     negative rho (up, down):  5.344E-03 0.000E+00

     total cpu time spent up to now is      728.0 secs

     total energy              =   -5839.89860449 Ry
     estimated scf accuracy    <      33.16330979 Ry

     iteration # 11     ecut=    50.00 Ry     beta= 0.70
     Davidson diagonalization with overlap
     ethr =  1.00E-02,  avg # of iterations =  5.5

     negative rho (up, down):  9.976E-04 0.000E+00

     total cpu time spent up to now is      777.3 secs

     total energy              =   -5844.95324882 Ry
     estimated scf accuracy    <      15.69860723 Ry

     iteration # 12     ecut=    50.00 Ry     beta= 0.70
     Davidson diagonalization with overlap
     ethr =  8.18E-03,  avg # of iterations =  2.0

     negative rho (up, down):  4.754E-07 0.000E+00

     total cpu time spent up to now is      819.0 secs

     total energy              =   -5844.29843166 Ry
     estimated scf accuracy    <      12.50227785 Ry

     iteration # 13     ecut=    50.00 Ry     beta= 0.70
     Davidson diagonalization with overlap
     ethr =  6.51E-03,  avg # of iterations =  2.0

     negative rho (up, down):  5.028E-04 0.000E+00

     total cpu time spent up to now is      860.9 secs

     total energy              =   -5842.55835585 Ry
     estimated scf accuracy    <       5.10176810 Ry

     iteration # 14     ecut=    50.00 Ry     beta= 0.70
     Davidson diagonalization with overlap
     c_bands:  1 eigenvalues not converged
     c_bands:  4 eigenvalues not converged
     ethr =  2.66E-03,  avg # of iterations = 18.1

     total cpu time spent up to now is      944.1 secs

     total energy              =   -5836.79338002 Ry
     estimated scf accuracy    <     114.85160564 Ry

     iteration # 15     ecut=    50.00 Ry     beta= 0.70
     Davidson diagonalization with overlap
     ethr =  2.66E-03,  avg # of iterations =  8.6

     total cpu time spent up to now is     1003.7 secs

     total energy              =   -5844.54445570 Ry
     estimated scf accuracy    <       4.99683591 Ry

     iteration # 16     ecut=    50.00 Ry     beta= 0.70
     Davidson diagonalization with overlap
     ethr =  2.60E-03,  avg # of iterations =  2.2

     total cpu time spent up to now is     1046.2 secs

     total energy              =   -5844.68376759 Ry
     estimated scf accuracy    <       3.41083570 Ry

     iteration # 17     ecut=    50.00 Ry     beta= 0.70
     Davidson diagonalization with overlap
     ethr =  1.78E-03,  avg # of iterations =  2.5

     total cpu time spent up to now is     1088.1 secs

     total energy              =   -5844.80721005 Ry
     estimated scf accuracy    <       0.62068303 Ry

     iteration # 18     ecut=    50.00 Ry     beta= 0.70
     Davidson diagonalization with overlap
     ethr =  3.23E-04,  avg # of iterations = 11.5

     total cpu time spent up to now is     1145.6 secs

     total energy              =   -5844.89596718 Ry
     estimated scf accuracy    <       0.46454498 Ry

     iteration # 19     ecut=    50.00 Ry     beta= 0.70
     Davidson diagonalization with overlap
     ethr =  2.42E-04,  avg # of iterations =  2.2

     total cpu time spent up to now is     1187.0 secs

     total energy              =   -5844.90867556 Ry
     estimated scf accuracy    <       0.22186651 Ry

     iteration # 20     ecut=    50.00 Ry     beta= 0.70
     Davidson diagonalization with overlap
     ethr =  1.16E-04,  avg # of iterations =  5.2

     total cpu time spent up to now is     1231.0 secs

     total energy              =   -5844.90352563 Ry
     estimated scf accuracy    <       0.23058729 Ry

     iteration # 21     ecut=    50.00 Ry     beta= 0.70
     Davidson diagonalization with overlap
     ethr =  1.16E-04,  avg # of iterations =  2.0

     total cpu time spent up to now is     1272.4 secs

     total energy              =   -5844.88796033 Ry
     estimated scf accuracy    <       0.23911756 Ry

     iteration # 22     ecut=    50.00 Ry     beta= 0.70
     Davidson diagonalization with overlap
     ethr =  1.16E-04,  avg # of iterations =  2.0

     total cpu time spent up to now is     1313.5 secs

     total energy              =   -5844.88898963 Ry
     estimated scf accuracy    <       0.10889159 Ry

     iteration # 23     ecut=    50.00 Ry     beta= 0.70
     Davidson diagonalization with overlap
     c_bands:  1 eigenvalues not converged
     c_bands:  2 eigenvalues not converged
     ethr =  5.67E-05,  avg # of iterations = 11.9

     total cpu time spent up to now is     1361.6 secs

     total energy              =   -5844.86384815 Ry
     estimated scf accuracy    <       0.06440371 Ry

     iteration # 24     ecut=    50.00 Ry     beta= 0.70
     Davidson diagonalization with overlap
     c_bands:  1 eigenvalues not converged
     c_bands:  1 eigenvalues not converged
     c_bands:  1 eigenvalues not converged
     c_bands:  2 eigenvalues not converged
     ethr =  3.35E-05,  avg # of iterations = 17.4

     total cpu time spent up to now is     1434.1 secs

     total energy              =   -5844.86859804 Ry
     estimated scf accuracy    <       0.28814575 Ry

     iteration # 25     ecut=    50.00 Ry     beta= 0.70
     Davidson diagonalization with overlap
     ethr =  3.35E-05,  avg # of iterations =  8.1

     total cpu time spent up to now is     1485.3 secs

     total energy              =   -5844.88284157 Ry
     estimated scf accuracy    <       0.03197457 Ry

     iteration # 26     ecut=    50.00 Ry     beta= 0.70
     Davidson diagonalization with overlap
     c_bands:  2 eigenvalues not converged
     c_bands:  1 eigenvalues not converged
     c_bands:  1 eigenvalues not converged
     c_bands:  1 eigenvalues not converged
     c_bands:  1 eigenvalues not converged
     c_bands:  1 eigenvalues not converged
     c_bands:  2 eigenvalues not converged
     c_bands:  1 eigenvalues not converged
     ethr =  1.67E-05,  avg # of iterations = 20.0

     total cpu time spent up to now is     1557.0 secs

     total energy              =   -5844.86156534 Ry
     estimated scf accuracy    <       0.56673609 Ry

     iteration # 27     ecut=    50.00 Ry     beta= 0.70
     Davidson diagonalization with overlap
     ethr =  1.67E-05,  avg # of iterations = 11.9

     total cpu time spent up to now is     1616.3 secs

     total energy              =   -5844.88837669 Ry
     estimated scf accuracy    <       0.02993316 Ry

     iteration # 28     ecut=    50.00 Ry     beta= 0.70
     Davidson diagonalization with overlap
     ethr =  1.56E-05,  avg # of iterations =  2.8

     total cpu time spent up to now is     1658.2 secs

     total energy              =   -5844.89075386 Ry
     estimated scf accuracy    <       0.00275404 Ry

     iteration # 29     ecut=    50.00 Ry     beta= 0.70
     Davidson diagonalization with overlap
     c_bands:  2 eigenvalues not converged
     c_bands:  1 eigenvalues not converged
     ethr =  1.43E-06,  avg # of iterations = 17.0

     total cpu time spent up to now is     1726.6 secs

     total energy              =   -5844.89166036 Ry
     estimated scf accuracy    <       0.00240846 Ry

     iteration # 30     ecut=    50.00 Ry     beta= 0.70
     Davidson diagonalization with overlap
     ethr =  1.25E-06,  avg # of iterations =  6.0

     total cpu time spent up to now is     1769.9 secs

     total energy              =   -5844.89176591 Ry
     estimated scf accuracy    <       0.00047292 Ry

     iteration # 31     ecut=    50.00 Ry     beta= 0.70
     Davidson diagonalization with overlap
     ethr =  2.46E-07,  avg # of iterations =  8.1

     total cpu time spent up to now is     1821.8 secs

     total energy              =   -5844.89175176 Ry
     estimated scf accuracy    <       0.00159091 Ry

     iteration # 32     ecut=    50.00 Ry     beta= 0.70
     Davidson diagonalization with overlap
     ethr =  2.46E-07,  avg # of iterations =  5.5

     total cpu time spent up to now is     1867.5 secs

     total energy              =   -5844.89184763 Ry
     estimated scf accuracy    <       0.00016930 Ry

     iteration # 33     ecut=    50.00 Ry     beta= 0.70
     Davidson diagonalization with overlap
     ethr =  8.82E-08,  avg # of iterations =  5.9

     total cpu time spent up to now is     1914.5 secs

     total energy              =   -5844.89185562 Ry
     estimated scf accuracy    <       0.00021109 Ry

     iteration # 34     ecut=    50.00 Ry     beta= 0.70
     Davidson diagonalization with overlap
     ethr =  8.82E-08,  avg # of iterations =  3.0

     total cpu time spent up to now is     1957.0 secs

     total energy              =   -5844.89186690 Ry
     estimated scf accuracy    <       0.00005335 Ry

     iteration # 35     ecut=    50.00 Ry     beta= 0.70
     Davidson diagonalization with overlap
     ethr =  2.78E-08,  avg # of iterations =  5.6

     total cpu time spent up to now is     2003.4 secs

     total energy              =   -5844.89187134 Ry
     estimated scf accuracy    <       0.00002106 Ry

     iteration # 36     ecut=    50.00 Ry     beta= 0.70
     Davidson diagonalization with overlap
     ethr =  1.10E-08,  avg # of iterations =  6.9

     total cpu time spent up to now is     2055.8 secs

     total energy              =   -5844.89186724 Ry
     estimated scf accuracy    <       0.00014975 Ry

     iteration # 37     ecut=    50.00 Ry     beta= 0.70
     Davidson diagonalization with overlap
     ethr =  1.10E-08,  avg # of iterations =  6.9

     total cpu time spent up to now is     2104.7 secs

     total energy              =   -5844.89187423 Ry
     estimated scf accuracy    <       0.00003442 Ry

     iteration # 38     ecut=    50.00 Ry     beta= 0.70
     Davidson diagonalization with overlap
     ethr =  1.10E-08,  avg # of iterations =  3.5

     total cpu time spent up to now is     2147.2 secs

     total energy              =   -5844.89187601 Ry
     estimated scf accuracy    <       0.00000533 Ry

     iteration # 39     ecut=    50.00 Ry     beta= 0.70
     Davidson diagonalization with overlap
     ethr =  2.78E-09,  avg # of iterations =  6.6

     total cpu time spent up to now is     2197.5 secs

     total energy              =   -5844.89187619 Ry
     estimated scf accuracy    <       0.00000817 Ry

     iteration # 40     ecut=    50.00 Ry     beta= 0.70
     Davidson diagonalization with overlap
     ethr =  2.78E-09,  avg # of iterations =  5.0

     total cpu time spent up to now is     2242.7 secs

     total energy              =   -5844.89187659 Ry
     estimated scf accuracy    <       0.00000212 Ry

     iteration # 41     ecut=    50.00 Ry     beta= 0.70
     Davidson diagonalization with overlap
     ethr =  1.11E-09,  avg # of iterations =  6.8

     total cpu time spent up to now is     2295.3 secs

     total energy              =   -5844.89187561 Ry
     estimated scf accuracy    <       0.00002175 Ry

     iteration # 42     ecut=    50.00 Ry     beta= 0.70
     Davidson diagonalization with overlap
     ethr =  1.11E-09,  avg # of iterations =  6.5

     total cpu time spent up to now is     2345.0 secs

     total energy              =   -5844.89187663 Ry
     estimated scf accuracy    <       0.00000198 Ry

     iteration # 43     ecut=    50.00 Ry     beta= 0.70
     Davidson diagonalization with overlap
     ethr =  1.03E-09,  avg # of iterations =  6.6

     total cpu time spent up to now is     2395.8 secs

     total energy              =   -5844.89187563 Ry
     estimated scf accuracy    <       0.00002496 Ry

     iteration # 44     ecut=    50.00 Ry     beta= 0.70
     Davidson diagonalization with overlap
     ethr =  1.03E-09,  avg # of iterations =  5.5

     total cpu time spent up to now is     2444.1 secs

     End of self-consistent calculation

          k = 0.0000 0.0000 0.0000 ( 13341 PWs)   bands (ev):

  -165.5423-165.3908-165.2377-165.1900-164.9877 -51.6278 -44.9779 -44.9422
   -44.9411 -44.8951 -44.8614 -44.8608 -44.5973 -44.4988 -28.2720 -28.1851
   -27.9319 -21.4093 -21.3502 -21.3490 -21.3258 -21.3071 -21.2773 -21.2712
   -21.2708 -21.2644 -21.2627 -21.1709 -21.1690 -21.1121 -21.0318 -21.0286
   -21.0096 -20.9961 -20.9937 -20.9483 -20.9465 -20.8560 -20.8547 -20.7641
   -20.7164 -20.0865 -20.0842 -20.0115  -6.5823  -6.5703  -6.5641  -6.5605
    -6.5531  -6.5518  -6.5466  -6.5340  -6.5307  -6.2410  -6.0234  -5.9444
    -5.9436  -5.8227  -5.8191  -5.8170   2.2259   3.4849   4.7832   4.7896
     4.7918   5.5959   5.6044   6.0517   6.0584   6.6270   6.7524   6.8493
     6.8565   7.3200   7.3251   7.4246   7.4394   7.7360   7.8095   7.8185
     8.2757   8.2882   8.6957   9.7622  10.1534  10.1886  11.0868  11.3174
    11.3233  11.5271  11.5326  11.6140  12.0015  12.0180  12.2310  12.5301
    12.6914  12.6995  12.7235  12.8110  12.8414  12.8498  13.1033  13.1066
    13.1139  13.2544  13.3586  13.3707  13.4793  13.4873  13.5569  13.6255
    13.6303  13.6917  13.7016

          k = 0.0000-0.0000-0.3082 ( 13474 PWs)   bands (ev):

  -166.4239-166.3411-166.2208-166.1020-165.8167 -51.6278 -44.9779 -44.9423
   -44.9411 -44.8951 -44.8614 -44.8608 -44.5973 -44.4988 -28.2720 -28.1852
   -27.9320 -21.4089 -21.3497 -21.3484 -21.3264 -21.3070 -21.2774 -21.2730
   -21.2725 -21.2636 -21.2619 -21.1708 -21.1689 -21.1121 -21.0313 -21.0281
   -21.0096 -20.9962 -20.9938 -20.9483 -20.9465 -20.8562 -20.8549 -20.7637
   -20.7166 -20.0865 -20.0842 -20.0115  -6.6034  -6.6013  -6.5987  -6.5931
    -6.5927  -6.5870  -6.5841  -6.5340  -6.5306  -6.2348  -6.0220  -5.9442
    -5.9434  -5.8263  -5.8231  -5.8194   2.4479   3.0040   4.9480   4.9556
     5.2147   5.2211   5.6271   5.8025   6.3854   6.3941   6.7726   6.7797
     7.1101   7.2579   7.2591   7.3613   7.4166   7.4173   7.9609   7.9679
     8.1506   8.1546   9.3273   9.4645  10.2369  10.4713  10.7430  11.1011
    11.2879  11.2928  11.4545  11.4587  12.3426  12.4187  12.4308  12.5021
    12.5148  12.5924  12.8085  12.9117  12.9196  12.9253  13.0013  13.0664
    13.0973  13.1019  13.1286  13.1353  13.3073  13.3151  13.5212  13.5357
    13.6780  13.6876  14.1085

          k =-0.4987-0.2884 0.0000 ( 13432 PWs)   bands (ev):

  -166.0955-166.0791-165.8841-165.8217-165.6708 -51.6278 -44.9718 -44.9483
   -44.9413 -44.8875 -44.8690 -44.8608 -44.5972 -44.4988 -28.2462 -28.2114
   -27.9322 -21.3939 -21.3591 -21.3485 -21.3114 -21.2808 -21.2788 -21.2708
   -21.2351 -21.2284 -21.2280 -21.1491 -21.1396 -21.1236 -21.0996 -21.0660
   -21.0529 -21.0372 -20.9975 -20.9595 -20.9469 -20.8567 -20.8545 -20.7582
   -20.7141 -20.0863 -20.0848 -20.0112  -6.6051  -6.6011  -6.5946  -6.5927
    -6.5887  -6.5808  -6.5751  -6.5634  -6.4842  -6.2166  -6.0835  -5.9705
    -5.9442  -5.8738  -5.8030  -5.7337   3.3563   4.0323   4.4705   4.8940
     4.9105   5.0632   5.1299   5.7283   5.8087   6.1311   6.2729   6.5351
     6.8564   7.0027   7.1285   7.5798   7.6799   7.8923   7.9260   8.2962
     8.4013   8.8672   9.0826   9.3025  10.5008  10.6558  11.0150  11.1306
    11.2387  11.2818  11.3621  11.3713  11.5347  11.5768  11.7957  12.1479
    12.3133  12.4261  12.5223  12.6719  12.7826  12.8705  13.0235  13.0764
    13.0806  13.1518  13.3794  13.4299  13.5116  13.6944  13.7070  13.7399
    13.8475  13.8934  13.9702

          k =-0.4986-0.2885-0.3082 ( 13394 PWs)   bands (ev):

  -165.8528-165.7784-165.6573-165.5476-165.4057 -51.6278 -44.9718 -44.9483
   -44.9413 -44.8875 -44.8690 -44.8608 -44.5972 -44.4988 -28.2462 -28.2114
   -27.9322 -21.3936 -21.3586 -21.3478 -21.3121 -21.2826 -21.2779 -21.2719
   -21.2350 -21.2283 -21.2281 -21.1489 -21.1395 -21.1236 -21.0980 -21.0672
   -21.0522 -21.0374 -20.9976 -20.9592 -20.9469 -20.8569 -20.8547 -20.7582
   -20.7142 -20.0863 -20.0847 -20.0112  -6.6049  -6.5981  -6.5840  -6.5799
    -6.5692  -6.5673  -6.5663  -6.5644  -6.4831  -6.2145  -6.0794  -5.9701
    -5.9443  -5.8777  -5.8081  -5.7338   3.4526   4.0506   4.3123   4.6719
     5.0858   5.1476   5.3538   5.4323   5.8024   6.1316   6.3701   6.6574
     6.7660   6.8356   7.0802   7.2593   8.1084   8.1300   8.1937   8.1974
     8.5953   8.6810   8.8345   9.0114  10.6822  10.8525  10.9663  11.0701
    11.2657  11.2849  11.3226  11.3533  11.6059  11.7852  11.7974  11.8466
    12.2721  12.3744  12.6488  12.6949  12.7201  12.7865  12.7940  12.9772
    13.3458  13.4033  13.4064  13.4566  13.5060  13.6249  13.7205  13.7779
    13.8034  13.8221  13.9965

          k =-0.4990 0.2890 0.0001 ( 13422 PWs)   bands (ev):

  -166.0900-165.9263-165.8651-165.7162-165.6094 -51.6278 -44.9718 -44.9481
   -44.9415 -44.8875 -44.8688 -44.8611 -44.5972 -44.4988 -28.2460 -28.2117
   -27.9322 -21.3938 -21.3589 -21.3488 -21.3113 -21.2806 -21.2782 -21.2710
   -21.2348 -21.2286 -21.2280 -21.1485 -21.1396 -21.1240 -21.0988 -21.0653
   -21.0530 -21.0385 -20.9988 -20.9591 -20.9475 -20.8564 -20.8549 -20.7582
   -20.7141 -20.0868 -20.0843 -20.0112  -6.6044  -6.5990  -6.5950  -6.5887
    -6.5858  -6.5799  -6.5717  -6.5586  -6.4859  -6.2170  -6.0842  -5.9705
    -5.9442  -5.8719  -5.8025  -5.7340   3.3583   4.0353   4.4716   4.8962
     4.9096   5.0629   5.1324   5.7240   5.8072   6.1300   6.2717   6.5348
     6.8585   6.9976   7.1295   7.5825   7.6808   7.8969   7.9235   8.2933
     8.4032   8.8648   9.0865   9.3010  10.4991  10.6590  11.0158  11.1322
    11.2376  11.2797  11.3613  11.3726  11.5369  11.5796  11.7983  12.1508
    12.3134  12.4249  12.5202  12.6712  12.7798  12.8738  13.0206  13.0726
    13.0784  13.1463  13.3770  13.4275  13.5137  13.6930  13.7028  13.7403
    13.8492  13.8943  13.9697

          k =-0.4990 0.2889-0.3081 ( 13398 PWs)   bands (ev):

  -165.9285-165.7735-165.6307-165.5489-165.4946 -51.6278 -44.9718 -44.9481
   -44.9415 -44.8875 -44.8688 -44.8611 -44.5972 -44.4988 -28.2460 -28.2117
   -27.9322 -21.3935 -21.3584 -21.3481 -21.3120 -21.2824 -21.2773 -21.2721
   -21.2348 -21.2286 -21.2279 -21.1483 -21.1395 -21.1240 -21.0972 -21.0665
   -21.0521 -21.0387 -20.9989 -20.9587 -20.9475 -20.8566 -20.8550 -20.7582
   -20.7142 -20.0868 -20.0843 -20.0112  -6.6043  -6.5964  -6.5863  -6.5806
    -6.5733  -6.5683  -6.5667  -6.5642  -6.4848  -6.2148  -6.0800  -5.9702
    -5.9443  -5.8760  -5.8074  -5.7341   3.4540   4.0537   4.3153   4.6751
     5.0838   5.1464   5.3528   5.4305   5.8020   6.1307   6.3658   6.6582
     6.7671   6.8328   7.0830   7.2588   8.1110   8.1300   8.1943   8.1990
     8.5931   8.6799   8.8352   9.0109  10.6821  10.8531  10.9672  11.0716
    11.2636  11.2836  11.3262  11.3558  11.6066  11.7849  11.7981  11.8487
    12.2696  12.3720  12.6489  12.6945  12.7167  12.7856  12.7905  12.9757
    13.3422  13.3996  13.4047  13.4553  13.5054  13.6232  13.7221  13.7745
    13.8024  13.8193  13.9955

          k =-0.9977 0.0006 0.0001 ( 13432 PWs)   bands (ev):

  -166.1644-166.0282-165.9973-165.6822-165.6682 -51.6278 -44.9718 -44.9473
   -44.9422 -44.8875 -44.8685 -44.8614 -44.5972 -44.4988 -28.2456 -28.2121
   -27.9322 -21.3938 -21.3581 -21.3495 -21.3111 -21.2804 -21.2777 -21.2712
   -21.2344 -21.2290 -21.2274 -21.1477 -21.1396 -21.1245 -21.0974 -21.0643
   -21.0531 -21.0404 -21.0004 -20.9584 -20.9484 -20.8560 -20.8553 -20.7582
   -20.7141 -20.0870 -20.0840 -20.0112  -6.6037  -6.6033  -6.5968  -6.5929
    -6.5886  -6.5850  -6.5733  -6.5554  -6.4882  -6.2170  -6.0845  -5.9712
    -5.9437  -5.8694  -5.8019  -5.7352   3.3613   4.0384   4.4727   4.8972
     4.9082   5.0634   5.1358   5.7181   5.8059   6.1283   6.2694   6.5347
     6.8615   6.9932   7.1305   7.5859   7.6816   7.9018   7.9205   8.2889
     8.4055   8.8617   9.0914   9.2987  10.4969  10.6631  11.0161  11.1338
    11.2362  11.2774  11.3592  11.3743  11.5396  11.5826  11.8013  12.1545
    12.3129  12.4220  12.5169  12.6702  12.7759  12.8757  13.0162  13.0668
    13.0758  13.1389  13.3729  13.4246  13.5162  13.6906  13.6962  13.7396
    13.8489  13.8958  13.9663

          k =-0.9977 0.0005-0.3081 ( 13396 PWs)   bands (ev):

  -166.0315-165.7338-165.5956-165.5331-165.4111 -51.6278 -44.9718 -44.9473
   -44.9422 -44.8875 -44.8685 -44.8614 -44.5972 -44.4988 -28.2456 -28.2121
   -27.9322 -21.3935 -21.3575 -21.3488 -21.3118 -21.2823 -21.2768 -21.2723
   -21.2344 -21.2290 -21.2274 -21.1475 -21.1395 -21.1245 -21.0957 -21.0656
   -21.0522 -21.0408 -21.0005 -20.9581 -20.9484 -20.8562 -20.8554 -20.7581
   -20.7142 -20.0870 -20.0840 -20.0112  -6.6036  -6.5971  -6.5871  -6.5834
    -6.5745  -6.5660  -6.5635  -6.5603  -6.4871  -6.2149  -6.0803  -5.9709
    -5.9438  -5.8737  -5.8065  -5.7353   3.4565   4.0556   4.3204   4.6784
     5.0813   5.1436   5.3513   5.4291   5.8023   6.1296   6.3597   6.6585
     6.7687   6.8309   7.0876   7.2578   8.1143   8.1309   8.1945   8.2006
     8.5924   8.6774   8.8349   9.0110  10.6817  10.8539  10.9684  11.0735
    11.2614  11.2817  11.3294  11.3596  11.6062  11.7857  11.8000  11.8506
    12.2665  12.3689  12.6498  12.6931  12.7122  12.7857  12.7870  12.9750
    13.3371  13.3958  13.4038  13.4551  13.5056  13.6201  13.7252  13.7703
    13.8015  13.8157  13.9939

     the Fermi energy is    12.3169 ev

!    total energy              =   -5844.89187686 Ry
     estimated scf accuracy    <       0.00000008 Ry
     smearing contrib. (-TS)   =       0.00023600 Ry
     internal energy E=F+TS    =   -5844.89211286 Ry

     The total energy is F=E-TS. E is the sum of the following terms:
     one-electron contribution =   -2216.20311346 Ry
     hartree contribution      =    1158.45828118 Ry
     xc contribution           =    -530.81318480 Ry
     ewald contribution        =   -1328.17454626 Ry
     one-center paw contrib.   =   -2928.15954952 Ry

     convergence has been achieved in  44 iterations

     Forces acting on atoms (cartesian axes, Ry/au):

     atom    1 type  2   force =     0.00018154    0.00023653   -0.02037097
     atom    2 type  3   force =    -0.00013498   -0.00035397   -0.05045625
     atom    3 type  3   force =    -0.00008991   -0.00008924    0.05509298
     atom    4 type  3   force =     0.00018797    0.00046277    0.04713593
     atom    5 type  4   force =    -0.01696979   -0.00981234   -0.00186896
     atom    6 type  4   force =    -0.00003723   -0.03003080    0.00633080
     atom    7 type  4   force =    -0.02595577    0.01491262    0.00645010
     atom    8 type  4   force =     0.01697693   -0.00985757   -0.00192761
     atom    9 type  4   force =    -0.00003667    0.01975899   -0.00192763
     atom   10 type  4   force =     0.02588557    0.01491309    0.00655657
     atom   11 type  4   force =    -0.00023253   -0.00026991   -0.01372102
     atom   12 type  4   force =    -0.00003289   -0.00006414    0.00312071
     atom   13 type  1   force =    -0.00002751    0.00254800   -0.00429097
     atom   14 type  1   force =    -0.00270678   -0.00161201   -0.00478107
     atom   15 type  1   force =     0.00240450   -0.00146819   -0.00457652
     atom   16 type  1   force =    -0.00697060    0.00414623    0.00205033
     atom   17 type  1   force =     0.00049271    0.00036915   -0.00825389
     atom   18 type  1   force =     0.00005027   -0.00765017    0.00232737
     atom   19 type  1   force =     0.00710542    0.00416031    0.00181637
     atom   20 type  1   force =    -0.00004947    0.00700069    0.00042052
     atom   21 type  1   force =     0.00635497   -0.00379076    0.00071430
     atom   22 type  1   force =    -0.00014329    0.00022427   -0.00848408
     atom   23 type  1   force =     0.00005055   -0.00014822   -0.00877701
     atom   24 type  1   force =    -0.00646802   -0.00379550    0.00094875
     atom   25 type  1   force =    -0.00019517   -0.00026355   -0.00577381
     atom   26 type  1   force =     0.00008354    0.01104032   -0.01132454
     atom   27 type  1   force =     0.00954507   -0.00521202   -0.01109779
     atom   28 type  1   force =     0.00011181   -0.00035505   -0.00585456
     atom   29 type  1   force =    -0.00012158    0.00012771   -0.00589828
     atom   30 type  1   force =    -0.01320111   -0.00746289    0.00590515
     atom   31 type  1   force =     0.00015764    0.01564026    0.00607910
     atom   32 type  1   force =    -0.00931998   -0.00518191   -0.01096775
     atom   33 type  1   force =     0.01343755   -0.00742579    0.00597974
     atom   34 type  1   force =    -0.01132048    0.00621308    0.00978837
     atom   35 type  1   force =     0.01108973    0.00619854    0.00966145
     atom   36 type  1   force =    -0.00010201   -0.01310854    0.00997418

     Total force =     0.124532     Total SCF correction =     0.000431


     Computing stress (Cartesian axis) and pressure

          total   stress  (Ry/bohr**3)                   (kbar)     P=    -4643.65
  -0.03153548  -0.00002901  -0.00000873        -4639.03       -4.27       -1.28
  -0.00002901  -0.03144720   0.00000685           -4.27    -4626.04        1.01
  -0.00000873   0.00000685  -0.03171790           -1.28        1.01    -4665.86


     BFGS Geometry Optimization
     Energy error            =      0.0E+00
     Gradient error          =      5.5E-02
     Cell gradient error     =      3.2E-02


     number of scf cycles    =   1
     number of bfgs steps    =   0

     enthalpy new            =   -5844.8918768588 Ry

     new trust radius        =       0.5000000000 bohr
     new conv_thr            =       0.0000010000 Ry

     new unit-cell volume =   1908.90675 a.u.^3 (   282.87080 Ang^3 )
     density =      0.21133 g/cm^3

CELL_PARAMETERS (angstrom)
   2.932588234  -5.071223674   0.001132079
   2.938096947   5.074403601  -0.000384654
   0.001207546  -0.001413395   9.498402227

ATOMIC_POSITIONS (angstrom)
Hf            2.9368138967        1.6918224957        4.4678786908
Th            2.9356152779       -1.6907133922        9.0814088361
Th            2.9350740043       -1.6901069237        5.1130620503
Th            2.9362680997        1.6924681951        0.4012951044
Ti            1.5225838072        0.8761187472        7.0685325214
Ti            2.9338512439       -3.2944712713        2.4273049557
Ti            1.5422388771       -0.8880561818        2.4267700348
Ti            4.3508506040        0.8776742734        7.0688765537
Ti            2.9380671983        3.3207165353        7.0683156839
Ti            4.3280990911       -0.8865415113        2.4270908608
Ti            0.0006298818       -0.0008673420        4.8274106891
Ti           -0.0000124986        0.0000244182        0.0019313075
H             2.9378731114        3.4186049225        5.3311030604
H             1.4377522661        0.8275685034        5.3313295435
H             4.4352761535        0.8291615215        5.3317157574
H             1.3609686384       -0.7836073449        0.6862518642
H             4.5413929288       -0.7640447047        4.1227917153
H             2.9335077075       -3.5028931678        0.6867830505
H             4.5090284997       -0.7819126017        0.6866893447
H             2.9383924164        3.5143391862        8.7939201830
H             4.5193134184        0.7805206577        8.7944715164
H             1.3294517381       -0.7657585645        4.1224410832
H             2.9339525003       -3.5402053376        4.1231396536
H             1.3544634181        0.7788157094        8.7940447289
H             1.5774653199       -2.4722293356        3.4345770378
H             2.9365326753        0.2948555843        8.0791072554
H             1.7255840723        2.3888827777        8.0786527483
H             4.2914193351       -2.4707510315        3.4349154534
H             2.9357164340       -0.1264351613        3.4343378023
H             4.1445493115        2.3876444907        6.0805939877
H             2.9362651118        0.3007791748        6.0807409680
H             4.1497391496        2.3901846783        8.0789259087
H             1.7302341307        2.3863386456        6.0802820357
H             4.1619608533       -2.3961206661        1.4229317712
H             1.7064935065       -2.3974507779        1.4226298302
H             2.9353745857       -0.2750242214        1.4224973027



     Writing output data file ./tmp/HfTh3TiH38.save/
     NEW-OLD atomic charge density approx. for the potential

     Check: negative core charge=   -0.000003
     extrapolated charge  159.67860, renormalised to  192.00000

     total cpu time spent up to now is     2666.4 secs

     Self-consistent Calculation

     iteration #  1     ecut=    50.00 Ry     beta= 0.70
     Davidson diagonalization with overlap
     c_bands:  5 eigenvalues not converged
     c_bands:  3 eigenvalues not converged
     c_bands:  2 eigenvalues not converged
     c_bands:  3 eigenvalues not converged
     ethr =  1.00E-06,  avg # of iterations = 41.0

     total cpu time spent up to now is     2919.3 secs

     total energy              =   -5270.77765921 Ry
     estimated scf accuracy    <     576.42094525 Ry

     iteration #  2     ecut=    50.00 Ry     beta= 0.70
     Davidson diagonalization with overlap
     ethr =  1.00E-02,  avg # of iterations = 30.8

     total cpu time spent up to now is     3174.7 secs

     total energy              =   -5671.82781452 Ry
     estimated scf accuracy    <    8409.31740816 Ry

     iteration #  3     ecut=    50.00 Ry     beta= 0.70
     Davidson diagonalization with overlap
     c_bands:  1 eigenvalues not converged
     c_bands:  1 eigenvalues not converged
     c_bands:  1 eigenvalues not converged
     ethr =  1.00E-02,  avg # of iterations = 19.5

     total cpu time spent up to now is     3304.1 secs

     total energy              =   -5869.75121126 Ry
     estimated scf accuracy    <    1544.39243488 Ry

     iteration #  4     ecut=    50.00 Ry     beta= 0.70
     Davidson diagonalization with overlap
     ethr =  1.00E-02,  avg # of iterations = 11.9

     total cpu time spent up to now is     3376.5 secs

     total energy              =   -5855.41268687 Ry
     estimated scf accuracy    <    1570.11981005 Ry

     iteration #  5     ecut=    50.00 Ry     beta= 0.70
     Davidson diagonalization with overlap
     ethr =  1.00E-02,  avg # of iterations = 14.0

     total cpu time spent up to now is     3455.0 secs

     total energy              =   -5854.67619877 Ry
     estimated scf accuracy    <     311.76440412 Ry

     iteration #  6     ecut=    50.00 Ry     beta= 0.70
     Davidson diagonalization with overlap
     ethr =  1.00E-02,  avg # of iterations =  5.2

     total cpu time spent up to now is     3505.8 secs

     total energy              =   -5860.74552650 Ry
     estimated scf accuracy    <      73.84015428 Ry

     iteration #  7     ecut=    50.00 Ry     beta= 0.70
     Davidson diagonalization with overlap
     ethr =  1.00E-02,  avg # of iterations =  4.0

     total cpu time spent up to now is     3550.9 secs

     total energy              =   -5855.29790797 Ry
     estimated scf accuracy    <     141.87856439 Ry

     iteration #  8     ecut=    50.00 Ry     beta= 0.70
     Davidson diagonalization with overlap
     ethr =  1.00E-02,  avg # of iterations =  2.2

     total cpu time spent up to now is     3593.1 secs

     total energy              =   -5860.87045314 Ry
     estimated scf accuracy    <      46.34008619 Ry

     iteration #  9     ecut=    50.00 Ry     beta= 0.70
     Davidson diagonalization with overlap
     ethr =  1.00E-02,  avg # of iterations =  1.2

     total cpu time spent up to now is     3632.8 secs

     total energy              =   -5859.82485581 Ry
     estimated scf accuracy    <      46.50782895 Ry

     iteration # 10     ecut=    50.00 Ry     beta= 0.70
     Davidson diagonalization with overlap
     ethr =  1.00E-02,  avg # of iterations =  1.2

     negative rho (up, down):  1.244E-01 0.000E+00

     total cpu time spent up to now is     3672.6 secs

     total energy              =   -5850.21596180 Ry
     estimated scf accuracy    <      41.39039198 Ry

     iteration # 11     ecut=    50.00 Ry     beta= 0.70
     Davidson diagonalization with overlap
     ethr =  1.00E-02,  avg # of iterations =  8.2

     negative rho (up, down):  8.930E-02 0.000E+00

     total cpu time spent up to now is     3728.3 secs

     total energy              =   -5857.26490887 Ry
     estimated scf accuracy    <      60.09146204 Ry

     iteration # 12     ecut=    50.00 Ry     beta= 0.70
     Davidson diagonalization with overlap
     ethr =  1.00E-02,  avg # of iterations =  1.2

     negative rho (up, down):  1.168E-02 0.000E+00

     total cpu time spent up to now is     3768.4 secs

     total energy              =   -5852.03054062 Ry
     estimated scf accuracy    <      47.63710377 Ry

     iteration # 13     ecut=    50.00 Ry     beta= 0.70
     Davidson diagonalization with overlap
     ethr =  1.00E-02,  avg # of iterations =  2.0

     negative rho (up, down):  1.428E-03 0.000E+00

     total cpu time spent up to now is     3810.0 secs

     total energy              =   -5853.21292248 Ry
     estimated scf accuracy    <       4.32769043 Ry

     iteration # 14     ecut=    50.00 Ry     beta= 0.70
     Davidson diagonalization with overlap
     ethr =  2.25E-03,  avg # of iterations = 13.6

     total cpu time spent up to now is     3874.2 secs

     total energy              =   -5852.19496612 Ry
     estimated scf accuracy    <      33.22390479 Ry

     iteration # 15     ecut=    50.00 Ry     beta= 0.70
     Davidson diagonalization with overlap
     ethr =  2.25E-03,  avg # of iterations =  7.2

     total cpu time spent up to now is     3926.9 secs

     total energy              =   -5853.97804170 Ry
     estimated scf accuracy    <       2.98334237 Ry

     iteration # 16     ecut=    50.00 Ry     beta= 0.70
     Davidson diagonalization with overlap
     ethr =  1.55E-03,  avg # of iterations =  4.2

     total cpu time spent up to now is     3970.4 secs

     total energy              =   -5853.96390603 Ry
     estimated scf accuracy    <       1.78711453 Ry

     iteration # 17     ecut=    50.00 Ry     beta= 0.70
     Davidson diagonalization with overlap
     ethr =  9.31E-04,  avg # of iterations =  4.4

     total cpu time spent up to now is     4016.3 secs

     total energy              =   -5854.09625563 Ry
     estimated scf accuracy    <       0.75358771 Ry

     iteration # 18     ecut=    50.00 Ry     beta= 0.70
     Davidson diagonalization with overlap
     ethr =  3.92E-04,  avg # of iterations =  8.5

     total cpu time spent up to now is     4065.5 secs

     total energy              =   -5854.18473057 Ry
     estimated scf accuracy    <       0.43863301 Ry

     iteration # 19     ecut=    50.00 Ry     beta= 0.70
     Davidson diagonalization with overlap
     ethr =  2.28E-04,  avg # of iterations = 10.8

     total cpu time spent up to now is     4115.0 secs

     total energy              =   -5854.21222733 Ry
     estimated scf accuracy    <       0.18686259 Ry

     iteration # 20     ecut=    50.00 Ry     beta= 0.70
     Davidson diagonalization with overlap
     c_bands:  1 eigenvalues not converged
     ethr =  9.73E-05,  avg # of iterations = 15.5

     total cpu time spent up to now is     4180.0 secs

     total energy              =   -5854.20833577 Ry
     estimated scf accuracy    <       0.35324812 Ry

     iteration # 21     ecut=    50.00 Ry     beta= 0.70
     Davidson diagonalization with overlap
     ethr =  9.73E-05,  avg # of iterations =  8.6

     total cpu time spent up to now is     4230.1 secs

     total energy              =   -5854.23123611 Ry
     estimated scf accuracy    <       0.16257681 Ry

     iteration # 22     ecut=    50.00 Ry     beta= 0.70
     Davidson diagonalization with overlap
     ethr =  8.47E-05,  avg # of iterations =  2.4

     total cpu time spent up to now is     4271.6 secs

     total energy              =   -5854.24274709 Ry
     estimated scf accuracy    <       0.00668388 Ry

     iteration # 23     ecut=    50.00 Ry     beta= 0.70
     Davidson diagonalization with overlap
     c_bands:  2 eigenvalues not converged
     c_bands:  1 eigenvalues not converged
     c_bands:  2 eigenvalues not converged
     c_bands:  2 eigenvalues not converged
     c_bands:  2 eigenvalues not converged
     c_bands:  2 eigenvalues not converged
     c_bands:  2 eigenvalues not converged
     c_bands:  4 eigenvalues not converged
     ethr =  3.48E-06,  avg # of iterations = 20.0

     total cpu time spent up to now is     4352.7 secs

     total energy              =   -5854.24432862 Ry
     estimated scf accuracy    <       0.00983193 Ry

     iteration # 24     ecut=    50.00 Ry     beta= 0.70
     Davidson diagonalization with overlap
     c_bands:  1 eigenvalues not converged
     c_bands:  1 eigenvalues not converged
     c_bands:  1 eigenvalues not converged
     c_bands:  1 eigenvalues not converged
     ethr =  3.48E-06,  avg # of iterations = 16.6

     total cpu time spent up to now is     4420.3 secs

     total energy              =   -5854.24483492 Ry
     estimated scf accuracy    <       0.02195211 Ry

     iteration # 25     ecut=    50.00 Ry     beta= 0.70
     Davidson diagonalization with overlap
     c_bands:  1 eigenvalues not converged
     c_bands:  1 eigenvalues not converged
     c_bands:  1 eigenvalues not converged
     ethr =  3.48E-06,  avg # of iterations = 12.9

     total cpu time spent up to now is     4475.3 secs

     total energy              =   -5854.24646171 Ry
     estimated scf accuracy    <       0.00131171 Ry

     iteration # 26     ecut=    50.00 Ry     beta= 0.70
     Davidson diagonalization with overlap
     c_bands:  1 eigenvalues not converged
     c_bands:  1 eigenvalues not converged
     ethr =  6.83E-07,  avg # of iterations = 11.2

     total cpu time spent up to now is     4528.5 secs

     total energy              =   -5854.24654249 Ry
     estimated scf accuracy    <       0.00137065 Ry

     iteration # 27     ecut=    50.00 Ry     beta= 0.70
     Davidson diagonalization with overlap
     ethr =  6.83E-07,  avg # of iterations =  4.4

     total cpu time spent up to now is     4573.6 secs

     total energy              =   -5854.24664032 Ry
     estimated scf accuracy    <       0.00076469 Ry

     iteration # 28     ecut=    50.00 Ry     beta= 0.70
     Davidson diagonalization with overlap
     ethr =  3.98E-07,  avg # of iterations =  3.0

     total cpu time spent up to now is     4616.9 secs

     total energy              =   -5854.24669974 Ry
     estimated scf accuracy    <       0.00018281 Ry

     iteration # 29     ecut=    50.00 Ry     beta= 0.70
     Davidson diagonalization with overlap
     ethr =  9.52E-08,  avg # of iterations =  6.2

     total cpu time spent up to now is     4666.1 secs

     total energy              =   -5854.24672330 Ry
     estimated scf accuracy    <       0.00017134 Ry

     iteration # 30     ecut=    50.00 Ry     beta= 0.70
     Davidson diagonalization with overlap
     ethr =  8.92E-08,  avg # of iterations =  4.8

     total cpu time spent up to now is     4709.9 secs

     total energy              =   -5854.24673316 Ry
     estimated scf accuracy    <       0.00008211 Ry

     iteration # 31     ecut=    50.00 Ry     beta= 0.70
     Davidson diagonalization with overlap
     ethr =  4.28E-08,  avg # of iterations =  3.4

     total cpu time spent up to now is     4752.5 secs

     total energy              =   -5854.24673788 Ry
     estimated scf accuracy    <       0.00001172 Ry

     iteration # 32     ecut=    50.00 Ry     beta= 0.70
     Davidson diagonalization with overlap
     ethr =  6.10E-09,  avg # of iterations =  7.1

     total cpu time spent up to now is     4806.3 secs

     total energy              =   -5854.24674044 Ry
     estimated scf accuracy    <       0.00001764 Ry

     iteration # 33     ecut=    50.00 Ry     beta= 0.70
     Davidson diagonalization with overlap
     ethr =  6.10E-09,  avg # of iterations =  2.4

     total cpu time spent up to now is     4848.4 secs

     total energy              =   -5854.24674082 Ry
     estimated scf accuracy    <       0.00000194 Ry

     iteration # 34     ecut=    50.00 Ry     beta= 0.70
     Davidson diagonalization with overlap
     ethr =  1.01E-09,  avg # of iterations =  7.9

     total cpu time spent up to now is     4902.8 secs

     total energy              =   -5854.24674107 Ry
     estimated scf accuracy    <       0.00000465 Ry

     iteration # 35     ecut=    50.00 Ry     beta= 0.70
     Davidson diagonalization with overlap
     ethr =  1.01E-09,  avg # of iterations =  6.8

     total cpu time spent up to now is     4952.6 secs

     total energy              =   -5854.24674127 Ry
     estimated scf accuracy    <       0.00000353 Ry

     iteration # 36     ecut=    50.00 Ry     beta= 0.70
     Davidson diagonalization with overlap
     ethr =  1.01E-09,  avg # of iterations =  4.6

     total cpu time spent up to now is     4996.5 secs

     End of self-consistent calculation

          k = 0.0000 0.0000 0.0000 ( 13341 PWs)   bands (ev):

  -172.5778-172.4728-172.3849-172.3480-172.2157 -48.2689 -42.2128 -42.1413
   -42.1410 -42.1061 -42.0384 -42.0369 -41.7429 -41.6357 -25.1896 -25.0156
   -24.7767 -18.7816 -18.6976 -18.6703 -18.6660 -18.6655 -18.6377 -18.5749
   -18.5718 -18.5662 -18.5652 -18.4663 -18.4640 -18.2988 -18.2257 -18.2240
   -18.1902 -18.1881 -18.1779 -18.1233 -18.1205 -18.0763 -18.0756 -17.9346
   -17.8798 -16.9975 -16.9962 -16.8894  -3.9988  -3.9935  -3.5979  -3.1966
    -3.1945  -3.1929  -2.9915  -2.8481  -2.8442  -1.7562  -1.7416  -1.7373
    -1.7367  -1.7250  -1.7233  -1.7224   3.9504   5.4822   6.5470   6.5533
     7.1162   7.5590   7.5671   8.0692   8.0746   8.7297   8.9542   8.9576
     9.0332   9.4639   9.4768   9.5840   9.5902   9.7617   9.9596   9.9696
    10.3588  10.3643  10.8272  11.9812  12.2971  12.3353  13.5838  13.6689
    13.6758  13.8371  13.8434  14.2058  14.3498  14.3673  14.6566  15.0894
    15.1722  15.2350  15.2407  15.3323  15.3766  15.3861  15.6247  15.6370
    15.6409  15.9090  15.9885  16.0009  16.1694  16.1763  16.3249  16.3330
    16.3765  16.4287  16.4389

          k = 0.0000-0.0000-0.3254 ( 13474 PWs)   bands (ev):

  -173.2109-173.1633-173.0778-172.9704-172.7676 -48.2689 -42.2128 -42.1413
   -42.1410 -42.1061 -42.0384 -42.0369 -41.7429 -41.6357 -25.1897 -25.0156
   -24.7767 -18.7803 -18.6933 -18.6725 -18.6628 -18.6622 -18.6420 -18.5807
   -18.5787 -18.5659 -18.5638 -18.4656 -18.4632 -18.2988 -18.2170 -18.2149
   -18.1962 -18.1945 -18.1779 -18.1240 -18.1212 -18.0769 -18.0762 -17.9321
   -17.8816 -16.9975 -16.9962 -16.8894  -3.9986  -3.9933  -3.5780  -3.1954
    -3.1941  -3.1927  -3.0196  -2.8488  -2.8449  -1.7632  -1.7554  -1.7535
    -1.7489  -1.7431  -1.7424  -1.7378   4.2248   4.9448   6.7726   6.7799
     7.0490   7.0548   7.9342   8.2223   8.4935   8.5018   8.9048   8.9078
     9.0620   9.3620   9.3624   9.3676   9.6302   9.6317  10.0150  10.0162
    10.2563  10.2581  11.5134  11.6990  12.3365  12.6566  13.2598  13.5754
    13.5815  13.6225  13.8087  13.8137  14.8165  14.8810  14.8940  14.9930
    15.0056  15.1172  15.2998  15.3876  15.4896  15.4973  15.5078  15.5997
    15.6196  15.6243  15.7650  15.7739  15.8590  15.8663  16.1722  16.1898
    16.3538  16.3654  16.6890

          k =-0.5263-0.3044 0.0000 ( 13432 PWs)   bands (ev):

  -172.9872-172.9642-172.8291-172.7888-172.6844 -48.2689 -42.2001 -42.1542
   -42.1411 -42.0901 -42.0547 -42.0371 -41.7426 -41.6356 -25.1339 -25.0737
   -24.7777 -18.7432 -18.6814 -18.6650 -18.6435 -18.6260 -18.5817 -18.5710
   -18.5656 -18.5350 -18.5067 -18.4289 -18.3818 -18.3542 -18.3412 -18.2911
   -18.2712 -18.2253 -18.1866 -18.1829 -18.1270 -18.0809 -18.0749 -17.9159
   -17.8730 -16.9974 -16.9967 -16.8884  -4.1110  -3.9502  -3.5111  -3.3199
    -3.2598  -3.1908  -3.0275  -2.8720  -2.6875  -1.7630  -1.7527  -1.7511
    -1.7461  -1.7415  -1.7307  -1.7303   5.3249   6.1632   6.4364   6.6092
     6.9275   7.0978   7.4092   7.7601   7.9335   8.2004   8.2676   8.6067
     8.8101   9.1506   9.4138   9.5640   9.8154   9.9244  10.0176  10.4561
    10.4640  10.8811  11.2000  11.5676  12.7502  12.8697  13.2860  13.3678
    13.4886  13.5014  13.5886  13.6954  13.8347  13.9305  14.2573  14.5212
    14.7335  14.9258  15.0243  15.1735  15.3451  15.3572  15.5244  15.6245
    15.6799  15.7369  16.0444  16.1419  16.1835  16.3769  16.4391  16.5071
    16.5895  16.6915  16.7425

          k =-0.5263-0.3044-0.3254 ( 13394 PWs)   bands (ev):

  -172.8133-172.7545-172.6727-172.5873-172.5069 -48.2689 -42.2001 -42.1541
   -42.1411 -42.0901 -42.0547 -42.0370 -41.7426 -41.6356 -25.1339 -25.0737
   -24.7776 -18.7419 -18.6785 -18.6608 -18.6461 -18.6260 -18.5875 -18.5724
   -18.5705 -18.5348 -18.5069 -18.4278 -18.3816 -18.3531 -18.3330 -18.2973
   -18.2666 -18.2253 -18.1886 -18.1806 -18.1275 -18.0825 -18.0753 -17.9158
   -17.8734 -16.9974 -16.9967 -16.8884  -4.1106  -3.9466  -3.5025  -3.3097
    -3.2577  -3.1914  -3.0566  -2.8721  -2.6877  -1.7559  -1.7538  -1.7455
    -1.7399  -1.7323  -1.7311  -1.7269   5.4365   6.1446   6.4184   6.8399
     6.8874   7.1431   7.1516   7.4365   7.8229   8.2194   8.6041   8.7433
     8.8399   8.9557   9.0642   9.5849  10.1601  10.1929  10.2264  10.2846
    10.7186  10.7819  10.8980  11.2105  12.9459  13.1174  13.2790  13.3742
    13.4840  13.5127  13.5950  13.6305  13.8837  14.0795  14.1977  14.2160
    14.7232  14.8408  15.1134  15.2167  15.2580  15.2986  15.3288  15.5894
    15.9813  16.0639  16.0951  16.1051  16.2088  16.3680  16.3982  16.4450
    16.5415  16.6230  16.8031

          k =-0.5266 0.3049 0.0001 ( 13422 PWs)   bands (ev):

  -172.9671-172.8670-172.8252-172.7067-172.6462 -48.2689 -42.1998 -42.1545
   -42.1410 -42.0901 -42.0542 -42.0376 -41.7426 -41.6356 -25.1333 -25.0742
   -24.7777 -18.7428 -18.6818 -18.6649 -18.6431 -18.6249 -18.5815 -18.5701
   -18.5659 -18.5347 -18.5076 -18.4284 -18.3822 -18.3542 -18.3409 -18.2906
   -18.2712 -18.2262 -18.1874 -18.1826 -18.1284 -18.0805 -18.0753 -17.9158
   -17.8730 -16.9982 -16.9958 -16.8884  -4.1100  -3.9526  -3.5120  -3.3208
    -3.2601  -3.1905  -3.0271  -2.8693  -2.6871  -1.7618  -1.7525  -1.7480
    -1.7452  -1.7419  -1.7299  -1.7281   5.3267   6.1664   6.4371   6.6085
     6.9270   7.0994   7.4110   7.7594   7.9336   8.1965   8.2670   8.6070
     8.8126   9.1515   9.4124   9.5647   9.8127   9.9215  10.0236  10.4566
    10.4611  10.8788  11.2047  11.5665  12.7483  12.8729  13.2871  13.3693
    13.4858  13.5000  13.5874  13.6976  13.8371  13.9329  14.2601  14.5242
    14.7339  14.9246  15.0220  15.1723  15.3416  15.3600  15.5217  15.6236
    15.6732  15.7307  16.0421  16.1393  16.1859  16.3752  16.4343  16.5070
    16.5914  16.6927  16.7434

          k =-0.5266 0.3049-0.3253 ( 13398 PWs)   bands (ev):

  -172.8630-172.7488-172.6589-172.5940-172.5638 -48.2689 -42.1998 -42.1545
   -42.1410 -42.0901 -42.0542 -42.0376 -41.7426 -41.6356 -25.1333 -25.0742
   -24.7776 -18.7414 -18.6790 -18.6607 -18.6457 -18.6248 -18.5873 -18.5727
   -18.5696 -18.5345 -18.5079 -18.4273 -18.3820 -18.3532 -18.3326 -18.2969
   -18.2666 -18.2264 -18.1894 -18.1803 -18.1289 -18.0821 -18.0758 -17.9157
   -17.8734 -16.9982 -16.9959 -16.8884  -4.1095  -3.9490  -3.5034  -3.3105
    -3.2582  -3.1911  -3.0563  -2.8694  -2.6874  -1.7572  -1.7529  -1.7458
    -1.7398  -1.7339  -1.7316  -1.7272   5.4376   6.1477   6.4213   6.8427
     6.8861   7.1417   7.1513   7.4348   7.8227   8.2195   8.6004   8.7446
     8.8407   8.9578   9.0651   9.5794  10.1620  10.1928  10.2268  10.2858
    10.7191  10.7818  10.8985  11.2091  12.9463  13.1176  13.2805  13.3753
    13.4811  13.5110  13.5986  13.6329  13.8839  14.0793  14.1984  14.2184
    14.7208  14.8391  15.1138  15.2171  15.2544  15.2969  15.3244  15.5874
    15.9768  16.0591  16.0934  16.1037  16.2084  16.3661  16.4002  16.4434
    16.5379  16.6199  16.8051

          k =-1.0529 0.0006 0.0001 ( 13432 PWs)   bands (ev):

  -173.0197-172.9341-172.9102-172.6964-172.6851 -48.2689 -42.1997 -42.1543
   -42.1413 -42.0901 -42.0534 -42.0384 -41.7426 -41.6356 -25.1325 -25.0750
   -24.7777 -18.7424 -18.6817 -18.6653 -18.6426 -18.6237 -18.5811 -18.5691
   -18.5664 -18.5342 -18.5087 -18.4276 -18.3828 -18.3542 -18.3403 -18.2898
   -18.2713 -18.2278 -18.1886 -18.1820 -18.1301 -18.0804 -18.0755 -17.9157
   -17.8729 -16.9985 -16.9956 -16.8884  -4.1089  -3.9559  -3.5124  -3.3212
    -3.2612  -3.1894  -3.0264  -2.8660  -2.6879  -1.7639  -1.7523  -1.7493
    -1.7478  -1.7435  -1.7310  -1.7268   5.3296   6.1701   6.4379   6.6076
     6.9259   7.1000   7.4139   7.7578   7.9349   8.1912   8.2656   8.6076
     8.8163   9.1522   9.4125   9.5657   9.8092   9.9177  10.0308  10.4560
    10.4576  10.8755  11.2110  11.5648  12.7459  12.8773  13.2879  13.3709
    13.4823  13.4980  13.5849  13.7004  13.8401  13.9354  14.2635  14.5282
    14.7338  14.9221  15.0181  15.1709  15.3363  15.3618  15.5179  15.6221
    15.6641  15.7222  16.0382  16.1360  16.1889  16.3727  16.4264  16.5060
    16.5912  16.6947  16.7406

          k =-1.0529 0.0005-0.3253 ( 13396 PWs)   bands (ev):

  -172.9328-172.7178-172.6349-172.5917-172.5011 -48.2689 -42.1997 -42.1543
   -42.1413 -42.0901 -42.0534 -42.0384 -41.7426 -41.6356 -25.1325 -25.0750
   -24.7776 -18.7410 -18.6788 -18.6611 -18.6453 -18.6235 -18.5871 -18.5732
   -18.5686 -18.5341 -18.5089 -18.4265 -18.3825 -18.3532 -18.3318 -18.2963
   -18.2665 -18.2282 -18.1905 -18.1798 -18.1306 -18.0821 -18.0759 -17.9156
   -17.8733 -16.9985 -16.9956 -16.8884  -4.1085  -3.9524  -3.5037  -3.3107
    -3.2597  -3.1900  -3.0557  -2.8659  -2.6882  -1.7571  -1.7529  -1.7468
    -1.7386  -1.7349  -1.7297  -1.7265   5.4400   6.1501   6.4262   6.8446
     6.8846   7.1392   7.1503   7.4333   7.8237   8.2198   8.5950   8.7452
     8.8420   8.9608   9.0674   9.5740  10.1637  10.1935  10.2279  10.2861
    10.7209  10.7814  10.8982  11.2078  12.9468  13.1179  13.2828  13.3762
    13.4778  13.5084  13.6020  13.6368  13.8832  14.0798  14.2001  14.2208
    14.7175  14.8364  15.1151  15.2166  15.2488  15.2964  15.3194  15.5864
    15.9708  16.0534  16.0926  16.1031  16.2092  16.3628  16.4036  16.4429
    16.5339  16.6159  16.8008

     the Fermi energy is    14.7686 ev

!    total energy              =   -5854.24674100 Ry
     estimated scf accuracy    <       0.00000057 Ry
     smearing contrib. (-TS)   =       0.00040335 Ry
     internal energy E=F+TS    =   -5854.24714435 Ry

     The total energy is F=E-TS. E is the sum of the following terms:
     one-electron contribution =   -2115.98310176 Ry
     hartree contribution      =    1126.71431742 Ry
     xc contribution           =    -533.82463390 Ry
     ewald contribution        =   -1401.90507321 Ry
     one-center paw contrib.   =   -2929.24865290 Ry

     convergence has been achieved in  36 iterations

     Forces acting on atoms (cartesian axes, Ry/au):

     atom    1 type  2   force =     0.00020990    0.00031660   -0.07577521
     atom    2 type  3   force =    -0.00012417   -0.00034053   -0.09946319
     atom    3 type  3   force =    -0.00015608   -0.00014542    0.11781234
     atom    4 type  3   force =     0.00017984    0.00044604    0.10010467
     atom    5 type  4   force =    -0.04400530   -0.02561906    0.00266193
     atom    6 type  4   force =     0.00008773   -0.06287004    0.00754385
     atom    7 type  4   force =    -0.05427655    0.03162386    0.00767274
     atom    8 type  4   force =     0.04391149   -0.02574538    0.00257092
     atom    9 type  4   force =    -0.00015651    0.05096697    0.00263619
     atom   10 type  4   force =     0.05433020    0.03155271    0.00773554
     atom   11 type  4   force =    -0.00029913   -0.00029320   -0.01721193
     atom   12 type  4   force =    -0.00005679   -0.00010071    0.00521160
     atom   13 type  1   force =    -0.00002852    0.00086913   -0.00903346
     atom   14 type  1   force =    -0.00127196   -0.00078437   -0.00972916
     atom   15 type  1   force =     0.00092608   -0.00061454   -0.00945812
     atom   16 type  1   force =    -0.00399826    0.00243916    0.00200957
     atom   17 type  1   force =    -0.00169002   -0.00089593   -0.00646473
     atom   18 type  1   force =     0.00005431   -0.00411913    0.00241492
     atom   19 type  1   force =     0.00411222    0.00243624    0.00165087
     atom   20 type  1   force =    -0.00004472    0.00267289    0.00213199
     atom   21 type  1   force =     0.00268676   -0.00167179    0.00252920
     atom   22 type  1   force =     0.00211341   -0.00108610   -0.00680089
     atom   23 type  1   force =     0.00004872    0.00238991   -0.00726037
     atom   24 type  1   force =    -0.00276359   -0.00166010    0.00288258
     atom   25 type  1   force =    -0.00523015   -0.00322092   -0.00856388
     atom   26 type  1   force =     0.00011019    0.00940497   -0.01265462
     atom   27 type  1   force =     0.00809505   -0.00424010   -0.01217119
     atom   28 type  1   force =     0.00506398   -0.00334417   -0.00880493
     atom   29 type  1   force =    -0.00018946    0.00575104   -0.00900279
     atom   30 type  1   force =    -0.01187221   -0.00665012    0.00350763
     atom   31 type  1   force =     0.00023427    0.01436383    0.00400905
     atom   32 type  1   force =    -0.00772860   -0.00416011   -0.01188304
     atom   33 type  1   force =     0.01222604   -0.00659092    0.00374454
     atom   34 type  1   force =    -0.01032718    0.00548042    0.00843324
     atom   35 type  1   force =     0.00996364    0.00542767    0.00816809
     atom   36 type  1   force =    -0.00013465   -0.01198878    0.00884604

     Total force =     0.250041     Total SCF correction =     0.001345


     Computing stress (Cartesian axis) and pressure

          total   stress  (Ry/bohr**3)                   (kbar)     P=    -3503.21
  -0.02390671  -0.00002558  -0.00000780        -3516.80       -3.76       -1.15
  -0.00002558  -0.02382631   0.00000622           -3.76    -3504.97        0.92
  -0.00000780   0.00000622  -0.02371007           -1.15        0.92    -3487.87

     Energy error            =      9.4E+00
     Gradient error          =      1.2E-01
     Cell gradient error     =      2.4E-02


     number of scf cycles    =   2
     number of bfgs steps    =   1

     enthalpy old            =   -5844.8918768588 Ry
     enthalpy new            =   -5854.2467410038 Ry

     CASE: enthalpy_new < enthalpy_old

     new trust radius        =       0.7302328391 bohr
     new conv_thr            =       0.0000010000 Ry

     new unit-cell volume =   1495.76984 a.u.^3 (   221.65022 Ang^3 )
     density =      0.26970 g/cm^3

CELL_PARAMETERS (angstrom)
   2.689119407  -4.653857935   0.000342366
   2.690968247   4.654924242  -0.000230396
   0.000155773  -0.000505599   8.851481496

ATOMIC_POSITIONS (angstrom)
Hf            2.6904992674        1.5518579485        4.1067669298
Th            2.6898960593       -1.5515279931        8.4024957884
Th            2.6897223187       -1.5512694405        4.8382482117
Th            2.6903583379        1.5521064460        0.4363740318
Ti            1.3650598073        0.7868467586        6.5905905108
Ti            2.6895920237       -3.0619308475        2.2644414540
Ti            1.3802392304       -0.7956059190        2.2643379340
Ti            4.0155059645        0.7872685845        6.5905737147
Ti            2.6906514974        3.0804122225        6.5904641713
Ti            3.9996757053       -0.7951900789        2.2643422637
Ti           -0.0000339672       -0.0004962557        4.4912793749
Ti           -0.0000433065       -0.0000291068        0.0046517451
H             2.6907432824        3.1354000667        4.9623782337
H             1.3172868362        0.7595586954        4.9621878897
H             4.0632310027        0.7601417935        4.9623720988
H             1.2479966728       -0.7196365318        0.6398968608
H             4.1599006421       -0.7031372489        3.8406049687
H             2.6894171171       -3.2139508540        0.6402107835
H             4.1318391642       -0.7190853113        0.6398064760
H             2.6908400642        3.2224815973        8.1966662285
H             4.1391299660        0.7162170645        8.1969795906
H             1.2201629882       -0.7037825719        3.8404310972
H             2.6894867099       -3.2465453467        3.8404522440
H             1.2415363960        0.7156632983        8.1970762277
H             1.4415061871       -2.2712560743        3.1959977909
H             2.6902812945        0.2721180513        7.5239365124
H             1.5813726649        2.1912802482        7.5241091781
H             3.9377080129       -2.2708155171        3.1958710972
H             2.6899841163       -0.1115591722        3.1955100618
H             3.7940869134        2.1884012328        5.6658477518
H             2.6902996300        0.2790864211        5.6662834139
H             3.8000373433        2.1917659900        7.5243064552
H             1.5872116960        2.1879920826        5.6659669250
H             3.8122776944       -2.1984713294        1.3271412873
H             1.5668033555       -2.1989588935        1.3269390661
H             2.6899595444       -0.2560647019        1.3272965965



     Writing output data file ./tmp/HfTh3TiH38.save/
     NEW-OLD atomic charge density approx. for the potential

     Check: negative core charge=   -0.000001

     negative rho (up, down):  2.850E-02 0.000E+00
     extrapolated charge  141.18557, renormalised to  192.00000

     total cpu time spent up to now is     5219.2 secs

     Self-consistent Calculation

     iteration #  1     ecut=    50.00 Ry     beta= 0.70
     Davidson diagonalization with overlap
     c_bands:  1 eigenvalues not converged
     ethr =  1.00E-06,  avg # of iterations = 37.4

     negative rho (up, down):  3.500E-03 0.000E+00

     total cpu time spent up to now is     5465.5 secs

     total energy              =   -4802.47487418 Ry
     estimated scf accuracy    <    1041.15077766 Ry

     iteration #  2     ecut=    50.00 Ry     beta= 0.70
     Davidson diagonalization with overlap
     ethr =  1.00E-02,  avg # of iterations = 33.4

     total cpu time spent up to now is     5744.5 secs

     total energy              =   -5835.55112591 Ry
     estimated scf accuracy    <    9398.24133227 Ry

     iteration #  3     ecut=    50.00 Ry     beta= 0.70
     Davidson diagonalization with overlap
     ethr =  1.00E-02,  avg # of iterations = 16.5

     total cpu time spent up to now is     5853.0 secs

     total energy              =   -5858.87178023 Ry
     estimated scf accuracy    <    2756.23943207 Ry

     iteration #  4     ecut=    50.00 Ry     beta= 0.70
     Davidson diagonalization with overlap
     ethr =  1.00E-02,  avg # of iterations = 14.6

     total cpu time spent up to now is     5959.0 secs

     total energy              =   -5906.68363540 Ry
     estimated scf accuracy    <    1988.05406780 Ry

     iteration #  5     ecut=    50.00 Ry     beta= 0.70
     Davidson diagonalization with overlap
     ethr =  1.00E-02,  avg # of iterations =  8.2

     total cpu time spent up to now is     6022.1 secs

     total energy              =   -5786.34198187 Ry
     estimated scf accuracy    <    1121.42505760 Ry

     iteration #  6     ecut=    50.00 Ry     beta= 0.70
     Davidson diagonalization with overlap
     ethr =  1.00E-02,  avg # of iterations = 16.0

     total cpu time spent up to now is     6106.9 secs

     total energy              =   -5859.83296628 Ry
     estimated scf accuracy    <     137.01319430 Ry

     iteration #  7     ecut=    50.00 Ry     beta= 0.70
     Davidson diagonalization with overlap
     ethr =  1.00E-02,  avg # of iterations =  5.1

     total cpu time spent up to now is     6154.9 secs

     total energy              =   -5866.01247515 Ry
     estimated scf accuracy    <      35.85329361 Ry

     iteration #  8     ecut=    50.00 Ry     beta= 0.70
     Davidson diagonalization with overlap
     ethr =  1.00E-02,  avg # of iterations =  2.0

     total cpu time spent up to now is     6197.5 secs

     total energy              =   -5867.19719203 Ry
     estimated scf accuracy    <      17.48320200 Ry

     iteration #  9     ecut=    50.00 Ry     beta= 0.70
     Davidson diagonalization with overlap
     ethr =  9.11E-03,  avg # of iterations =  8.5
