
     Program PWSCF v.6.1 starts on 24Dec2025 at  8:19:13 

     This program is part of the open-source Quantum ESPRESSO suite
     for quantum simulation of materials; please cite
         "P. Giannozzi et al., J. Phys.:Condens. Matter 21 395502 (2009);
          URL http://www.quantum-espresso.org", 
     in publications or presentations arising from this work. More details at
     http://www.quantum-espresso.org/quote

     Parallel version (MPI & OpenMP), running on      12 processor cores
     Number of MPI processes:                 1
     Threads/MPI process:                    12
     Waiting for input...
     Reading input from standard input

     Current dimensions of program PWSCF are:
     Max number of different atomic species (ntypx) = 10
     Max number of k-points (npk) =  40000
     Max angular momentum in pseudopotentials (lmaxx) =  3
               file H.UPF: wavefunction(s)  1S renormalized

     Subspace diagonalization in iterative solution of the eigenvalue problem:
     a serial algorithm will be used


     G-vector sticks info
     --------------------
     sticks:   dense  smooth     PW     G-vecs:    dense   smooth      PW
     Sum        1627     805    241                42735    15089    2445



     bravais-lattice index     =            0
     lattice parameter (alat)  =       7.6483  a.u.
     unit-cell volume          =     316.3529 (a.u.)^3
     number of atoms/cell      =            4
     number of atomic types    =            2
     number of electrons       =        13.00
     number of Kohn-Sham states=           11
     kinetic-energy cutoff     =      50.0000  Ry
     charge density cutoff     =     400.0000  Ry
     convergence threshold     =      1.0E-08
     mixing beta               =       0.7000
     number of iterations used =            8  plain     mixing
     Exchange-correlation      = SLA  PW   PBE  PBE ( 1  4  3  4 0 0)

     celldm(1)=   7.648253  celldm(2)=   0.000000  celldm(3)=   0.000000
     celldm(4)=   0.000000  celldm(5)=   0.000000  celldm(6)=   0.000000

     crystal axes: (cart. coord. in units of alat)
               a(1) = (  -0.000000   0.707107   0.707107 )  
               a(2) = (   0.707107   0.000000   0.707107 )  
               a(3) = (   0.707107   0.707107   0.000000 )  

     reciprocal axes: (cart. coord. in units 2 pi/alat)
               b(1) = ( -0.707107  0.707107  0.707107 )  
               b(2) = (  0.707107 -0.707107  0.707107 )  
               b(3) = (  0.707107  0.707107 -0.707107 )  


     PseudoPot. # 1 for  H read from file:
     C:/Users/Acer/Desktop/Quantum_Espresso/pseudo/H.UPF
     MD5 check sum: 850d63dcbcc06c5de8b44e0ab9f952da
     Pseudo is Projector augmented-wave, Zval =  1.0
     Generated using "atomic" code by A. Dal Corso  v.5.1.2
     Shape of augmentation charge: PSQ
     Using radial grid of  929 points,  2 beta functions with: 
                l(1) =   0
                l(2) =   0
     Q(r) pseudized with 0 coefficients 


     PseudoPot. # 2 for Sr read from file:
     C:/Users/Acer/Desktop/Quantum_Espresso/pseudo/Sr.UPF
     MD5 check sum: 71c4688e601547c0814ef38edf55aea6
     Pseudo is Ultrasoft + core correction, Zval = 10.0
     Generated by new atomic code, or converted to UPF format
     Using radial grid of  883 points,  6 beta functions with: 
                l(1) =   0
                l(2) =   0
                l(3) =   1
                l(4) =   1
                l(5) =   2
                l(6) =   2
     Q(r) pseudized with  8 coefficients,  rinner =    1.200   1.200   1.200
                                                       1.200   1.200

     atomic species   valence    mass     pseudopotential
        H              1.00     1.00000      H( 1.00)
        Sr            10.00     1.00000     Sr( 1.00)

     48 Sym. Ops., with inversion, found



   Cartesian axes

     site n.     atom                  positions (alat units)
         1           Sr  tau(   1) = (   0.0000000   0.0000000   0.0000000  )
         2           H   tau(   2) = (   1.0606577   1.0606577   1.0606577  )
         3           H   tau(   3) = (   0.3535534   0.3535534   0.3535534  )
         4           H   tau(   4) = (   0.7071068   0.7071068   0.7071068  )

     number of k points=     8  Methfessel-Paxton smearing, width (Ry)=  0.0100
                       cart. coord. in units 2pi/alat
        k(    1) = (   0.0000000   0.0000000   0.0000000), wk =   0.0312500
        k(    2) = (   0.1767767   0.1767767  -0.1767767), wk =   0.2500000
        k(    3) = (  -0.3535534  -0.3535534   0.3535534), wk =   0.1250000
        k(    4) = (   0.3535534   0.0000000   0.0000000), wk =   0.1875000
        k(    5) = (  -0.1767767  -0.5303301   0.5303301), wk =   0.7500000
        k(    6) = (   0.0000000  -0.3535534   0.3535534), wk =   0.3750000
        k(    7) = (  -0.7071068   0.0000000   0.0000000), wk =   0.0937500
        k(    8) = (  -0.7071068   0.3535534   0.0000000), wk =   0.1875000

     Dense  grid:    42735 G-vectors     FFT dimensions: (  50,  50,  50)

     Smooth grid:    15089 G-vectors     FFT dimensions: (  36,  36,  36)

     Estimated max dynamical RAM per process >      32.29MB

     Initial potential from superposition of free atoms

     starting charge   12.96632, renormalised to   13.00000
     Starting wfc are   16 randomized atomic wfcs
     Checking if some PAW data can be deallocated... 

     total cpu time spent up to now is        1.4 secs

     Self-consistent Calculation

     iteration #  1     ecut=    50.00 Ry     beta=0.70
     Davidson diagonalization with overlap
     ethr =  1.00E-02,  avg # of iterations =  2.5

     total cpu time spent up to now is        2.2 secs

     total energy              =     -76.80958799 Ry
     Harris-Foulkes estimate   =     -76.89268170 Ry
     estimated scf accuracy    <       0.14461494 Ry

     iteration #  2     ecut=    50.00 Ry     beta=0.70
     Davidson diagonalization with overlap
     ethr =  1.11E-03,  avg # of iterations =  2.2

     total cpu time spent up to now is        2.9 secs

     total energy              =     -76.83274164 Ry
     Harris-Foulkes estimate   =     -76.84487787 Ry
     estimated scf accuracy    <       0.02289968 Ry

     iteration #  3     ecut=    50.00 Ry     beta=0.70
     Davidson diagonalization with overlap
     ethr =  1.76E-04,  avg # of iterations =  2.2

     total cpu time spent up to now is        3.6 secs

     total energy              =     -76.83951965 Ry
     Harris-Foulkes estimate   =     -76.84177420 Ry
     estimated scf accuracy    <       0.00549223 Ry

     iteration #  4     ecut=    50.00 Ry     beta=0.70
     Davidson diagonalization with overlap
     ethr =  4.22E-05,  avg # of iterations =  1.9

     total cpu time spent up to now is        4.3 secs

     total energy              =     -76.84016197 Ry
     Harris-Foulkes estimate   =     -76.84020501 Ry
     estimated scf accuracy    <       0.00016121 Ry

     iteration #  5     ecut=    50.00 Ry     beta=0.70
     Davidson diagonalization with overlap
     ethr =  1.24E-06,  avg # of iterations =  4.2

     total cpu time spent up to now is        5.3 secs

     total energy              =     -76.84019944 Ry
     Harris-Foulkes estimate   =     -76.84020101 Ry
     estimated scf accuracy    <       0.00000676 Ry

     iteration #  6     ecut=    50.00 Ry     beta=0.70
     Davidson diagonalization with overlap
     ethr =  5.20E-08,  avg # of iterations =  2.1

     total cpu time spent up to now is        6.0 secs

     total energy              =     -76.84020093 Ry
     Harris-Foulkes estimate   =     -76.84020101 Ry
     estimated scf accuracy    <       0.00000017 Ry

     iteration #  7     ecut=    50.00 Ry     beta=0.70
     Davidson diagonalization with overlap
     ethr =  1.29E-09,  avg # of iterations =  2.2

     total cpu time spent up to now is        6.7 secs

     End of self-consistent calculation

          k = 0.0000 0.0000 0.0000 (  1917 PWs)   bands (ev):

   -28.6248 -10.5028 -10.5028 -10.5028  -1.0274   5.2071   6.7245   9.2778
     9.2778   9.2778  11.5773

          k = 0.1768 0.1768-0.1768 (  1889 PWs)   bands (ev):

   -28.6069 -10.7489 -10.5283 -10.5283  -0.0369   3.8316   5.8134   9.4379
     9.4379  11.2255  11.2256

          k =-0.3536-0.3536 0.3536 (  1892 PWs)   bands (ev):

   -28.5889 -10.9746 -10.5535 -10.5535   1.8363   1.9941   5.3637   9.0212
     9.0212  12.7778  12.7778

          k = 0.3536 0.0000 0.0000 (  1876 PWs)   bands (ev):

   -28.6010 -10.7469 -10.5735 -10.5735   0.2558   3.6406   5.0605   9.9810
     9.9810  11.0283  12.1808

          k =-0.1768-0.5303 0.5303 (  1881 PWs)   bands (ev):

   -28.5831 -10.8906 -10.6759 -10.5987   1.7521   2.7288   3.9104   9.9562
    10.6721  11.8045  12.8985

          k = 0.0000-0.3536 0.3536 (  1883 PWs)   bands (ev):

   -28.5890 -10.8412 -10.6875 -10.5539   1.2037   3.2798   4.0890   9.8031
    10.8953  10.9083  12.7204

          k =-0.7071 0.0000 0.0000 (  1868 PWs)   bands (ev):

   -28.5773 -10.9479 -10.6433 -10.6433   2.0174   2.7390   3.2321  11.9223
    11.9223  12.1911  12.9650

          k =-0.7071 0.3536 0.0000 (  1888 PWs)   bands (ev):

   -28.5772 -10.7987 -10.7987 -10.6551   2.3701   2.9837   2.9837   9.0160
    12.7867  12.9430  13.1352

     the Fermi energy is     4.0035 ev

!    total energy              =     -76.84020098 Ry
     Harris-Foulkes estimate   =     -76.84020099 Ry
     estimated scf accuracy    <          4.6E-09 Ry

     The total energy is the sum of the following terms:

     one-electron contribution =     -15.13326499 Ry
     hartree contribution      =      11.12178812 Ry
     xc contribution           =     -23.68936632 Ry
     ewald contribution        =     -49.13897590 Ry
     one-center paw contrib.   =      -0.00042494 Ry
     smearing contrib. (-TS)   =       0.00004305 Ry

     convergence has been achieved in   7 iterations

     Writing output data file 08_SrH3.save

     init_run     :      1.16s CPU      1.14s WALL (       1 calls)
     electrons    :     10.11s CPU      5.27s WALL (       1 calls)

     Called by init_run:
     wfcinit      :      0.25s CPU      0.21s WALL (       1 calls)
     potinit      :      0.17s CPU      0.11s WALL (       1 calls)

     Called by electrons:
     c_bands      :      4.16s CPU      2.66s WALL (       7 calls)
     sum_band     :      3.44s CPU      1.39s WALL (       7 calls)
     v_of_rho     :      0.88s CPU      0.54s WALL (       8 calls)
     newd         :      1.48s CPU      0.65s WALL (       8 calls)
     PAW_pot      :      0.12s CPU      0.07s WALL (       8 calls)
     mix_rho      :      0.05s CPU      0.05s WALL (       7 calls)

     Called by c_bands:
     init_us_2    :      0.31s CPU      0.41s WALL (     120 calls)
     cegterg      :      3.92s CPU      2.28s WALL (      56 calls)

     Called by sum_band:
     sum_band:bec :      0.02s CPU      0.00s WALL (      56 calls)
     addusdens    :      3.03s CPU      0.92s WALL (       7 calls)

     Called by *egterg:
     h_psi        :      3.41s CPU      1.37s WALL (     204 calls)
     s_psi        :      0.03s CPU      0.04s WALL (     204 calls)
     g_psi        :      0.00s CPU      0.01s WALL (     140 calls)
     cdiaghg      :      0.62s CPU      0.74s WALL (     196 calls)

     Called by h_psi:
     h_psi:pot    :      3.39s CPU      1.33s WALL (     204 calls)
     h_psi:calbec :      0.00s CPU      0.07s WALL (     204 calls)
     vloc_psi     :      3.39s CPU      1.14s WALL (     204 calls)
     add_vuspsi   :      0.00s CPU      0.13s WALL (     204 calls)

     General routines
     calbec       :      0.00s CPU      0.10s WALL (     260 calls)
     fft          :      0.44s CPU      0.13s WALL (     124 calls)
     ffts         :      0.16s CPU      0.01s WALL (      15 calls)
     fftw         :      2.86s CPU      0.93s WALL (    3722 calls)
     interpolate  :      0.17s CPU      0.04s WALL (      15 calls)
     davcio       :      0.00s CPU      0.00s WALL (       8 calls)

     Parallel routines
     fft_scatter  :      0.02s CPU      0.09s WALL (    3861 calls)

     PWSCF        :    11.47s CPU         6.76s WALL


   This run was terminated on:   8:19:20  24Dec2025            

=------------------------------------------------------------------------------=
   JOB DONE.
=------------------------------------------------------------------------------=
