
     Program PWSCF v.6.1 starts on 24Dec2025 at  8:19:20 

     This program is part of the open-source Quantum ESPRESSO suite
     for quantum simulation of materials; please cite
         "P. Giannozzi et al., J. Phys.:Condens. Matter 21 395502 (2009);
          URL http://www.quantum-espresso.org", 
     in publications or presentations arising from this work. More details at
     http://www.quantum-espresso.org/quote

     Parallel version (MPI & OpenMP), running on      12 processor cores
     Number of MPI processes:                 1
     Threads/MPI process:                    12
     Waiting for input...
     Reading input from standard input

     Current dimensions of program PWSCF are:
     Max number of different atomic species (ntypx) = 10
     Max number of k-points (npk) =  40000
     Max angular momentum in pseudopotentials (lmaxx) =  3

     Atomic positions and unit cell read from directory:
     ./tmp/08_SrH3.save/

               file H.UPF: wavefunction(s)  1S renormalized

     Subspace diagonalization in iterative solution of the eigenvalue problem:
     a serial algorithm will be used


     G-vector sticks info
     --------------------
     sticks:   dense  smooth     PW     G-vecs:    dense   smooth      PW
     Sum        1627     805    253                42735    15089    2637



     bravais-lattice index     =            0
     lattice parameter (alat)  =       7.6483  a.u.
     unit-cell volume          =     316.3529 (a.u.)^3
     number of atoms/cell      =            4
     number of atomic types    =            2
     number of electrons       =        13.00
     number of Kohn-Sham states=           11
     kinetic-energy cutoff     =      50.0000  Ry
     charge density cutoff     =     400.0000  Ry
     Exchange-correlation      = SLA  PW   PBE  PBE ( 1  4  3  4 0 0)

     celldm(1)=   7.648253  celldm(2)=   0.000000  celldm(3)=   0.000000
     celldm(4)=   0.000000  celldm(5)=   0.000000  celldm(6)=   0.000000

     crystal axes: (cart. coord. in units of alat)
               a(1) = (  -0.000000   0.707107   0.707107 )  
               a(2) = (   0.707107   0.000000   0.707107 )  
               a(3) = (   0.707107   0.707107   0.000000 )  

     reciprocal axes: (cart. coord. in units 2 pi/alat)
               b(1) = ( -0.707107  0.707107  0.707107 )  
               b(2) = (  0.707107 -0.707107  0.707107 )  
               b(3) = (  0.707107  0.707107 -0.707107 )  


     PseudoPot. # 1 for  H read from file:
     C:/Users/Acer/Desktop/Quantum_Espresso/pseudo/H.UPF
     MD5 check sum: f872269930354f4c44a8fadb7eac41ed
     Pseudo is Projector augmented-wave, Zval =  1.0
     Generated using "atomic" code by A. Dal Corso  v.5.1.2
     Shape of augmentation charge: PSQ
     Using radial grid of  929 points,  2 beta functions with: 
                l(1) =   0
                l(2) =   0
     Q(r) pseudized with 0 coefficients 


     PseudoPot. # 2 for Sr read from file:
     C:/Users/Acer/Desktop/Quantum_Espresso/pseudo/Sr.UPF
     MD5 check sum: c68c63002e5401f2868976ad802e5de3
     Pseudo is Ultrasoft + core correction, Zval = 10.0
     Generated by new atomic code, or converted to UPF format
     Using radial grid of  883 points,  6 beta functions with: 
                l(1) =   0
                l(2) =   0
                l(3) =   1
                l(4) =   1
                l(5) =   2
                l(6) =   2
     Q(r) pseudized with  8 coefficients,  rinner =    1.200   1.200   1.200
                                                       1.200   1.200

     atomic species   valence    mass     pseudopotential
        H              1.00     1.00000      H( 1.00)
        Sr            10.00     1.00000     Sr( 1.00)

     48 Sym. Ops., with inversion, found



   Cartesian axes

     site n.     atom                  positions (alat units)
         1           Sr  tau(   1) = (   0.0000000   0.0000000   0.0000000  )
         2           H   tau(   2) = (   1.0606577   1.0606577   1.0606577  )
         3           H   tau(   3) = (   0.3535534   0.3535534   0.3535534  )
         4           H   tau(   4) = (   0.7071068   0.7071068   0.7071068  )

     number of k points=    29 (tetrahedron method)
                       cart. coord. in units 2pi/alat
        k(    1) = (   0.0000000   0.0000000   0.0000000), wk =   0.0039062
        k(    2) = (   0.0883883   0.0883883  -0.0883883), wk =   0.0312500
        k(    3) = (   0.1767767   0.1767767  -0.1767767), wk =   0.0312500
        k(    4) = (   0.2651650   0.2651650  -0.2651650), wk =   0.0312500
        k(    5) = (  -0.3535534  -0.3535534   0.3535534), wk =   0.0156250
        k(    6) = (   0.1767767   0.0000000   0.0000000), wk =   0.0234375
        k(    7) = (   0.2651650   0.0883883  -0.0883883), wk =   0.0937500
        k(    8) = (   0.3535534   0.1767767  -0.1767767), wk =   0.0937500
        k(    9) = (  -0.2651650  -0.4419417   0.4419417), wk =   0.0937500
        k(   10) = (  -0.1767767  -0.3535534   0.3535534), wk =   0.0937500
        k(   11) = (  -0.0883883  -0.2651650   0.2651650), wk =   0.0937500
        k(   12) = (   0.0000000  -0.1767767   0.1767767), wk =   0.0468750
        k(   13) = (   0.3535534   0.0000000   0.0000000), wk =   0.0234375
        k(   14) = (   0.4419417   0.0883883  -0.0883883), wk =   0.0937500
        k(   15) = (  -0.1767767  -0.5303301   0.5303301), wk =   0.0937500
        k(   16) = (  -0.0883883  -0.4419417   0.4419417), wk =   0.0937500
        k(   17) = (   0.0000000  -0.3535534   0.3535534), wk =   0.0468750
        k(   18) = (   0.5303301   0.0000000   0.0000000), wk =   0.0234375
        k(   19) = (  -0.0883883  -0.6187184   0.6187184), wk =   0.0937500
        k(   20) = (   0.0000000  -0.5303301   0.5303301), wk =   0.0468750
        k(   21) = (  -0.7071068   0.0000000   0.0000000), wk =   0.0117188
        k(   22) = (   0.3535534   0.1767767  -0.0000000), wk =   0.0937500
        k(   23) = (  -0.2651650  -0.4419417   0.6187184), wk =   0.1875000
        k(   24) = (  -0.1767767  -0.3535534   0.5303301), wk =   0.0937500
        k(   25) = (  -0.1767767  -0.5303301   0.7071068), wk =   0.0937500
        k(   26) = (  -0.0883883  -0.4419417   0.6187184), wk =   0.1875000
        k(   27) = (   0.0000000  -0.3535534   0.5303301), wk =   0.0937500
        k(   28) = (  -0.7071068   0.1767767   0.0000000), wk =   0.0468750
        k(   29) = (  -0.7071068   0.3535534   0.0000000), wk =   0.0234375

     Dense  grid:    42735 G-vectors     FFT dimensions: (  50,  50,  50)

     Smooth grid:    15089 G-vectors     FFT dimensions: (  36,  36,  36)

     Estimated max dynamical RAM per process >      17.71MB

     The potential is recalculated from file :
     ./tmp/08_SrH3.save/charge-density.dat

     Starting wfc are   16 randomized atomic wfcs
     Checking if some PAW data can be deallocated... 

     Band Structure Calculation
     Davidson diagonalization with overlap

     ethr =  7.69E-11,  avg # of iterations = 22.9

     total cpu time spent up to now is       11.1 secs

     End of band structure calculation

          k = 0.0000 0.0000 0.0000 (  1917 PWs)   bands (ev):

   -28.6248 -10.5029 -10.5029 -10.5029  -1.0273   5.2068   6.7248   9.2778
     9.2778   9.2778  11.5773

          k = 0.0884 0.0884-0.0884 (  1883 PWs)   bands (ev):

   -28.6196 -10.5773 -10.5104 -10.5104  -0.7573   4.7268   6.4198   9.4013
     9.4013  10.0569  11.2641

          k = 0.1768 0.1768-0.1768 (  1889 PWs)   bands (ev):

   -28.6069 -10.7489 -10.5284 -10.5284  -0.0369   3.8314   5.8136   9.4379
     9.4379  11.2255  11.2256

          k = 0.2652 0.2652-0.2652 (  1889 PWs)   bands (ev):

   -28.5942 -10.9104 -10.5462 -10.5462   0.9193   2.8827   5.4438   9.1615
     9.1616  12.0619  12.0620

          k =-0.3536-0.3536 0.3536 (  1892 PWs)   bands (ev):

   -28.5889 -10.9747 -10.5536 -10.5536   1.8362   1.9943   5.3637   9.0212
     9.0212  12.7778  12.7778

          k = 0.1768 0.0000 0.0000 (  1900 PWs)   bands (ev):

   -28.6178 -10.5796 -10.5237 -10.5237  -0.6697   4.5979   6.2776   9.4433
     9.4433  10.3057  10.9175

          k = 0.2652 0.0884-0.0884 (  1902 PWs)   bands (ev):

   -28.6077 -10.7052 -10.5457 -10.5418  -0.1060   3.9615   5.6013   9.5896
     9.9227  10.5994  11.6134

          k = 0.3536 0.1768-0.1768 (  1887 PWs)   bands (ev):

   -28.5950 -10.8569 -10.5703 -10.5636   0.7616   3.1892   4.9955   9.4563
    10.0402  11.0636  12.3993

          k =-0.2652-0.4419 0.4419 (  1890 PWs)   bands (ev):

   -28.5873 -10.9437 -10.5973 -10.5669   1.7191   2.3210   4.7888   9.2625
     9.8636  11.9777  12.8078

          k =-0.1768-0.3536 0.3536 (  1899 PWs)   bands (ev):

   -28.5890 -10.9228 -10.6058 -10.5538   1.3943   2.6509   4.7985   9.3019
     9.9077  11.8365  12.6423

          k =-0.0884-0.2652 0.2652 (  1890 PWs)   bands (ev):

   -28.5992 -10.8072 -10.5881 -10.5318   0.4525   3.5043   5.1198   9.6401
     9.9984  10.6992  12.2140

          k = 0.0000-0.1768 0.1768 (  1907 PWs)   bands (ev):

   -28.6119 -10.6637 -10.5483 -10.5138  -0.3392   4.2182   5.8682   9.7086
     9.7133  10.4977  10.9565

          k = 0.3536 0.0000 0.0000 (  1876 PWs)   bands (ev):

   -28.6011 -10.7470 -10.5736 -10.5736   0.2559   3.6404   5.0607   9.9810
     9.9810  11.0284  12.1807

          k = 0.4419 0.0884-0.0884 (  1898 PWs)   bands (ev):

   -28.5909 -10.8399 -10.6125 -10.5955   0.9377   3.2168   4.3516  10.1458
    10.5576  11.3190  12.6173

          k =-0.1768-0.5303 0.5303 (  1881 PWs)   bands (ev):

   -28.5832 -10.8907 -10.6760 -10.5988   1.7523   2.7287   3.9104   9.9563
    10.6722  11.8045  12.8985

          k =-0.0884-0.4419 0.4419 (  1878 PWs)   bands (ev):

   -28.5824 -10.8733 -10.7254 -10.5817   1.9513   2.7158   3.7639   9.7989
    10.7306  11.9077  12.0395

          k = 0.0000-0.3536 0.3536 (  1883 PWs)   bands (ev):

   -28.5891 -10.8412 -10.6876 -10.5540   1.2038   3.2796   4.0892   9.8031
    10.8953  10.9083  12.7204

          k = 0.5303 0.0000 0.0000 (  1896 PWs)   bands (ev):

   -28.5843 -10.8930 -10.6230 -10.6230   1.3675   2.9714   3.8441  10.9390
    10.9390  11.9062  12.7083

          k =-0.0884-0.6187 0.6187 (  1877 PWs)   bands (ev):

   -28.5791 -10.9163 -10.6692 -10.6304   1.9126   2.8126   3.3873  10.8831
    11.0040  12.6210  13.0158

          k = 0.0000-0.5303 0.5303 (  1890 PWs)   bands (ev):

   -28.5783 -10.8649 -10.7568 -10.6134   2.2248   2.8899   3.1315  10.3757
    10.4556  12.3805  12.9780

          k =-0.7071 0.0000 0.0000 (  1868 PWs)   bands (ev):

   -28.5774 -10.9480 -10.6434 -10.6433   2.0178   2.7388   3.2319  11.9223
    11.9223  12.1913  12.9650

          k = 0.3536 0.1768-0.0000 (  1895 PWs)   bands (ev):

   -28.5975 -10.7909 -10.6073 -10.5533   0.5223   3.5255   4.8045   9.9216
    10.2644  10.7616  12.4352

          k =-0.2652-0.4419 0.6187 (  1888 PWs)   bands (ev):

   -28.5873 -10.8709 -10.6598 -10.5758   1.3554   3.0082   4.1784   9.6299
    10.9931  11.1623  12.8259

          k =-0.1768-0.3536 0.5303 (  1894 PWs)   bands (ev):

   -28.5831 -10.9035 -10.6785 -10.5877   2.0806   2.3690   4.0583   9.4615
    11.0382  11.4593  12.7820

          k =-0.1768-0.5303 0.7071 (  1876 PWs)   bands (ev):

   -28.5832 -10.8783 -10.6656 -10.6173   1.5659   2.9989   3.7181   9.9998
    11.1929  12.0206  13.1096

          k =-0.0884-0.4419 0.6187 (  1881 PWs)   bands (ev):

   -28.5790 -10.8593 -10.7406 -10.6268   2.1666   2.7992   3.3438   9.4705
    11.5370  12.4878  12.9017

          k = 0.0000-0.3536 0.5303 (  1883 PWs)   bands (ev):

   -28.5807 -10.8325 -10.7665 -10.6058   1.9814   3.0654   3.3199   9.4661
    11.5901  11.7558  12.4811

          k =-0.7071 0.1768 0.0000 (  1888 PWs)   bands (ev):

   -28.5773 -10.9049 -10.6896 -10.6493   2.1852   2.8102   3.1586   9.9379
    12.2138  12.7090  13.0728

          k =-0.7071 0.3536 0.0000 (  1888 PWs)   bands (ev):

   -28.5773 -10.7988 -10.7988 -10.6551   2.3705   2.9835   2.9835   9.0161
    12.7867  12.7867  12.9432

     the Fermi energy is     4.2698 ev

     Writing output data file 08_SrH3.save

     init_run     :      1.09s CPU      0.91s WALL (       1 calls)
     electrons    :     14.14s CPU      9.91s WALL (       1 calls)

     Called by init_run:
     wfcinit      :      0.00s CPU      0.00s WALL (       1 calls)
     potinit      :      0.14s CPU      0.09s WALL (       1 calls)

     Called by electrons:
     c_bands      :     14.12s CPU      9.88s WALL (       1 calls)
     v_of_rho     :      0.08s CPU      0.07s WALL (       1 calls)
     newd         :      0.27s CPU      0.08s WALL (       1 calls)
     PAW_pot      :      0.00s CPU      0.01s WALL (       1 calls)

     Called by c_bands:
     init_us_2    :      0.17s CPU      0.15s WALL (      29 calls)
     cegterg      :     12.73s CPU      9.12s WALL (      44 calls)

     Called by sum_band:

     Called by *egterg:
     h_psi        :     11.53s CPU      4.60s WALL (     736 calls)
     s_psi        :      0.11s CPU      0.27s WALL (     736 calls)
     g_psi        :      0.00s CPU      0.04s WALL (     663 calls)
     cdiaghg      :      2.00s CPU      3.67s WALL (     692 calls)

     Called by h_psi:
     h_psi:pot    :     11.52s CPU      4.56s WALL (     736 calls)
     h_psi:calbec :      0.02s CPU      0.17s WALL (     736 calls)
     vloc_psi     :     11.45s CPU      4.13s WALL (     736 calls)
     add_vuspsi   :      0.05s CPU      0.26s WALL (     736 calls)

     General routines
     calbec       :      0.02s CPU      0.16s WALL (     736 calls)
     fft          :      0.08s CPU      0.01s WALL (      13 calls)
     ffts         :      0.00s CPU      0.00s WALL (       1 calls)
     fftw         :      9.52s CPU      2.80s WALL (    9132 calls)
     interpolate  :      0.06s CPU      0.01s WALL (       1 calls)
     davcio       :      0.00s CPU      0.01s WALL (      29 calls)

     Parallel routines
     fft_scatter  :      0.00s CPU      0.25s WALL (    9146 calls)

     PWSCF        :    15.44s CPU        11.25s WALL


   This run was terminated on:   8:19:31  24Dec2025            

=------------------------------------------------------------------------------=
   JOB DONE.
=------------------------------------------------------------------------------=
