
     Program PWSCF v.6.7MaX starts on  8Jan2026 at 14:13:41 

     This program is part of the open-source Quantum ESPRESSO suite
     for quantum simulation of materials; please cite
         "P. Giannozzi et al., J. Phys.:Condens. Matter 21 395502 (2009);
         "P. Giannozzi et al., J. Phys.:Condens. Matter 29 465901 (2017);
          URL http://www.quantum-espresso.org", 
     in publications or presentations arising from this work. More details at
     http://www.quantum-espresso.org/quote

     Parallel version (MPI), running on     2 processors

     MPI processes distributed on     1 nodes
     R & G space division:  proc/nbgrp/npool/nimage =       2
     Waiting for input...
     Reading input from standard input

     Current dimensions of program PWSCF are:
     Max number of different atomic species (ntypx) = 10
     Max number of k-points (npk) =  40000
     Max angular momentum in pseudopotentials (lmaxx) =  3
     Message from routine iosys:
     restart disabled: needed files not found
     Message from routine read_pp_mesh:
     mismatch in mesh size, discarding the one in header
     file H.UPF: wavefunction(s)  1S renormalized

     Subspace diagonalization in iterative solution of the eigenvalue problem:
     a serial algorithm will be used


     Parallelization info
     --------------------
     sticks:   dense  smooth     PW     G-vecs:    dense   smooth      PW
     Min        1216     606    176                39915    14069    2148
     Max        1217     607    177                39916    14070    2149
     Sum        2433    1213    353                79831    28139    4297



     bravais-lattice index     =            0
     lattice parameter (alat)  =       9.3376  a.u.
     unit-cell volume          =     590.5517 (a.u.)^3
     number of atoms/cell      =           10
     number of atomic types    =            4
     number of electrons       =        30.00
     number of Kohn-Sham states=           19
     kinetic-energy cutoff     =      50.0000  Ry
     charge density cutoff     =     400.0000  Ry
     scf convergence threshold =      1.0E-06
     mixing beta               =       0.7000
     number of iterations used =            8  plain     mixing
     energy convergence thresh.=      1.0E-04
     force convergence thresh. =      1.0E-03
     press convergence thresh. =      5.0E-01
     Exchange-correlation=  SLA  PW   PBE  PBE
                           (   1   4   3   4   0   0   0)
     nstep                     =           50


     celldm(1)=   9.337650  celldm(2)=   0.000000  celldm(3)=   0.000000
     celldm(4)=   0.000000  celldm(5)=   0.000000  celldm(6)=   0.000000

     crystal axes: (cart. coord. in units of alat)
               a(1) = (   0.852663  -0.031505   0.521511 )  
               a(2) = (   0.276814   0.807094   0.521511 )  
               a(3) = (  -0.045880  -0.031505   0.998450 )  

     reciprocal axes: (cart. coord. in units 2 pi/alat)
               b(1) = (  1.133629 -0.414025  0.039027 )  
               b(2) = (  0.020715  1.206691  0.039027 )  
               b(3) = ( -0.602937 -0.414025  0.960783 )  


     PseudoPot. # 1 for H  read from file:
     /home/marco/ZOS_Cloud_Compute/pseudo/H.UPF
     MD5 check sum: 850d63dcbcc06c5de8b44e0ab9f952da
     Pseudo is Projector augmented-wave, Zval =  1.0
     Generated using "atomic" code by A. Dal Corso  v.5.1.2
     Shape of augmentation charge: PSQ
     Using radial grid of  929 points,  2 beta functions with: 
                l(1) =   0
                l(2) =   0
     Q(r) pseudized with 0 coefficients 


     PseudoPot. # 2 for Li read from file:
     /home/marco/ZOS_Cloud_Compute/pseudo/Li.UPF
     MD5 check sum: 057edeeab9105e5446fd9e29ea3f9c2f
     Pseudo is Ultrasoft + core correction, Zval =  1.0
     Generated by new atomic code, or converted to UPF format
     Using radial grid of  751 points,  2 beta functions with: 
                l(1) =   1
                l(2) =   1
     Q(r) pseudized with  8 coefficients,  rinner =    1.000   1.000   1.000


     PseudoPot. # 3 for Mg read from file:
     /home/marco/ZOS_Cloud_Compute/pseudo/Mg.UPF
     MD5 check sum: a77e51077e70c6c73445c6cac60d158f
     Pseudo is Projector augmented-wave + core cor, Zval = 10.0
     Generated using ATOMPAW code
     Shape of augmentation charge: BESSEL
     Using radial grid of 1171 points,  6 beta functions with: 
                l(1) =   0
                l(2) =   0
                l(3) =   0
                l(4) =   0
                l(5) =   1
                l(6) =   1
     Q(r) pseudized with 0 coefficients 


     PseudoPot. # 4 for Zr read from file:
     /home/marco/ZOS_Cloud_Compute/pseudo/Zr.UPF
     MD5 check sum: 56bebf6edcd38415d7dd1a973c3f3403
     Pseudo is Ultrasoft + core correction, Zval = 12.0
     Generated by new atomic code, or converted to UPF format
     Using radial grid of  887 points,  6 beta functions with: 
                l(1) =   0
                l(2) =   0
                l(3) =   1
                l(4) =   1
                l(5) =   2
                l(6) =   2
     Q(r) pseudized with  6 coefficients,  rinner =    1.200   1.200   1.200
                                                       1.200   1.200

     atomic species   valence    mass     pseudopotential
        H              1.00     1.00000     H ( 1.00)
        Li             1.00     1.00000     Li( 1.00)
        Mg            10.00     1.00000     Mg( 1.00)
        Zr            12.00     1.00000     Zr( 1.00)

     No symmetry found



   Cartesian axes

     site n.     atom                  positions (alat units)
         1           Li  tau(   1) = (   0.2982516   0.2048036   0.5618991  )
         2           Li  tau(   2) = (   0.8444751   0.5798843   1.5909715  )
         3           Mg  tau(   3) = (   1.1024017   0.7569975   2.0768992  )
         4           Zr  tau(   4) = (   0.5586283   0.3835990   1.0524429  )
         5           H   tau(   5) = (   0.2642678   0.5274312   0.8160041  )
         6           H   tau(   6) = (   0.6817775   0.3031305   0.6761474  )
         7           H   tau(   7) = (   0.3468174   0.0572215   0.9435715  )
         8           H   tau(   8) = (   0.7967716   0.0744654   1.1661901  )
         9           H   tau(   9) = (   0.7665871   0.7168744   0.9480637  )
        10           H   tau(  10) = (   0.2560252   0.4579953   1.3134233  )

     number of k points=     8  Methfessel-Paxton smearing, width (Ry)=  0.0200
                       cart. coord. in units 2pi/alat
        k(    1) = (   0.0000000   0.0000000   0.0000000), wk =   0.2500000
        k(    2) = (   0.3014686   0.2070126  -0.4803914), wk =   0.2500000
        k(    3) = (  -0.0103577  -0.6033453  -0.0195136), wk =   0.2500000
        k(    4) = (   0.2911110  -0.3963327  -0.4999051), wk =   0.2500000
        k(    5) = (  -0.5668143   0.2070126  -0.0195137), wk =   0.2500000
        k(    6) = (  -0.2653457   0.4140252  -0.4999051), wk =   0.2500000
        k(    7) = (  -0.5771720  -0.3963327  -0.0390273), wk =   0.2500000
        k(    8) = (  -0.2757034  -0.1893201  -0.5194187), wk =   0.2500000

     Dense  grid:    79831 G-vectors     FFT dimensions: (  60,  60,  60)

     Smooth grid:    28139 G-vectors     FFT dimensions: (  45,  45,  45)

     Estimated max dynamical RAM per process >     169.67 MB

     Estimated total dynamical RAM >     339.34 MB
     Cannot read rho : file not found

     Initial potential from superposition of free atoms

     starting charge   29.98762, renormalised to   30.00000

     negative rho (up, down):  6.019E-02 0.000E+00
     Message from routine qexsd_readschema :
     xml data file ./tmp/Li2MgZrH6.save/data-file-schema.xml not found
     Cannot read wfcs: file not found
     Starting wfcs are   37 randomized atomic wfcs
     Checking if some PAW data can be deallocated... 

     total cpu time spent up to now is        9.6 secs

     Self-consistent Calculation

     iteration #  1     ecut=    50.00 Ry     beta= 0.70
     Davidson diagonalization with overlap
     c_bands:  1 eigenvalues not converged
     c_bands:  1 eigenvalues not converged
     c_bands:  1 eigenvalues not converged
     ethr =  1.00E-05,  avg # of iterations = 18.8

     negative rho (up, down):  6.104E-02 0.000E+00

     total cpu time spent up to now is       15.2 secs

     total energy              =    -250.86069270 Ry
     estimated scf accuracy    <       0.43172038 Ry

     iteration #  2     ecut=    50.00 Ry     beta= 0.70
     Davidson diagonalization with overlap
     ethr =  1.44E-03,  avg # of iterations =  2.0

     negative rho (up, down):  6.165E-02 0.000E+00

     total cpu time spent up to now is       17.7 secs

     total energy              =    -250.91391946 Ry
     estimated scf accuracy    <       0.03916846 Ry

     iteration #  3     ecut=    50.00 Ry     beta= 0.70
     Davidson diagonalization with overlap
     ethr =  1.31E-04,  avg # of iterations =  3.9

     negative rho (up, down):  6.165E-02 0.000E+00

     total cpu time spent up to now is       20.6 secs

     total energy              =    -250.92545209 Ry
     estimated scf accuracy    <       0.02107340 Ry

     iteration #  4     ecut=    50.00 Ry     beta= 0.70
     Davidson diagonalization with overlap
     ethr =  7.02E-05,  avg # of iterations =  2.5

     negative rho (up, down):  6.163E-02 0.000E+00

     total cpu time spent up to now is       23.0 secs

     total energy              =    -250.92978252 Ry
     estimated scf accuracy    <       0.00023779 Ry

     iteration #  5     ecut=    50.00 Ry     beta= 0.70
     Davidson diagonalization with overlap
     ethr =  7.93E-07,  avg # of iterations =  6.6

     negative rho (up, down):  6.156E-02 0.000E+00

     total cpu time spent up to now is       26.2 secs

     total energy              =    -250.92994281 Ry
     estimated scf accuracy    <       0.00007597 Ry

     iteration #  6     ecut=    50.00 Ry     beta= 0.70
     Davidson diagonalization with overlap
     ethr =  2.53E-07,  avg # of iterations =  2.2

     negative rho (up, down):  6.152E-02 0.000E+00

     total cpu time spent up to now is       28.8 secs

     End of self-consistent calculation

          k = 0.0000 0.0000 0.0000 (  3557 PWs)   bands (ev):

   -68.8911 -42.0942 -35.9914 -35.9726 -35.9726 -20.2289 -20.1756 -20.1754
    -1.9486   2.1510   2.1511   2.8700   3.7785   3.7787   7.2276   7.2277
     7.6865  10.7009  10.7010

          k = 0.3015 0.2070-0.4804 (  3526 PWs)   bands (ev):

   -68.8911 -42.0939 -35.9914 -35.9727 -35.9726 -20.2329 -20.1866 -20.1776
    -0.1329   0.0021   2.0481   2.7451   3.4747   3.8365   7.0080   7.6558
     7.9405   8.5528  10.3641

          k =-0.0104-0.6033-0.0195 (  3526 PWs)   bands (ev):

   -68.8911 -42.0939 -35.9914 -35.9727 -35.9727 -20.2328 -20.1868 -20.1775
    -0.1327   0.0021   2.0482   2.7449   3.4744   3.8367   7.0080   7.6558
     7.9405   8.5527  10.3641

          k = 0.2911-0.3963-0.4999 (  3496 PWs)   bands (ev):

   -68.8911 -42.0938 -35.9915 -35.9727 -35.9727 -20.2370 -20.1842 -20.1814
    -0.1942   1.2565   1.9646   2.1263   2.5472   3.5079   6.8498   7.4242
     7.7452  10.1571  10.7852

          k =-0.5668 0.2070-0.0195 (  3526 PWs)   bands (ev):

   -68.8911 -42.0939 -35.9914 -35.9727 -35.9726 -20.2328 -20.1866 -20.1776
    -0.1329   0.0022   2.0482   2.7449   3.4746   3.8367   7.0081   7.6558
     7.9406   8.5528  10.3641

          k =-0.2653 0.4140-0.4999 (  3496 PWs)   bands (ev):

   -68.8911 -42.0938 -35.9915 -35.9727 -35.9727 -20.2370 -20.1844 -20.1812
    -0.1941   1.2564   1.9645   2.1261   2.5475   3.5078   6.8499   7.4243
     7.7451  10.1570  10.7852

          k =-0.5772-0.3963-0.0390 (  3496 PWs)   bands (ev):

   -68.8911 -42.0938 -35.9915 -35.9727 -35.9727 -20.2370 -20.1843 -20.1814
    -0.1942   1.2564   1.9646   2.1261   2.5472   3.5081   6.8499   7.4244
     7.7451  10.1571  10.7853

          k =-0.2757-0.1893-0.5194 (  3516 PWs)   bands (ev):

   -68.8911 -42.0939 -35.9915 -35.9727 -35.9727 -20.2423 -20.1782 -20.1780
    -0.1196   0.2180   2.0689   2.0691   3.7810   3.7813   7.1906   7.5594
     7.5596   9.2784  11.0059

     the Fermi energy is     7.2569 ev

!    total energy              =    -250.92995944 Ry
     estimated scf accuracy    <       0.00000085 Ry
     smearing contrib. (-TS)   =       0.00125552 Ry
     internal energy E=F+TS    =    -250.93121496 Ry

     The total energy is F=E-TS. E is the sum of the following terms:
     one-electron contribution =    -150.07284353 Ry
     hartree contribution      =      50.99791369 Ry
     xc contribution           =     -37.94672108 Ry
     ewald contribution        =    -121.43078191 Ry
     one-center paw contrib.   =       7.52121786 Ry

     convergence has been achieved in   6 iterations

     negative rho (up, down):  6.152E-02 0.000E+00

     Forces acting on atoms (cartesian axes, Ry/au):

     atom    1 type  2   force =     0.00488329    0.00333816    0.00919528
     atom    2 type  2   force =     0.00382821    0.00265471    0.00724425
     atom    3 type  3   force =    -0.00142754   -0.00102310   -0.00272118
     atom    4 type  4   force =     0.00036584    0.00021653    0.00054942
     atom    5 type  1   force =    -0.00220067   -0.00588676   -0.00088386
     atom    6 type  1   force =    -0.00534014    0.00257495   -0.00231165
     atom    7 type  1   force =     0.00278357    0.00007806   -0.00569483
     atom    8 type  1   force =    -0.00814607    0.00625326   -0.00050111
     atom    9 type  1   force =    -0.00206459   -0.00982829    0.00213712
     atom   10 type  1   force =     0.00731810    0.00162248   -0.00701344

     Total force =     0.025341     Total SCF correction =     0.001874


     Computing stress (Cartesian axis) and pressure


     negative rho (up, down):  6.152E-02 0.000E+00
          total   stress  (Ry/bohr**3)                   (kbar)     P=      109.59
   0.00073905   0.00000657   0.00001775          108.72        0.97        2.61
   0.00000657   0.00073327   0.00001215            0.97      107.87        1.79
   0.00001775   0.00001215   0.00076270            2.61        1.79      112.20


     BFGS Geometry Optimization
     Energy error            =      0.0E+00
     Gradient error          =      9.8E-03
     Cell gradient error     =      7.6E-04


     number of scf cycles    =   1
     number of bfgs steps    =   0

     enthalpy new            =    -250.9299594420 Ry

     new trust radius        =       0.0927098292 bohr
     new conv_thr            =       0.0000010000 Ry

     new unit-cell volume =    624.16726 a.u.^3 (    92.49205 Ang^3 )
     density =      0.17953 g/cm^3

CELL_PARAMETERS (angstrom)
   4.292201736  -0.157052348   2.627883828
   1.394882357   4.062185625   2.627879621
  -0.228729040  -0.157065745   5.027536895

ATOMIC_POSITIONS (angstrom)
Li            1.5050037212        1.0334275190        2.8353585465
Li            4.2559023264        2.9223979178        8.0179494534
Mg            5.5523088974        3.8125597444       10.4602889279
Zr            2.8141507363        1.9323636390        5.3016616940
H             1.3309759545        2.6522232800        4.1098728831
H             3.4299417186        1.5282628204        3.4054353892
H             1.7489962549        0.2896689534        4.7491201378
H             4.0080346226        0.3804646629        5.8739254281
H             3.8594487528        3.6039557253        4.7778713929
H             1.2956581142        2.3076177383        6.6111973068



     Writing output data file ./tmp/Li2MgZrH6.save/
     NEW-OLD atomic charge density approx. for the potential

     negative rho (up, down):  6.487E-02 0.000E+00
     extrapolated charge   31.61503, renormalised to   30.00000

     total cpu time spent up to now is       54.4 secs

     Self-consistent Calculation

     iteration #  1     ecut=    50.00 Ry     beta= 0.70
     Davidson diagonalization with overlap
     ethr =  1.00E-06,  avg # of iterations = 12.8

     negative rho (up, down):  6.078E-02 0.000E+00

     total cpu time spent up to now is       59.4 secs

     total energy              =    -250.60247375 Ry
     estimated scf accuracy    <       0.19564018 Ry

     iteration #  2     ecut=    50.00 Ry     beta= 0.70
     Davidson diagonalization with overlap
     ethr =  6.52E-04,  avg # of iterations =  7.8

     negative rho (up, down):  6.054E-02 0.000E+00

     total cpu time spent up to now is       63.1 secs

     total energy              =    -250.79186825 Ry
     estimated scf accuracy    <       1.66862047 Ry

     iteration #  3     ecut=    50.00 Ry     beta= 0.70
     Davidson diagonalization with overlap
     ethr =  6.52E-04,  avg # of iterations =  3.9

     negative rho (up, down):  6.082E-02 0.000E+00

     total cpu time spent up to now is       66.3 secs

     total energy              =    -250.95312088 Ry
     estimated scf accuracy    <       0.08457654 Ry

     iteration #  4     ecut=    50.00 Ry     beta= 0.70
     Davidson diagonalization with overlap
     ethr =  2.82E-04,  avg # of iterations =  2.5

     negative rho (up, down):  6.095E-02 0.000E+00

     total cpu time spent up to now is       68.7 secs

     total energy              =    -250.94817456 Ry
     estimated scf accuracy    <       0.03470047 Ry

     iteration #  5     ecut=    50.00 Ry     beta= 0.70
     Davidson diagonalization with overlap
     ethr =  1.16E-04,  avg # of iterations =  5.9

     negative rho (up, down):  6.107E-02 0.000E+00

     total cpu time spent up to now is       71.5 secs

     total energy              =    -250.95037900 Ry
     estimated scf accuracy    <       0.00640482 Ry

     iteration #  6     ecut=    50.00 Ry     beta= 0.70
     Davidson diagonalization with overlap
     ethr =  2.13E-05,  avg # of iterations =  7.9

     negative rho (up, down):  6.123E-02 0.000E+00

     total cpu time spent up to now is       74.0 secs

     total energy              =    -250.95046786 Ry
     estimated scf accuracy    <       0.00316880 Ry

     iteration #  7     ecut=    50.00 Ry     beta= 0.70
     Davidson diagonalization with overlap
     ethr =  1.06E-05,  avg # of iterations =  1.1

     negative rho (up, down):  6.151E-02 0.000E+00

     total cpu time spent up to now is       76.5 secs

     total energy              =    -250.94985515 Ry
     estimated scf accuracy    <       0.00224698 Ry

     iteration #  8     ecut=    50.00 Ry     beta= 0.70
     Davidson diagonalization with overlap
     ethr =  7.49E-06,  avg # of iterations =  4.1

     negative rho (up, down):  6.150E-02 0.000E+00

     total cpu time spent up to now is       79.4 secs

     total energy              =    -250.95000366 Ry
     estimated scf accuracy    <       0.00027605 Ry

     iteration #  9     ecut=    50.00 Ry     beta= 0.70
     Davidson diagonalization with overlap
     ethr =  9.20E-07,  avg # of iterations =  5.8

     negative rho (up, down):  6.152E-02 0.000E+00

     total cpu time spent up to now is       82.4 secs

     total energy              =    -250.95003558 Ry
     estimated scf accuracy    <       0.00003331 Ry

     iteration # 10     ecut=    50.00 Ry     beta= 0.70
     Davidson diagonalization with overlap
     ethr =  1.11E-07,  avg # of iterations =  2.9

     negative rho (up, down):  6.154E-02 0.000E+00

     total cpu time spent up to now is       84.9 secs

     total energy              =    -250.95003806 Ry
     estimated scf accuracy    <       0.00000685 Ry

     iteration # 11     ecut=    50.00 Ry     beta= 0.70
     Davidson diagonalization with overlap
     ethr =  2.28E-08,  avg # of iterations =  4.6

     negative rho (up, down):  6.156E-02 0.000E+00

     total cpu time spent up to now is       87.7 secs

     End of self-consistent calculation

          k = 0.0000 0.0000 0.0000 (  3557 PWs)   bands (ev):

   -69.5312 -42.7367 -36.6306 -36.6126 -36.6126 -20.8412 -20.7926 -20.7925
    -2.1906   1.8168   1.8169   2.4683   3.3185   3.3187   6.7338   6.7340
     7.1605  10.0311  10.0313

          k = 0.2962 0.2034-0.4716 (  3526 PWs)   bands (ev):

   -69.5312 -42.7365 -36.6306 -36.6126 -36.6126 -20.8441 -20.8009 -20.7941
    -0.4430  -0.3168   1.7065   2.3657   3.0188   3.3761   6.4922   7.1261
     7.3882   7.9960   9.6821

          k =-0.0101-0.5925-0.0190 (  3526 PWs)   bands (ev):

   -69.5312 -42.7365 -36.6306 -36.6126 -36.6126 -20.8441 -20.8009 -20.7942
    -0.4429  -0.3168   1.7064   2.3657   3.0186   3.3761   6.4922   7.1261
     7.3882   7.9961   9.6822

          k = 0.2861-0.3891-0.4906 (  3496 PWs)   bands (ev):

   -69.5312 -42.7364 -36.6306 -36.6126 -36.6126 -20.8472 -20.7992 -20.7969
    -0.4823   0.8891   1.5738   1.7335   2.1670   3.0590   6.3607   6.8898
     7.2023   9.4187  10.1085

          k =-0.5566 0.2034-0.0190 (  3526 PWs)   bands (ev):

   -69.5312 -42.7365 -36.6306 -36.6126 -36.6126 -20.8441 -20.8009 -20.7941
    -0.4430  -0.3168   1.7064   2.3657   3.0187   3.3762   6.4922   7.1260
     7.3882   7.9960   9.6823

          k =-0.2604 0.4068-0.4906 (  3496 PWs)   bands (ev):

   -69.5312 -42.7364 -36.6306 -36.6126 -36.6126 -20.8472 -20.7992 -20.7969
    -0.4823   0.8891   1.5738   1.7334   2.1671   3.0590   6.3607   6.8898
     7.2022   9.4188  10.1085

          k =-0.5666-0.3891-0.0379 (  3496 PWs)   bands (ev):

   -69.5312 -42.7364 -36.6306 -36.6126 -36.6126 -20.8472 -20.7992 -20.7969
    -0.4823   0.8891   1.5738   1.7336   2.1669   3.0591   6.3607   6.8898
     7.2023   9.4188  10.1086

          k =-0.2704-0.1857-0.5095 (  3516 PWs)   bands (ev):

   -69.5312 -42.7365 -36.6306 -36.6126 -36.6126 -20.8511 -20.7945 -20.7945
    -0.4264  -0.1246   1.7346   1.7347   3.3118   3.3119   6.6468   7.0322
     7.0323   8.6434  10.2690

     the Fermi energy is     6.7391 ev

!    total energy              =    -250.95004006 Ry
     estimated scf accuracy    <       0.00000002 Ry
     smearing contrib. (-TS)   =       0.00129664 Ry
     internal energy E=F+TS    =    -250.95133671 Ry

     The total energy is F=E-TS. E is the sum of the following terms:
     one-electron contribution =    -153.52600517 Ry
     hartree contribution      =      52.08545699 Ry
     xc contribution           =     -37.81973462 Ry
     ewald contribution        =    -119.19547334 Ry
     one-center paw contrib.   =       7.50441944 Ry

     convergence has been achieved in  11 iterations

     negative rho (up, down):  6.156E-02 0.000E+00

     Forces acting on atoms (cartesian axes, Ry/au):

     atom    1 type  2   force =     0.00472961    0.00325090    0.00890098
     atom    2 type  2   force =     0.00385862    0.00264843    0.00724296
     atom    3 type  3   force =    -0.00222155   -0.00154332   -0.00412062
     atom    4 type  4   force =    -0.00504304   -0.00341516   -0.00938325
     atom    5 type  1   force =     0.00225057   -0.00595698    0.00155808
     atom    6 type  1   force =    -0.00554075    0.00217634    0.00272762
     atom    7 type  1   force =     0.00396500    0.00423434   -0.00307162
     atom    8 type  1   force =    -0.00967114    0.00941776   -0.00010365
     atom    9 type  1   force =    -0.00305574   -0.01242491    0.00434235
     atom   10 type  1   force =     0.01072842    0.00161260   -0.00809285

     Total force =     0.031826     Total SCF correction =     0.000095


     Computing stress (Cartesian axis) and pressure


     negative rho (up, down):  6.156E-02 0.000E+00
          total   stress  (Ry/bohr**3)                   (kbar)     P=       61.48
   0.00040639   0.00001168   0.00003206           59.78        1.72        4.72
   0.00001168   0.00039751   0.00002182            1.72       58.48        3.21
   0.00003206   0.00002182   0.00044984            4.72        3.21       66.17

     Energy error            =      2.0E-02
     Gradient error          =      1.2E-02
     Cell gradient error     =      4.5E-04


     number of scf cycles    =   2
     number of bfgs steps    =   1

     enthalpy old            =    -250.9299594420 Ry
     enthalpy new            =    -250.9500400629 Ry

     CASE: enthalpy_new < enthalpy_old

     new trust radius        =       0.1028784579 bohr
     new conv_thr            =       0.0000001242 Ry

     new unit-cell volume =    660.71399 a.u.^3 (    97.90771 Ang^3 )
     density =      0.16960 g/cm^3

CELL_PARAMETERS (angstrom)
   4.375814685  -0.155304294   2.687577526
   1.426562125   4.139578103   2.687539141
  -0.226150026  -0.155336111   5.130249069

ATOMIC_POSITIONS (angstrom)
Li            1.5421410696        1.0589116882        2.9053145747
Li            4.3515840052        2.9880461127        8.1981865440
Mg            5.6700682922        3.8933328359       10.6822013616
Zr            2.8702141210        1.9708680421        5.4073852086
H             1.3648004456        2.6994146965        4.1999504437
H             3.4940018949        1.5632388326        3.4839219762
H             1.7921211698        0.3042391840        4.8461625256
H             4.0817343193        0.4039659273        6.0002214382
H             3.9369007199        3.6642414047        4.8887435989
H             1.3403872595        2.3582018715        6.7429811540



     Writing output data file ./tmp/Li2MgZrH6.save/
     NEW-OLD atomic charge density approx. for the potential

     negative rho (up, down):  6.520E-02 0.000E+00
     extrapolated charge   31.65874, renormalised to   30.00000

     total cpu time spent up to now is      113.7 secs

     Self-consistent Calculation

     iteration #  1     ecut=    50.00 Ry     beta= 0.70
     Davidson diagonalization with overlap
     ethr =  1.00E-06,  avg # of iterations = 14.1

     negative rho (up, down):  6.110E-02 0.000E+00

     total cpu time spent up to now is      119.8 secs

     total energy              =    -250.58442545 Ry
     estimated scf accuracy    <       0.21594153 Ry

     iteration #  2     ecut=    50.00 Ry     beta= 0.70
     Davidson diagonalization with overlap
     ethr =  7.20E-04,  avg # of iterations =  7.4

     negative rho (up, down):  6.074E-02 0.000E+00

     total cpu time spent up to now is      123.0 secs

     total energy              =    -250.76259404 Ry
     estimated scf accuracy    <       2.08180939 Ry

     iteration #  3     ecut=    50.00 Ry     beta= 0.70
     Davidson diagonalization with overlap
     ethr =  7.20E-04,  avg # of iterations =  4.1

     negative rho (up, down):  6.104E-02 0.000E+00

     total cpu time spent up to now is      126.0 secs

     total energy              =    -250.96632525 Ry
     estimated scf accuracy    <       0.09507849 Ry

     iteration #  4     ecut=    50.00 Ry     beta= 0.70
     Davidson diagonalization with overlap
     ethr =  3.17E-04,  avg # of iterations =  1.8

     negative rho (up, down):  6.120E-02 0.000E+00

     total cpu time spent up to now is      128.2 secs

     total energy              =    -250.95981284 Ry
     estimated scf accuracy    <       0.04092136 Ry

     iteration #  5     ecut=    50.00 Ry     beta= 0.70
     Davidson diagonalization with overlap
     ethr =  1.36E-04,  avg # of iterations =  5.6

     negative rho (up, down):  6.132E-02 0.000E+00

     total cpu time spent up to now is      130.9 secs

     total energy              =    -250.96270800 Ry
     estimated scf accuracy    <       0.00689152 Ry

     iteration #  6     ecut=    50.00 Ry     beta= 0.70
     Davidson diagonalization with overlap
     ethr =  2.30E-05,  avg # of iterations =  6.8

     negative rho (up, down):  6.158E-02 0.000E+00

     total cpu time spent up to now is      133.8 secs

     total energy              =    -250.96260281 Ry
     estimated scf accuracy    <       0.00366092 Ry

     iteration #  7     ecut=    50.00 Ry     beta= 0.70
     Davidson diagonalization with overlap
     ethr =  1.22E-05,  avg # of iterations =  1.5

     negative rho (up, down):  6.173E-02 0.000E+00

     total cpu time spent up to now is      136.3 secs

     total energy              =    -250.96227248 Ry
     estimated scf accuracy    <       0.00187120 Ry

     iteration #  8     ecut=    50.00 Ry     beta= 0.70
     Davidson diagonalization with overlap
     ethr =  6.24E-06,  avg # of iterations =  3.8

     negative rho (up, down):  6.177E-02 0.000E+00

     total cpu time spent up to now is      139.0 secs

     total energy              =    -250.96229597 Ry
     estimated scf accuracy    <       0.00043220 Ry

     iteration #  9     ecut=    50.00 Ry     beta= 0.70
     Davidson diagonalization with overlap
     ethr =  1.44E-06,  avg # of iterations =  3.6

     negative rho (up, down):  6.180E-02 0.000E+00

     total cpu time spent up to now is      141.8 secs

     total energy              =    -250.96233979 Ry
     estimated scf accuracy    <       0.00005238 Ry

     iteration # 10     ecut=    50.00 Ry     beta= 0.70
     Davidson diagonalization with overlap
     ethr =  1.75E-07,  avg # of iterations =  4.6

     negative rho (up, down):  6.183E-02 0.000E+00

     total cpu time spent up to now is      144.8 secs

     total energy              =    -250.96235427 Ry
     estimated scf accuracy    <       0.00000085 Ry

     iteration # 11     ecut=    50.00 Ry     beta= 0.70
     Davidson diagonalization with overlap
     ethr =  2.84E-09,  avg # of iterations =  4.8

     negative rho (up, down):  6.185E-02 0.000E+00

     total cpu time spent up to now is      148.0 secs

     End of self-consistent calculation

          k = 0.0000 0.0000 0.0000 (  3557 PWs)   bands (ev):

   -70.1710 -43.3510 -37.2689 -37.2524 -37.2524 -21.4319 -21.3872 -21.3871
    -2.4176   1.4796   1.4796   2.0712   2.8728   2.8729   6.2393   6.2393
     6.6195   9.3932   9.3933

          k = 0.2913 0.2000-0.4627 (  3526 PWs)   bands (ev):

   -70.1710 -43.3509 -37.2689 -37.2524 -37.2524 -21.4340 -21.3933 -21.3883
    -0.7332  -0.6205   1.3570   1.9735   2.5790   2.9218   5.9767   6.6058
     6.8477   7.4695   9.0406

          k =-0.0096-0.5818-0.0180 (  3526 PWs)   bands (ev):

   -70.1710 -43.3509 -37.2689 -37.2524 -37.2524 -21.4340 -21.3933 -21.3883
    -0.7333  -0.6203   1.3570   1.9736   2.5789   2.9218   5.9766   6.6058
     6.8477   7.4695   9.0406

          k = 0.2817-0.3818-0.4807 (  3496 PWs)   bands (ev):

   -70.1710 -43.3509 -37.2689 -37.2524 -37.2524 -21.4362 -21.3921 -21.3903
    -0.7641   0.5459   1.1887   1.3617   1.7822   2.6046   5.8699   6.3592
     6.6745   8.7003   9.4870

          k =-0.5464 0.2000-0.0180 (  3526 PWs)   bands (ev):

   -70.1710 -43.3509 -37.2689 -37.2524 -37.2524 -21.4340 -21.3933 -21.3883
    -0.7332  -0.6205   1.3570   1.9736   2.5789   2.9218   5.9766   6.6058
     6.8478   7.4695   9.0405

          k =-0.2552 0.4000-0.4807 (  3496 PWs)   bands (ev):

   -70.1710 -43.3509 -37.2689 -37.2524 -37.2524 -21.4362 -21.3921 -21.3903
    -0.7642   0.5458   1.1889   1.3617   1.7821   2.6047   5.8699   6.3593
     6.6745   8.7003   9.4870

          k =-0.5560-0.3818-0.0361 (  3496 PWs)   bands (ev):

   -70.1710 -43.3509 -37.2689 -37.2524 -37.2524 -21.4362 -21.3920 -21.3903
    -0.7642   0.5459   1.1888   1.3617   1.7822   2.6045   5.8699   6.3593
     6.6745   8.7004   9.4870

          k =-0.2647-0.1818-0.4988 (  3516 PWs)   bands (ev):

   -70.1710 -43.3509 -37.2690 -37.2524 -37.2524 -21.4391 -21.3886 -21.3885
    -0.7199  -0.4585   1.4027   1.4027   2.8542   2.8543   6.1106   6.5077
     6.5077   8.0391   9.5662

     the Fermi energy is     6.2233 ev

!    total energy              =    -250.96235488 Ry
     estimated scf accuracy    <       0.00000008 Ry
     smearing contrib. (-TS)   =       0.00133040 Ry
     internal energy E=F+TS    =    -250.96368528 Ry

     The total energy is F=E-TS. E is the sum of the following terms:
     one-electron contribution =    -157.14690426 Ry
     hartree contribution      =      53.27065306 Ry
     xc contribution           =     -37.70139888 Ry
     ewald contribution        =    -116.87410121 Ry
     one-center paw contrib.   =       7.48806601 Ry

     convergence has been achieved in  11 iterations

     negative rho (up, down):  6.185E-02 0.000E+00

     Forces acting on atoms (cartesian axes, Ry/au):

     atom    1 type  2   force =     0.00414881    0.00284833    0.00780997
     atom    2 type  2   force =     0.00357411    0.00244736    0.00672656
     atom    3 type  3   force =    -0.00288761   -0.00194273   -0.00536585
     atom    4 type  4   force =    -0.00737242   -0.00507383   -0.01390561
     atom    5 type  1   force =     0.00491664   -0.00536445    0.00241003
     atom    6 type  1   force =    -0.00526918    0.00121727    0.00541888
     atom    7 type  1   force =     0.00381137    0.00650682   -0.00133618
     atom    8 type  1   force =    -0.01054359    0.01133667    0.00063596
     atom    9 type  1   force =    -0.00327140   -0.01391383    0.00598162
     atom   10 type  1   force =     0.01289328    0.00193839   -0.00837538

     Total force =     0.036892     Total SCF correction =     0.000305


     Computing stress (Cartesian axis) and pressure


     negative rho (up, down):  6.185E-02 0.000E+00
          total   stress  (Ry/bohr**3)                   (kbar)     P=       22.79
   0.00013987   0.00001535   0.00004197           20.58        2.26        6.17
   0.00001535   0.00012818   0.00002878            2.26       18.86        4.23
   0.00004197   0.00002878   0.00019664            6.17        4.23       28.93

     Energy error            =      1.2E-02
     Gradient error          =      1.4E-02
     Cell gradient error     =      2.0E-04


     number of scf cycles    =   3
     number of bfgs steps    =   2

     enthalpy old            =    -250.9500400629 Ry
     enthalpy new            =    -250.9623548800 Ry

     CASE: enthalpy_new < enthalpy_old

     new trust radius        =       0.1058995864 bohr
     new conv_thr            =       0.0000001391 Ry

     new unit-cell volume =    696.49433 a.u.^3 (   103.20981 Ang^3 )
     density =      0.16089 g/cm^3

CELL_PARAMETERS (angstrom)
   4.456240537  -0.148770086   2.753485532
   1.461558416   4.212290322   2.753423523
  -0.216628876  -0.148827284   5.233788472

ATOMIC_POSITIONS (angstrom)
Li            1.5836203092        1.0873820112        2.9834328544
Li            4.4549334393        3.0589766403        8.3928338455
Mg            5.7928993247        3.9776696982       10.9136566230
Zr            2.9243986315        2.0080576636        5.5094516246
H             1.4074047119        2.7429417411        4.2970530774
H             3.5549690053        1.6003957468        3.5736070809
H             1.8412238590        0.3283272757        4.9468984828
H             4.1504116722        0.4417736107        6.1343737143
H             4.0144365504        3.7147360967        5.0135657090
H             1.4017958808        2.4123893058        6.8750126793



     Writing output data file ./tmp/Li2MgZrH6.save/
     NEW-OLD atomic charge density approx. for the potential

     negative rho (up, down):  6.502E-02 0.000E+00
     extrapolated charge   31.54053, renormalised to   30.00000

     total cpu time spent up to now is      174.0 secs

     Self-consistent Calculation

     iteration #  1     ecut=    50.00 Ry     beta= 0.70
     Davidson diagonalization with overlap
     ethr =  1.00E-06,  avg # of iterations = 14.2

     negative rho (up, down):  6.120E-02 0.000E+00

     total cpu time spent up to now is      179.8 secs

     total energy              =    -250.62416788 Ry
     estimated scf accuracy    <       0.19991236 Ry

     iteration #  2     ecut=    50.00 Ry     beta= 0.70
     Davidson diagonalization with overlap
     ethr =  6.66E-04,  avg # of iterations =  7.5

     negative rho (up, down):  6.095E-02 0.000E+00

     total cpu time spent up to now is      183.6 secs

     total energy              =    -250.77628421 Ry
     estimated scf accuracy    <       2.03871677 Ry

     iteration #  3     ecut=    50.00 Ry     beta= 0.70
     Davidson diagonalization with overlap
     ethr =  6.66E-04,  avg # of iterations =  4.4

     negative rho (up, down):  6.124E-02 0.000E+00

     total cpu time spent up to now is      186.6 secs

     total energy              =    -250.97251727 Ry
     estimated scf accuracy    <       0.09287474 Ry

     iteration #  4     ecut=    50.00 Ry     beta= 0.70
     Davidson diagonalization with overlap
     ethr =  3.10E-04,  avg # of iterations =  2.0

     negative rho (up, down):  6.140E-02 0.000E+00

     total cpu time spent up to now is      189.1 secs

     total energy              =    -250.96586505 Ry
     estimated scf accuracy    <       0.04020952 Ry

     iteration #  5     ecut=    50.00 Ry     beta= 0.70
     Davidson diagonalization with overlap
     ethr =  1.34E-04,  avg # of iterations =  5.4

     negative rho (up, down):  6.150E-02 0.000E+00

     total cpu time spent up to now is      191.8 secs

     total energy              =    -250.96903162 Ry
     estimated scf accuracy    <       0.00579015 Ry

     iteration #  6     ecut=    50.00 Ry     beta= 0.70
     Davidson diagonalization with overlap
     ethr =  1.93E-05,  avg # of iterations =  6.5

     negative rho (up, down):  6.182E-02 0.000E+00

     total cpu time spent up to now is      194.8 secs

     total energy              =    -250.96873937 Ry
     estimated scf accuracy    <       0.00342913 Ry

     iteration #  7     ecut=    50.00 Ry     beta= 0.70
     Davidson diagonalization with overlap
     ethr =  1.14E-05,  avg # of iterations =  3.4

     negative rho (up, down):  6.193E-02 0.000E+00

     total cpu time spent up to now is      197.4 secs

     total energy              =    -250.96852221 Ry
     estimated scf accuracy    <       0.00140425 Ry

     iteration #  8     ecut=    50.00 Ry     beta= 0.70
     Davidson diagonalization with overlap
     ethr =  4.68E-06,  avg # of iterations =  3.9

     negative rho (up, down):  6.196E-02 0.000E+00

     total cpu time spent up to now is      200.2 secs

     total energy              =    -250.96858241 Ry
     estimated scf accuracy    <       0.00023551 Ry

     iteration #  9     ecut=    50.00 Ry     beta= 0.70
     Davidson diagonalization with overlap
     ethr =  7.85E-07,  avg # of iterations =  4.1

     negative rho (up, down):  6.197E-02 0.000E+00

     total cpu time spent up to now is      203.1 secs

     total energy              =    -250.96862466 Ry
     estimated scf accuracy    <       0.00000835 Ry

     iteration # 10     ecut=    50.00 Ry     beta= 0.70
     Davidson diagonalization with overlap
     ethr =  2.78E-08,  avg # of iterations =  4.5

     negative rho (up, down):  6.199E-02 0.000E+00

     total cpu time spent up to now is      206.2 secs

     total energy              =    -250.96862884 Ry
     estimated scf accuracy    <       0.00000028 Ry

     iteration # 11     ecut=    50.00 Ry     beta= 0.70
     Davidson diagonalization with overlap
     ethr =  9.33E-10,  avg # of iterations =  4.5

     negative rho (up, down):  6.200E-02 0.000E+00

     total cpu time spent up to now is      208.9 secs

     End of self-consistent calculation

          k = 0.0000 0.0000 0.0000 (  3557 PWs)   bands (ev):

   -70.7514 -43.8737 -37.8475 -37.8331 -37.8331 -21.9396 -21.8972 -21.8972
    -2.6113   1.1689   1.1690   1.7080   2.4800   2.4800   5.7913   5.7914
     6.1140   8.8537   8.8538

          k = 0.2874 0.1974-0.4545 (  3526 PWs)   bands (ev):

   -70.7514 -43.8737 -37.8475 -37.8331 -37.8331 -21.9410 -21.9018 -21.8981
    -0.9787  -0.8833   1.0291   1.5975   2.1949   2.5126   5.5096   6.1460
     6.3728   7.0298   8.5041

          k =-0.0088-0.5726-0.0166 (  3526 PWs)   bands (ev):

   -70.7514 -43.8737 -37.8475 -37.8331 -37.8331 -21.9410 -21.9019 -21.8981
    -0.9787  -0.8832   1.0291   1.5975   2.1947   2.5126   5.5095   6.1460
     6.3727   7.0298   8.5039

          k = 0.2786-0.3752-0.4712 (  3496 PWs)   bands (ev):

   -70.7514 -43.8736 -37.8475 -37.8331 -37.8331 -21.9427 -21.9010 -21.8995
    -1.0165   0.2576   0.8345   1.0491   1.4260   2.1818   5.4241   5.8840
     6.2142   8.0645   8.9913

          k =-0.5376 0.1974-0.0166 (  3526 PWs)   bands (ev):

   -70.7514 -43.8737 -37.8475 -37.8331 -37.8331 -21.9410 -21.9019 -21.8981
    -0.9788  -0.8832   1.0291   1.5975   2.1947   2.5126   5.5095   6.1461
     6.3728   7.0299   8.5039

          k =-0.2501 0.3948-0.4712 (  3496 PWs)   bands (ev):

   -70.7514 -43.8736 -37.8475 -37.8331 -37.8331 -21.9427 -21.9010 -21.8995
    -1.0167   0.2576   0.8346   1.0491   1.4261   2.1819   5.4242   5.8841
     6.2142   8.0645   8.9913

          k =-0.5464-0.3752-0.0333 (  3496 PWs)   bands (ev):

   -70.7514 -43.8736 -37.8475 -37.8331 -37.8331 -21.9427 -21.9010 -21.8996
    -1.0167   0.2576   0.8346   1.0492   1.4261   2.1818   5.4241   5.8841
     6.2142   8.0645   8.9913

          k =-0.2589-0.1778-0.4878 (  3516 PWs)   bands (ev):

   -70.7514 -43.8736 -37.8475 -37.8331 -37.8331 -21.9448 -21.8982 -21.8982
    -0.9767  -0.7587   1.1016   1.1017   2.4500   2.4501   5.6331   6.0350
     6.0351   7.5322   8.9757

     the Fermi energy is     5.7585 ev

!    total energy              =    -250.96862884 Ry
     estimated scf accuracy    <       0.00000004 Ry
     smearing contrib. (-TS)   =       0.00130624 Ry
     internal energy E=F+TS    =    -250.96993507 Ry

     The total energy is F=E-TS. E is the sum of the following terms:
     one-electron contribution =    -160.63298549 Ry
     hartree contribution      =      54.46338931 Ry
     xc contribution           =     -37.60530016 Ry
     ewald contribution        =    -114.66892590 Ry
     one-center paw contrib.   =       7.47388716 Ry

     convergence has been achieved in  11 iterations

     negative rho (up, down):  6.200E-02 0.000E+00

     Forces acting on atoms (cartesian axes, Ry/au):

     atom    1 type  2   force =     0.00319429    0.00220386    0.00603309
     atom    2 type  2   force =     0.00304939    0.00210493    0.00576815
     atom    3 type  3   force =    -0.00325803   -0.00227171   -0.00619499
     atom    4 type  4   force =    -0.00712407   -0.00493929   -0.01352214
     atom    5 type  1   force =     0.00567754   -0.00437115    0.00183887
     atom    6 type  1   force =    -0.00468522    0.00002376    0.00574173
     atom    7 type  1   force =     0.00265462    0.00687780   -0.00065758
     atom    8 type  1   force =    -0.01045008    0.01150828    0.00181303
     atom    9 type  1   force =    -0.00242034   -0.01387064    0.00680462
     atom   10 type  1   force =     0.01336189    0.00273415   -0.00762477

     Total force =     0.036176     Total SCF correction =     0.000184


     Computing stress (Cartesian axis) and pressure


     negative rho (up, down):  6.200E-02 0.000E+00
          total   stress  (Ry/bohr**3)                   (kbar)     P=       -3.44
  -0.00003951   0.00001654   0.00004540           -5.81        2.43        6.68
   0.00001654  -0.00005234   0.00003121            2.43       -7.70        4.59
   0.00004540   0.00003121   0.00002173            6.68        4.59        3.20

     Energy error            =      6.3E-03
     Gradient error          =      1.4E-02
     Cell gradient error     =      5.2E-05


     number of scf cycles    =   4
     number of bfgs steps    =   3

     enthalpy old            =    -250.9623548800 Ry
     enthalpy new            =    -250.9686288392 Ry

     CASE: enthalpy_new < enthalpy_old

     new trust radius        =       0.0645062994 bohr
     new conv_thr            =       0.0000001387 Ry

     new unit-cell volume =    715.31693 a.u.^3 (   105.99903 Ang^3 )
     density =      0.15666 g/cm^3

CELL_PARAMETERS (angstrom)
   4.499189958  -0.139932358   2.798058259
   1.485234600   4.249176730   2.797989510
  -0.203759849  -0.139998091   5.294304883

ATOMIC_POSITIONS (angstrom)
Li            1.6118111161        1.1067382852        3.0365208089
Li            4.5224969901        3.1053540549        8.5200504835
Mg            5.8689303362        4.0298199667       11.0567735477
Zr            2.9547481002        2.0288418236        5.5664885729
H             1.4406602589        2.7644681943        4.3595948349
H             3.5869960472        1.6236362039        3.6361895709
H             1.8750901519        0.3516219221        5.0084684528
H             4.1848397004        0.4782373544        6.2206637977
H             4.0599503037        3.7337571713        5.1003354924
H             1.4545790668        2.4480140491        6.9518568874



     Writing output data file ./tmp/Li2MgZrH6.save/
     NEW-OLD atomic charge density approx. for the potential

     negative rho (up, down):  6.361E-02 0.000E+00
     extrapolated charge   30.78908, renormalised to   30.00000

     total cpu time spent up to now is      235.4 secs

     Self-consistent Calculation

     iteration #  1     ecut=    50.00 Ry     beta= 0.70
     Davidson diagonalization with overlap
     ethr =  1.00E-06,  avg # of iterations = 11.9

     negative rho (up, down):  6.186E-02 0.000E+00

     total cpu time spent up to now is      240.8 secs

     total energy              =    -250.86467158 Ry
     estimated scf accuracy    <       0.06427277 Ry

     iteration #  2     ecut=    50.00 Ry     beta= 0.70
     Davidson diagonalization with overlap
     ethr =  2.14E-04,  avg # of iterations =  8.2

     negative rho (up, down):  6.178E-02 0.000E+00

     total cpu time spent up to now is      244.4 secs

     total energy              =    -250.92746620 Ry
     estimated scf accuracy    <       0.53403261 Ry

     iteration #  3     ecut=    50.00 Ry     beta= 0.70
     Davidson diagonalization with overlap
     ethr =  2.14E-04,  avg # of iterations =  4.5

     negative rho (up, down):  6.183E-02 0.000E+00

     total cpu time spent up to now is      247.4 secs

     total energy              =    -250.97179478 Ry
     estimated scf accuracy    <       0.03672654 Ry

     iteration #  4     ecut=    50.00 Ry     beta= 0.70
     Davidson diagonalization with overlap
     ethr =  1.22E-04,  avg # of iterations =  3.0

     negative rho (up, down):  6.181E-02 0.000E+00

     total cpu time spent up to now is      250.0 secs

     total energy              =    -250.97013795 Ry
     estimated scf accuracy    <       0.01233995 Ry

     iteration #  5     ecut=    50.00 Ry     beta= 0.70
     Davidson diagonalization with overlap
     ethr =  4.11E-05,  avg # of iterations =  8.0

     negative rho (up, down):  6.188E-02 0.000E+00

     total cpu time spent up to now is      252.6 secs

     total energy              =    -250.97142533 Ry
     estimated scf accuracy    <       0.00118267 Ry

     iteration #  6     ecut=    50.00 Ry     beta= 0.70
     Davidson diagonalization with overlap
     ethr =  3.94E-06,  avg # of iterations =  5.2

     negative rho (up, down):  6.202E-02 0.000E+00

     total cpu time spent up to now is      255.1 secs

     total energy              =    -250.97144559 Ry
     estimated scf accuracy    <       0.00038776 Ry

     iteration #  7     ecut=    50.00 Ry     beta= 0.70
     Davidson diagonalization with overlap
     ethr =  1.29E-06,  avg # of iterations =  2.5

     negative rho (up, down):  6.207E-02 0.000E+00

     total cpu time spent up to now is      257.5 secs

     total energy              =    -250.97145967 Ry
     estimated scf accuracy    <       0.00007439 Ry

     iteration #  8     ecut=    50.00 Ry     beta= 0.70
     Davidson diagonalization with overlap
     ethr =  2.48E-07,  avg # of iterations =  4.5

     negative rho (up, down):  6.210E-02 0.000E+00

     total cpu time spent up to now is      260.0 secs

     total energy              =    -250.97147028 Ry
     estimated scf accuracy    <       0.00000577 Ry

     iteration #  9     ecut=    50.00 Ry     beta= 0.70
     Davidson diagonalization with overlap
     ethr =  1.92E-08,  avg # of iterations =  5.0

     negative rho (up, down):  6.212E-02 0.000E+00

     total cpu time spent up to now is      262.9 secs

     End of self-consistent calculation

          k = 0.0000 0.0000 0.0000 (  3557 PWs)   bands (ev):

   -71.0454 -44.1070 -38.1400 -38.1276 -38.1276 -22.1696 -22.1289 -22.1288
    -2.7046   1.0044   1.0045   1.5142   2.2865   2.2867   5.5628   5.5629
     5.8414   8.6122   8.6124

          k = 0.2862 0.1966-0.4504 (  3526 PWs)   bands (ev):

   -71.0454 -44.1069 -38.1400 -38.1276 -38.1276 -22.1708 -22.1329 -22.1297
    -1.0964  -1.0077   0.8487   1.3813   2.0095   2.3029   5.2702   5.9220
     6.1449   6.8413   8.2691

          k =-0.0081-0.5685-0.0153 (  3526 PWs)   bands (ev):

   -71.0454 -44.1069 -38.1400 -38.1276 -38.1276 -22.1708 -22.1330 -22.1296
    -1.0965  -1.0075   0.8487   1.3813   2.0093   2.3028   5.2701   5.9219
     6.1449   6.8414   8.2695

          k = 0.2781-0.3719-0.4658 (  3496 PWs)   bands (ev):

   -71.0454 -44.1069 -38.1400 -38.1276 -38.1276 -22.1722 -22.1322 -22.1309
    -1.1475   0.1262   0.6430   0.9089   1.2352   1.9514   5.1949   5.6473
     5.9961   7.7526   8.7987

          k =-0.5335 0.1966-0.0153 (  3526 PWs)   bands (ev):

   -71.0454 -44.1069 -38.1400 -38.1276 -38.1276 -22.1708 -22.1329 -22.1297
    -1.0964  -1.0077   0.8487   1.3814   2.0094   2.3029   5.2701   5.9220
     6.1450   6.8413   8.2695

          k =-0.2472 0.3931-0.4658 (  3496 PWs)   bands (ev):

   -71.0454 -44.1069 -38.1400 -38.1276 -38.1276 -22.1722 -22.1322 -22.1308
    -1.1476   0.1262   0.6432   0.9089   1.2352   1.9514   5.1950   5.6473
     5.9961   7.7526   8.7987

          k =-0.5416-0.3719-0.0307 (  3496 PWs)   bands (ev):

   -71.0454 -44.1069 -38.1400 -38.1276 -38.1276 -22.1722 -22.1322 -22.1309
    -1.1476   0.1262   0.6431   0.9090   1.2353   1.9514   5.1949   5.6473
     5.9961   7.7527   8.7986

          k =-0.2554-0.1754-0.4811 (  3516 PWs)   bands (ev):

   -71.0454 -44.1069 -38.1400 -38.1276 -38.1276 -22.1740 -22.1297 -22.1297
    -1.1065  -0.9157   0.9449   0.9449   2.2514   2.2516   5.3958   5.7953
     5.7953   7.3149   8.7178

     the Fermi energy is     5.5234 ev

!    total energy              =    -250.97147225 Ry
     estimated scf accuracy    <       0.00000006 Ry
     smearing contrib. (-TS)   =       0.00122153 Ry
     internal energy E=F+TS    =    -250.97269378 Ry

     The total energy is F=E-TS. E is the sum of the following terms:
     one-electron contribution =    -162.57435336 Ry
     hartree contribution      =      55.17161246 Ry
     xc contribution           =     -37.56828465 Ry
     ewald contribution        =    -113.46876847 Ry
     one-center paw contrib.   =       7.46710024 Ry

     convergence has been achieved in   9 iterations

     negative rho (up, down):  6.212E-02 0.000E+00

     Forces acting on atoms (cartesian axes, Ry/au):

     atom    1 type  2   force =     0.00231176    0.00157148    0.00433874
     atom    2 type  2   force =     0.00250497    0.00170826    0.00470873
     atom    3 type  3   force =    -0.00304710   -0.00197855   -0.00561450
     atom    4 type  4   force =    -0.00522085   -0.00357964   -0.00984233
     atom    5 type  1   force =     0.00454733   -0.00349231    0.00032354
     atom    6 type  1   force =    -0.00405521   -0.00088069    0.00393422
     atom    7 type  1   force =     0.00118011    0.00547116   -0.00115716
     atom    8 type  1   force =    -0.00950009    0.00997955    0.00296543
     atom    9 type  1   force =    -0.00084752   -0.01246447    0.00655440
     atom   10 type  1   force =     0.01212661    0.00366520   -0.00621107

     Total force =     0.030574     Total SCF correction =     0.000314


     Computing stress (Cartesian axis) and pressure


     negative rho (up, down):  6.212E-02 0.000E+00
          total   stress  (Ry/bohr**3)                   (kbar)     P=      -11.78
  -0.00009506   0.00001536   0.00004208          -13.98        2.26        6.19
   0.00001536  -0.00010690   0.00002885            2.26      -15.73        4.24
   0.00004208   0.00002885  -0.00003835            6.19        4.24       -5.64

     Energy error            =      2.8E-03
     Gradient error          =      1.2E-02
     Cell gradient error     =      1.1E-04


     number of scf cycles    =   5
     number of bfgs steps    =   4

     enthalpy old            =    -250.9686288392 Ry
     enthalpy new            =    -250.9714722547 Ry

     CASE: enthalpy_new < enthalpy_old

     new trust radius        =       0.0709641583 bohr
     new conv_thr            =       0.0000001246 Ry

     new unit-cell volume =    731.54699 a.u.^3 (   108.40408 Ang^3 )
     density =      0.15318 g/cm^3

CELL_PARAMETERS (angstrom)
   4.538272466  -0.124322490   2.851893255
   1.513850603   4.280004976   2.851803583
  -0.181029729  -0.124414322   5.356770247

ATOMIC_POSITIONS (angstrom)
Li            1.6457470054        1.1300052031        3.1003675131
Li            4.6014551002        3.1595082132        8.6686056135
Mg            5.9528688188        4.0875059060       11.2148172932
Zr            2.9856097227        2.0499759979        5.6244338319
H             1.4847510072        2.7818693868        4.4302740468
H             3.6154797736        1.6490012187        3.7122703380
H             1.9157141345        0.3864509100        5.0746315164
H             4.2131205234        0.5336800082        6.3210296400
H             4.1084947198        3.7401809778        5.2078232680
H             1.5305651996        2.4909257333        7.0314457277



     Writing output data file ./tmp/Li2MgZrH6.save/
     NEW-OLD atomic charge density approx. for the potential

     negative rho (up, down):  6.298E-02 0.000E+00
     extrapolated charge   30.66530, renormalised to   30.00000

     total cpu time spent up to now is      289.1 secs

     Self-consistent Calculation

     iteration #  1     ecut=    50.00 Ry     beta= 0.70
     Davidson diagonalization with overlap
     ethr =  1.00E-06,  avg # of iterations = 13.4

     negative rho (up, down):  6.173E-02 0.000E+00

     total cpu time spent up to now is      295.2 secs

     total energy              =    -250.89726988 Ry
     estimated scf accuracy    <       0.04509715 Ry

     iteration #  2     ecut=    50.00 Ry     beta= 0.70
     Davidson diagonalization with overlap
     ethr =  1.50E-04,  avg # of iterations =  8.5

     negative rho (up, down):  6.162E-02 0.000E+00

     total cpu time spent up to now is      298.8 secs

     total energy              =    -250.94623938 Ry
     estimated scf accuracy    <       0.37039289 Ry

     iteration #  3     ecut=    50.00 Ry     beta= 0.70
     Davidson diagonalization with overlap
     ethr =  1.50E-04,  avg # of iterations =  4.0

     negative rho (up, down):  6.162E-02 0.000E+00

     total cpu time spent up to now is      301.8 secs

     total energy              =    -250.97427145 Ry
     estimated scf accuracy    <       0.02919987 Ry

     iteration #  4     ecut=    50.00 Ry     beta= 0.70
     Davidson diagonalization with overlap
     ethr =  9.73E-05,  avg # of iterations =  2.8

     negative rho (up, down):  6.156E-02 0.000E+00

     total cpu time spent up to now is      304.3 secs

     total energy              =    -250.97304290 Ry
     estimated scf accuracy    <       0.00865605 Ry

     iteration #  5     ecut=    50.00 Ry     beta= 0.70
     Davidson diagonalization with overlap
     ethr =  2.89E-05,  avg # of iterations =  8.0

     negative rho (up, down):  6.165E-02 0.000E+00

     total cpu time spent up to now is      307.4 secs

     total energy              =    -250.97443381 Ry
     estimated scf accuracy    <       0.00021640 Ry

     iteration #  6     ecut=    50.00 Ry     beta= 0.70
     Davidson diagonalization with overlap
     ethr =  7.21E-07,  avg # of iterations =  5.6

     negative rho (up, down):  6.180E-02 0.000E+00

     total cpu time spent up to now is      310.5 secs

     total energy              =    -250.97446862 Ry
     estimated scf accuracy    <       0.00005113 Ry

     iteration #  7     ecut=    50.00 Ry     beta= 0.70
     Davidson diagonalization with overlap
     ethr =  1.70E-07,  avg # of iterations =  4.0

     negative rho (up, down):  6.185E-02 0.000E+00

     total cpu time spent up to now is      312.9 secs

     total energy              =    -250.97447266 Ry
     estimated scf accuracy    <       0.00000656 Ry

     iteration #  8     ecut=    50.00 Ry     beta= 0.70
     Davidson diagonalization with overlap
     ethr =  2.19E-08,  avg # of iterations =  4.2

     negative rho (up, down):  6.186E-02 0.000E+00

     total cpu time spent up to now is      315.7 secs

     End of self-consistent calculation

          k = 0.0000 0.0000 0.0000 (  3557 PWs)   bands (ev):

   -71.2995 -44.2643 -38.3917 -38.3826 -38.3826 -22.3294 -22.2920 -22.2918
    -2.7824   0.8524   0.8526   1.3297   2.1256   2.1258   5.3640   5.3642
     5.5852   8.4384   8.4388

          k = 0.2863 0.1966-0.4470 (  3526 PWs)   bands (ev):

   -71.2995 -44.2643 -38.3917 -38.3826 -38.3826 -22.3303 -22.2955 -22.2927
    -1.1999  -1.0995   0.6735   1.1583   1.8613   2.1180   5.0594   5.7401
     5.9668   6.7196   8.1039

          k =-0.0071-0.5658-0.0134 (  3526 PWs)   bands (ev):

   -71.2995 -44.2643 -38.3917 -38.3826 -38.3826 -22.3304 -22.2956 -22.2927
    -1.1999  -1.0994   0.6734   1.1585   1.8610   2.1180   5.0593   5.7400
     5.9669   6.7198   8.1040

          k = 0.2792-0.3693-0.4604 (  3496 PWs)   bands (ev):

   -71.2995 -44.2642 -38.3917 -38.3826 -38.3826 -22.3315 -22.2951 -22.2936
    -1.2678   0.0277   0.4591   0.8106   1.0574   1.7302   4.9920   5.4503
     5.8274   7.4923   8.6980

          k =-0.5306 0.1966-0.0134 (  3526 PWs)   bands (ev):

   -71.2995 -44.2643 -38.3917 -38.3826 -38.3826 -22.3303 -22.2957 -22.2926
    -1.2000  -1.0994   0.6734   1.1585   1.8612   2.1182   5.0593   5.7401
     5.9668   6.7194   8.1037

          k =-0.2443 0.3932-0.4603 (  3496 PWs)   bands (ev):

   -71.2995 -44.2642 -38.3917 -38.3826 -38.3826 -22.3315 -22.2950 -22.2937
    -1.2680   0.0277   0.4593   0.8106   1.0576   1.7300   4.9920   5.4503
     5.8274   7.4924   8.6981

          k =-0.5377-0.3692-0.0267 (  3496 PWs)   bands (ev):

   -71.2995 -44.2642 -38.3917 -38.3826 -38.3826 -22.3316 -22.2949 -22.2937
    -1.2681   0.0277   0.4592   0.8106   1.0575   1.7303   4.9919   5.4503
     5.8275   7.4923   8.6981

          k =-0.2514-0.1727-0.4737 (  3516 PWs)   bands (ev):

   -71.2995 -44.2643 -38.3917 -38.3826 -38.3826 -22.3331 -22.2927 -22.2925
    -1.2229  -1.0607   0.8013   0.8014   2.0896   2.0897   5.1955   5.5870
     5.5872   7.1785   8.5451

     the Fermi energy is     5.3212 ev

!    total energy              =    -250.97447489 Ry
     estimated scf accuracy    <       0.00000011 Ry
     smearing contrib. (-TS)   =       0.00104231 Ry
     internal energy E=F+TS    =    -250.97551720 Ry

     The total energy is F=E-TS. E is the sum of the following terms:
     one-electron contribution =    -164.46703517 Ry
     hartree contribution      =      55.90668174 Ry
     xc contribution           =     -37.55050074 Ry
     ewald contribution        =    -112.32589760 Ry
     one-center paw contrib.   =       7.46123457 Ry

     convergence has been achieved in   8 iterations

     negative rho (up, down):  6.186E-02 0.000E+00

     Forces acting on atoms (cartesian axes, Ry/au):

     atom    1 type  2   force =     0.00105609    0.00073640    0.00201501
     atom    2 type  2   force =     0.00169745    0.00116860    0.00321039
     atom    3 type  3   force =    -0.00257425   -0.00177968   -0.00490335
     atom    4 type  4   force =    -0.00143616   -0.00102899   -0.00273602
     atom    5 type  1   force =     0.00140746   -0.00202131   -0.00239753
     atom    6 type  1   force =    -0.00288396   -0.00186702   -0.00019408
     atom    7 type  1   force =    -0.00122772    0.00204518   -0.00248991
     atom    8 type  1   force =    -0.00725972    0.00644493    0.00503768
     atom    9 type  1   force =     0.00226238   -0.00907630    0.00564220
     atom   10 type  1   force =     0.00895843    0.00537818   -0.00318439

     Total force =     0.021413     Total SCF correction =     0.000405


     Computing stress (Cartesian axis) and pressure


     negative rho (up, down):  6.186E-02 0.000E+00
          total   stress  (Ry/bohr**3)                   (kbar)     P=      -14.51
  -0.00011051   0.00001188   0.00003238          -16.26        1.75        4.76
   0.00001188  -0.00011936   0.00002219            1.75      -17.56        3.26
   0.00003238   0.00002219  -0.00006609            4.76        3.26       -9.72

     Energy error            =      3.0E-03
     Gradient error          =      9.1E-03
     Cell gradient error     =      1.2E-04


     number of scf cycles    =   6
     number of bfgs steps    =   5

     enthalpy old            =    -250.9714722547 Ry
     enthalpy new            =    -250.9744748898 Ry

     CASE: enthalpy_new < enthalpy_old

     new trust radius        =       0.0717863576 bohr
     new conv_thr            =       0.0000000908 Ry

     new unit-cell volume =    736.43047 a.u.^3 (   109.12774 Ang^3 )
     density =      0.15216 g/cm^3

CELL_PARAMETERS (angstrom)
   4.554071492  -0.106907786   2.893223155
   1.535791502   4.288511495   2.893113243
  -0.155686831  -0.107038442   5.393073374

ATOMIC_POSITIONS (angstrom)
Li            1.6712252384        1.1475022790        3.1484183280
Li            4.6589322982        3.1989657306        8.7769884601
Mg            6.0082125509        4.1255189891       11.3191826733
Zr            3.0047208293        2.0630113688        5.6603717805
H             1.5209752030        2.7861667574        4.4773069938
H             3.6261932562        1.6648380734        3.7686102063
H             1.9450684555        0.4186844794        5.1151249655
H             4.2205090811        0.5876018526        6.3958681391
H             4.1407363223        3.7277368787        5.2936517122
H             1.6016395951        2.5254618974        7.0795547328



     Writing output data file ./tmp/Li2MgZrH6.save/
     NEW-OLD atomic charge density approx. for the potential

     negative rho (up, down):  6.234E-02 0.000E+00
     extrapolated charge   30.19886, renormalised to   30.00000

     total cpu time spent up to now is      341.7 secs

     Self-consistent Calculation

     iteration #  1     ecut=    50.00 Ry     beta= 0.70
     Davidson diagonalization with overlap
     ethr =  1.00E-06,  avg # of iterations = 12.1

     negative rho (up, down):  6.203E-02 0.000E+00

     total cpu time spent up to now is      347.4 secs

     total energy              =    -250.97016451 Ry
     estimated scf accuracy    <       0.00343205 Ry

     iteration #  2     ecut=    50.00 Ry     beta= 0.70
     Davidson diagonalization with overlap
     ethr =  1.14E-05,  avg # of iterations = 11.6

     negative rho (up, down):  6.204E-02 0.000E+00

     total cpu time spent up to now is      350.7 secs

     total energy              =    -250.97540327 Ry
     estimated scf accuracy    <       0.02505178 Ry

     iteration #  3     ecut=    50.00 Ry     beta= 0.70
     Davidson diagonalization with overlap
     ethr =  1.14E-05,  avg # of iterations =  5.8

     negative rho (up, down):  6.204E-02 0.000E+00

     total cpu time spent up to now is      353.7 secs

     total energy              =    -250.97627334 Ry
     estimated scf accuracy    <       0.00301094 Ry

     iteration #  4     ecut=    50.00 Ry     beta= 0.70
     Davidson diagonalization with overlap
     ethr =  1.00E-05,  avg # of iterations =  3.2

     negative rho (up, down):  6.202E-02 0.000E+00

     total cpu time spent up to now is      356.0 secs

     total energy              =    -250.97650695 Ry
     estimated scf accuracy    <       0.00022858 Ry

     iteration #  5     ecut=    50.00 Ry     beta= 0.70
     Davidson diagonalization with overlap
     ethr =  7.62E-07,  avg # of iterations = 11.6

     negative rho (up, down):  6.208E-02 0.000E+00

     total cpu time spent up to now is      359.2 secs

     total energy              =    -250.97659405 Ry
     estimated scf accuracy    <       0.00001833 Ry

     iteration #  6     ecut=    50.00 Ry     beta= 0.70
     Davidson diagonalization with overlap
     ethr =  6.11E-08,  avg # of iterations =  3.0

     negative rho (up, down):  6.211E-02 0.000E+00

     total cpu time spent up to now is      361.8 secs

     total energy              =    -250.97659715 Ry
     estimated scf accuracy    <       0.00000092 Ry

     iteration #  7     ecut=    50.00 Ry     beta= 0.70
     Davidson diagonalization with overlap
     ethr =  3.08E-09,  avg # of iterations =  5.0

     negative rho (up, down):  6.212E-02 0.000E+00

     total cpu time spent up to now is      364.8 secs

     End of self-consistent calculation

          k = 0.0000 0.0000 0.0000 (  3557 PWs)   bands (ev):

   -71.3878 -44.2735 -38.4776 -38.4719 -38.4719 -22.3441 -22.3126 -22.3126
    -2.8092   0.7865   0.7867   1.2321   2.0743   2.0747   5.2874   5.2877
     5.4619   8.0539   8.4200

          k = 0.2879 0.1977-0.4459 (  3526 PWs)   bands (ev):

   -71.3878 -44.2734 -38.4776 -38.4719 -38.4719 -22.3450 -22.3163 -22.3134
    -1.2414  -1.1146   0.5842   1.0278   1.8238   2.0439   4.9744   5.6891
     5.9249   6.7275   8.0788

          k =-0.0060-0.5662-0.0114 (  3526 PWs)   bands (ev):

   -71.3878 -44.2734 -38.4776 -38.4719 -38.4719 -22.3450 -22.3162 -22.3134
    -1.2414  -1.1144   0.5841   1.0280   1.8234   2.0439   4.9744   5.6890
     5.9250   6.7278   8.0789

          k = 0.2819-0.3686-0.4573 (  3496 PWs)   bands (ev):

   -71.3878 -44.2734 -38.4776 -38.4719 -38.4719 -22.3461 -22.3157 -22.3143
    -1.3253   0.0094   0.3684   0.8071   0.9748   1.6187   4.9065   5.3891
     5.7870   7.4055   8.7427

          k =-0.5306 0.1977-0.0114 (  3526 PWs)   bands (ev):

   -71.3878 -44.2734 -38.4776 -38.4719 -38.4719 -22.3450 -22.3163 -22.3134
    -1.2416  -1.1143   0.5840   1.0281   1.8235   2.0441   4.9742   5.6890
     5.9250   6.7275   8.0794

          k =-0.2427 0.3954-0.4573 (  3496 PWs)   bands (ev):

   -71.3878 -44.2734 -38.4776 -38.4719 -38.4719 -22.3461 -22.3157 -22.3143
    -1.3255   0.0096   0.3685   0.8069   0.9751   1.6185   4.9066   5.3890
     5.7871   7.4056   8.7429

          k =-0.5367-0.3685-0.0228 (  3496 PWs)   bands (ev):

   -71.3878 -44.2734 -38.4776 -38.4719 -38.4719 -22.3461 -22.3157 -22.3143
    -1.3256   0.0095   0.3684   0.8071   0.9748   1.6190   4.9065   5.3892
     5.7871   7.4054   8.7429

          k =-0.2488-0.1708-0.4687 (  3516 PWs)   bands (ev):

   -71.3878 -44.2734 -38.4776 -38.4719 -38.4719 -22.3476 -22.3133 -22.3132
    -1.2757  -1.1297   0.7387   0.7388   2.0465   2.0469   5.1246   5.5037
     5.5038   7.2005   8.5394

     the Fermi energy is     5.2464 ev

!    total energy              =    -250.97659757 Ry
     estimated scf accuracy    <       0.00000003 Ry
     smearing contrib. (-TS)   =       0.00086065 Ry
     internal energy E=F+TS    =    -250.97745821 Ry

     The total energy is F=E-TS. E is the sum of the following terms:
     one-electron contribution =    -165.41823103 Ry
     hartree contribution      =      56.33144840 Ry
     xc contribution           =     -37.56445148 Ry
     ewald contribution        =    -111.78563151 Ry
     one-center paw contrib.   =       7.45940741 Ry

     convergence has been achieved in   7 iterations

     negative rho (up, down):  6.212E-02 0.000E+00

     Forces acting on atoms (cartesian axes, Ry/au):

     atom    1 type  2   force =    -0.00003255   -0.00001656   -0.00005683
     atom    2 type  2   force =     0.00084909    0.00059132    0.00159914
     atom    3 type  3   force =    -0.00148750   -0.00107839   -0.00284327
     atom    4 type  4   force =     0.00169435    0.00118702    0.00323124
     atom    5 type  1   force =    -0.00249848   -0.00044585   -0.00515955
     atom    6 type  1   force =    -0.00145242   -0.00251559   -0.00497099
     atom    7 type  1   force =    -0.00354198   -0.00216801   -0.00398057
     atom    8 type  1   force =    -0.00430300    0.00184532    0.00736347
     atom    9 type  1   force =     0.00598824   -0.00467437    0.00426726
     atom   10 type  1   force =     0.00478425    0.00727511    0.00055011

     Total force =     0.018902     Total SCF correction =     0.000122


     Computing stress (Cartesian axis) and pressure


     negative rho (up, down):  6.212E-02 0.000E+00
          total   stress  (Ry/bohr**3)                   (kbar)     P=       -9.74
  -0.00007310   0.00000691   0.00001909          -10.75        1.02        2.81
   0.00000691  -0.00007831   0.00001311            1.02      -11.52        1.93
   0.00001909   0.00001311  -0.00004726            2.81        1.93       -6.95

     Energy error            =      2.1E-03
     Gradient error          =      7.4E-03
     Cell gradient error     =      7.8E-05


     number of scf cycles    =   7
     number of bfgs steps    =   6

     enthalpy old            =    -250.9744748898 Ry
     enthalpy new            =    -250.9765975681 Ry

     CASE: enthalpy_new < enthalpy_old

     new trust radius        =       0.0469725535 bohr
     new conv_thr            =       0.0000000736 Ry

     new unit-cell volume =    731.62923 a.u.^3 (   108.41627 Ang^3 )
     density =      0.15316 g/cm^3

CELL_PARAMETERS (angstrom)
   4.548118113  -0.094746271   2.910588318
   1.545008898   4.278604113   2.910472410
  -0.137971268  -0.094882539   5.397879832

ATOMIC_POSITIONS (angstrom)
Li            1.6809845322        1.1542127607        3.1668201456
Li            4.6802127212        3.2135928228        8.8170976240
Mg            6.0237085153        4.1361254536       11.3483430906
Zr            3.0101998392        2.0667578975        5.6706612312
H             1.5360474834        2.7803362276        4.4880513046
H             3.6209028508        1.6673615505        3.7870979852
H             1.9539696129        0.4348439104        5.1211213688
H             4.2112730914        0.6190243017        6.4282827091
H             4.1529873398        3.7078545957        5.3333567956
H             1.6424669135        2.5440517791        7.0900679299



     Writing output data file ./tmp/Li2MgZrH6.save/
     NEW-OLD atomic charge density approx. for the potential

     negative rho (up, down):  6.193E-02 0.000E+00
     extrapolated charge   29.80321, renormalised to   30.00000

     total cpu time spent up to now is      391.0 secs

     Self-consistent Calculation

     iteration #  1     ecut=    50.00 Ry     beta= 0.70
     Davidson diagonalization with overlap
     ethr =  1.00E-06,  avg # of iterations = 11.2

     negative rho (up, down):  6.237E-02 0.000E+00

     total cpu time spent up to now is      396.0 secs

     total energy              =    -250.96833721 Ry
     estimated scf accuracy    <       0.00749964 Ry

     iteration #  2     ecut=    50.00 Ry     beta= 0.70
     Davidson diagonalization with overlap
     ethr =  2.50E-05,  avg # of iterations =  7.6

     negative rho (up, down):  6.237E-02 0.000E+00

     total cpu time spent up to now is      399.5 secs

     total energy              =    -250.97482814 Ry
     estimated scf accuracy    <       0.03923259 Ry

     iteration #  3     ecut=    50.00 Ry     beta= 0.70
     Davidson diagonalization with overlap
     ethr =  2.50E-05,  avg # of iterations =  3.4

     negative rho (up, down):  6.244E-02 0.000E+00

     total cpu time spent up to now is      402.4 secs

     total energy              =    -250.97753386 Ry
     estimated scf accuracy    <       0.00358692 Ry

     iteration #  4     ecut=    50.00 Ry     beta= 0.70
     Davidson diagonalization with overlap
     ethr =  1.20E-05,  avg # of iterations =  5.9

     negative rho (up, down):  6.250E-02 0.000E+00

     total cpu time spent up to now is      405.2 secs

     total energy              =    -250.97772709 Ry
     estimated scf accuracy    <       0.00048234 Ry

     iteration #  5     ecut=    50.00 Ry     beta= 0.70
     Davidson diagonalization with overlap
     ethr =  1.61E-06,  avg # of iterations =  4.8

     negative rho (up, down):  6.246E-02 0.000E+00

     total cpu time spent up to now is      408.0 secs

     total energy              =    -250.97784025 Ry
     estimated scf accuracy    <       0.00000311 Ry

     iteration #  6     ecut=    50.00 Ry     beta= 0.70
     Davidson diagonalization with overlap
     ethr =  1.04E-08,  avg # of iterations =  4.9

     negative rho (up, down):  6.243E-02 0.000E+00

     total cpu time spent up to now is      411.1 secs

     total energy              =    -250.97784353 Ry
     estimated scf accuracy    <       0.00000059 Ry

     iteration #  7     ecut=    50.00 Ry     beta= 0.70
     Davidson diagonalization with overlap
     ethr =  1.97E-09,  avg # of iterations =  3.4

     negative rho (up, down):  6.242E-02 0.000E+00

     total cpu time spent up to now is      413.8 secs

     total energy              =    -250.97784356 Ry
     estimated scf accuracy    <       0.00000010 Ry

     iteration #  8     ecut=    50.00 Ry     beta= 0.70
     Davidson diagonalization with overlap
     ethr =  3.30E-10,  avg # of iterations =  4.8

     negative rho (up, down):  6.241E-02 0.000E+00

     total cpu time spent up to now is      416.5 secs

     End of self-consistent calculation

          k = 0.0000 0.0000 0.0000 (  3557 PWs)   bands (ev):

   -71.3236 -44.1857 -38.4123 -38.4083 -38.4083 -22.2609 -22.2350 -22.2349
    -2.7932   0.8121   0.8123   1.2230   2.1136   2.1140   5.3210   5.3213
     5.4740   8.1300   8.5157

          k = 0.2901 0.1992-0.4468 (  3526 PWs)   bands (ev):

   -71.3236 -44.1857 -38.4123 -38.4083 -38.4083 -22.2617 -22.2389 -22.2358
    -1.2201  -1.0816   0.5911   1.0142   1.8743   2.0710   5.0065   5.7495
     5.9897   6.8155   8.1495

          k =-0.0054-0.5686-0.0101 (  3526 PWs)   bands (ev):

   -71.3236 -44.1857 -38.4123 -38.4083 -38.4083 -22.2617 -22.2388 -22.2359
    -1.2201  -1.0815   0.5910   1.0144   1.8738   2.0710   5.0066   5.7495
     5.9898   6.8159   8.1496

          k = 0.2847-0.3694-0.4569 (  3496 PWs)   bands (ev):

   -71.3236 -44.1856 -38.4123 -38.4083 -38.4083 -22.2628 -22.2383 -22.2367
    -1.3213   0.0499   0.3778   0.8687   0.9907   1.6256   4.9305   5.4476
     5.8460   7.4701   8.8600

          k =-0.5326 0.1992-0.0101 (  3526 PWs)   bands (ev):

   -71.3236 -44.1857 -38.4123 -38.4083 -38.4083 -22.2617 -22.2389 -22.2358
    -1.2202  -1.0814   0.5909   1.0144   1.8740   2.0713   5.0064   5.7494
     5.9898   6.8155   8.1499

          k =-0.2425 0.3984-0.4569 (  3496 PWs)   bands (ev):

   -71.3236 -44.1856 -38.4123 -38.4083 -38.4083 -22.2628 -22.2383 -22.2368
    -1.3215   0.0500   0.3779   0.8686   0.9909   1.6255   4.9306   5.4475
     5.8461   7.4702   8.8603

          k =-0.5380-0.3694-0.0202 (  3496 PWs)   bands (ev):

   -71.3236 -44.1856 -38.4123 -38.4083 -38.4083 -22.2629 -22.2383 -22.2367
    -1.3216   0.0500   0.3778   0.8688   0.9906   1.6259   4.9304   5.4476
     5.8461   7.4700   8.8602

          k =-0.2479-0.1702-0.4670 (  3516 PWs)   bands (ev):

   -71.3236 -44.1857 -38.4123 -38.4083 -38.4083 -22.2644 -22.2356 -22.2356
    -1.2686  -1.1248   0.7611   0.7612   2.1008   2.1011   5.1677   5.5336
     5.5338   7.3147   8.6416

     the Fermi energy is     5.2866 ev

!    total energy              =    -250.97784358 Ry
     estimated scf accuracy    <       0.00000003 Ry
     smearing contrib. (-TS)   =       0.00079886 Ry
     internal energy E=F+TS    =    -250.97864244 Ry

     The total energy is F=E-TS. E is the sum of the following terms:
     one-electron contribution =    -165.32928846 Ry
     hartree contribution      =      56.35798195 Ry
     xc contribution           =     -37.59115713 Ry
     ewald contribution        =    -111.87730066 Ry
     one-center paw contrib.   =       7.46112187 Ry

     convergence has been achieved in   8 iterations

     negative rho (up, down):  6.241E-02 0.000E+00

     Forces acting on atoms (cartesian axes, Ry/au):

     atom    1 type  2   force =    -0.00052908   -0.00036414   -0.00099428
     atom    2 type  2   force =     0.00024140    0.00016209    0.00044235
     atom    3 type  3   force =    -0.00063769   -0.00045170   -0.00123678
     atom    4 type  4   force =     0.00209270    0.00148349    0.00402103
     atom    5 type  1   force =    -0.00456373    0.00053262   -0.00606943
     atom    6 type  1   force =    -0.00038439   -0.00249746   -0.00719529
     atom    7 type  1   force =    -0.00439204   -0.00445473   -0.00434258
     atom    8 type  1   force =    -0.00199682   -0.00144740    0.00884736
     atom    9 type  1   force =     0.00847184   -0.00135381    0.00324249
     atom   10 type  1   force =     0.00169781    0.00839104    0.00328512

     Total force =     0.021289     Total SCF correction =     0.000101


     Computing stress (Cartesian axis) and pressure


     negative rho (up, down):  6.241E-02 0.000E+00
          total   stress  (Ry/bohr**3)                   (kbar)     P=       -2.86
  -0.00002169   0.00000215   0.00000604           -3.19        0.32        0.89
   0.00000215  -0.00002321   0.00000413            0.32       -3.41        0.61
   0.00000604   0.00000413  -0.00001343            0.89        0.61       -1.98

     Energy error            =      1.2E-03
     Gradient error          =      8.8E-03
     Cell gradient error     =      2.3E-05


     number of scf cycles    =   8
     number of bfgs steps    =   7

     enthalpy old            =    -250.9765975681 Ry
     enthalpy new            =    -250.9778435811 Ry

     CASE: enthalpy_new < enthalpy_old

     new trust radius        =       0.0476814016 bohr
     new conv_thr            =       0.0000000885 Ry

     new unit-cell volume =    723.04082 a.u.^3 (   107.14359 Ang^3 )
     density =      0.15498 g/cm^3

CELL_PARAMETERS (angstrom)
   4.533791536  -0.083859191   2.920085080
   1.550032366   4.261362825   2.919960579
  -0.122093282  -0.083992675   5.391364426

ATOMIC_POSITIONS (angstrom)
Li            1.6851247271        1.1570674872        3.1746603425
Li            4.6892874928        3.2198446112        8.8342593582
Mg            6.0251382539        4.1370920358       11.3510452866
Zr            3.0115424067        2.0677139856        5.6732703737
H             1.5413982967        2.7707189936        4.4825647510
H             3.6091870465        1.6637658590        3.7884389852
H             1.9533472532        0.4432928409        5.1122148742
H             4.1950504263        0.6426494441        6.4522386268
H             4.1636621140        3.6842535349        5.3602286859
H             1.6749110651        2.5625253476        7.0900574867



     Writing output data file ./tmp/Li2MgZrH6.save/
     NEW-OLD atomic charge density approx. for the potential

     negative rho (up, down):  6.162E-02 0.000E+00
     extrapolated charge   29.64380, renormalised to   30.00000

     total cpu time spent up to now is      442.7 secs

     Self-consistent Calculation

     iteration #  1     ecut=    50.00 Ry     beta= 0.70
     Davidson diagonalization with overlap
     c_bands:  1 eigenvalues not converged
     c_bands:  1 eigenvalues not converged
     c_bands:  1 eigenvalues not converged
     ethr =  1.00E-06,  avg # of iterations = 15.2

     negative rho (up, down):  6.241E-02 0.000E+00

     total cpu time spent up to now is      448.1 secs

     total energy              =    -250.95066197 Ry
     estimated scf accuracy    <       0.01955569 Ry

     iteration #  2     ecut=    50.00 Ry     beta= 0.70
     Davidson diagonalization with overlap
     ethr =  6.52E-05,  avg # of iterations =  7.1

     negative rho (up, down):  6.235E-02 0.000E+00

     total cpu time spent up to now is      451.6 secs

     total energy              =    -250.97213480 Ry
     estimated scf accuracy    <       0.10620872 Ry

     iteration #  3     ecut=    50.00 Ry     beta= 0.70
     Davidson diagonalization with overlap
     ethr =  6.52E-05,  avg # of iterations =  3.4

     negative rho (up, down):  6.245E-02 0.000E+00

     total cpu time spent up to now is      454.6 secs

     total energy              =    -250.97827582 Ry
     estimated scf accuracy    <       0.01199738 Ry

     iteration #  4     ecut=    50.00 Ry     beta= 0.70
     Davidson diagonalization with overlap
     ethr =  4.00E-05,  avg # of iterations =  2.5

     negative rho (up, down):  6.254E-02 0.000E+00

     total cpu time spent up to now is      457.2 secs

     total energy              =    -250.97853946 Ry
     estimated scf accuracy    <       0.00243377 Ry

     iteration #  5     ecut=    50.00 Ry     beta= 0.70
     Davidson diagonalization with overlap
     ethr =  8.11E-06,  avg # of iterations =  7.4

     negative rho (up, down):  6.246E-02 0.000E+00

     total cpu time spent up to now is      460.1 secs

     total energy              =    -250.97900265 Ry
     estimated scf accuracy    <       0.00006045 Ry

     iteration #  6     ecut=    50.00 Ry     beta= 0.70
     Davidson diagonalization with overlap
     ethr =  2.01E-07,  avg # of iterations =  3.1

     negative rho (up, down):  6.241E-02 0.000E+00

     total cpu time spent up to now is      462.8 secs

     total energy              =    -250.97899259 Ry
     estimated scf accuracy    <       0.00005282 Ry

     iteration #  7     ecut=    50.00 Ry     beta= 0.70
     Davidson diagonalization with overlap
     ethr =  1.76E-07,  avg # of iterations =  2.6

     negative rho (up, down):  6.241E-02 0.000E+00

     total cpu time spent up to now is      465.2 secs

     total energy              =    -250.97899875 Ry
     estimated scf accuracy    <       0.00000293 Ry

     iteration #  8     ecut=    50.00 Ry     beta= 0.70
     Davidson diagonalization with overlap
     ethr =  9.78E-09,  avg # of iterations =  5.1

     negative rho (up, down):  6.240E-02 0.000E+00

     total cpu time spent up to now is      468.5 secs

     total energy              =    -250.97900034 Ry
     estimated scf accuracy    <       0.00000021 Ry

     iteration #  9     ecut=    50.00 Ry     beta= 0.70
     Davidson diagonalization with overlap
     ethr =  6.94E-10,  avg # of iterations =  2.2

     negative rho (up, down):  6.239E-02 0.000E+00

     total cpu time spent up to now is      471.1 secs

     total energy              =    -250.97900029 Ry
     estimated scf accuracy    <       0.00000020 Ry

     iteration # 10     ecut=    50.00 Ry     beta= 0.70
     Davidson diagonalization with overlap
     ethr =  6.64E-10,  avg # of iterations =  2.0

     negative rho (up, down):  6.239E-02 0.000E+00

     total cpu time spent up to now is      473.4 secs

     End of self-consistent calculation

          k = 0.0000 0.0000 0.0000 (  3557 PWs)   bands (ev):

   -71.1852 -44.0713 -38.2732 -38.2703 -38.2702 -22.1487 -22.1288 -22.1287
    -2.7620   0.8827   0.8828   1.2422   2.1860   2.1863   5.3938   5.3941
     5.5328   8.3008   8.6664

          k = 0.2926 0.2009-0.4485 (  3526 PWs)   bands (ev):

   -71.1852 -44.0713 -38.2732 -38.2703 -38.2702 -22.1496 -22.1330 -22.1297
    -1.1722  -1.0367   0.6380   1.0478   1.9626   2.1433   5.0825   5.8569
     6.0957   6.9350   8.2500

          k =-0.0048-0.5719-0.0090 (  3526 PWs)   bands (ev):

   -71.1852 -44.0713 -38.2732 -38.2703 -38.2702 -22.1496 -22.1329 -22.1297
    -1.1723  -1.0365   0.6379   1.0479   1.9622   2.1432   5.0826   5.8569
     6.0958   6.9354   8.2500

          k = 0.2878-0.3710-0.4575 (  3496 PWs)   bands (ev):

   -71.1852 -44.0712 -38.2732 -38.2703 -38.2703 -22.1507 -22.1324 -22.1306
    -1.2990   0.1119   0.4292   0.9574   1.0520   1.6827   4.9922   5.5595
     5.9420   7.5932   8.9982

          k =-0.5354 0.2009-0.0090 (  3526 PWs)   bands (ev):

   -71.1852 -44.0713 -38.2732 -38.2703 -38.2703 -22.1496 -22.1330 -22.1297
    -1.1723  -1.0365   0.6378   1.0479   1.9623   2.1435   5.0824   5.8568
     6.0958   6.9350   8.2503

          k =-0.2428 0.4018-0.4575 (  3496 PWs)   bands (ev):

   -71.1852 -44.0712 -38.2732 -38.2703 -38.2702 -22.1507 -22.1323 -22.1306
    -1.2991   0.1120   0.4293   0.9574   1.0521   1.6826   4.9923   5.5594
     5.9421   7.5933   8.9983

          k =-0.5402-0.3709-0.0180 (  3496 PWs)   bands (ev):

   -71.1852 -44.0712 -38.2732 -38.2703 -38.2702 -22.1507 -22.1324 -22.1306
    -1.2992   0.1120   0.4291   0.9576   1.0519   1.6829   4.9921   5.5595
     5.9421   7.5931   8.9983

          k =-0.2476-0.1700-0.4665 (  3516 PWs)   bands (ev):

   -71.1852 -44.0713 -38.2732 -38.2703 -38.2702 -22.1524 -22.1294 -22.1294
    -1.2483  -1.0869   0.8223   0.8224   2.1975   2.1978   5.2548   5.6032
     5.6033   7.4629   8.7770

     the Fermi energy is     5.3701 ev

!    total energy              =    -250.97900029 Ry
     estimated scf accuracy    <       0.00000002 Ry
     smearing contrib. (-TS)   =       0.00080127 Ry
     internal energy E=F+TS    =    -250.97980156 Ry

     The total energy is F=E-TS. E is the sum of the following terms:
     one-electron contribution =    -164.82240932 Ry
     hartree contribution      =      56.22371105 Ry
     xc contribution           =     -37.62187097 Ry
     ewald contribution        =    -112.22459139 Ry
     one-center paw contrib.   =       7.46535907 Ry

     convergence has been achieved in  10 iterations

     negative rho (up, down):  6.239E-02 0.000E+00

     Forces acting on atoms (cartesian axes, Ry/au):

     atom    1 type  2   force =    -0.00077271   -0.00053439   -0.00145742
     atom    2 type  2   force =    -0.00034618   -0.00024259   -0.00066400
     atom    3 type  3   force =     0.00024590    0.00016497    0.00044980
     atom    4 type  4   force =     0.00029803    0.00024197    0.00061124
     atom    5 type  1   force =    -0.00513902    0.00116976   -0.00531295
     atom    6 type  1   force =     0.00055009   -0.00183933   -0.00723980
     atom    7 type  1   force =    -0.00397706   -0.00521786   -0.00359568
     atom    8 type  1   force =    -0.00011786   -0.00376044    0.00955450
     atom    9 type  1   force =     0.00989251    0.00122971    0.00241045
     atom   10 type  1   force =    -0.00063369    0.00878818    0.00524385

     Total force =     0.022097     Total SCF correction =     0.000072


     Computing stress (Cartesian axis) and pressure


     negative rho (up, down):  6.239E-02 0.000E+00
          total   stress  (Ry/bohr**3)                   (kbar)     P=        4.80
   0.00003563  -0.00000314  -0.00000846            5.24       -0.46       -1.25
  -0.00000314   0.00003811  -0.00000581           -0.46        5.61       -0.86
  -0.00000846  -0.00000581   0.00002420           -1.25       -0.86        3.56

     Energy error            =      1.2E-03
     Gradient error          =      9.9E-03
     Cell gradient error     =      3.8E-05


     number of scf cycles    =   9
     number of bfgs steps    =   8

     enthalpy old            =    -250.9778435811 Ry
     enthalpy new            =    -250.9790002896 Ry

     CASE: enthalpy_new < enthalpy_old

     new trust radius        =       0.0619544431 bohr
     new conv_thr            =       0.0000000989 Ry

     new unit-cell volume =    717.24367 a.u.^3 (   106.28455 Ang^3 )
     density =      0.15624 g/cm^3

CELL_PARAMETERS (angstrom)
   4.525157720  -0.073339983   2.932808000
   1.556757881   4.249579361   2.932674490
  -0.106736019  -0.073461621   5.391377220

ATOMIC_POSITIONS (angstrom)
Li            1.6910038944        1.1611173962        3.1857841712
Li            4.7039716401        3.2299544061        8.8620044561
Mg            6.0331627693        4.1425922770       11.3661985788
Zr            3.0153649240        2.0704016533        5.6805953000
H             1.5444993857        2.7645693457        4.4773531847
H             3.6012300388        1.6603116488        3.7880713152
H             1.9515914747        0.4484023608        5.1054763545
H             4.1825511282        0.6655500144        6.4929183976
H             4.1877914409        3.6643870168        5.3970239332
H             1.7109083138        2.5922309972        7.1024977902



     Writing output data file ./tmp/Li2MgZrH6.save/
     NEW-OLD atomic charge density approx. for the potential

     negative rho (up, down):  6.191E-02 0.000E+00
     extrapolated charge   29.75762, renormalised to   30.00000

     total cpu time spent up to now is      499.6 secs

     Self-consistent Calculation

     iteration #  1     ecut=    50.00 Ry     beta= 0.70
     Davidson diagonalization with overlap
     ethr =  1.00E-06,  avg # of iterations = 12.6

     negative rho (up, down):  6.247E-02 0.000E+00

     total cpu time spent up to now is      504.4 secs

     total energy              =    -250.96915631 Ry
     estimated scf accuracy    <       0.00742532 Ry

     iteration #  2     ecut=    50.00 Ry     beta= 0.70
     Davidson diagonalization with overlap
     ethr =  2.48E-05,  avg # of iterations =  7.6

     negative rho (up, down):  6.243E-02 0.000E+00

     total cpu time spent up to now is      507.9 secs

     total energy              =    -250.97761359 Ry
     estimated scf accuracy    <       0.04080365 Ry

     iteration #  3     ecut=    50.00 Ry     beta= 0.70
     Davidson diagonalization with overlap
     ethr =  2.48E-05,  avg # of iterations =  3.2

     negative rho (up, down):  6.250E-02 0.000E+00

     total cpu time spent up to now is      511.0 secs

     total energy              =    -250.97978137 Ry
     estimated scf accuracy    <       0.00454871 Ry

     iteration #  4     ecut=    50.00 Ry     beta= 0.70
     Davidson diagonalization with overlap
     ethr =  1.52E-05,  avg # of iterations =  3.0

     negative rho (up, down):  6.255E-02 0.000E+00

     total cpu time spent up to now is      513.5 secs

     total energy              =    -250.98003851 Ry
     estimated scf accuracy    <       0.00053103 Ry

     iteration #  5     ecut=    50.00 Ry     beta= 0.70
     Davidson diagonalization with overlap
     ethr =  1.77E-06,  avg # of iterations =  9.9

     negative rho (up, down):  6.249E-02 0.000E+00

     total cpu time spent up to now is      516.9 secs

     total energy              =    -250.98022084 Ry
     estimated scf accuracy    <       0.00003118 Ry

     iteration #  6     ecut=    50.00 Ry     beta= 0.70
     Davidson diagonalization with overlap
     ethr =  1.04E-07,  avg # of iterations =  3.5

     negative rho (up, down):  6.246E-02 0.000E+00

     total cpu time spent up to now is      519.5 secs

     total energy              =    -250.98022802 Ry
     estimated scf accuracy    <       0.00000023 Ry

     iteration #  7     ecut=    50.00 Ry     beta= 0.70
     Davidson diagonalization with overlap
     ethr =  7.64E-10,  avg # of iterations =  6.2

     negative rho (up, down):  6.245E-02 0.000E+00

     total cpu time spent up to now is      523.1 secs

     total energy              =    -250.98022829 Ry
     estimated scf accuracy    <       0.00000041 Ry

     iteration #  8     ecut=    50.00 Ry     beta= 0.70
     Davidson diagonalization with overlap
     ethr =  7.64E-10,  avg # of iterations =  3.2

     negative rho (up, down):  6.243E-02 0.000E+00

     total cpu time spent up to now is      526.0 secs

     End of self-consistent calculation

          k = 0.0000 0.0000 0.0000 (  3557 PWs)   bands (ev):

   -71.0625 -44.0174 -38.1498 -38.1480 -38.1480 -22.0921 -22.0785 -22.0785
    -2.7475   0.9439   0.9439   1.2400   2.2267   2.2269   5.4281   5.4284
     5.5457   8.4371   8.7922

          k = 0.2947 0.2024-0.4497 (  3526 PWs)   bands (ev):

   -71.0625 -44.0173 -38.1498 -38.1481 -38.1480 -22.0930 -22.0829 -22.0795
    -1.1427  -1.0197   0.6664   1.0615   2.0302   2.2066   5.1222   5.9328
     6.1637   7.0189   8.3008

          k =-0.0042-0.5744-0.0079 (  3526 PWs)   bands (ev):

   -71.0625 -44.0173 -38.1498 -38.1481 -38.1480 -22.0930 -22.0829 -22.0795
    -1.1427  -1.0196   0.6664   1.0616   2.0300   2.2065   5.1223   5.9328
     6.1638   7.0192   8.3008

          k = 0.2905-0.3720-0.4576 (  3496 PWs)   bands (ev):

   -71.0625 -44.0173 -38.1498 -38.1481 -38.1480 -22.0941 -22.0823 -22.0804
    -1.3021   0.1454   0.4666   1.0191   1.1066   1.7233   5.0155   5.6471
     6.0031   7.6665   9.0786

          k =-0.5376 0.2024-0.0079 (  3526 PWs)   bands (ev):

   -71.0625 -44.0173 -38.1498 -38.1481 -38.1480 -22.0930 -22.0829 -22.0795
    -1.1427  -1.0195   0.6662   1.0617   2.0300   2.2068   5.1220   5.9328
     6.1639   7.0188   8.3009

          k =-0.2429 0.4047-0.4576 (  3496 PWs)   bands (ev):

   -71.0625 -44.0173 -38.1498 -38.1481 -38.1480 -22.0941 -22.0823 -22.0804
    -1.3023   0.1453   0.4667   1.0192   1.1067   1.7232   5.0156   5.6470
     6.0031   7.6665   9.0785

          k =-0.5418-0.3720-0.0158 (  3496 PWs)   bands (ev):

   -71.0625 -44.0173 -38.1498 -38.1481 -38.1480 -22.0941 -22.0823 -22.0804
    -1.3022   0.1454   0.4666   1.0193   1.1066   1.7234   5.0154   5.6471
     6.0031   7.6664   9.0785

          k =-0.2471-0.1697-0.4655 (  3516 PWs)   bands (ev):

   -71.0625 -44.0173 -38.1498 -38.1480 -38.1480 -22.0958 -22.0792 -22.0791
    -1.2629  -1.0535   0.8680   0.8681   2.2714   2.2716   5.3063   5.6352
     5.6353   7.5627   8.8457

     the Fermi energy is     5.4143 ev

!    total energy              =    -250.98022838 Ry
     estimated scf accuracy    <       0.00000003 Ry
     smearing contrib. (-TS)   =       0.00081032 Ry
     internal energy E=F+TS    =    -250.98103870 Ry

     The total energy is F=E-TS. E is the sum of the following terms:
     one-electron contribution =    -164.53275827 Ry
     hartree contribution      =      56.15819733 Ry
     xc contribution           =     -37.64258267 Ry
     ewald contribution        =    -112.43431876 Ry
     one-center paw contrib.   =       7.47042367 Ry

     convergence has been achieved in   8 iterations

     negative rho (up, down):  6.243E-02 0.000E+00

     Forces acting on atoms (cartesian axes, Ry/au):

     atom    1 type  2   force =    -0.00106268   -0.00073352   -0.00200778
     atom    2 type  2   force =    -0.00090767   -0.00062438   -0.00171971
     atom    3 type  3   force =     0.00141042    0.00095247    0.00265024
     atom    4 type  4   force =    -0.00248459   -0.00170278   -0.00466730
     atom    5 type  1   force =    -0.00461330    0.00156238   -0.00320952
     atom    6 type  1   force =     0.00143106   -0.00062486   -0.00561396
     atom    7 type  1   force =    -0.00254066   -0.00485917   -0.00195948
     atom    8 type  1   force =     0.00080553   -0.00444340    0.00898499
     atom    9 type  1   force =     0.00960575    0.00235084    0.00183597
     atom   10 type  1   force =    -0.00164387    0.00812243    0.00570654

     Total force =     0.021356     Total SCF correction =     0.000093


     Computing stress (Cartesian axis) and pressure


     negative rho (up, down):  6.243E-02 0.000E+00
          total   stress  (Ry/bohr**3)                   (kbar)     P=        9.89
   0.00007414  -0.00000704  -0.00001924           10.91       -1.03       -2.83
  -0.00000704   0.00007955  -0.00001317           -1.03       11.70       -1.94
  -0.00001924  -0.00001317   0.00004810           -2.83       -1.94        7.08

     Energy error            =      1.2E-03
     Gradient error          =      9.6E-03
     Cell gradient error     =      8.0E-05


     number of scf cycles    =  10
     number of bfgs steps    =   9

     enthalpy old            =    -250.9790002896 Ry
     enthalpy new            =    -250.9802283818 Ry

     CASE: enthalpy_new < enthalpy_old

     new trust radius        =       0.0926766705 bohr
     new conv_thr            =       0.0000000961 Ry

     new unit-cell volume =    716.63957 a.u.^3 (   106.19503 Ang^3 )
     density =      0.15637 g/cm^3

CELL_PARAMETERS (angstrom)
   4.528394569  -0.060343196   2.957932111
   1.570059284   4.248005278   2.957791289
  -0.087765183  -0.060448751   5.408181425

ATOMIC_POSITIONS (angstrom)
Li            1.7040560859        1.1700982735        3.2104315326
Li            4.7376252788        3.2531080415        8.9255067298
Mg            6.0619926667        4.1623760869       11.4205701930
Zr            3.0253846104        2.0773593389        5.6996334148
H             1.5513411176        2.7646832187        4.4825097147
H             3.6014324352        1.6606718562        3.7966094212
H             1.9543902248        0.4547666739        5.1105017538
H             4.1771468493        0.6977100782        6.5716483864
H             4.2371453945        3.6478382145        5.4644081425
H             1.7654256835        2.6443137322        7.1421435473



     Writing output data file ./tmp/Li2MgZrH6.save/
     NEW-OLD atomic charge density approx. for the potential

     negative rho (up, down):  6.205E-02 0.000E+00
     extrapolated charge   29.97472, renormalised to   30.00000

     total cpu time spent up to now is      552.1 secs

     Self-consistent Calculation

     iteration #  1     ecut=    50.00 Ry     beta= 0.70
     Davidson diagonalization with overlap
     ethr =  1.00E-06,  avg # of iterations =  8.4

     negative rho (up, down):  6.216E-02 0.000E+00

     total cpu time spent up to now is      557.3 secs

     total energy              =    -250.98158767 Ry
     estimated scf accuracy    <       0.00156938 Ry

     iteration #  2     ecut=    50.00 Ry     beta= 0.70
     Davidson diagonalization with overlap
     ethr =  5.23E-06,  avg # of iterations =  2.0

     negative rho (up, down):  6.215E-02 0.000E+00

     total cpu time spent up to now is      559.9 secs

     total energy              =    -250.98176684 Ry
     estimated scf accuracy    <       0.00023609 Ry

     iteration #  3     ecut=    50.00 Ry     beta= 0.70
     Davidson diagonalization with overlap
     ethr =  7.87E-07,  avg # of iterations =  3.4

     negative rho (up, down):  6.214E-02 0.000E+00

     total cpu time spent up to now is      562.7 secs

     total energy              =    -250.98178703 Ry
     estimated scf accuracy    <       0.00004522 Ry

     iteration #  4     ecut=    50.00 Ry     beta= 0.70
     Davidson diagonalization with overlap
     ethr =  1.51E-07,  avg # of iterations =  3.2

     negative rho (up, down):  6.215E-02 0.000E+00

     total cpu time spent up to now is      565.4 secs

     total energy              =    -250.98179657 Ry
     estimated scf accuracy    <       0.00000679 Ry

     iteration #  5     ecut=    50.00 Ry     beta= 0.70
     Davidson diagonalization with overlap
     ethr =  2.26E-08,  avg # of iterations =  2.9

     negative rho (up, down):  6.215E-02 0.000E+00

     total cpu time spent up to now is      568.1 secs

     total energy              =    -250.98179796 Ry
     estimated scf accuracy    <       0.00000011 Ry

     iteration #  6     ecut=    50.00 Ry     beta= 0.70
     Davidson diagonalization with overlap
     ethr =  3.63E-10,  avg # of iterations =  5.0

     negative rho (up, down):  6.216E-02 0.000E+00

     total cpu time spent up to now is      571.1 secs

     End of self-consistent calculation

          k = 0.0000 0.0000 0.0000 (  3557 PWs)   bands (ev):

   -70.9884 -44.0520 -38.0747 -38.0747 -38.0743 -22.1190 -22.1127 -22.1127
    -2.7643   0.9751   0.9752   1.1946   2.2081   2.2082   5.3888   5.3890
     5.4583   8.4832   8.8713

          k = 0.2965 0.2036-0.4497 (  3526 PWs)   bands (ev):

   -70.9884 -44.0519 -38.0747 -38.0747 -38.0743 -22.1200 -22.1169 -22.1137
    -1.1534  -1.0447   0.6476   1.0194   2.0579   2.2450   5.0871   5.9472
     6.1611   7.0501   8.2732

          k =-0.0034-0.5758-0.0065 (  3526 PWs)   bands (ev):

   -70.9884 -44.0519 -38.0747 -38.0747 -38.0743 -22.1200 -22.1169 -22.1137
    -1.1535  -1.0447   0.6476   1.0194   2.0578   2.2450   5.0871   5.9472
     6.1610   7.0504   8.2732

          k = 0.2931-0.3722-0.4562 (  3496 PWs)   bands (ev):

   -70.9884 -44.0519 -38.0747 -38.0747 -38.0743 -22.1210 -22.1165 -22.1146
    -1.3531   0.1249   0.4692   1.0363   1.1348   1.7165   4.9620   5.6833
     6.0040   7.6444   9.0749

          k =-0.5387 0.2036-0.0065 (  3526 PWs)   bands (ev):

   -70.9884 -44.0519 -38.0747 -38.0747 -38.0743 -22.1200 -22.1169 -22.1137
    -1.1533  -1.0446   0.6475   1.0194   2.0577   2.2451   5.0868   5.9472
     6.1612   7.0499   8.2732

          k =-0.2422 0.4072-0.4562 (  3496 PWs)   bands (ev):

   -70.9884 -44.0519 -38.0747 -38.0747 -38.0743 -22.1210 -22.1164 -22.1146
    -1.3532   0.1247   0.4694   1.0366   1.1349   1.7164   4.9621   5.6832
     6.0041   7.6444   9.0748

          k =-0.5421-0.3722-0.0130 (  3496 PWs)   bands (ev):

   -70.9884 -44.0519 -38.0747 -38.0747 -38.0743 -22.1210 -22.1164 -22.1146
    -1.3532   0.1248   0.4692   1.0365   1.1349   1.7164   4.9620   5.6833
     6.0040   7.6445   9.0747

          k =-0.2456-0.1687-0.4627 (  3516 PWs)   bands (ev):

   -70.9884 -44.0520 -38.0747 -38.0747 -38.0743 -22.1226 -22.1133 -22.1133
    -1.3351  -1.0421   0.8754   0.8756   2.2990   2.2992   5.2842   5.5963
     5.5964   7.5911   8.8100

     the Fermi energy is     5.3757 ev

!    total energy              =    -250.98179804 Ry
     estimated scf accuracy    <       0.00000003 Ry
     smearing contrib. (-TS)   =       0.00066107 Ry
     internal energy E=F+TS    =    -250.98245912 Ry

     The total energy is F=E-TS. E is the sum of the following terms:
     one-electron contribution =    -164.77509076 Ry
     hartree contribution      =      56.28442014 Ry
     xc contribution           =     -37.65010939 Ry
     ewald contribution        =    -112.31790163 Ry
     one-center paw contrib.   =       7.47622252 Ry

     convergence has been achieved in   6 iterations

     negative rho (up, down):  6.216E-02 0.000E+00

     Forces acting on atoms (cartesian axes, Ry/au):

     atom    1 type  2   force =    -0.00170919   -0.00118147   -0.00322596
     atom    2 type  2   force =    -0.00145144   -0.00099627   -0.00273414
     atom    3 type  3   force =     0.00309180    0.00213699    0.00583482
     atom    4 type  4   force =    -0.00494052   -0.00343660   -0.00936418
     atom    5 type  1   force =    -0.00364093    0.00186836    0.00008263
     atom    6 type  1   force =     0.00249673    0.00129999   -0.00294787
     atom    7 type  1   force =    -0.00016447   -0.00405782    0.00041205
     atom    8 type  1   force =     0.00061385   -0.00332399    0.00650561
     atom    9 type  1   force =     0.00701685    0.00177659    0.00125816
     atom   10 type  1   force =    -0.00131268    0.00591422    0.00417889

     Total force =     0.020231     Total SCF correction =     0.000107


     Computing stress (Cartesian axis) and pressure


     negative rho (up, down):  6.216E-02 0.000E+00
          total   stress  (Ry/bohr**3)                   (kbar)     P=       11.86
   0.00008889  -0.00000838  -0.00002302           13.08       -1.23       -3.39
  -0.00000838   0.00009521  -0.00001572           -1.23       14.01       -2.31
  -0.00002302  -0.00001572   0.00005771           -3.39       -2.31        8.49

     Energy error            =      1.6E-03
     Gradient error          =      9.4E-03
     Cell gradient error     =      9.5E-05


     number of scf cycles    =  11
     number of bfgs steps    =  10

     enthalpy old            =    -250.9802283818 Ry
     enthalpy new            =    -250.9817980440 Ry

     CASE: enthalpy_new < enthalpy_old

     new trust radius        =       0.1389887086 bohr
     new conv_thr            =       0.0000000936 Ry

     new unit-cell volume =    725.58724 a.u.^3 (   107.52094 Ang^3 )
     density =      0.15444 g/cm^3

CELL_PARAMETERS (angstrom)
   4.553391427  -0.043088291   3.005274765
   1.595148145   4.265219795   3.005130867
  -0.062589810  -0.043171589   5.455466955

ATOMIC_POSITIONS (angstrom)
Li            1.7294403620        1.1875449008        3.2583225521
Li            4.8050421077        3.2994579460        9.0526384239
Mg            6.1298687330        4.2089988851       11.5485351646
Zr            3.0459311368        2.0915307857        5.7384955533
H             1.5663632961        2.7765154041        4.5101122020
H             3.6175922654        1.6698943411        3.8245049806
H             1.9680008768        0.4645691624        5.1396052933
H             4.1849967392        0.7475498694        6.7136917848
H             4.3270092314        3.6373208431        5.5848815951
H             1.8525908732        2.7320589023        7.2282621269



     Writing output data file ./tmp/Li2MgZrH6.save/
     NEW-OLD atomic charge density approx. for the potential

     negative rho (up, down):  6.319E-02 0.000E+00
     extrapolated charge   30.36980, renormalised to   30.00000

     total cpu time spent up to now is      597.4 secs

     Self-consistent Calculation

     iteration #  1     ecut=    50.00 Ry     beta= 0.70
     Davidson diagonalization with overlap
     ethr =  1.00E-06,  avg # of iterations = 17.1

     negative rho (up, down):  6.246E-02 0.000E+00

     total cpu time spent up to now is      603.3 secs

     total energy              =    -250.95125216 Ry
     estimated scf accuracy    <       0.02538132 Ry

     iteration #  2     ecut=    50.00 Ry     beta= 0.70
     Davidson diagonalization with overlap
     ethr =  8.46E-05,  avg # of iterations =  7.8

     negative rho (up, down):  6.248E-02 0.000E+00

     total cpu time spent up to now is      606.8 secs

     total energy              =    -250.97043112 Ry
     estimated scf accuracy    <       0.13456207 Ry

     iteration #  3     ecut=    50.00 Ry     beta= 0.70
     Davidson diagonalization with overlap
     ethr =  8.46E-05,  avg # of iterations =  3.6

     negative rho (up, down):  6.244E-02 0.000E+00

     total cpu time spent up to now is      609.7 secs

     total energy              =    -250.98203584 Ry
     estimated scf accuracy    <       0.00834792 Ry

     iteration #  4     ecut=    50.00 Ry     beta= 0.70
     Davidson diagonalization with overlap
     ethr =  2.78E-05,  avg # of iterations =  7.2

     negative rho (up, down):  6.244E-02 0.000E+00

     total cpu time spent up to now is      612.2 secs

     total energy              =    -250.98331553 Ry
     estimated scf accuracy    <       0.00029001 Ry

     iteration #  5     ecut=    50.00 Ry     beta= 0.70
     Davidson diagonalization with overlap
     ethr =  9.67E-07,  avg # of iterations =  5.8

     negative rho (up, down):  6.251E-02 0.000E+00

     total cpu time spent up to now is      615.3 secs

     total energy              =    -250.98341812 Ry
     estimated scf accuracy    <       0.00000807 Ry

     iteration #  6     ecut=    50.00 Ry     beta= 0.70
     Davidson diagonalization with overlap
     ethr =  2.69E-08,  avg # of iterations =  4.8

     negative rho (up, down):  6.257E-02 0.000E+00

     total cpu time spent up to now is      618.3 secs

     total energy              =    -250.98342258 Ry
     estimated scf accuracy    <       0.00000086 Ry

     iteration #  7     ecut=    50.00 Ry     beta= 0.70
     Davidson diagonalization with overlap
     ethr =  2.87E-09,  avg # of iterations =  2.1

     negative rho (up, down):  6.260E-02 0.000E+00

     total cpu time spent up to now is      620.7 secs

     End of self-consistent calculation

          k = 0.0000 0.0000 0.0000 (  3557 PWs)   bands (ev):

   -71.0196 -44.2396 -38.1071 -38.1071 -38.1032 -22.2947 -22.2947 -22.2879
    -2.8347   0.9479   0.9481   1.0802   2.0854   2.0856   5.1948   5.2219
     5.2220   8.3374   8.8517

          k = 0.2975 0.2043-0.4478 (  3526 PWs)   bands (ev):

   -71.0196 -44.2395 -38.1071 -38.1071 -38.1032 -22.2989 -22.2957 -22.2884
    -1.2358  -1.1355   0.5468   0.8805   2.0115   2.2285   4.9156   5.8409
     6.0256   6.9863   8.1142

          k =-0.0024-0.5751-0.0046 (  3526 PWs)   bands (ev):

   -71.0196 -44.2395 -38.1071 -38.1071 -38.1032 -22.2989 -22.2957 -22.2884
    -1.2358  -1.1356   0.5469   0.8804   2.0116   2.2285   4.9157   5.8410
     6.0255   6.9867   8.1141

          k = 0.2951-0.3709-0.4524 (  3496 PWs)   bands (ev):

   -71.0196 -44.2395 -38.1071 -38.1071 -38.1032 -22.2984 -22.2964 -22.2894
    -1.4773   0.0071   0.4091   0.9774   1.1056   1.6225   4.7738   5.6152
     5.8943   7.4509   8.9221

          k =-0.5377 0.2043-0.0046 (  3526 PWs)   bands (ev):

   -71.0196 -44.2395 -38.1071 -38.1071 -38.1032 -22.2989 -22.2957 -22.2884
    -1.2356  -1.1355   0.5467   0.8806   2.0115   2.2285   4.9153   5.8410
     6.0257   6.9862   8.1141

          k =-0.2401 0.4086-0.4524 (  3496 PWs)   bands (ev):

   -71.0196 -44.2395 -38.1071 -38.1071 -38.1032 -22.2984 -22.2964 -22.2894
    -1.4774   0.0067   0.4093   0.9778   1.1056   1.6225   4.7739   5.6152
     5.8943   7.4509   8.9221

          k =-0.5401-0.3708-0.0091 (  3496 PWs)   bands (ev):

   -71.0196 -44.2395 -38.1071 -38.1071 -38.1032 -22.2984 -22.2964 -22.2894
    -1.4773   0.0068   0.4092   0.9776   1.1058   1.6223   4.7738   5.6153
     5.8942   7.4509   8.9220

          k =-0.2426-0.1666-0.4570 (  3516 PWs)   bands (ev):

   -71.0196 -44.2395 -38.1071 -38.1071 -38.1032 -22.2952 -22.2952 -22.2911
    -1.4897  -1.0824   0.8126   0.8127   2.2387   2.2390   5.1233   5.4367
     5.4368   7.4985   8.5923

     the Fermi energy is     5.1871 ev

!    total energy              =    -250.98342264 Ry
     estimated scf accuracy    <       0.00000008 Ry
     smearing contrib. (-TS)   =       0.00011852 Ry
     internal energy E=F+TS    =    -250.98354115 Ry

     The total energy is F=E-TS. E is the sum of the following terms:
     one-electron contribution =    -165.96969984 Ry
     hartree contribution      =      56.75427782 Ry
     xc contribution           =     -37.63385748 Ry
     ewald contribution        =    -111.61611480 Ry
     one-center paw contrib.   =       7.48185314 Ry

     convergence has been achieved in   7 iterations

     negative rho (up, down):  6.260E-02 0.000E+00

     Forces acting on atoms (cartesian axes, Ry/au):

     atom    1 type  2   force =    -0.00284824   -0.00196180   -0.00536670
     atom    2 type  2   force =    -0.00169395   -0.00115728   -0.00318274
     atom    3 type  3   force =     0.00498907    0.00342516    0.00940567
     atom    4 type  4   force =    -0.00518828   -0.00363498   -0.00987953
     atom    5 type  1   force =    -0.00231809    0.00191913    0.00463536
     atom    6 type  1   force =     0.00362299    0.00411055    0.00071354
     atom    7 type  1   force =     0.00331570   -0.00283519    0.00339144
     atom    8 type  1   force =    -0.00153030    0.00059055    0.00071146
     atom    9 type  1   force =     0.00061264   -0.00162084    0.00040189
     atom   10 type  1   force =     0.00103846    0.00116470   -0.00083039

     Total force =     0.020470     Total SCF correction =     0.000349


     Computing stress (Cartesian axis) and pressure


     negative rho (up, down):  6.260E-02 0.000E+00
          total   stress  (Ry/bohr**3)                   (kbar)     P=        7.52
   0.00005682  -0.00000567  -0.00001567            8.36       -0.83       -2.31
  -0.00000567   0.00006099  -0.00001064           -0.83        8.97       -1.56
  -0.00001567  -0.00001064   0.00003551           -2.31       -1.56        5.22

     Energy error            =      1.6E-03
     Gradient error          =      9.9E-03
     Cell gradient error     =      6.1E-05


     number of scf cycles    =  12
     number of bfgs steps    =  11

     enthalpy old            =    -250.9817980440 Ry
     enthalpy new            =    -250.9834226375 Ry

     CASE: enthalpy_new < enthalpy_old

     new trust radius        =       0.0329325469 bohr
     new conv_thr            =       0.0000000988 Ry

     new unit-cell volume =    734.66372 a.u.^3 (   108.86593 Ang^3 )
     density =      0.15253 g/cm^3

CELL_PARAMETERS (angstrom)
   4.573030468  -0.041259434   3.021761223
   1.603901596   4.282895234   3.021629657
  -0.059937716  -0.041336615   5.480967741

ATOMIC_POSITIONS (angstrom)
Li            1.7375734715        1.1931304171        3.2736453386
Li            4.8304349288        3.3169145758        9.1004744133
Mg            6.1629322298        4.2317215401       11.6108285316
Zr            3.0536710650        2.0968254856        5.7530356854
H             1.5718578387        2.7879612415        4.5311497013
H             3.6334167613        1.6791838225        3.8408575773
H             1.9783401988        0.4656099301        5.1618706430
H             4.1962956597        0.7594545395        6.7597725115
H             4.3566964037        3.6436130657        5.6232623033
H             1.8751080006        2.7575302523        7.2634631797



     Writing output data file ./tmp/Li2MgZrH6.save/
     NEW-OLD atomic charge density approx. for the potential

     negative rho (up, down):  6.324E-02 0.000E+00
     extrapolated charge   30.37048, renormalised to   30.00000

     total cpu time spent up to now is      646.8 secs

     Self-consistent Calculation

     iteration #  1     ecut=    50.00 Ry     beta= 0.70
     Davidson diagonalization with overlap
     ethr =  1.00E-06,  avg # of iterations = 11.8

     negative rho (up, down):  6.243E-02 0.000E+00

     total cpu time spent up to now is      651.9 secs

     total energy              =    -250.95772453 Ry
     estimated scf accuracy    <       0.01709067 Ry

     iteration #  2     ecut=    50.00 Ry     beta= 0.70
     Davidson diagonalization with overlap
     ethr =  5.70E-05,  avg # of iterations =  7.8

     negative rho (up, down):  6.244E-02 0.000E+00

     total cpu time spent up to now is      655.5 secs

     total energy              =    -250.97540441 Ry
     estimated scf accuracy    <       0.10835110 Ry

     iteration #  3     ecut=    50.00 Ry     beta= 0.70
     Davidson diagonalization with overlap
     ethr =  5.70E-05,  avg # of iterations =  3.6

     negative rho (up, down):  6.241E-02 0.000E+00

     total cpu time spent up to now is      658.4 secs

     total energy              =    -250.98416296 Ry
     estimated scf accuracy    <       0.00910833 Ry

     iteration #  4     ecut=    50.00 Ry     beta= 0.70
     Davidson diagonalization with overlap
     ethr =  3.04E-05,  avg # of iterations =  5.8

     negative rho (up, down):  6.239E-02 0.000E+00

     total cpu time spent up to now is      660.8 secs

     total energy              =    -250.98404039 Ry
     estimated scf accuracy    <       0.00292678 Ry

     iteration #  5     ecut=    50.00 Ry     beta= 0.70
     Davidson diagonalization with overlap
     ethr =  9.76E-06,  avg # of iterations =  4.9

     negative rho (up, down):  6.243E-02 0.000E+00

     total cpu time spent up to now is      663.1 secs

     total energy              =    -250.98416428 Ry
     estimated scf accuracy    <       0.00059342 Ry

     iteration #  6     ecut=    50.00 Ry     beta= 0.70
     Davidson diagonalization with overlap
     ethr =  1.98E-06,  avg # of iterations =  7.1

     negative rho (up, down):  6.248E-02 0.000E+00

     total cpu time spent up to now is      666.0 secs

     total energy              =    -250.98422461 Ry
     estimated scf accuracy    <       0.00007095 Ry

     iteration #  7     ecut=    50.00 Ry     beta= 0.70
     Davidson diagonalization with overlap
     ethr =  2.37E-07,  avg # of iterations =  3.8

     negative rho (up, down):  6.250E-02 0.000E+00

     total cpu time spent up to now is      668.8 secs

     total energy              =    -250.98423819 Ry
     estimated scf accuracy    <       0.00000333 Ry

     iteration #  8     ecut=    50.00 Ry     beta= 0.70
     Davidson diagonalization with overlap
     ethr =  1.11E-08,  avg # of iterations =  4.2

     negative rho (up, down):  6.252E-02 0.000E+00

     total cpu time spent up to now is      671.7 secs

     total energy              =    -250.98423916 Ry
     estimated scf accuracy    <       0.00000049 Ry

     iteration #  9     ecut=    50.00 Ry     beta= 0.70
     Davidson diagonalization with overlap
     ethr =  1.64E-09,  avg # of iterations =  3.1

     negative rho (up, down):  6.253E-02 0.000E+00

     total cpu time spent up to now is      674.3 secs

     total energy              =    -250.98423913 Ry
     estimated scf accuracy    <       0.00000022 Ry

     iteration # 10     ecut=    50.00 Ry     beta= 0.70
     Davidson diagonalization with overlap
     ethr =  7.21E-10,  avg # of iterations =  3.2

     negative rho (up, down):  6.253E-02 0.000E+00

     total cpu time spent up to now is      677.0 secs

     End of self-consistent calculation

          k = 0.0000 0.0000 0.0000 (  3557 PWs)   bands (ev):

   -71.1364 -44.3742 -38.2242 -38.2242 -38.2190 -22.4260 -22.4260 -22.4133
    -2.8782   0.8811   0.8813   1.0221   1.9975   1.9976   5.0473   5.1054
     5.1056   8.1629   8.7476

          k = 0.2965 0.2036-0.4460 (  3526 PWs)   bands (ev):

   -71.1364 -44.3742 -38.2242 -38.2242 -38.2190 -22.4298 -22.4269 -22.4138
    -1.2896  -1.1956   0.4692   0.7901   1.9426   2.1658   4.7930   5.7261
     5.9079   6.8935   8.0060

          k =-0.0023-0.5729-0.0043 (  3526 PWs)   bands (ev):

   -71.1364 -44.3742 -38.2242 -38.2242 -38.2190 -22.4299 -22.4269 -22.4138
    -1.2896  -1.1957   0.4693   0.7900   1.9427   2.1658   4.7931   5.7262
     5.9078   6.8939   8.0058

          k = 0.2942-0.3693-0.4503 (  3496 PWs)   bands (ev):

   -71.1364 -44.3741 -38.2242 -38.2242 -38.2190 -22.4294 -22.4276 -22.4147
    -1.5345  -0.0719   0.3449   0.9062   1.0417   1.5372   4.6578   5.5121
     5.7920   7.2974   8.7960

          k =-0.5356 0.2036-0.0043 (  3526 PWs)   bands (ev):

   -71.1364 -44.3742 -38.2242 -38.2242 -38.2190 -22.4299 -22.4269 -22.4138
    -1.2894  -1.1957   0.4691   0.7902   1.9426   2.1659   4.7928   5.7263
     5.9079   6.8934   8.0059

          k =-0.2390 0.4072-0.4503 (  3496 PWs)   bands (ev):

   -71.1364 -44.3741 -38.2242 -38.2242 -38.2190 -22.4294 -22.4276 -22.4147
    -1.5346  -0.0723   0.3451   0.9066   1.0417   1.5372   4.6579   5.5120
     5.7921   7.2974   8.7959

          k =-0.5379-0.3693-0.0087 (  3496 PWs)   bands (ev):

   -71.1364 -44.3741 -38.2242 -38.2242 -38.2190 -22.4293 -22.4276 -22.4147
    -1.5345  -0.0722   0.3451   0.9064   1.0419   1.5370   4.6578   5.5122
     5.7920   7.2974   8.7959

          k =-0.2413-0.1657-0.4547 (  3516 PWs)   bands (ev):

   -71.1364 -44.3742 -38.2242 -38.2242 -38.2190 -22.4265 -22.4265 -22.4163
    -1.5448  -1.1409   0.7422   0.7422   2.1536   2.1539   5.0093   5.3279
     5.3280   7.3833   8.4393

     the Fermi energy is     5.0633 ev

!    total energy              =    -250.98423917 Ry
     estimated scf accuracy    <          2.3E-09 Ry
     smearing contrib. (-TS)   =       0.00011714 Ry
     internal energy E=F+TS    =    -250.98435631 Ry

     The total energy is F=E-TS. E is the sum of the following terms:
     one-electron contribution =    -166.80571858 Ry
     hartree contribution      =      57.04857628 Ry
     xc contribution           =     -37.61102744 Ry
     ewald contribution        =    -111.09589064 Ry
     one-center paw contrib.   =       7.47970408 Ry

     convergence has been achieved in  10 iterations

     negative rho (up, down):  6.253E-02 0.000E+00

     Forces acting on atoms (cartesian axes, Ry/au):

     atom    1 type  2   force =    -0.00308722   -0.00212741   -0.00582373
     atom    2 type  2   force =    -0.00136255   -0.00093453   -0.00256462
     atom    3 type  3   force =     0.00448876    0.00310507    0.00847910
     atom    4 type  4   force =    -0.00327945   -0.00230925   -0.00623849
     atom    5 type  1   force =    -0.00223360    0.00175653    0.00469230
     atom    6 type  1   force =     0.00347623    0.00416737    0.00080983
     atom    7 type  1   force =     0.00343031   -0.00270306    0.00332270
     atom    8 type  1   force =    -0.00266435    0.00204914   -0.00060722
     atom    9 type  1   force =    -0.00101809   -0.00320910    0.00045249
     atom   10 type  1   force =     0.00224998    0.00020524   -0.00252235

     Total force =     0.018411     Total SCF correction =     0.000035


     Computing stress (Cartesian axis) and pressure


     negative rho (up, down):  6.253E-02 0.000E+00
          total   stress  (Ry/bohr**3)                   (kbar)     P=        1.96
   0.00001596  -0.00000258  -0.00000714            2.35       -0.38       -1.05
  -0.00000258   0.00001778  -0.00000482           -0.38        2.62       -0.71
  -0.00000714  -0.00000482   0.00000617           -1.05       -0.71        0.91

     Energy error            =      8.2E-04
     Gradient error          =      8.5E-03
     Cell gradient error     =      1.8E-05


     number of scf cycles    =  13
     number of bfgs steps    =  12

     enthalpy old            =    -250.9834226375 Ry
     enthalpy new            =    -250.9842391711 Ry

     CASE: enthalpy_new < enthalpy_old

     new trust radius        =       0.0364106048 bohr
     new conv_thr            =       0.0000000817 Ry

     new unit-cell volume =    744.81801 a.u.^3 (   110.37064 Ang^3 )
     density =      0.15045 g/cm^3

CELL_PARAMETERS (angstrom)
   4.593585729  -0.042655567   3.033154518
   1.609965323   4.302559075   3.033048059
  -0.062001905  -0.042723393   5.504346075

ATOMIC_POSITIONS (angstrom)
Li            1.7400991320        1.1948571974        3.2783717801
Li            4.8484157174        3.3292777826        9.1342908711
Mg            6.1949046916        4.2537282263       11.6710347268
Zr            3.0573341326        2.0992779427        5.7598257823
H             1.5730349639        2.8017660893        4.5543805941
H             3.6529795773        1.6915952160        3.8548850709
H             1.9901587046        0.4617884181        5.1858909419
H             4.2063288881        0.7658571899        6.7923597818
H             4.3784079551        3.6507001173        5.6494417754
H             1.8887221156        2.7752597810        7.2900575393



     Writing output data file ./tmp/Li2MgZrH6.save/
     NEW-OLD atomic charge density approx. for the potential

     negative rho (up, down):  6.268E-02 0.000E+00
     extrapolated charge   30.40883, renormalised to   30.00000

     total cpu time spent up to now is      703.1 secs

     Self-consistent Calculation

     iteration #  1     ecut=    50.00 Ry     beta= 0.70
     Davidson diagonalization with overlap
     c_bands:  1 eigenvalues not converged
     c_bands:  1 eigenvalues not converged
     c_bands:  1 eigenvalues not converged
     ethr =  1.00E-06,  avg # of iterations = 16.1

     negative rho (up, down):  6.177E-02 0.000E+00

     total cpu time spent up to now is      708.7 secs

     total energy              =    -250.95245791 Ry
     estimated scf accuracy    <       0.02046790 Ry

     iteration #  2     ecut=    50.00 Ry     beta= 0.70
     Davidson diagonalization with overlap
     ethr =  6.82E-05,  avg # of iterations =  8.5

     negative rho (up, down):  6.179E-02 0.000E+00

     total cpu time spent up to now is      712.3 secs

     total energy              =    -250.97433232 Ry
     estimated scf accuracy    <       0.13274142 Ry

     iteration #  3     ecut=    50.00 Ry     beta= 0.70
     Davidson diagonalization with overlap
     ethr =  6.82E-05,  avg # of iterations =  3.5

     negative rho (up, down):  6.177E-02 0.000E+00

     total cpu time spent up to now is      715.4 secs

     total energy              =    -250.98492988 Ry
     estimated scf accuracy    <       0.01108760 Ry

     iteration #  4     ecut=    50.00 Ry     beta= 0.70
     Davidson diagonalization with overlap
     ethr =  3.70E-05,  avg # of iterations =  2.4

     negative rho (up, down):  6.175E-02 0.000E+00

     total cpu time spent up to now is      717.9 secs

     total energy              =    -250.98483184 Ry
     estimated scf accuracy    <       0.00354006 Ry

     iteration #  5     ecut=    50.00 Ry     beta= 0.70
     Davidson diagonalization with overlap
     ethr =  1.18E-05,  avg # of iterations =  8.1

     negative rho (up, down):  6.181E-02 0.000E+00

     total cpu time spent up to now is      720.9 secs

     total energy              =    -250.98505065 Ry
     estimated scf accuracy    <       0.00070900 Ry

     iteration #  6     ecut=    50.00 Ry     beta= 0.70
     Davidson diagonalization with overlap
     ethr =  2.36E-06,  avg # of iterations =  3.2

     negative rho (up, down):  6.187E-02 0.000E+00

     total cpu time spent up to now is      723.5 secs

     total energy              =    -250.98503358 Ry
     estimated scf accuracy    <       0.00020473 Ry

     iteration #  7     ecut=    50.00 Ry     beta= 0.70
     Davidson diagonalization with overlap
     ethr =  6.82E-07,  avg # of iterations =  3.8

     negative rho (up, down):  6.187E-02 0.000E+00

     total cpu time spent up to now is      726.3 secs

     total energy              =    -250.98507257 Ry
     estimated scf accuracy    <       0.00000427 Ry

     iteration #  8     ecut=    50.00 Ry     beta= 0.70
     Davidson diagonalization with overlap
     ethr =  1.42E-08,  avg # of iterations =  5.0

     negative rho (up, down):  6.189E-02 0.000E+00

     total cpu time spent up to now is      729.3 secs

     total energy              =    -250.98507548 Ry
     estimated scf accuracy    <       0.00000020 Ry

     iteration #  9     ecut=    50.00 Ry     beta= 0.70
     Davidson diagonalization with overlap
     ethr =  6.75E-10,  avg # of iterations =  2.9

     negative rho (up, down):  6.191E-02 0.000E+00

     total cpu time spent up to now is      732.0 secs

     total energy              =    -250.98507542 Ry
     estimated scf accuracy    <       0.00000024 Ry

     iteration # 10     ecut=    50.00 Ry     beta= 0.70
     Davidson diagonalization with overlap
     ethr =  6.75E-10,  avg # of iterations =  2.5

     negative rho (up, down):  6.191E-02 0.000E+00

     total cpu time spent up to now is      734.4 secs

     End of self-consistent calculation

          k = 0.0000 0.0000 0.0000 (  3557 PWs)   bands (ev):

   -71.2821 -44.5112 -38.3703 -38.3703 -38.3638 -22.5595 -22.5595 -22.5436
    -2.9175   0.7956   0.7957   0.9839   1.9137   1.9139   4.8935   4.9805
     4.9808   7.9698   8.6172

          k = 0.2950 0.2026-0.4440 (  3526 PWs)   bands (ev):

   -71.2821 -44.5112 -38.3703 -38.3703 -38.3638 -22.5630 -22.5603 -22.5441
    -1.3388  -1.2508   0.3842   0.6949   1.8701   2.0985   4.6593   5.5945
     5.7800   6.7886   7.9050

          k =-0.0024-0.5702-0.0045 (  3526 PWs)   bands (ev):

   -71.2821 -44.5112 -38.3703 -38.3703 -38.3638 -22.5630 -22.5603 -22.5441
    -1.3388  -1.2509   0.3843   0.6948   1.8702   2.0985   4.6594   5.5946
     5.7800   6.7890   7.9047

          k = 0.2927-0.3676-0.4484 (  3496 PWs)   bands (ev):

   -71.2821 -44.5112 -38.3703 -38.3703 -38.3638 -22.5626 -22.5609 -22.5449
    -1.5797  -0.1517   0.2783   0.8231   0.9706   1.4460   4.5378   5.3899
     5.6835   7.1356   8.6681

          k =-0.5330 0.2026-0.0044 (  3526 PWs)   bands (ev):

   -71.2821 -44.5112 -38.3703 -38.3703 -38.3638 -22.5630 -22.5603 -22.5441
    -1.3387  -1.2508   0.3840   0.6949   1.8700   2.0986   4.6591   5.5946
     5.7801   6.7885   7.9049

          k =-0.2380 0.4051-0.4484 (  3496 PWs)   bands (ev):

   -71.2821 -44.5112 -38.3703 -38.3703 -38.3638 -22.5626 -22.5609 -22.5449
    -1.5798  -0.1519   0.2783   0.8234   0.9706   1.4461   4.5379   5.3898
     5.6835   7.1356   8.6681

          k =-0.5354-0.3676-0.0089 (  3496 PWs)   bands (ev):

   -71.2821 -44.5112 -38.3703 -38.3703 -38.3638 -22.5626 -22.5610 -22.5449
    -1.5797  -0.1518   0.2784   0.8232   0.9706   1.4460   4.5378   5.3900
     5.6834   7.1356   8.6682

          k =-0.2404-0.1651-0.4528 (  3516 PWs)   bands (ev):

   -71.2821 -44.5112 -38.3703 -38.3703 -38.3638 -22.5599 -22.5599 -22.5463
    -1.5769  -1.2082   0.6605   0.6605   2.0585   2.0586   4.8973   5.2152
     5.2154   7.2493   8.2901

     the Fermi energy is     4.9342 ev

!    total energy              =    -250.98507543 Ry
     estimated scf accuracy    <       0.00000002 Ry
     smearing contrib. (-TS)   =       0.00022253 Ry
     internal energy E=F+TS    =    -250.98529796 Ry

     The total energy is F=E-TS. E is the sum of the following terms:
     one-electron contribution =    -167.65421341 Ry
     hartree contribution      =      57.33638517 Ry
     xc contribution           =     -37.58406752 Ry
     ewald contribution        =    -110.55890888 Ry
     one-center paw contrib.   =       7.47550667 Ry

     convergence has been achieved in  10 iterations

     negative rho (up, down):  6.191E-02 0.000E+00

     Forces acting on atoms (cartesian axes, Ry/au):

     atom    1 type  2   force =    -0.00312430   -0.00215129   -0.00589138
     atom    2 type  2   force =    -0.00069899   -0.00048461   -0.00132318
     atom    3 type  3   force =     0.00292675    0.00201516    0.00551960
     atom    4 type  4   force =    -0.00030672   -0.00021299   -0.00057647
     atom    5 type  1   force =    -0.00267184    0.00144510    0.00360551
     atom    6 type  1   force =     0.00295413    0.00366527   -0.00017956
     atom    7 type  1   force =     0.00277231   -0.00301222    0.00233824
     atom    8 type  1   force =    -0.00350122    0.00302706   -0.00089348
     atom    9 type  1   force =    -0.00161101   -0.00435212    0.00079708
     atom   10 type  1   force =     0.00326089    0.00006064   -0.00339637

     Total force =     0.015111     Total SCF correction =     0.000080


     Computing stress (Cartesian axis) and pressure


     negative rho (up, down):  6.191E-02 0.000E+00
          total   stress  (Ry/bohr**3)                   (kbar)     P=       -4.33
  -0.00003093   0.00000157   0.00000421           -4.55        0.23        0.62
   0.00000157  -0.00003215   0.00000292            0.23       -4.73        0.43
   0.00000421   0.00000292  -0.00002525            0.62        0.43       -3.71

     Energy error            =      8.4E-04
     Gradient error          =      5.9E-03
     Cell gradient error     =      3.2E-05


     number of scf cycles    =  14
     number of bfgs steps    =  13

     enthalpy old            =    -250.9842391711 Ry
     enthalpy new            =    -250.9850754267 Ry

     CASE: enthalpy_new < enthalpy_old

     new trust radius        =       0.0333208026 bohr
     new conv_thr            =       0.0000000589 Ry

     new unit-cell volume =    748.91497 a.u.^3 (   110.97775 Ang^3 )
     density =      0.14963 g/cm^3

CELL_PARAMETERS (angstrom)
   4.602104164  -0.042451156   3.039224819
   1.613200439   4.310432449   3.039144508
  -0.061738490  -0.042511695   5.514787373

ATOMIC_POSITIONS (angstrom)
Li            1.7369924136        1.1927210446        3.2725011084
Li            4.8562821218        3.3347073101        9.1490785677
Mg            6.2149051213        4.2675095832       11.7086940723
Zr            3.0560717649        2.0983796396        5.7573782635
H             1.5690513728        2.8095685568        4.5674077688
H             3.6649256962        1.7009729905        3.8589204385
H             1.9976915103        0.4553095520        5.1980150937
H             4.2049943561        0.7733201923        6.8139717559
H             4.3927406686        3.6468138471        5.6669090520
H             1.9023386452        2.7900624905        7.3010935849



     Writing output data file ./tmp/Li2MgZrH6.save/
     NEW-OLD atomic charge density approx. for the potential

     negative rho (up, down):  6.268E-02 0.000E+00
     extrapolated charge   30.16405, renormalised to   30.00000

     total cpu time spent up to now is      760.5 secs

     Self-consistent Calculation

     iteration #  1     ecut=    50.00 Ry     beta= 0.70
     Davidson diagonalization with overlap
     ethr =  1.00E-06,  avg # of iterations = 13.8

     negative rho (up, down):  6.236E-02 0.000E+00

     total cpu time spent up to now is      765.4 secs

     total energy              =    -250.97975770 Ry
     estimated scf accuracy    <       0.00391999 Ry

     iteration #  2     ecut=    50.00 Ry     beta= 0.70
     Davidson diagonalization with overlap
     ethr =  1.31E-05,  avg # of iterations =  8.6

     negative rho (up, down):  6.237E-02 0.000E+00

     total cpu time spent up to now is      768.7 secs

     total energy              =    -250.98397811 Ry
     estimated scf accuracy    <       0.02251783 Ry

     iteration #  3     ecut=    50.00 Ry     beta= 0.70
     Davidson diagonalization with overlap
     ethr =  1.31E-05,  avg # of iterations =  6.2

     negative rho (up, down):  6.235E-02 0.000E+00

     total cpu time spent up to now is      771.6 secs

     total energy              =    -250.98565903 Ry
     estimated scf accuracy    <       0.00183067 Ry

     iteration #  4     ecut=    50.00 Ry     beta= 0.70
     Davidson diagonalization with overlap
     ethr =  6.10E-06,  avg # of iterations =  2.8

     negative rho (up, down):  6.233E-02 0.000E+00

     total cpu time spent up to now is      774.3 secs

     total energy              =    -250.98560783 Ry
     estimated scf accuracy    <       0.00043529 Ry

     iteration #  5     ecut=    50.00 Ry     beta= 0.70
     Davidson diagonalization with overlap
     ethr =  1.45E-06,  avg # of iterations =  8.9

     negative rho (up, down):  6.236E-02 0.000E+00

     total cpu time spent up to now is      777.2 secs

     total energy              =    -250.98570122 Ry
     estimated scf accuracy    <       0.00000471 Ry

     iteration #  6     ecut=    50.00 Ry     beta= 0.70
     Davidson diagonalization with overlap
     ethr =  1.57E-08,  avg # of iterations =  4.2

     negative rho (up, down):  6.240E-02 0.000E+00

     total cpu time spent up to now is      780.2 secs

     total energy              =    -250.98570412 Ry
     estimated scf accuracy    <       0.00000022 Ry

     iteration #  7     ecut=    50.00 Ry     beta= 0.70
     Davidson diagonalization with overlap
     ethr =  7.35E-10,  avg # of iterations =  3.6

     negative rho (up, down):  6.241E-02 0.000E+00

     total cpu time spent up to now is      783.0 secs

     total energy              =    -250.98570416 Ry
     estimated scf accuracy    <       0.00000011 Ry

     iteration #  8     ecut=    50.00 Ry     beta= 0.70
     Davidson diagonalization with overlap
     ethr =  3.73E-10,  avg # of iterations =  2.5

     negative rho (up, down):  6.241E-02 0.000E+00

     total cpu time spent up to now is      785.7 secs

     End of self-consistent calculation

          k = 0.0000 0.0000 0.0000 (  3557 PWs)   bands (ev):

   -71.3395 -44.5707 -38.4279 -38.4279 -38.4203 -22.6175 -22.6175 -22.6004
    -2.9300   0.7592   0.7593   0.9919   1.8876   1.8879   4.7982   4.9171
     4.9174   7.8926   8.5668

          k = 0.2945 0.2022-0.4431 (  3526 PWs)   bands (ev):

   -71.3395 -44.5707 -38.4279 -38.4279 -38.4203 -22.6209 -22.6182 -22.6009
    -1.3545  -1.2652   0.3444   0.6480   1.8544   2.0927   4.5856   5.5331
     5.7215   6.7518   7.8732

          k =-0.0023-0.5692-0.0044 (  3526 PWs)   bands (ev):

   -71.3395 -44.5707 -38.4279 -38.4279 -38.4203 -22.6208 -22.6182 -22.6009
    -1.3545  -1.2653   0.3446   0.6479   1.8544   2.0927   4.5857   5.5333
     5.7215   6.7522   7.8729

          k = 0.2922-0.3670-0.4476 (  3496 PWs)   bands (ev):

   -71.3395 -44.5707 -38.4279 -38.4279 -38.4203 -22.6204 -22.6189 -22.6017
    -1.5926  -0.1883   0.2605   0.7869   0.9553   1.4126   4.4726   5.3371
     5.6419   7.0653   8.6177

          k =-0.5321 0.2022-0.0044 (  3526 PWs)   bands (ev):

   -71.3395 -44.5707 -38.4279 -38.4279 -38.4203 -22.6208 -22.6182 -22.6009
    -1.3545  -1.2652   0.3443   0.6480   1.8543   2.0928   4.5855   5.5333
     5.7216   6.7517   7.8732

          k =-0.2376 0.4045-0.4475 (  3496 PWs)   bands (ev):

   -71.3395 -44.5707 -38.4279 -38.4279 -38.4203 -22.6204 -22.6189 -22.6017
    -1.5926  -0.1885   0.2604   0.7872   0.9552   1.4127   4.4727   5.3371
     5.6419   7.0653   8.6177

          k =-0.5344-0.3670-0.0088 (  3496 PWs)   bands (ev):

   -71.3395 -44.5707 -38.4279 -38.4279 -38.4203 -22.6204 -22.6188 -22.6017
    -1.5926  -0.1885   0.2605   0.7871   0.9552   1.4127   4.4726   5.3373
     5.6418   7.0652   8.6179

          k =-0.2399-0.1647-0.4520 (  3516 PWs)   bands (ev):

   -71.3395 -44.5707 -38.4279 -38.4279 -38.4203 -22.6179 -22.6179 -22.6030
    -1.5830  -1.2306   0.6252   0.6252   2.0278   2.0279   4.8523   5.1623
     5.1625   7.1943   8.2327

     the Fermi energy is     4.8671 ev

!    total energy              =    -250.98570417 Ry
     estimated scf accuracy    <       0.00000001 Ry
     smearing contrib. (-TS)   =       0.00030000 Ry
     internal energy E=F+TS    =    -250.98600417 Ry

     The total energy is F=E-TS. E is the sum of the following terms:
     one-electron contribution =    -168.00670243 Ry
     hartree contribution      =      57.45698219 Ry
     xc contribution           =     -37.57243405 Ry
     ewald contribution        =    -110.33761653 Ry
     one-center paw contrib.   =       7.47376665 Ry

     convergence has been achieved in   8 iterations

     negative rho (up, down):  6.241E-02 0.000E+00

     Forces acting on atoms (cartesian axes, Ry/au):

     atom    1 type  2   force =    -0.00307483   -0.00211726   -0.00579603
     atom    2 type  2   force =    -0.00014395   -0.00010768   -0.00028070
     atom    3 type  3   force =     0.00162801    0.00112684    0.00307376
     atom    4 type  4   force =     0.00186860    0.00131933    0.00354933
     atom    5 type  1   force =    -0.00314006    0.00104364    0.00297292
     atom    6 type  1   force =     0.00249047    0.00355984   -0.00093375
     atom    7 type  1   force =     0.00254577   -0.00331520    0.00153455
     atom    8 type  1   force =    -0.00377516    0.00348507   -0.00120523
     atom    9 type  1   force =    -0.00206409   -0.00478166    0.00089706
     atom   10 type  1   force =     0.00366524   -0.00021290   -0.00381191

     Total force =     0.014899     Total SCF correction =     0.000051


     Computing stress (Cartesian axis) and pressure


     negative rho (up, down):  6.241E-02 0.000E+00
          total   stress  (Ry/bohr**3)                   (kbar)     P=       -6.64
  -0.00004935   0.00000428   0.00001171           -7.26        0.63        1.72
   0.00000428  -0.00005260   0.00000802            0.63       -7.74        1.18
   0.00001171   0.00000802  -0.00003354            1.72        1.18       -4.93

     Energy error            =      6.3E-04
     Gradient error          =      5.8E-03
     Cell gradient error     =      5.3E-05


     number of scf cycles    =  15
     number of bfgs steps    =  14

     enthalpy old            =    -250.9850754267 Ry
     enthalpy new            =    -250.9857041661 Ry

     CASE: enthalpy_new < enthalpy_old

     new trust radius        =       0.0367245604 bohr
     new conv_thr            =       0.0000000580 Ry

     new unit-cell volume =    749.83889 a.u.^3 (   111.11466 Ang^3 )
     density =      0.14944 g/cm^3

CELL_PARAMETERS (angstrom)
   4.604499519  -0.041108457   3.043154897
   1.615299271   4.312185946   3.043100338
  -0.059814526  -0.041160325   5.518954591

ATOMIC_POSITIONS (angstrom)
Li            1.7303743612        1.1881722563        3.2600145780
Li            4.8595848285        3.3370018724        9.1552603174
Mg            6.2300672271        4.2779690520       11.7372228950
Zr            3.0530266062        2.0962765366        5.7515753397
H             1.5620384775        2.8146130018        4.5767422045
H             3.6738064734        1.7100714903        3.8583772113
H             2.0042189196        0.4469910849        5.2050321385
H             4.1975143269        0.7824385739        6.8304466389
H             4.4031885564        3.6365972524        5.6809493686
H             1.9172144180        2.8035160085        7.3041542314



     Writing output data file ./tmp/Li2MgZrH6.save/
     NEW-OLD atomic charge density approx. for the potential

     negative rho (up, down):  6.298E-02 0.000E+00
     extrapolated charge   30.03695, renormalised to   30.00000

     total cpu time spent up to now is      811.7 secs

     Self-consistent Calculation

     iteration #  1     ecut=    50.00 Ry     beta= 0.70
     Davidson diagonalization with overlap
     ethr =  1.00E-06,  avg # of iterations =  8.8

     negative rho (up, down):  6.293E-02 0.000E+00

     total cpu time spent up to now is      816.5 secs

     total energy              =    -250.98602046 Ry
     estimated scf accuracy    <       0.00047969 Ry

     iteration #  2     ecut=    50.00 Ry     beta= 0.70
     Davidson diagonalization with overlap
     ethr =  1.60E-06,  avg # of iterations =  6.8

     negative rho (up, down):  6.295E-02 0.000E+00

     total cpu time spent up to now is      819.8 secs

     total energy              =    -250.98638094 Ry
     estimated scf accuracy    <       0.00134464 Ry

     iteration #  3     ecut=    50.00 Ry     beta= 0.70
     Davidson diagonalization with overlap
     ethr =  1.60E-06,  avg # of iterations =  3.5

     negative rho (up, down):  6.294E-02 0.000E+00

     total cpu time spent up to now is      822.5 secs

     total energy              =    -250.98640467 Ry
     estimated scf accuracy    <       0.00005482 Ry

     iteration #  4     ecut=    50.00 Ry     beta= 0.70
     Davidson diagonalization with overlap
     ethr =  1.83E-07,  avg # of iterations =  4.4

     negative rho (up, down):  6.295E-02 0.000E+00

     total cpu time spent up to now is      825.2 secs

     total energy              =    -250.98640682 Ry
     estimated scf accuracy    <       0.00000170 Ry

     iteration #  5     ecut=    50.00 Ry     beta= 0.70
     Davidson diagonalization with overlap
     ethr =  5.65E-09,  avg # of iterations =  3.5

     negative rho (up, down):  6.296E-02 0.000E+00

     total cpu time spent up to now is      828.1 secs

     total energy              =    -250.98640762 Ry
     estimated scf accuracy    <       0.00000029 Ry

     iteration #  6     ecut=    50.00 Ry     beta= 0.70
     Davidson diagonalization with overlap
     ethr =  9.78E-10,  avg # of iterations =  3.5

     negative rho (up, down):  6.296E-02 0.000E+00

     total cpu time spent up to now is      831.0 secs

     End of self-consistent calculation

          k = 0.0000 0.0000 0.0000 (  3557 PWs)   bands (ev):

   -71.3537 -44.5909 -38.4423 -38.4423 -38.4340 -22.6370 -22.6369 -22.6200
    -2.9283   0.7481   0.7482   1.0250   1.8919   1.8922   4.7321   4.8858
     4.8862   7.8727   8.5522

          k = 0.2946 0.2023-0.4430 (  3526 PWs)   bands (ev):

   -71.3537 -44.5909 -38.4423 -38.4423 -38.4340 -22.6403 -22.6377 -22.6204
    -1.3527  -1.2569   0.3289   0.6266   1.8667   2.1178   4.5410   5.5073
     5.6986   6.7485   7.8758

          k =-0.0023-0.5691-0.0043 (  3526 PWs)   bands (ev):

   -71.3537 -44.5909 -38.4423 -38.4423 -38.4340 -22.6403 -22.6377 -22.6204
    -1.3527  -1.2570   0.3291   0.6264   1.8667   2.1178   4.5411   5.5075
     5.6985   6.7489   7.8756

          k = 0.2923-0.3668-0.4472 (  3496 PWs)   bands (ev):

   -71.3537 -44.5909 -38.4423 -38.4423 -38.4340 -22.6399 -22.6384 -22.6213
    -1.5872  -0.2021   0.2669   0.7761   0.9681   1.4088   4.4345   5.3187
     5.6343   7.0414   8.6061

          k =-0.5320 0.2023-0.0043 (  3526 PWs)   bands (ev):

   -71.3537 -44.5909 -38.4423 -38.4423 -38.4340 -22.6403 -22.6377 -22.6204
    -1.3527  -1.2569   0.3288   0.6266   1.8666   2.1179   4.5409   5.5074
     5.6986   6.7484   7.8758

          k =-0.2374 0.4045-0.4472 (  3496 PWs)   bands (ev):

   -71.3537 -44.5909 -38.4423 -38.4423 -38.4340 -22.6399 -22.6383 -22.6213
    -1.5871  -0.2023   0.2668   0.7762   0.9682   1.4089   4.4345   5.3187
     5.6343   7.0414   8.6061

          k =-0.5342-0.3668-0.0085 (  3496 PWs)   bands (ev):

   -71.3537 -44.5909 -38.4423 -38.4423 -38.4340 -22.6399 -22.6383 -22.6213
    -1.5872  -0.2023   0.2668   0.7762   0.9681   1.4090   4.4344   5.3189
     5.6342   7.0413   8.6064

          k =-0.2396-0.1646-0.4515 (  3516 PWs)   bands (ev):

   -71.3537 -44.5909 -38.4423 -38.4423 -38.4340 -22.6374 -22.6374 -22.6226
    -1.5755  -1.2296   0.6139   0.6139   2.0309   2.0311   4.8427   5.1387
     5.1391   7.1803   8.2241

     the Fermi energy is     4.8328 ev

!    total energy              =    -250.98640771 Ry
     estimated scf accuracy    <       0.00000005 Ry
     smearing contrib. (-TS)   =       0.00041982 Ry
     internal energy E=F+TS    =    -250.98682753 Ry

     The total energy is F=E-TS. E is the sum of the following terms:
     one-electron contribution =    -168.09680311 Ry
     hartree contribution      =      57.48769261 Ry
     xc contribution           =     -37.56837073 Ry
     ewald contribution        =    -110.28232593 Ry
     one-center paw contrib.   =       7.47297963 Ry

     convergence has been achieved in   6 iterations

     negative rho (up, down):  6.296E-02 0.000E+00

     Forces acting on atoms (cartesian axes, Ry/au):

     atom    1 type  2   force =    -0.00288488   -0.00198641   -0.00543821
     atom    2 type  2   force =     0.00034467    0.00022481    0.00063619
     atom    3 type  3   force =     0.00050691    0.00035674    0.00095159
     atom    4 type  4   force =     0.00334972    0.00236398    0.00637987
     atom    5 type  1   force =    -0.00352282    0.00052984    0.00254866
     atom    6 type  1   force =     0.00196568    0.00361350   -0.00150083
     atom    7 type  1   force =     0.00253653   -0.00349370    0.00078508
     atom    8 type  1   force =    -0.00367024    0.00349402   -0.00137241
     atom    9 type  1   force =    -0.00223678   -0.00469308    0.00084084
     atom   10 type  1   force =     0.00361121   -0.00040970   -0.00383078

     Total force =     0.015557     Total SCF correction =     0.000116


     Computing stress (Cartesian axis) and pressure


     negative rho (up, down):  6.296E-02 0.000E+00
          total   stress  (Ry/bohr**3)                   (kbar)     P=       -7.33
  -0.00005567   0.00000596   0.00001631           -8.19        0.88        2.40
   0.00000596  -0.00006021   0.00001117            0.88       -8.86        1.64
   0.00001631   0.00001117  -0.00003357            2.40        1.64       -4.94

     Energy error            =      7.0E-04
     Gradient error          =      6.4E-03
     Cell gradient error     =      6.0E-05


     number of scf cycles    =  16
     number of bfgs steps    =  15

     enthalpy old            =    -250.9857041661 Ry
     enthalpy new            =    -250.9864077075 Ry

     CASE: enthalpy_new < enthalpy_old

     new trust radius        =       0.0551442162 bohr
     new conv_thr            =       0.0000000638 Ry

     new unit-cell volume =    748.07324 a.u.^3 (   110.85302 Ang^3 )
     density =      0.14980 g/cm^3

CELL_PARAMETERS (angstrom)
   4.601931670  -0.038217933   3.046431447
   1.617054446   4.308754142   3.046412982
  -0.055653227  -0.038260538   5.518649552

ATOMIC_POSITIONS (angstrom)
Li            1.7182918738        1.1798692506        3.2372344329
Li            4.8598855664        3.3372437856        9.1557895968
Mg            6.2454346731        4.2885880235       11.7661377688
Zr            3.0479798528        2.0928224319        5.7420241141
H             1.5499421141        2.8185520092        4.5861879442
H             3.6827027032        1.7223117065        3.8536928679
H             2.0124351194        0.4343353287        5.2097376525
H             4.1822824527        0.7959465618        6.8466775771
H             4.4127047264        3.6175844160        5.6959352452
H             1.9376572536        2.8192701107        7.3006666814



     Writing output data file ./tmp/Li2MgZrH6.save/
     NEW-OLD atomic charge density approx. for the potential

     negative rho (up, down):  6.259E-02 0.000E+00
     extrapolated charge   29.92922, renormalised to   30.00000

     total cpu time spent up to now is      857.1 secs

     Self-consistent Calculation

     iteration #  1     ecut=    50.00 Ry     beta= 0.70
     Davidson diagonalization with overlap
     ethr =  1.00E-06,  avg # of iterations = 10.1

     negative rho (up, down):  6.280E-02 0.000E+00

     total cpu time spent up to now is      862.3 secs

     total energy              =    -250.98693063 Ry
     estimated scf accuracy    <       0.00090041 Ry

     iteration #  2     ecut=    50.00 Ry     beta= 0.70
     Davidson diagonalization with overlap
     ethr =  3.00E-06,  avg # of iterations =  8.0

     negative rho (up, down):  6.279E-02 0.000E+00

     total cpu time spent up to now is      865.9 secs

     total energy              =    -250.98733490 Ry
     estimated scf accuracy    <       0.00292690 Ry

     iteration #  3     ecut=    50.00 Ry     beta= 0.70
     Davidson diagonalization with overlap
     ethr =  3.00E-06,  avg # of iterations =  3.1

     negative rho (up, down):  6.282E-02 0.000E+00

     total cpu time spent up to now is      868.9 secs

     total energy              =    -250.98733009 Ry
     estimated scf accuracy    <       0.00019248 Ry

     iteration #  4     ecut=    50.00 Ry     beta= 0.70
     Davidson diagonalization with overlap
     ethr =  6.42E-07,  avg # of iterations =  5.9

     negative rho (up, down):  6.283E-02 0.000E+00

     total cpu time spent up to now is      871.6 secs

     total energy              =    -250.98734648 Ry
     estimated scf accuracy    <       0.00000161 Ry

     iteration #  5     ecut=    50.00 Ry     beta= 0.70
     Davidson diagonalization with overlap
     ethr =  5.37E-09,  avg # of iterations =  5.8

     negative rho (up, down):  6.281E-02 0.000E+00

     total cpu time spent up to now is      874.9 secs

     total energy              =    -250.98734944 Ry
     estimated scf accuracy    <       0.00000203 Ry

     iteration #  6     ecut=    50.00 Ry     beta= 0.70
     Davidson diagonalization with overlap
     ethr =  5.37E-09,  avg # of iterations =  2.8

     negative rho (up, down):  6.281E-02 0.000E+00

     total cpu time spent up to now is      877.5 secs

     total energy              =    -250.98734966 Ry
     estimated scf accuracy    <       0.00000007 Ry

     iteration #  7     ecut=    50.00 Ry     beta= 0.70
     Davidson diagonalization with overlap
     ethr =  2.17E-10,  avg # of iterations =  5.9

     negative rho (up, down):  6.281E-02 0.000E+00

     total cpu time spent up to now is      880.7 secs

     End of self-consistent calculation

          k = 0.0000 0.0000 0.0000 (  3557 PWs)   bands (ev):

   -71.3360 -44.5760 -38.4248 -38.4248 -38.4158 -22.6223 -22.6223 -22.6064
    -2.9127   0.7583   0.7584   1.0906   1.9251   1.9255   4.6764   4.8783
     4.8787   7.8989   8.5619

          k = 0.2951 0.2027-0.4433 (  3526 PWs)   bands (ev):

   -71.3360 -44.5760 -38.4248 -38.4248 -38.4158 -22.6257 -22.6231 -22.6069
    -1.3340  -1.2249   0.3334   0.6242   1.9072   2.1774   4.5114   5.5089
     5.7043   6.7741   7.9096

          k =-0.0021-0.5698-0.0040 (  3526 PWs)   bands (ev):

   -71.3360 -44.5760 -38.4248 -38.4248 -38.4158 -22.6257 -22.6231 -22.6069
    -1.3340  -1.2250   0.3335   0.6241   1.9072   2.1774   4.5116   5.5091
     5.7042   6.7744   7.9095

          k = 0.2930-0.3671-0.4473 (  3496 PWs)   bands (ev):

   -71.3360 -44.5760 -38.4248 -38.4248 -38.4158 -22.6253 -22.6237 -22.6077
    -1.5625  -0.1981   0.2966   0.7874   1.0100   1.4317   4.4115   5.3282
     5.6580   7.0557   8.6258

          k =-0.5326 0.2027-0.0040 (  3526 PWs)   bands (ev):

   -71.3360 -44.5760 -38.4248 -38.4248 -38.4158 -22.6257 -22.6231 -22.6069
    -1.3340  -1.2249   0.3333   0.6242   1.9072   2.1776   4.5114   5.5090
     5.7043   6.7739   7.9097

          k =-0.2374 0.4053-0.4473 (  3496 PWs)   bands (ev):

   -71.3360 -44.5760 -38.4248 -38.4248 -38.4158 -22.6253 -22.6237 -22.6077
    -1.5625  -0.1982   0.2964   0.7875   1.0100   1.4319   4.4116   5.3281
     5.6580   7.0557   8.6258

          k =-0.5347-0.3671-0.0079 (  3496 PWs)   bands (ev):

   -71.3360 -44.5760 -38.4248 -38.4248 -38.4158 -22.6253 -22.6237 -22.6077
    -1.5625  -0.1982   0.2965   0.7875   1.0098   1.4321   4.4115   5.3284
     5.6579   7.0556   8.6261

          k =-0.2395-0.1645-0.4512 (  3516 PWs)   bands (ev):

   -71.3360 -44.5760 -38.4248 -38.4248 -38.4158 -22.6227 -22.6227 -22.6090
    -1.5538  -1.2061   0.6226   0.6227   2.0664   2.0666   4.8653   5.1372
     5.1375   7.1997   8.2606

     the Fermi energy is     4.8232 ev

!    total energy              =    -250.98734969 Ry
     estimated scf accuracy    <       0.00000004 Ry
     smearing contrib. (-TS)   =       0.00063965 Ry
     internal energy E=F+TS    =    -250.98798934 Ry

     The total energy is F=E-TS. E is the sum of the following terms:
     one-electron contribution =    -167.96170720 Ry
     hartree contribution      =      57.43798128 Ry
     xc contribution           =     -37.56956907 Ry
     ewald contribution        =    -110.36762962 Ry
     one-center paw contrib.   =       7.47293526 Ry

     convergence has been achieved in   7 iterations

     negative rho (up, down):  6.281E-02 0.000E+00

     Forces acting on atoms (cartesian axes, Ry/au):

     atom    1 type  2   force =    -0.00238858   -0.00164557   -0.00450597
     atom    2 type  2   force =     0.00094917    0.00063860    0.00177166
     atom    3 type  3   force =    -0.00118236   -0.00079882   -0.00220721
     atom    4 type  4   force =     0.00444451    0.00313264    0.00847268
     atom    5 type  1   force =    -0.00375656   -0.00026069    0.00227528
     atom    6 type  1   force =     0.00119838    0.00380809   -0.00186021
     atom    7 type  1   force =     0.00277117   -0.00343116   -0.00004980
     atom    8 type  1   force =    -0.00309222    0.00302464   -0.00128218
     atom    9 type  1   force =    -0.00203661   -0.00398872    0.00069956
     atom   10 type  1   force =     0.00309309   -0.00047901   -0.00331380

     Total force =     0.016165     Total SCF correction =     0.000114


     Computing stress (Cartesian axis) and pressure


     negative rho (up, down):  6.281E-02 0.000E+00
          total   stress  (Ry/bohr**3)                   (kbar)     P=       -6.26
  -0.00004945   0.00000698   0.00001915           -7.27        1.03        2.82
   0.00000698  -0.00005474   0.00001305            1.03       -8.05        1.92
   0.00001915   0.00001305  -0.00002351            2.82        1.92       -3.46

     Energy error            =      9.4E-04
     Gradient error          =      8.5E-03
     Cell gradient error     =      5.5E-05


     number of scf cycles    =  17
     number of bfgs steps    =  16

     enthalpy old            =    -250.9864077075 Ry
     enthalpy new            =    -250.9873496913 Ry

     CASE: enthalpy_new < enthalpy_old

     new trust radius        =       0.0827612750 bohr
     new conv_thr            =       0.0000000847 Ry

     new unit-cell volume =    743.23868 a.u.^3 (   110.13661 Ang^3 )
     density =      0.15077 g/cm^3

CELL_PARAMETERS (angstrom)
   4.594957212  -0.030092907   3.055923228
   1.622113602   4.299334516   3.055939082
  -0.043874889  -0.030132611   5.518177063

ATOMIC_POSITIONS (angstrom)
Li            1.7014762966        1.1683041620        3.2055275647
Li            4.8660028762        3.3414708871        9.1672518570
Mg            6.2702662346        4.3057132862       11.8128833012
Zr            3.0444960330        2.0904731765        5.7354508873
H             1.5338996143        2.8218673227        4.6031804704
H             3.6940564211        1.7426765407        3.8499673338
H             2.0280272660        0.4182141277        5.2170093032
H             4.1573528597        0.8243100677        6.8782370530
H             4.4291036697        3.5841906827        5.7281032171
H             1.9784832792        2.8466105778        7.2977232667



     Writing output data file ./tmp/Li2MgZrH6.save/
     NEW-OLD atomic charge density approx. for the potential

     negative rho (up, down):  6.179E-02 0.000E+00
     extrapolated charge   29.80494, renormalised to   30.00000

     total cpu time spent up to now is      906.8 secs

     Self-consistent Calculation

     iteration #  1     ecut=    50.00 Ry     beta= 0.70
     Davidson diagonalization with overlap
     c_bands:  1 eigenvalues not converged
     c_bands:  1 eigenvalues not converged
     c_bands:  1 eigenvalues not converged
     c_bands:  1 eigenvalues not converged
     c_bands:  1 eigenvalues not converged
     c_bands:  1 eigenvalues not converged
     ethr =  1.00E-06,  avg # of iterations = 18.4

     negative rho (up, down):  6.227E-02 0.000E+00

     total cpu time spent up to now is      912.9 secs

     total energy              =    -250.98232292 Ry
     estimated scf accuracy    <       0.00587960 Ry

     iteration #  2     ecut=    50.00 Ry     beta= 0.70
     Davidson diagonalization with overlap
     ethr =  1.96E-05,  avg # of iterations =  8.8

     negative rho (up, down):  6.224E-02 0.000E+00

     total cpu time spent up to now is      916.0 secs

     total energy              =    -250.98685252 Ry
     estimated scf accuracy    <       0.02646661 Ry

     iteration #  3     ecut=    50.00 Ry     beta= 0.70
     Davidson diagonalization with overlap
     ethr =  1.96E-05,  avg # of iterations =  3.4

     negative rho (up, down):  6.233E-02 0.000E+00

     total cpu time spent up to now is      919.0 secs

     total energy              =    -250.98803817 Ry
     estimated scf accuracy    <       0.00262251 Ry

     iteration #  4     ecut=    50.00 Ry     beta= 0.70
     Davidson diagonalization with overlap
     ethr =  8.74E-06,  avg # of iterations =  7.9

     negative rho (up, down):  6.237E-02 0.000E+00

     total cpu time spent up to now is      921.9 secs

     total energy              =    -250.98835136 Ry
     estimated scf accuracy    <       0.00008823 Ry

     iteration #  5     ecut=    50.00 Ry     beta= 0.70
     Davidson diagonalization with overlap
     ethr =  2.94E-07,  avg # of iterations =  4.8

     negative rho (up, down):  6.231E-02 0.000E+00

     total cpu time spent up to now is      925.1 secs

     total energy              =    -250.98840212 Ry
     estimated scf accuracy    <       0.00001286 Ry

     iteration #  6     ecut=    50.00 Ry     beta= 0.70
     Davidson diagonalization with overlap
     ethr =  4.29E-08,  avg # of iterations =  2.5

     negative rho (up, down):  6.229E-02 0.000E+00

     total cpu time spent up to now is      927.7 secs

     total energy              =    -250.98840399 Ry
     estimated scf accuracy    <       0.00000064 Ry

     iteration #  7     ecut=    50.00 Ry     beta= 0.70
     Davidson diagonalization with overlap
     ethr =  2.13E-09,  avg # of iterations =  5.6

     negative rho (up, down):  6.229E-02 0.000E+00

     total cpu time spent up to now is      930.8 secs

     total energy              =    -250.98840439 Ry
     estimated scf accuracy    <       0.00000018 Ry

     iteration #  8     ecut=    50.00 Ry     beta= 0.70
     Davidson diagonalization with overlap
     ethr =  5.91E-10,  avg # of iterations =  2.6

     negative rho (up, down):  6.228E-02 0.000E+00

     total cpu time spent up to now is      933.5 secs

     End of self-consistent calculation

          k = 0.0000 0.0000 0.0000 (  3557 PWs)   bands (ev):

   -71.2801 -44.5243 -38.3692 -38.3691 -38.3596 -22.5732 -22.5731 -22.5557
    -2.8815   0.8000   0.8001   1.1893   1.9893   1.9897   4.6160   4.8976
     4.8980   7.9707   8.5937

          k = 0.2968 0.2038-0.4443 (  3526 PWs)   bands (ev):

   -71.2801 -44.5242 -38.3692 -38.3692 -38.3596 -22.5767 -22.5739 -22.5561
    -1.2957  -1.1631   0.3633   0.6393   1.9824   2.2776   4.4884   5.5417
     5.7411   6.8320   7.9741

          k =-0.0017-0.5718-0.0031 (  3526 PWs)   bands (ev):

   -71.2801 -44.5242 -38.3692 -38.3691 -38.3596 -22.5767 -22.5740 -22.5561
    -1.2957  -1.1632   0.3634   0.6392   1.9824   2.2777   4.4884   5.5419
     5.7410   6.8322   7.9740

          k = 0.2951-0.3680-0.4474 (  3496 PWs)   bands (ev):

   -71.2801 -44.5242 -38.3692 -38.3691 -38.3596 -22.5762 -22.5746 -22.5569
    -1.5168  -0.1762   0.3536   0.8323   1.0873   1.4848   4.3928   5.3706
     5.7168   7.1073   8.6792

          k =-0.5343 0.2038-0.0031 (  3526 PWs)   bands (ev):

   -71.2801 -44.5242 -38.3692 -38.3691 -38.3596 -22.5767 -22.5740 -22.5561
    -1.2957  -1.1631   0.3632   0.6393   1.9823   2.2778   4.4884   5.5418
     5.7411   6.8318   7.9742

          k =-0.2375 0.4076-0.4474 (  3496 PWs)   bands (ev):

   -71.2801 -44.5242 -38.3692 -38.3691 -38.3596 -22.5762 -22.5746 -22.5569
    -1.5167  -0.1762   0.3533   0.8323   1.0874   1.4850   4.3928   5.3705
     5.7168   7.1073   8.6791

          k =-0.5359-0.3680-0.0063 (  3496 PWs)   bands (ev):

   -71.2801 -44.5242 -38.3692 -38.3692 -38.3596 -22.5763 -22.5745 -22.5569
    -1.5168  -0.1762   0.3535   0.8323   1.0872   1.4852   4.3927   5.3707
     5.7168   7.1072   8.6795

          k =-0.2391-0.1642-0.4505 (  3516 PWs)   bands (ev):

   -71.2801 -44.5243 -38.3692 -38.3691 -38.3596 -22.5736 -22.5735 -22.5583
    -1.5237  -1.1557   0.6580   0.6581   2.1446   2.1449   4.9181   5.1544
     5.1547   7.2672   8.3469

     the Fermi energy is     4.8423 ev

!    total energy              =    -250.98840441 Ry
     estimated scf accuracy    <          9.0E-09 Ry
     smearing contrib. (-TS)   =       0.00086199 Ry
     internal energy E=F+TS    =    -250.98926640 Ry

     The total energy is F=E-TS. E is the sum of the following terms:
     one-electron contribution =    -167.60882357 Ry
     hartree contribution      =      57.31962026 Ry
     xc contribution           =     -37.57845767 Ry
     ewald contribution        =    -110.59528467 Ry
     one-center paw contrib.   =       7.47367925 Ry

     convergence has been achieved in   8 iterations

     negative rho (up, down):  6.228E-02 0.000E+00

     Forces acting on atoms (cartesian axes, Ry/au):

     atom    1 type  2   force =    -0.00140586   -0.00097040   -0.00265327
     atom    2 type  2   force =     0.00157443    0.00106967    0.00295417
     atom    3 type  3   force =    -0.00290641   -0.00198310   -0.00546469
     atom    4 type  4   force =     0.00470853    0.00331910    0.00897467
     atom    5 type  1   force =    -0.00351777   -0.00168794    0.00222929
     atom    6 type  1   force =    -0.00019317    0.00415796   -0.00169629
     atom    7 type  1   force =     0.00342855   -0.00269470   -0.00110659
     atom    8 type  1   force =    -0.00189003    0.00157918   -0.00107855
     atom    9 type  1   force =    -0.00136307   -0.00235185    0.00005353
     atom   10 type  1   force =     0.00156480   -0.00043792   -0.00221226

     Total force =     0.016158     Total SCF correction =     0.000050


     Computing stress (Cartesian axis) and pressure


     negative rho (up, down):  6.228E-02 0.000E+00
          total   stress  (Ry/bohr**3)                   (kbar)     P=       -3.46
  -0.00002990   0.00000641   0.00001763           -4.40        0.94        2.59
   0.00000641  -0.00003475   0.00001199            0.94       -5.11        1.76
   0.00001763   0.00001199  -0.00000595            2.59        1.76       -0.88

     Energy error            =      1.1E-03
     Gradient error          =      9.0E-03
     Cell gradient error     =      3.5E-05


     number of scf cycles    =  18
     number of bfgs steps    =  17

     enthalpy old            =    -250.9873496913 Ry
     enthalpy new            =    -250.9884044092 Ry

     CASE: enthalpy_new < enthalpy_old

     new trust radius        =       0.0506718530 bohr
     new conv_thr            =       0.0000000897 Ry

     new unit-cell volume =    737.91152 a.u.^3 (   109.34721 Ang^3 )
     density =      0.15186 g/cm^3

CELL_PARAMETERS (angstrom)
   4.586704504  -0.022603753   3.063489471
   1.626137033   4.288945329   3.063509286
  -0.032987071  -0.022651432   5.515587283

ATOMIC_POSITIONS (angstrom)
Li            1.6913389345        1.1613230972        3.1864188823
Li            4.8719254729        3.3455266660        9.1783886064
Mg            6.2826703647        4.3142534741       11.8362572467
Zr            3.0462083942        2.0917093603        5.7387352211
H             1.5255061042        2.8202159287        4.6159960798
H             3.6980134726        1.7575602831        3.8501987456
H             2.0411911847        0.4109678493        5.2204075440
H             4.1406450884        0.8457380607        6.8950407956
H             4.4351767892        3.5609078910        5.7491049098
H             2.0068416964        2.8606394256        7.2932859796



     Writing output data file ./tmp/Li2MgZrH6.save/
     NEW-OLD atomic charge density approx. for the potential

     negative rho (up, down):  6.176E-02 0.000E+00
     extrapolated charge   29.78351, renormalised to   30.00000

     total cpu time spent up to now is      959.6 secs

     Self-consistent Calculation

     iteration #  1     ecut=    50.00 Ry     beta= 0.70
     Davidson diagonalization with overlap
     ethr =  1.00E-06,  avg # of iterations = 15.9

     negative rho (up, down):  6.224E-02 0.000E+00

     total cpu time spent up to now is      964.7 secs

     total energy              =    -250.97880136 Ry
     estimated scf accuracy    <       0.00741231 Ry

     iteration #  2     ecut=    50.00 Ry     beta= 0.70
     Davidson diagonalization with overlap
     ethr =  2.47E-05,  avg # of iterations =  9.5

     negative rho (up, down):  6.221E-02 0.000E+00

     total cpu time spent up to now is      968.2 secs

     total energy              =    -250.98636139 Ry
     estimated scf accuracy    <       0.03669798 Ry

     iteration #  3     ecut=    50.00 Ry     beta= 0.70
     Davidson diagonalization with overlap
     ethr =  2.47E-05,  avg # of iterations =  3.6

     negative rho (up, down):  6.228E-02 0.000E+00

     total cpu time spent up to now is      971.2 secs

     total energy              =    -250.98861330 Ry
     estimated scf accuracy    <       0.00375797 Ry

     iteration #  4     ecut=    50.00 Ry     beta= 0.70
     Davidson diagonalization with overlap
     ethr =  1.25E-05,  avg # of iterations =  6.0

     negative rho (up, down):  6.234E-02 0.000E+00

     total cpu time spent up to now is      974.0 secs

     total energy              =    -250.98882816 Ry
     estimated scf accuracy    <       0.00048013 Ry

     iteration #  5     ecut=    50.00 Ry     beta= 0.70
     Davidson diagonalization with overlap
     ethr =  1.60E-06,  avg # of iterations =  6.8

     negative rho (up, down):  6.229E-02 0.000E+00

     total cpu time spent up to now is      976.8 secs

     total energy              =    -250.98893738 Ry
     estimated scf accuracy    <       0.00000415 Ry

     iteration #  6     ecut=    50.00 Ry     beta= 0.70
     Davidson diagonalization with overlap
     ethr =  1.38E-08,  avg # of iterations =  5.0

     negative rho (up, down):  6.226E-02 0.000E+00

     total cpu time spent up to now is      979.5 secs

     total energy              =    -250.98894195 Ry
     estimated scf accuracy    <       0.00000153 Ry

     iteration #  7     ecut=    50.00 Ry     beta= 0.70
     Davidson diagonalization with overlap
     ethr =  5.09E-09,  avg # of iterations =  2.5

     negative rho (up, down):  6.224E-02 0.000E+00

     total cpu time spent up to now is      982.1 secs

     End of self-consistent calculation

          k = 0.0000 0.0000 0.0000 (  3557 PWs)   bands (ev):

   -71.2222 -44.4504 -38.3112 -38.3112 -38.3017 -22.5035 -22.5034 -22.4840
    -2.8513   0.8525   0.8526   1.2503   2.0415   2.0418   4.6186   4.9504
     4.9507   8.0549   8.6358

          k = 0.2984 0.2049-0.4453 (  3526 PWs)   bands (ev):

   -71.2222 -44.4503 -38.3113 -38.3112 -38.3017 -22.5072 -22.5043 -22.4844
    -1.2588  -1.1080   0.4084   0.6697   2.0394   2.3438   4.5063   5.6012
     5.8005   6.8924   8.0353

          k =-0.0012-0.5739-0.0024 (  3526 PWs)   bands (ev):

   -71.2222 -44.4503 -38.3113 -38.3112 -38.3017 -22.5072 -22.5043 -22.4844
    -1.2587  -1.1082   0.4084   0.6696   2.0394   2.3438   4.5063   5.6014
     5.8004   6.8925   8.0352

          k = 0.2972-0.3690-0.4477 (  3496 PWs)   bands (ev):

   -71.2222 -44.4503 -38.3113 -38.3112 -38.3017 -22.5067 -22.5049 -22.4853
    -1.4754  -0.1374   0.4013   0.8919   1.1410   1.5305   4.4099   5.4290
     5.7840   7.1779   8.7411

          k =-0.5361 0.2049-0.0024 (  3526 PWs)   bands (ev):

   -71.2222 -44.4503 -38.3113 -38.3112 -38.3017 -22.5072 -22.5043 -22.4844
    -1.2588  -1.1079   0.4082   0.6697   2.0394   2.3439   4.5063   5.6013
     5.8005   6.8921   8.0355

          k =-0.2376 0.4099-0.4477 (  3496 PWs)   bands (ev):

   -71.2222 -44.4503 -38.3113 -38.3112 -38.3017 -22.5067 -22.5049 -22.4853
    -1.4754  -0.1373   0.4010   0.8919   1.1410   1.5306   4.4100   5.4289
     5.7840   7.1779   8.7411

          k =-0.5373-0.3690-0.0047 (  3496 PWs)   bands (ev):

   -71.2222 -44.4503 -38.3113 -38.3112 -38.3017 -22.5068 -22.5049 -22.4853
    -1.4754  -0.1374   0.4011   0.8920   1.1408   1.5309   4.4099   5.4291
     5.7840   7.1777   8.7411

          k =-0.2389-0.1640-0.4500 (  3516 PWs)   bands (ev):

   -71.2222 -44.4504 -38.3112 -38.3112 -38.3017 -22.5039 -22.5038 -22.4867
    -1.4913  -1.1191   0.7055   0.7056   2.2123   2.2125   4.9814   5.1919
     5.1923   7.3476   8.4430

     the Fermi energy is     4.8977 ev

!    total energy              =    -250.98894215 Ry
     estimated scf accuracy    <       0.00000005 Ry
     smearing contrib. (-TS)   =       0.00072703 Ry
     internal energy E=F+TS    =    -250.98966919 Ry

     The total energy is F=E-TS. E is the sum of the following terms:
     one-electron contribution =    -167.17468366 Ry
     hartree contribution      =      57.17255809 Ry
     xc contribution           =     -37.59163369 Ry
     ewald contribution        =    -110.87018713 Ry
     one-center paw contrib.   =       7.47427721 Ry

     convergence has been achieved in   7 iterations

     negative rho (up, down):  6.224E-02 0.000E+00

     Forces acting on atoms (cartesian axes, Ry/au):

     atom    1 type  2   force =    -0.00049926   -0.00034036   -0.00093709
     atom    2 type  2   force =     0.00172998    0.00118921    0.00326628
     atom    3 type  3   force =    -0.00339353   -0.00235479   -0.00645290
     atom    4 type  4   force =     0.00265777    0.00185743    0.00508269
     atom    5 type  1   force =    -0.00293099   -0.00253741    0.00225377
     atom    6 type  1   force =    -0.00110817    0.00418139   -0.00118775
     atom    7 type  1   force =     0.00377802   -0.00182130   -0.00157410
     atom    8 type  1   force =    -0.00037725   -0.00039160    0.00014221
     atom    9 type  1   force =     0.00037755   -0.00021398   -0.00033567
     atom   10 type  1   force =    -0.00023411    0.00043141   -0.00025746

     Total force =     0.013137     Total SCF correction =     0.000183


     Computing stress (Cartesian axis) and pressure


     negative rho (up, down):  6.224E-02 0.000E+00
          total   stress  (Ry/bohr**3)                   (kbar)     P=        0.12
  -0.00000320   0.00000408   0.00001135           -0.47        0.60        1.67
   0.00000408  -0.00000644   0.00000768            0.60       -0.95        1.13
   0.00001135   0.00000768   0.00001215            1.67        1.13        1.79

     Energy error            =      5.4E-04
     Gradient error          =      6.5E-03
     Cell gradient error     =      1.2E-05


     number of scf cycles    =  19
     number of bfgs steps    =  18

     enthalpy old            =    -250.9884044092 Ry
     enthalpy new            =    -250.9889421540 Ry

     CASE: enthalpy_new < enthalpy_old

     new trust radius        =       0.0482948439 bohr
     new conv_thr            =       0.0000000538 Ry

     new unit-cell volume =    736.29991 a.u.^3 (   109.10839 Ang^3 )
     density =      0.15219 g/cm^3

CELL_PARAMETERS (angstrom)
   4.587348385  -0.011995061   3.082620180
   1.636281259   4.285718741   3.082616657
  -0.017508481  -0.012048753   5.526850456

ATOMIC_POSITIONS (angstrom)
Li            1.6948906807        1.1637417775        3.1931183717
Li            4.8974000261        3.3629738215        9.2263905043
Mg            6.3053479256        4.3297502623       11.8789340762
Zr            3.0572031000        2.0992840508        5.7595432279
H             1.5295593114        2.8189547254        4.6362746852
H             3.7020669030        1.7715329027        3.8648934929
H             2.0578107937        0.4151716301        5.2320260195
H             4.1365951830        0.8733852371        6.9368652361
H             4.4561098125        3.5471564249        5.7927181249
H             2.0459393711        2.8850808765        7.3133271944



     Writing output data file ./tmp/Li2MgZrH6.save/
     NEW-OLD atomic charge density approx. for the potential

     negative rho (up, down):  6.208E-02 0.000E+00
     extrapolated charge   29.93436, renormalised to   30.00000

     total cpu time spent up to now is     1008.1 secs

     Self-consistent Calculation

     iteration #  1     ecut=    50.00 Ry     beta= 0.70
     Davidson diagonalization with overlap
     ethr =  1.00E-06,  avg # of iterations = 10.1

     negative rho (up, down):  6.222E-02 0.000E+00

     total cpu time spent up to now is     1012.9 secs

     total energy              =    -250.98845427 Ry
     estimated scf accuracy    <       0.00093894 Ry

     iteration #  2     ecut=    50.00 Ry     beta= 0.70
     Davidson diagonalization with overlap
     ethr =  3.13E-06,  avg # of iterations =  8.4

     negative rho (up, down):  6.221E-02 0.000E+00

     total cpu time spent up to now is     1016.5 secs

     total energy              =    -250.98904643 Ry
     estimated scf accuracy    <       0.00331338 Ry

     iteration #  3     ecut=    50.00 Ry     beta= 0.70
     Davidson diagonalization with overlap
     ethr =  3.13E-06,  avg # of iterations =  3.1

     negative rho (up, down):  6.225E-02 0.000E+00

     total cpu time spent up to now is     1019.3 secs

     total energy              =    -250.98929114 Ry
     estimated scf accuracy    <       0.00022098 Ry

     iteration #  4     ecut=    50.00 Ry     beta= 0.70
     Davidson diagonalization with overlap
     ethr =  7.37E-07,  avg # of iterations =  6.4

     negative rho (up, down):  6.225E-02 0.000E+00

     total cpu time spent up to now is     1022.3 secs

     total energy              =    -250.98934453 Ry
     estimated scf accuracy    <       0.00000191 Ry

     iteration #  5     ecut=    50.00 Ry     beta= 0.70
     Davidson diagonalization with overlap
     ethr =  6.38E-09,  avg # of iterations =  4.4

     negative rho (up, down):  6.223E-02 0.000E+00

     total cpu time spent up to now is     1025.4 secs

     total energy              =    -250.98934564 Ry
     estimated scf accuracy    <       0.00000115 Ry

     iteration #  6     ecut=    50.00 Ry     beta= 0.70
     Davidson diagonalization with overlap
     ethr =  3.82E-09,  avg # of iterations =  2.6

     negative rho (up, down):  6.222E-02 0.000E+00

     total cpu time spent up to now is     1028.0 secs

     End of self-consistent calculation

          k = 0.0000 0.0000 0.0000 (  3557 PWs)   bands (ev):

   -71.2053 -44.4240 -38.2946 -38.2946 -38.2844 -22.4822 -22.4822 -22.4526
    -2.8464   0.8888   0.8889   1.2412   2.0462   2.0464   4.5967   4.9750
     4.9753   8.0677   8.6465

          k = 0.3000 0.2060-0.4456 (  3526 PWs)   bands (ev):

   -71.2053 -44.4240 -38.2946 -38.2946 -38.2844 -22.4861 -22.4831 -22.4529
    -1.2501  -1.0917   0.4299   0.6690   2.0582   2.3560   4.4993   5.6311
     5.8242   6.9119   8.0456

          k =-0.0007-0.5753-0.0013 (  3526 PWs)   bands (ev):

   -71.2053 -44.4240 -38.2946 -38.2946 -38.2844 -22.4861 -22.4831 -22.4529
    -1.2501  -1.0918   0.4299   0.6690   2.0583   2.3560   4.4993   5.6312
     5.8241   6.9120   8.0454

          k = 0.2993-0.3693-0.4469 (  3496 PWs)   bands (ev):

   -71.2053 -44.4239 -38.2946 -38.2946 -38.2844 -22.4856 -22.4837 -22.4538
    -1.4714  -0.1274   0.4124   0.9276   1.1561   1.5402   4.3968   5.4581
     5.8084   7.1893   8.7580

          k =-0.5372 0.2060-0.0013 (  3526 PWs)   bands (ev):

   -71.2053 -44.4240 -38.2946 -38.2946 -38.2844 -22.4861 -22.4831 -22.4529
    -1.2501  -1.0917   0.4298   0.6690   2.0583   2.3560   4.4992   5.6311
     5.8242   6.9116   8.0457

          k =-0.2372 0.4120-0.4469 (  3496 PWs)   bands (ev):

   -71.2053 -44.4239 -38.2946 -38.2946 -38.2844 -22.4856 -22.4837 -22.4538
    -1.4714  -0.1275   0.4123   0.9276   1.1561   1.5403   4.3968   5.4580
     5.8084   7.1893   8.7580

          k =-0.5379-0.3693-0.0025 (  3496 PWs)   bands (ev):

   -71.2053 -44.4239 -38.2946 -38.2946 -38.2844 -22.4857 -22.4837 -22.4538
    -1.4715  -0.1275   0.4124   0.9276   1.1561   1.5403   4.3968   5.4582
     5.8084   7.1892   8.7581

          k =-0.2379-0.1633-0.4481 (  3516 PWs)   bands (ev):

   -71.2053 -44.4240 -38.2946 -38.2946 -38.2844 -22.4826 -22.4826 -22.4552
    -1.5022  -1.1128   0.7330   0.7331   2.2400   2.2401   4.9867   5.1971
     5.1974   7.3984   8.4673

     the Fermi energy is     4.9170 ev

!    total energy              =    -250.98934586 Ry
     estimated scf accuracy    <          7.2E-09 Ry
     smearing contrib. (-TS)   =       0.00046098 Ry
     internal energy E=F+TS    =    -250.98980683 Ry

     The total energy is F=E-TS. E is the sum of the following terms:
     one-electron contribution =    -167.08944858 Ry
     hartree contribution      =      57.15076402 Ry
     xc contribution           =     -37.59728866 Ry
     ewald contribution        =    -110.92851272 Ry
     one-center paw contrib.   =       7.47467911 Ry

     convergence has been achieved in   6 iterations

     negative rho (up, down):  6.222E-02 0.000E+00

     Forces acting on atoms (cartesian axes, Ry/au):

     atom    1 type  2   force =    -0.00002008   -0.00001848   -0.00004209
     atom    2 type  2   force =     0.00146798    0.00100486    0.00277197
     atom    3 type  3   force =    -0.00268288   -0.00183385   -0.00504610
     atom    4 type  4   force =     0.00074228    0.00054492    0.00142238
     atom    5 type  1   force =    -0.00230625   -0.00302617    0.00281108
     atom    6 type  1   force =    -0.00151886    0.00445953   -0.00034775
     atom    7 type  1   force =     0.00437734   -0.00107088   -0.00144892
     atom    8 type  1   force =     0.00030840   -0.00159966    0.00036575
     atom    9 type  1   force =     0.00106688    0.00085411   -0.00093620
     atom   10 type  1   force =    -0.00143481    0.00068562    0.00044988

     Total force =     0.011185     Total SCF correction =     0.000086


     Computing stress (Cartesian axis) and pressure


     negative rho (up, down):  6.222E-02 0.000E+00
          total   stress  (Ry/bohr**3)                   (kbar)     P=        1.66
   0.00001028   0.00000099   0.00000282            1.51        0.15        0.41
   0.00000099   0.00000951   0.00000188            0.15        1.40        0.28
   0.00000282   0.00000188   0.00001412            0.41        0.28        2.08

     Energy error            =      4.0E-04
     Gradient error          =      5.0E-03
     Cell gradient error     =      1.4E-05


     number of scf cycles    =  20
     number of bfgs steps    =  19

     enthalpy old            =    -250.9889421540 Ry
     enthalpy new            =    -250.9893458583 Ry

     CASE: enthalpy_new < enthalpy_old

     new trust radius        =       0.0430525888 bohr
     new conv_thr            =       0.0000000404 Ry

     new unit-cell volume =    736.56014 a.u.^3 (   109.14695 Ang^3 )
     density =      0.15214 g/cm^3

CELL_PARAMETERS (angstrom)
   4.592055766  -0.001065721   3.105102620
   1.648194566   4.286171436   3.105057582
  -0.001536714  -0.001129004   5.543367704

ATOMIC_POSITIONS (angstrom)
Li            1.7040924227        1.1700319299        3.2104640817
Li            4.9304976727        3.3856311486        9.2887793673
Mg            6.3282480694        4.3453969402       11.9220943154
Zr            3.0732075921        2.1103278303        5.7898148692
H             1.5385253585        2.8158988043        4.6629673949
H             3.7053765087        1.7885162467        3.8872317985
H             2.0796874674        0.4245722148        5.2473313569
H             4.1398835414        0.8999385347        6.9810680088
H             4.4780650878        3.5406123571        5.8390181976
H             2.0832810701        2.9078644601        7.3407625615



     Writing output data file ./tmp/Li2MgZrH6.save/
     NEW-OLD atomic charge density approx. for the potential

     negative rho (up, down):  6.222E-02 0.000E+00
     extrapolated charge   30.01059, renormalised to   30.00000

     total cpu time spent up to now is     1054.4 secs

     Self-consistent Calculation

     iteration #  1     ecut=    50.00 Ry     beta= 0.70
     Davidson diagonalization with overlap
     ethr =  1.00E-06,  avg # of iterations =  6.5

     negative rho (up, down):  6.219E-02 0.000E+00

     total cpu time spent up to now is     1058.3 secs

     total energy              =    -250.98976883 Ry
     estimated scf accuracy    <       0.00024003 Ry

     iteration #  2     ecut=    50.00 Ry     beta= 0.70
     Davidson diagonalization with overlap
     ethr =  8.00E-07,  avg # of iterations =  3.0

     negative rho (up, down):  6.220E-02 0.000E+00

     total cpu time spent up to now is     1061.1 secs

     total energy              =    -250.98973992 Ry
     estimated scf accuracy    <       0.00002507 Ry

     iteration #  3     ecut=    50.00 Ry     beta= 0.70
     Davidson diagonalization with overlap
     ethr =  8.36E-08,  avg # of iterations =  3.5

     negative rho (up, down):  6.220E-02 0.000E+00

     total cpu time spent up to now is     1064.0 secs

     total energy              =    -250.98972502 Ry
     estimated scf accuracy    <       0.00000714 Ry

     iteration #  4     ecut=    50.00 Ry     beta= 0.70
     Davidson diagonalization with overlap
     ethr =  2.38E-08,  avg # of iterations =  3.5

     negative rho (up, down):  6.220E-02 0.000E+00

     total cpu time spent up to now is     1066.6 secs

     total energy              =    -250.98972211 Ry
     estimated scf accuracy    <       0.00000185 Ry

     iteration #  5     ecut=    50.00 Ry     beta= 0.70
     Davidson diagonalization with overlap
     ethr =  6.17E-09,  avg # of iterations =  2.5

     negative rho (up, down):  6.220E-02 0.000E+00

     total cpu time spent up to now is     1069.1 secs

     End of self-consistent calculation

          k = 0.0000 0.0000 0.0000 (  3557 PWs)   bands (ev):

   -71.2225 -44.4145 -38.3123 -38.3123 -38.3010 -22.4789 -22.4789 -22.4357
    -2.8521   0.9119   0.9121   1.1936   2.0261   2.0261   4.5806   4.9969
     4.9970   8.0457   8.6350

          k = 0.3013 0.2069-0.4456 (  3526 PWs)   bands (ev):

   -71.2225 -44.4144 -38.3123 -38.3123 -38.3010 -22.4829 -22.4799 -22.4360
    -1.2573  -1.0922   0.4435   0.6573   2.0469   2.3310   4.4848   5.6498
     5.8357   6.9098   8.0364

          k =-0.0001-0.5763-0.0001 (  3526 PWs)   bands (ev):

   -71.2225 -44.4144 -38.3123 -38.3123 -38.3010 -22.4829 -22.4799 -22.4360
    -1.2572  -1.0923   0.4436   0.6573   2.0469   2.3311   4.4848   5.6499
     5.8356   6.9099   8.0361

          k = 0.3013-0.3694-0.4457 (  3496 PWs)   bands (ev):

   -71.2225 -44.4144 -38.3123 -38.3123 -38.3010 -22.4824 -22.4805 -22.4368
    -1.4831  -0.1229   0.3975   0.9538   1.1415   1.5266   4.3795   5.4691
     5.8134   7.1750   8.7541

          k =-0.5379 0.2069-0.0001 (  3526 PWs)   bands (ev):

   -71.2225 -44.4144 -38.3123 -38.3123 -38.3010 -22.4828 -22.4799 -22.4360
    -1.2572  -1.0923   0.4435   0.6573   2.0470   2.3310   4.4847   5.6499
     5.8357   6.9096   8.0365

          k =-0.2366 0.4138-0.4457 (  3496 PWs)   bands (ev):

   -71.2225 -44.4144 -38.3123 -38.3123 -38.3010 -22.4824 -22.4804 -22.4368
    -1.4832  -0.1230   0.3976   0.9539   1.1416   1.5265   4.3795   5.4690
     5.8134   7.1750   8.7540

          k =-0.5380-0.3694-0.0002 (  3496 PWs)   bands (ev):

   -71.2225 -44.4144 -38.3123 -38.3123 -38.3010 -22.4824 -22.4804 -22.4368
    -1.4832  -0.1231   0.3977   0.9538   1.1417   1.5265   4.3795   5.4691
     5.8134   7.1750   8.7539

          k =-0.2366-0.1625-0.4458 (  3516 PWs)   bands (ev):

   -71.2225 -44.4144 -38.3123 -38.3123 -38.3010 -22.4793 -22.4793 -22.4383
    -1.5241  -1.1295   0.7503   0.7504   2.2403   2.2405   4.9736   5.1902
     5.1904   7.4280   8.4647

     the Fermi energy is     4.9279 ev

!    total energy              =    -250.98972277 Ry
     estimated scf accuracy    <       0.00000004 Ry
     smearing contrib. (-TS)   =       0.00019943 Ry
     internal energy E=F+TS    =    -250.98992220 Ry

     The total energy is F=E-TS. E is the sum of the following terms:
     one-electron contribution =    -167.13886005 Ry
     hartree contribution      =      57.17169565 Ry
     xc contribution           =     -37.59973881 Ry
     ewald contribution        =    -110.89704753 Ry
     one-center paw contrib.   =       7.47402853 Ry

     convergence has been achieved in   5 iterations

     negative rho (up, down):  6.220E-02 0.000E+00

     Forces acting on atoms (cartesian axes, Ry/au):

     atom    1 type  2   force =     0.00037977    0.00026149    0.00071267
     atom    2 type  2   force =     0.00094256    0.00065470    0.00179088
     atom    3 type  3   force =    -0.00141014   -0.00096014   -0.00263677
     atom    4 type  4   force =    -0.00188694   -0.00134949   -0.00361624
     atom    5 type  1   force =    -0.00176673   -0.00301691    0.00317920
     atom    6 type  1   force =    -0.00151955    0.00446778    0.00032614
     atom    7 type  1   force =     0.00457608   -0.00055532   -0.00107593
     atom    8 type  1   force =     0.00098231   -0.00271909    0.00108155
     atom    9 type  1   force =     0.00212975    0.00190357   -0.00120080
     atom   10 type  1   force =    -0.00242711    0.00131341    0.00143931

     Total force =     0.011380     Total SCF correction =     0.000582


     Computing stress (Cartesian axis) and pressure


     negative rho (up, down):  6.220E-02 0.000E+00
          total   stress  (Ry/bohr**3)                   (kbar)     P=        2.35
   0.00001798  -0.00000204  -0.00000555            2.64       -0.30       -0.82
  -0.00000204   0.00001941  -0.00000374           -0.30        2.86       -0.55
  -0.00000555  -0.00000374   0.00001053           -0.82       -0.55        1.55

     Energy error            =      3.8E-04
     Gradient error          =      4.6E-03
     Cell gradient error     =      1.9E-05


     number of scf cycles    =  21
     number of bfgs steps    =  20

     enthalpy old            =    -250.9893458583 Ry
     enthalpy new            =    -250.9897227714 Ry

     CASE: enthalpy_new < enthalpy_old

     new trust radius        =       0.0487199708 bohr
     new conv_thr            =       0.0000000377 Ry

     new unit-cell volume =    739.75058 a.u.^3 (   109.61973 Ang^3 )
     density =      0.15148 g/cm^3

CELL_PARAMETERS (angstrom)
   4.603268279   0.010799581   3.133620695
   1.663306959   4.292352013   3.133552875
   0.015783079   0.010738442   5.568666881

ATOMIC_POSITIONS (angstrom)
Li            1.7170322874        1.1788963182        3.2348651886
Li            4.9739376601        3.4154153956        9.3707014694
Mg            6.3609344770        4.3677917681       11.9837548553
Zr            3.0906169870        2.1222882818        5.8227030058
H             1.5487552370        2.8143168255        4.6983670601
H             3.7123820662        1.8110314337        3.9155083011
H             2.1077388006        0.4346537489        5.2690335341
H             4.1471629195        0.9300453019        7.0431523147
H             4.5121713972        3.5365396814        5.8992756253
H             2.1284154584        2.9411264269        7.3815639651



     Writing output data file ./tmp/Li2MgZrH6.save/
     NEW-OLD atomic charge density approx. for the potential

     negative rho (up, down):  6.243E-02 0.000E+00
     extrapolated charge   30.12933, renormalised to   30.00000

     total cpu time spent up to now is     1095.1 secs

     Self-consistent Calculation

     iteration #  1     ecut=    50.00 Ry     beta= 0.70
     Davidson diagonalization with overlap
     ethr =  1.00E-06,  avg # of iterations =  8.5

     negative rho (up, down):  6.215E-02 0.000E+00

     total cpu time spent up to now is     1099.9 secs

     total energy              =    -250.98636980 Ry
     estimated scf accuracy    <       0.00214395 Ry

     iteration #  2     ecut=    50.00 Ry     beta= 0.70
     Davidson diagonalization with overlap
     ethr =  7.15E-06,  avg # of iterations =  8.4

     negative rho (up, down):  6.215E-02 0.000E+00

     total cpu time spent up to now is     1103.5 secs

     total energy              =    -250.98935064 Ry
     estimated scf accuracy    <       0.01136545 Ry

     iteration #  3     ecut=    50.00 Ry     beta= 0.70
     Davidson diagonalization with overlap
     ethr =  7.15E-06,  avg # of iterations =  3.1

     negative rho (up, down):  6.213E-02 0.000E+00

     total cpu time spent up to now is     1106.5 secs

     total energy              =    -250.98982017 Ry
     estimated scf accuracy    <       0.00107384 Ry

     iteration #  4     ecut=    50.00 Ry     beta= 0.70
     Davidson diagonalization with overlap
     ethr =  3.58E-06,  avg # of iterations =  6.1

     negative rho (up, down):  6.212E-02 0.000E+00

     total cpu time spent up to now is     1109.0 secs

     total energy              =    -250.98991908 Ry
     estimated scf accuracy    <       0.00005113 Ry

     iteration #  5     ecut=    50.00 Ry     beta= 0.70
     Davidson diagonalization with overlap
     ethr =  1.70E-07,  avg # of iterations =  5.0

     negative rho (up, down):  6.214E-02 0.000E+00

     total cpu time spent up to now is     1111.6 secs

     total energy              =    -250.98994241 Ry
     estimated scf accuracy    <       0.00000301 Ry

     iteration #  6     ecut=    50.00 Ry     beta= 0.70
     Davidson diagonalization with overlap
     ethr =  1.00E-08,  avg # of iterations =  3.6

     negative rho (up, down):  6.216E-02 0.000E+00

     total cpu time spent up to now is     1114.5 secs

     total energy              =    -250.98994318 Ry
     estimated scf accuracy    <       0.00000057 Ry

     iteration #  7     ecut=    50.00 Ry     beta= 0.70
     Davidson diagonalization with overlap
     ethr =  1.88E-09,  avg # of iterations =  4.2

     negative rho (up, down):  6.217E-02 0.000E+00

     total cpu time spent up to now is     1117.3 secs

     End of self-consistent calculation

          k = 0.0000 0.0000 0.0000 (  3557 PWs)   bands (ev):

   -71.2775 -44.4505 -38.3681 -38.3681 -38.3542 -22.5207 -22.5207 -22.4588
    -2.8732   0.9145   0.9147   1.1237   1.9823   1.9825   4.5186   4.9857
     4.9859   7.9637   8.5823

          k = 0.3024 0.2076-0.4449 (  3526 PWs)   bands (ev):

   -71.2775 -44.4504 -38.3681 -38.3681 -38.3542 -22.5246 -22.5216 -22.4590
    -1.2849  -1.1132   0.4371   0.6225   2.0140   2.2852   4.4289   5.6284
     5.8102   6.8706   8.0021

          k = 0.0006-0.5766 0.0011 (  3526 PWs)   bands (ev):

   -71.2775 -44.4504 -38.3681 -38.3681 -38.3542 -22.5246 -22.5216 -22.4590
    -1.2848  -1.1133   0.4372   0.6224   2.0142   2.2852   4.4288   5.6284
     5.8102   6.8707   8.0019

          k = 0.3030-0.3690-0.4438 (  3496 PWs)   bands (ev):

   -71.2775 -44.4504 -38.3681 -38.3681 -38.3542 -22.5242 -22.5222 -22.4598
    -1.5138  -0.1456   0.3599   0.9514   1.1134   1.4970   4.3238   5.4451
     5.7815   7.1116   8.7145

          k =-0.5380 0.2076 0.0011 (  3526 PWs)   bands (ev):

   -71.2775 -44.4504 -38.3681 -38.3681 -38.3542 -22.5246 -22.5217 -22.4590
    -1.2848  -1.1132   0.4371   0.6225   2.0142   2.2851   4.4287   5.6284
     5.8102   6.8704   8.0022

          k =-0.2356 0.4153-0.4438 (  3496 PWs)   bands (ev):

   -71.2775 -44.4504 -38.3681 -38.3681 -38.3542 -22.5242 -22.5222 -22.4598
    -1.5139  -0.1457   0.3601   0.9516   1.1134   1.4968   4.3238   5.4451
     5.7815   7.1117   8.7144

          k =-0.5374-0.3690 0.0022 (  3496 PWs)   bands (ev):

   -71.2775 -44.4504 -38.3681 -38.3681 -38.3542 -22.5242 -22.5222 -22.4598
    -1.5139  -0.1458   0.3601   0.9514   1.1136   1.4967   4.3238   5.4451
     5.7815   7.1117   8.7143

          k =-0.2350-0.1614-0.4427 (  3516 PWs)   bands (ev):

   -71.2775 -44.4505 -38.3681 -38.3681 -38.3542 -22.5210 -22.5210 -22.4612
    -1.5717  -1.1594   0.7477   0.7479   2.2141   2.2144   4.9168   5.1539
     5.1541   7.4188   8.4060

     the Fermi energy is     4.9020 ev

!    total energy              =    -250.98994334 Ry
     estimated scf accuracy    <          4.4E-09 Ry
     smearing contrib. (-TS)   =      -0.00001968 Ry
     internal energy E=F+TS    =    -250.98992366 Ry

     The total energy is F=E-TS. E is the sum of the following terms:
     one-electron contribution =    -167.45940105 Ry
     hartree contribution      =      57.28768302 Ry
     xc contribution           =     -37.59416877 Ry
     ewald contribution        =    -110.69665767 Ry
     one-center paw contrib.   =       7.47262081 Ry

     convergence has been achieved in   7 iterations

     negative rho (up, down):  6.217E-02 0.000E+00

     Forces acting on atoms (cartesian axes, Ry/au):

     atom    1 type  2   force =     0.00049239    0.00033790    0.00092611
     atom    2 type  2   force =     0.00029493    0.00021372    0.00057466
     atom    3 type  3   force =     0.00103911    0.00071744    0.00195933
     atom    4 type  4   force =    -0.00237269   -0.00170441   -0.00455850
     atom    5 type  1   force =    -0.00147382   -0.00317729    0.00306900
     atom    6 type  1   force =    -0.00176579    0.00428989    0.00052472
     atom    7 type  1   force =     0.00451147   -0.00022089   -0.00117212
     atom    8 type  1   force =     0.00046307   -0.00269727    0.00009534
     atom    9 type  1   force =     0.00141579    0.00141878   -0.00188910
     atom   10 type  1   force =    -0.00260448    0.00082213    0.00047057

     Total force =     0.011156     Total SCF correction =     0.000141


     Computing stress (Cartesian axis) and pressure


     negative rho (up, down):  6.217E-02 0.000E+00
          total   stress  (Ry/bohr**3)                   (kbar)     P=        0.46
   0.00000721  -0.00000411  -0.00001131            1.06       -0.61       -1.66
  -0.00000411   0.00001026  -0.00000765           -0.61        1.51       -1.13
  -0.00001131  -0.00000765  -0.00000807           -1.66       -1.13       -1.19

     Energy error            =      2.2E-04
     Gradient error          =      4.6E-03
     Cell gradient error     =      1.1E-05


     number of scf cycles    =  22
     number of bfgs steps    =  21

     enthalpy old            =    -250.9897227714 Ry
     enthalpy new            =    -250.9899433432 Ry

     CASE: enthalpy_new < enthalpy_old

     new trust radius        =       0.0220982253 bohr
     new conv_thr            =       0.0000000221 Ry

     new unit-cell volume =    740.33288 a.u.^3 (   109.70601 Ang^3 )
     density =      0.15136 g/cm^3

CELL_PARAMETERS (angstrom)
   4.604446057   0.010693635   3.134225191
   1.663624921   4.293455177   3.134164492
   0.015623742   0.010639652   5.569982577

ATOMIC_POSITIONS (angstrom)
Li            1.7147918398        1.1773465151        3.2306406278
Li            4.9768261300        3.4173867040        9.3761705618
Mg            6.3615194809        4.3681870851       11.9848772677
Zr            3.0912095697        2.1226584372        5.8238001971
H             1.5440338772        2.8108684436        4.7091199739
H             3.7133205566        1.8230249675        3.9176341312
H             2.1193947624        0.4314927918        5.2710002791
H             4.1467915039        0.9286391209        7.0417327118
H             4.5118093207        3.5366838938        5.8972937528
H             2.1267464719        2.9407222816        7.3804784786



     Writing output data file ./tmp/Li2MgZrH6.save/
     NEW-OLD atomic charge density approx. for the potential

     negative rho (up, down):  6.222E-02 0.000E+00
     extrapolated charge   30.02359, renormalised to   30.00000

     total cpu time spent up to now is     1143.7 secs

     Self-consistent Calculation

     iteration #  1     ecut=    50.00 Ry     beta= 0.70
     Davidson diagonalization with overlap
     ethr =  1.00E-06,  avg # of iterations =  4.2

     negative rho (up, down):  6.217E-02 0.000E+00

     total cpu time spent up to now is     1147.0 secs

     total energy              =    -250.99012649 Ry
     estimated scf accuracy    <       0.00010295 Ry

     iteration #  2     ecut=    50.00 Ry     beta= 0.70
     Davidson diagonalization with overlap
     ethr =  3.43E-07,  avg # of iterations =  4.4

     negative rho (up, down):  6.217E-02 0.000E+00

     total cpu time spent up to now is     1149.8 secs

     total energy              =    -250.99017756 Ry
     estimated scf accuracy    <       0.00014463 Ry

     iteration #  3     ecut=    50.00 Ry     beta= 0.70
     Davidson diagonalization with overlap
     ethr =  3.43E-07,  avg # of iterations =  3.0

     negative rho (up, down):  6.217E-02 0.000E+00

     total cpu time spent up to now is     1152.3 secs

     total energy              =    -250.99020092 Ry
     estimated scf accuracy    <       0.00000364 Ry

     iteration #  4     ecut=    50.00 Ry     beta= 0.70
     Davidson diagonalization with overlap
     ethr =  1.21E-08,  avg # of iterations =  4.1

     negative rho (up, down):  6.217E-02 0.000E+00

     total cpu time spent up to now is     1155.1 secs

     total energy              =    -250.99020199 Ry
     estimated scf accuracy    <       0.00000026 Ry

     iteration #  5     ecut=    50.00 Ry     beta= 0.70
     Davidson diagonalization with overlap
     ethr =  8.63E-10,  avg # of iterations =  2.6

     negative rho (up, down):  6.218E-02 0.000E+00

     total cpu time spent up to now is     1157.9 secs

     total energy              =    -250.99020203 Ry
     estimated scf accuracy    <       0.00000004 Ry

     iteration #  6     ecut=    50.00 Ry     beta= 0.70
     Davidson diagonalization with overlap
     ethr =  1.48E-10,  avg # of iterations =  2.2

     negative rho (up, down):  6.218E-02 0.000E+00

     total cpu time spent up to now is     1160.5 secs

     End of self-consistent calculation

          k = 0.0000 0.0000 0.0000 (  3557 PWs)   bands (ev):

   -71.3040 -44.4495 -38.3948 -38.3948 -38.3801 -22.5206 -22.5206 -22.4583
    -2.8725   0.9077   0.9079   1.1181   1.9778   1.9780   4.5183   4.9947
     4.9948   7.9502   8.5568

          k = 0.3023 0.2076-0.4448 (  3526 PWs)   bands (ev):

   -71.3040 -44.4494 -38.3948 -38.3948 -38.3801 -22.5245 -22.5216 -22.4585
    -1.2901  -1.1094   0.4411   0.6200   2.0027   2.2727   4.4140   5.6245
     5.8107   6.8597   8.0099

          k = 0.0006-0.5765 0.0011 (  3526 PWs)   bands (ev):

   -71.3040 -44.4494 -38.3948 -38.3948 -38.3801 -22.5245 -22.5216 -22.4585
    -1.2900  -1.1095   0.4412   0.6199   2.0028   2.2727   4.4140   5.6246
     5.8107   6.8598   8.0097

          k = 0.3029-0.3689-0.4437 (  3496 PWs)   bands (ev):

   -71.3040 -44.4494 -38.3948 -38.3948 -38.3801 -22.5241 -22.5221 -22.4593
    -1.5115  -0.1420   0.3483   0.9504   1.1038   1.4928   4.3181   5.4338
     5.7780   7.1052   8.7098

          k =-0.5378 0.2076 0.0011 (  3526 PWs)   bands (ev):

   -71.3040 -44.4494 -38.3948 -38.3948 -38.3801 -22.5245 -22.5216 -22.4585
    -1.2900  -1.1095   0.4411   0.6200   2.0028   2.2726   4.4139   5.6246
     5.8106   6.8596   8.0100

          k =-0.2355 0.4152-0.4437 (  3496 PWs)   bands (ev):

   -71.3040 -44.4494 -38.3948 -38.3948 -38.3801 -22.5241 -22.5221 -22.4593
    -1.5116  -0.1420   0.3484   0.9505   1.1039   1.4927   4.3180   5.4338
     5.7780   7.1052   8.7098

          k =-0.5372-0.3689 0.0022 (  3496 PWs)   bands (ev):

   -71.3040 -44.4494 -38.3948 -38.3948 -38.3801 -22.5241 -22.5221 -22.4593
    -1.5115  -0.1421   0.3485   0.9504   1.1040   1.4926   4.3180   5.4338
     5.7780   7.1052   8.7096

          k =-0.2349-0.1613-0.4426 (  3516 PWs)   bands (ev):

   -71.3040 -44.4494 -38.3948 -38.3948 -38.3801 -22.5210 -22.5209 -22.4607
    -1.5636  -1.1711   0.7476   0.7479   2.2017   2.2019   4.9207   5.1522
     5.1524   7.3997   8.4086

     the Fermi energy is     4.9101 ev

!    total energy              =    -250.99020203 Ry
     estimated scf accuracy    <          2.3E-09 Ry
     smearing contrib. (-TS)   =      -0.00013106 Ry
     internal energy E=F+TS    =    -250.99007098 Ry

     The total energy is F=E-TS. E is the sum of the following terms:
     one-electron contribution =    -167.46055869 Ry
     hartree contribution      =      57.27891998 Ry
     xc contribution           =     -37.59278772 Ry
     ewald contribution        =    -110.68665010 Ry
     one-center paw contrib.   =       7.47100555 Ry

     convergence has been achieved in   6 iterations

     negative rho (up, down):  6.218E-02 0.000E+00

     Forces acting on atoms (cartesian axes, Ry/au):

     atom    1 type  2   force =     0.00066588    0.00045580    0.00124903
     atom    2 type  2   force =     0.00026724    0.00019000    0.00051442
     atom    3 type  3   force =     0.00127818    0.00088121    0.00242490
     atom    4 type  4   force =    -0.00239504   -0.00169447   -0.00457529
     atom    5 type  1   force =    -0.00155206   -0.00315312    0.00209525
     atom    6 type  1   force =    -0.00201481    0.00356962   -0.00009210
     atom    7 type  1   force =     0.00370402   -0.00031183   -0.00172486
     atom    8 type  1   force =     0.00070044   -0.00282062    0.00069465
     atom    9 type  1   force =     0.00192842    0.00168092   -0.00157955
     atom   10 type  1   force =    -0.00258229    0.00120249    0.00099354

     Total force =     0.010855     Total SCF correction =     0.000059


     Computing stress (Cartesian axis) and pressure


     negative rho (up, down):  6.218E-02 0.000E+00
          total   stress  (Ry/bohr**3)                   (kbar)     P=        0.27
   0.00000529  -0.00000351  -0.00000967            0.78       -0.52       -1.42
  -0.00000351   0.00000796  -0.00000655           -0.52        1.17       -0.96
  -0.00000967  -0.00000655  -0.00000779           -1.42       -0.96       -1.15

     Energy error            =      2.6E-04
     Gradient error          =      4.6E-03
     Cell gradient error     =      9.7E-06


     number of scf cycles    =  23
     number of bfgs steps    =  22

     enthalpy old            =    -250.9899433432 Ry
     enthalpy new            =    -250.9902020342 Ry

     CASE: enthalpy_new < enthalpy_old

     new trust radius        =       0.0243148133 bohr
     new conv_thr            =       0.0000000259 Ry

     new unit-cell volume =    741.04974 a.u.^3 (   109.81224 Ang^3 )
     density =      0.15122 g/cm^3

CELL_PARAMETERS (angstrom)
   4.606111013   0.011131373   3.136112176
   1.664623644   4.294826467   3.136062618
   0.016253560   0.011086773   5.572420681

ATOMIC_POSITIONS (angstrom)
Li            1.7125304611        1.1757834571        3.2263748812
Li            4.9816259513        3.4206807165        9.3852420964
Mg            6.3647772917        4.3704303605       11.9910433017
Zr            3.0911881532        2.1226143907        5.8237424238
H             1.5376200163        2.8068789119        4.7206881962
H             3.7143285847        1.8367349565        3.9188180260
H             2.1323518501        0.4269520959        5.2724955649
H             4.1455257039        0.9285162380        7.0465910201
H             4.5161607254        3.5355458627        5.8995543303
H             2.1283159372        2.9451909186        7.3821743877



     Writing output data file ./tmp/Li2MgZrH6.save/
     NEW-OLD atomic charge density approx. for the potential

     negative rho (up, down):  6.228E-02 0.000E+00
     extrapolated charge   30.02901, renormalised to   30.00000

     total cpu time spent up to now is     1186.5 secs

     Self-consistent Calculation

     iteration #  1     ecut=    50.00 Ry     beta= 0.70
     Davidson diagonalization with overlap
     ethr =  1.00E-06,  avg # of iterations =  4.8

     negative rho (up, down):  6.222E-02 0.000E+00

     total cpu time spent up to now is     1190.1 secs

     total energy              =    -250.99032802 Ry
     estimated scf accuracy    <       0.00015675 Ry

     iteration #  2     ecut=    50.00 Ry     beta= 0.70
     Davidson diagonalization with overlap
     ethr =  5.23E-07,  avg # of iterations =  5.5

     negative rho (up, down):  6.222E-02 0.000E+00

     total cpu time spent up to now is     1193.3 secs

     total energy              =    -250.99042016 Ry
     estimated scf accuracy    <       0.00039614 Ry

     iteration #  3     ecut=    50.00 Ry     beta= 0.70
     Davidson diagonalization with overlap
     ethr =  5.23E-07,  avg # of iterations =  3.4

     negative rho (up, down):  6.222E-02 0.000E+00

     total cpu time spent up to now is     1195.9 secs

     total energy              =    -250.99046122 Ry
     estimated scf accuracy    <       0.00002122 Ry

     iteration #  4     ecut=    50.00 Ry     beta= 0.70
     Davidson diagonalization with overlap
     ethr =  7.07E-08,  avg # of iterations =  4.6

     negative rho (up, down):  6.222E-02 0.000E+00

     total cpu time spent up to now is     1198.8 secs

     total energy              =    -250.99046774 Ry
     estimated scf accuracy    <       0.00000060 Ry

     iteration #  5     ecut=    50.00 Ry     beta= 0.70
     Davidson diagonalization with overlap
     ethr =  1.98E-09,  avg # of iterations =  3.0

     negative rho (up, down):  6.222E-02 0.000E+00

     total cpu time spent up to now is     1201.5 secs

     total energy              =    -250.99046783 Ry
     estimated scf accuracy    <       0.00000015 Ry

     iteration #  6     ecut=    50.00 Ry     beta= 0.70
     Davidson diagonalization with overlap
     ethr =  4.94E-10,  avg # of iterations =  3.1

     negative rho (up, down):  6.223E-02 0.000E+00

     total cpu time spent up to now is     1204.2 secs

     End of self-consistent calculation

          k = 0.0000 0.0000 0.0000 (  3557 PWs)   bands (ev):

   -71.3273 -44.4569 -38.4184 -38.4184 -38.4028 -22.5286 -22.5285 -22.4641
    -2.8730   0.9049   0.9051   1.1139   1.9731   1.9734   4.5052   4.9990
     4.9992   7.9328   8.5272

          k = 0.3023 0.2075-0.4447 (  3526 PWs)   bands (ev):

   -71.3273 -44.4568 -38.4184 -38.4184 -38.4028 -22.5324 -22.5295 -22.4644
    -1.2961  -1.1068   0.4462   0.6169   1.9954   2.2657   4.3902   5.6158
     5.8066   6.8444   8.0175

          k = 0.0006-0.5763 0.0011 (  3526 PWs)   bands (ev):

   -71.3273 -44.4568 -38.4184 -38.4184 -38.4028 -22.5324 -22.5295 -22.4644
    -1.2960  -1.1069   0.4463   0.6167   1.9954   2.2656   4.3901   5.6159
     5.8066   6.8444   8.0174

          k = 0.3029-0.3688-0.4435 (  3496 PWs)   bands (ev):

   -71.3273 -44.4568 -38.4184 -38.4184 -38.4028 -22.5320 -22.5301 -22.4651
    -1.5101  -0.1437   0.3394   0.9473   1.1006   1.4944   4.3026   5.4206
     5.7705   7.0941   8.7014

          k =-0.5377 0.2076 0.0012 (  3526 PWs)   bands (ev):

   -71.3273 -44.4568 -38.4184 -38.4184 -38.4028 -22.5324 -22.5295 -22.4644
    -1.2961  -1.1068   0.4462   0.6169   1.9955   2.2656   4.3900   5.6159
     5.8066   6.8443   8.0177

          k =-0.2354 0.4151-0.4435 (  3496 PWs)   bands (ev):

   -71.3273 -44.4568 -38.4184 -38.4184 -38.4028 -22.5321 -22.5300 -22.4651
    -1.5102  -0.1437   0.3395   0.9473   1.1007   1.4944   4.3026   5.4205
     5.7706   7.0941   8.7015

          k =-0.5371-0.3688 0.0023 (  3496 PWs)   bands (ev):

   -71.3273 -44.4568 -38.4184 -38.4184 -38.4028 -22.5321 -22.5300 -22.4651
    -1.5102  -0.1438   0.3395   0.9472   1.1008   1.4943   4.3026   5.4205
     5.7705   7.0941   8.7013

          k =-0.2348-0.1612-0.4424 (  3516 PWs)   bands (ev):

   -71.3273 -44.4569 -38.4184 -38.4184 -38.4028 -22.5289 -22.5289 -22.4665
    -1.5611  -1.1793   0.7505   0.7507   2.1905   2.1906   4.9169   5.1478
     5.1480   7.3758   8.4016

     the Fermi energy is     4.9128 ev

!    total energy              =    -250.99046786 Ry
     estimated scf accuracy    <          9.3E-10 Ry
     smearing contrib. (-TS)   =      -0.00024712 Ry
     internal energy E=F+TS    =    -250.99022074 Ry

     The total energy is F=E-TS. E is the sum of the following terms:
     one-electron contribution =    -167.47364847 Ry
     hartree contribution      =      57.27371848 Ry
     xc contribution           =     -37.58998352 Ry
     ewald contribution        =    -110.66996854 Ry
     one-center paw contrib.   =       7.46966131 Ry

     convergence has been achieved in   6 iterations

     negative rho (up, down):  6.223E-02 0.000E+00

     Forces acting on atoms (cartesian axes, Ry/au):

     atom    1 type  2   force =     0.00081147    0.00055584    0.00152276
     atom    2 type  2   force =     0.00029263    0.00020524    0.00055856
     atom    3 type  3   force =     0.00152205    0.00104483    0.00287765
     atom    4 type  4   force =    -0.00167877   -0.00118151   -0.00320377
     atom    5 type  1   force =    -0.00144722   -0.00334371    0.00127604
     atom    6 type  1   force =    -0.00245570    0.00294926   -0.00046891
     atom    7 type  1   force =     0.00309931   -0.00015160   -0.00230148
     atom    8 type  1   force =     0.00048041   -0.00240790    0.00049168
     atom    9 type  1   force =     0.00158346    0.00132367   -0.00144085
     atom   10 type  1   force =    -0.00220764    0.00100589    0.00068834

     Total force =     0.009677     Total SCF correction =     0.000068


     Computing stress (Cartesian axis) and pressure


     negative rho (up, down):  6.223E-02 0.000E+00
          total   stress  (Ry/bohr**3)                   (kbar)     P=       -0.44
  -0.00000028  -0.00000273  -0.00000757           -0.04       -0.40       -1.11
  -0.00000273   0.00000186  -0.00000514           -0.40        0.27       -0.76
  -0.00000757  -0.00000514  -0.00001055           -1.11       -0.76       -1.55

     Energy error            =      2.7E-04
     Gradient error          =      3.3E-03
     Cell gradient error     =      1.1E-05


     number of scf cycles    =  24
     number of bfgs steps    =  23

     enthalpy old            =    -250.9902020342 Ry
     enthalpy new            =    -250.9904678601 Ry

     CASE: enthalpy_new < enthalpy_old

     new trust radius        =       0.0364809236 bohr
     new conv_thr            =       0.0000000266 Ry

     new unit-cell volume =    741.13462 a.u.^3 (   109.82482 Ang^3 )
     density =      0.15120 g/cm^3

CELL_PARAMETERS (angstrom)
   4.606173933   0.010813284   3.135580321
   1.664338586   4.294970282   3.135547053
   0.015777694   0.010780827   5.572176916

ATOMIC_POSITIONS (angstrom)
Li            1.7083355430        1.1728907825        3.2184615340
Li            4.9842394448        3.4224790270        9.3902077143
Mg            6.3643182692        4.3701265725       11.9902119763
Zr            3.0893811336        2.1213380374        5.8203138060
H             1.5261281236        2.7982555802        4.7334498762
H             3.7123841488        1.8556854450        3.9164708794
H             2.1497429246        0.4193403719        5.2695627558
H             4.1423259897        0.9243694029        7.0463277759
H             4.5187701744        3.5340556273        5.8952621653
H             2.1249881064        2.9481652486        7.3794063935



     Writing output data file ./tmp/Li2MgZrH6.save/
     NEW-OLD atomic charge density approx. for the potential

     negative rho (up, down):  6.220E-02 0.000E+00
     extrapolated charge   30.00343, renormalised to   30.00000

     total cpu time spent up to now is     1230.5 secs

     Self-consistent Calculation

     iteration #  1     ecut=    50.00 Ry     beta= 0.70
     Davidson diagonalization with overlap
     ethr =  1.00E-06,  avg # of iterations =  7.5

     negative rho (up, down):  6.220E-02 0.000E+00

     total cpu time spent up to now is     1234.2 secs

     total energy              =    -250.99079169 Ry
     estimated scf accuracy    <       0.00018988 Ry

     iteration #  2     ecut=    50.00 Ry     beta= 0.70
     Davidson diagonalization with overlap
     ethr =  6.33E-07,  avg # of iterations =  2.0

     negative rho (up, down):  6.221E-02 0.000E+00

     total cpu time spent up to now is     1236.9 secs

     total energy              =    -250.99081261 Ry
     estimated scf accuracy    <       0.00000956 Ry

     iteration #  3     ecut=    50.00 Ry     beta= 0.70
     Davidson diagonalization with overlap
     ethr =  3.19E-08,  avg # of iterations =  3.6

     negative rho (up, down):  6.221E-02 0.000E+00

     total cpu time spent up to now is     1239.3 secs

     total energy              =    -250.99081435 Ry
     estimated scf accuracy    <       0.00000220 Ry

     iteration #  4     ecut=    50.00 Ry     beta= 0.70
     Davidson diagonalization with overlap
     ethr =  7.33E-09,  avg # of iterations =  4.0

     negative rho (up, down):  6.221E-02 0.000E+00

     total cpu time spent up to now is     1242.1 secs

     total energy              =    -250.99081490 Ry
     estimated scf accuracy    <       0.00000076 Ry

     iteration #  5     ecut=    50.00 Ry     beta= 0.70
     Davidson diagonalization with overlap
     ethr =  2.54E-09,  avg # of iterations =  3.1

     negative rho (up, down):  6.221E-02 0.000E+00

     total cpu time spent up to now is     1244.4 secs

     End of self-consistent calculation

          k = 0.0000 0.0000 0.0000 (  3557 PWs)   bands (ev):

   -71.3468 -44.4571 -38.4384 -38.4384 -38.4214 -22.5292 -22.5292 -22.4630
    -2.8697   0.9082   0.9084   1.1135   1.9746   1.9748   4.5016   5.0170
     5.0173   7.9271   8.4968

          k = 0.3022 0.2075-0.4446 (  3526 PWs)   bands (ev):

   -71.3468 -44.4570 -38.4384 -38.4384 -38.4214 -22.5331 -22.5302 -22.4632
    -1.3002  -1.0987   0.4623   0.6223   1.9918   2.2643   4.3662   5.6148
     5.8121   6.8320   8.0388

          k = 0.0006-0.5763 0.0011 (  3526 PWs)   bands (ev):

   -71.3468 -44.4570 -38.4384 -38.4384 -38.4214 -22.5331 -22.5302 -22.4632
    -1.3000  -1.0988   0.4624   0.6221   1.9918   2.2642   4.3661   5.6149
     5.8121   6.8319   8.0388

          k = 0.3028-0.3688-0.4435 (  3496 PWs)   bands (ev):

   -71.3468 -44.4570 -38.4384 -38.4384 -38.4214 -22.5327 -22.5307 -22.4640
    -1.5034  -0.1391   0.3335   0.9494   1.1036   1.5072   4.2910   5.4117
     5.7690   7.0934   8.6976

          k =-0.5376 0.2075 0.0011 (  3526 PWs)   bands (ev):

   -71.3468 -44.4570 -38.4384 -38.4384 -38.4214 -22.5331 -22.5302 -22.4632
    -1.3002  -1.0987   0.4623   0.6223   1.9919   2.2642   4.3660   5.6149
     5.8121   6.8319   8.0391

          k =-0.2354 0.4150-0.4435 (  3496 PWs)   bands (ev):

   -71.3468 -44.4570 -38.4384 -38.4384 -38.4214 -22.5327 -22.5307 -22.4640
    -1.5035  -0.1391   0.3335   0.9493   1.1037   1.5072   4.2910   5.4116
     5.7690   7.0933   8.6977

          k =-0.5370-0.3688 0.0022 (  3496 PWs)   bands (ev):

   -71.3468 -44.4570 -38.4384 -38.4384 -38.4214 -22.5327 -22.5307 -22.4640
    -1.5035  -0.1392   0.3336   0.9494   1.1037   1.5072   4.2910   5.4117
     5.7690   7.0933   8.6976

          k =-0.2348-0.1613-0.4424 (  3516 PWs)   bands (ev):

   -71.3468 -44.4571 -38.4384 -38.4384 -38.4214 -22.5296 -22.5296 -22.4654
    -1.5522  -1.1846   0.7630   0.7633   2.1809   2.1809   4.9222   5.1522
     5.1525   7.3468   8.4046

     the Fermi energy is     4.9275 ev

!    total energy              =    -250.99081506 Ry
     estimated scf accuracy    <       0.00000002 Ry
     smearing contrib. (-TS)   =      -0.00036190 Ry
     internal energy E=F+TS    =    -250.99045316 Ry

     The total energy is F=E-TS. E is the sum of the following terms:
     one-electron contribution =    -167.39608345 Ry
     hartree contribution      =      57.23029027 Ry
     xc contribution           =     -37.58802574 Ry
     ewald contribution        =    -110.70467835 Ry
     one-center paw contrib.   =       7.46804412 Ry

     convergence has been achieved in   5 iterations

     negative rho (up, down):  6.221E-02 0.000E+00

     Forces acting on atoms (cartesian axes, Ry/au):

     atom    1 type  2   force =     0.00098899    0.00067699    0.00185794
     atom    2 type  2   force =     0.00032698    0.00022385    0.00061431
     atom    3 type  3   force =     0.00187104    0.00128342    0.00353569
     atom    4 type  4   force =    -0.00086025   -0.00058831   -0.00163386
     atom    5 type  1   force =    -0.00122483   -0.00366513    0.00019222
     atom    6 type  1   force =    -0.00311942    0.00210902   -0.00089803
     atom    7 type  1   force =     0.00232034    0.00016286   -0.00309187
     atom    8 type  1   force =     0.00018151   -0.00171085    0.00025388
     atom    9 type  1   force =     0.00107548    0.00078836   -0.00112555
     atom   10 type  1   force =    -0.00155982    0.00071978    0.00029526

     Total force =     0.008992     Total SCF correction =     0.000086


     Computing stress (Cartesian axis) and pressure


     negative rho (up, down):  6.221E-02 0.000E+00
          total   stress  (Ry/bohr**3)                   (kbar)     P=       -1.01
  -0.00000528  -0.00000158  -0.00000441           -0.78       -0.23       -0.65
  -0.00000158  -0.00000394  -0.00000302           -0.23       -0.58       -0.44
  -0.00000441  -0.00000302  -0.00001130           -0.65       -0.44       -1.66

     Energy error            =      3.5E-04
     Gradient error          =      3.7E-03
     Cell gradient error     =      1.1E-05


     number of scf cycles    =  25
     number of bfgs steps    =  24

     enthalpy old            =    -250.9904678601 Ry
     enthalpy new            =    -250.9908150613 Ry

     CASE: enthalpy_new < enthalpy_old

     new trust radius        =       0.0547273511 bohr
     new conv_thr            =       0.0000000347 Ry

     new unit-cell volume =    740.74049 a.u.^3 (   109.76642 Ang^3 )
     density =      0.15128 g/cm^3

CELL_PARAMETERS (angstrom)
   4.605586243   0.011371332   3.136147417
   1.664636686   4.294194599   3.136132668
   0.016576334   0.011352263   5.572010845

ATOMIC_POSITIONS (angstrom)
Li            1.7034080489        1.1694902033        3.2091617846
Li            4.9900517328        3.4264779690        9.4012094477
Mg            6.3652910728        4.3708136968       11.9920841300
Zr            3.0872563865        2.1198468047        5.8162821876
H             1.5094181134        2.7833158090        4.7518271512
H             3.7072582381        1.8839740923        3.9129540185
H             2.1761411446        0.4091254985        5.2633360625
H             4.1367730433        0.9202835166        7.0494259179
H             4.5246076719        3.5303572961        5.8922049525
H             2.1231876162        2.9549528170        7.3765758784



     Writing output data file ./tmp/Li2MgZrH6.save/
     NEW-OLD atomic charge density approx. for the potential

     negative rho (up, down):  6.215E-02 0.000E+00
     extrapolated charge   29.98404, renormalised to   30.00000

     total cpu time spent up to now is     1270.5 secs

     Self-consistent Calculation

     iteration #  1     ecut=    50.00 Ry     beta= 0.70
     Davidson diagonalization with overlap
     ethr =  1.00E-06,  avg # of iterations =  6.5

     negative rho (up, down):  6.218E-02 0.000E+00

     total cpu time spent up to now is     1274.5 secs

     total energy              =    -250.99110633 Ry
     estimated scf accuracy    <       0.00045773 Ry

     iteration #  2     ecut=    50.00 Ry     beta= 0.70
     Davidson diagonalization with overlap
     ethr =  1.53E-06,  avg # of iterations =  3.5

     negative rho (up, down):  6.218E-02 0.000E+00

     total cpu time spent up to now is     1277.5 secs

     total energy              =    -250.99113427 Ry
     estimated scf accuracy    <       0.00031379 Ry

     iteration #  3     ecut=    50.00 Ry     beta= 0.70
     Davidson diagonalization with overlap
     ethr =  1.05E-06,  avg # of iterations =  2.8

     negative rho (up, down):  6.219E-02 0.000E+00

     total cpu time spent up to now is     1280.0 secs

     total energy              =    -250.99121616 Ry
     estimated scf accuracy    <       0.00002546 Ry

     iteration #  4     ecut=    50.00 Ry     beta= 0.70
     Davidson diagonalization with overlap
     ethr =  8.49E-08,  avg # of iterations =  2.2

     negative rho (up, down):  6.220E-02 0.000E+00

     total cpu time spent up to now is     1282.5 secs

     total energy              =    -250.99121843 Ry
     estimated scf accuracy    <       0.00000213 Ry

     iteration #  5     ecut=    50.00 Ry     beta= 0.70
     Davidson diagonalization with overlap
     ethr =  7.10E-09,  avg # of iterations =  4.5

     negative rho (up, down):  6.219E-02 0.000E+00

     total cpu time spent up to now is     1285.3 secs

     total energy              =    -250.99121922 Ry
     estimated scf accuracy    <       0.00000008 Ry

     iteration #  6     ecut=    50.00 Ry     beta= 0.70
     Davidson diagonalization with overlap
     ethr =  2.64E-10,  avg # of iterations =  3.4

     negative rho (up, down):  6.219E-02 0.000E+00

     total cpu time spent up to now is     1288.0 secs

     End of self-consistent calculation

          k = 0.0000 0.0000 0.0000 (  3557 PWs)   bands (ev):

   -71.3669 -44.4509 -38.4593 -38.4593 -38.4401 -22.5245 -22.5245 -22.4538
    -2.8637   0.9226   0.9228   1.1128   1.9806   1.9809   4.4977   5.0507
     5.0510   7.9253   8.4593

          k = 0.3023 0.2076-0.4447 (  3526 PWs)   bands (ev):

   -71.3669 -44.4508 -38.4593 -38.4593 -38.4401 -22.5284 -22.5254 -22.4540
    -1.3037  -1.0845   0.4925   0.6351   1.9929   2.2690   4.3332   5.6209
     5.8277   6.8183   8.0726

          k = 0.0006-0.5764 0.0012 (  3526 PWs)   bands (ev):

   -71.3669 -44.4508 -38.4593 -38.4593 -38.4401 -22.5284 -22.5255 -22.4540
    -1.3035  -1.0846   0.4926   0.6349   1.9929   2.2690   4.3331   5.6210
     5.8277   6.8182   8.0727

          k = 0.3029-0.3688-0.4436 (  3496 PWs)   bands (ev):

   -71.3669 -44.4508 -38.4593 -38.4593 -38.4401 -22.5280 -22.5260 -22.4548
    -1.4923  -0.1319   0.3309   0.9580   1.1163   1.5348   4.2734   5.4082
     5.7721   7.0982   8.6950

          k =-0.5378 0.2076 0.0012 (  3526 PWs)   bands (ev):

   -71.3669 -44.4508 -38.4593 -38.4593 -38.4401 -22.5284 -22.5255 -22.4540
    -1.3038  -1.0845   0.4925   0.6351   1.9930   2.2689   4.3331   5.6209
     5.8277   6.8182   8.0729

          k =-0.2354 0.4152-0.4435 (  3496 PWs)   bands (ev):

   -71.3669 -44.4508 -38.4593 -38.4593 -38.4401 -22.5280 -22.5260 -22.4548
    -1.4923  -0.1318   0.3308   0.9579   1.1164   1.5348   4.2733   5.4082
     5.7721   7.0982   8.6951

          k =-0.5371-0.3688 0.0023 (  3496 PWs)   bands (ev):

   -71.3669 -44.4508 -38.4593 -38.4593 -38.4401 -22.5280 -22.5260 -22.4548
    -1.4923  -0.1319   0.3309   0.9580   1.1162   1.5349   4.2733   5.4082
     5.7721   7.0982   8.6951

          k =-0.2348-0.1612-0.4424 (  3516 PWs)   bands (ev):

   -71.3669 -44.4508 -38.4593 -38.4593 -38.4401 -22.5248 -22.5248 -22.4562
    -1.5426  -1.1863   0.7902   0.7904   2.1726   2.1727   4.9302   5.1646
     5.1650   7.3119   8.4134

     the Fermi energy is     4.9527 ev

!    total energy              =    -250.99121923 Ry
     estimated scf accuracy    <       0.00000001 Ry
     smearing contrib. (-TS)   =      -0.00043203 Ry
     internal energy E=F+TS    =    -250.99078720 Ry

     The total energy is F=E-TS. E is the sum of the following terms:
     one-electron contribution =    -167.24455361 Ry
     hartree contribution      =      57.15365510 Ry
     xc contribution           =     -37.58620767 Ry
     ewald contribution        =    -110.77987109 Ry
     one-center paw contrib.   =       7.46619007 Ry

     convergence has been achieved in   6 iterations

     negative rho (up, down):  6.219E-02 0.000E+00

     Forces acting on atoms (cartesian axes, Ry/au):

     atom    1 type  2   force =     0.00119791    0.00082011    0.00225194
     atom    2 type  2   force =     0.00035084    0.00023621    0.00065130
     atom    3 type  3   force =     0.00244898    0.00168029    0.00462495
     atom    4 type  4   force =     0.00019373    0.00016026    0.00038195
     atom    5 type  1   force =    -0.00076917   -0.00431617   -0.00105799
     atom    6 type  1   force =    -0.00418717    0.00113610   -0.00123082
     atom    7 type  1   force =     0.00152877    0.00081500   -0.00416132
     atom    8 type  1   force =    -0.00035773   -0.00064523   -0.00025925
     atom    9 type  1   force =     0.00019585   -0.00010187   -0.00075091
     atom   10 type  1   force =    -0.00060201    0.00021529   -0.00044983

     Total force =     0.010052     Total SCF correction =     0.000133


     Computing stress (Cartesian axis) and pressure


     negative rho (up, down):  6.219E-02 0.000E+00
          total   stress  (Ry/bohr**3)                   (kbar)     P=       -1.28
  -0.00000850  -0.00000019  -0.00000063           -1.25       -0.03       -0.09
  -0.00000019  -0.00000816  -0.00000046           -0.03       -1.20       -0.07
  -0.00000063  -0.00000046  -0.00000940           -0.09       -0.07       -1.38

     Energy error            =      4.0E-04
     Gradient error          =      4.6E-03
     Cell gradient error     =      9.4E-06


     number of scf cycles    =  26
     number of bfgs steps    =  25

     enthalpy old            =    -250.9908150613 Ry
     enthalpy new            =    -250.9912192320 Ry

     CASE: enthalpy_new < enthalpy_old

     new trust radius        =       0.0820665516 bohr
     new conv_thr            =       0.0000000404 Ry

     new unit-cell volume =    740.42194 a.u.^3 (   109.71921 Ang^3 )
     density =      0.15134 g/cm^3

CELL_PARAMETERS (angstrom)
   4.606183578   0.014561398   3.142143744
   1.667816743   4.293580676   3.142148458
   0.021206056   0.014555022   5.575871679

ATOMIC_POSITIONS (angstrom)
Li            1.6996096467        1.1668562438        3.2019803622
Li            5.0060386232        3.4374650845        9.4313944369
Mg            6.3745069564        4.3771688580       12.0094979374
Zr            3.0871370115        2.1197322116        5.8160263097
H             1.4878035612        2.7595854918        4.7822715565
H             3.6984977517        1.9273087305        3.9121383243
H             2.2181180441        0.3974834278        5.2556116987
H             4.1290320661        0.9207897880        7.0649188924
H             4.5387500146        3.5229801907        5.8989995441
H             2.1297988512        2.9708181621        7.3788823994



     Writing output data file ./tmp/Li2MgZrH6.save/
     NEW-OLD atomic charge density approx. for the potential

     negative rho (up, down):  6.230E-02 0.000E+00
     extrapolated charge   29.98710, renormalised to   30.00000

     total cpu time spent up to now is     1313.9 secs

     Self-consistent Calculation

     iteration #  1     ecut=    50.00 Ry     beta= 0.70
     Davidson diagonalization with overlap
     ethr =  1.00E-06,  avg # of iterations =  9.9

     negative rho (up, down):  6.233E-02 0.000E+00

     total cpu time spent up to now is     1318.5 secs

     total energy              =    -250.99155493 Ry
     estimated scf accuracy    <       0.00094877 Ry

     iteration #  2     ecut=    50.00 Ry     beta= 0.70
     Davidson diagonalization with overlap
     ethr =  3.16E-06,  avg # of iterations =  2.6

     negative rho (up, down):  6.233E-02 0.000E+00

     total cpu time spent up to now is     1321.2 secs

     total energy              =    -250.99158803 Ry
     estimated scf accuracy    <       0.00034799 Ry

     iteration #  3     ecut=    50.00 Ry     beta= 0.70
     Davidson diagonalization with overlap
     ethr =  1.16E-06,  avg # of iterations =  3.9

     negative rho (up, down):  6.234E-02 0.000E+00

     total cpu time spent up to now is     1323.9 secs

     total energy              =    -250.99168317 Ry
     estimated scf accuracy    <       0.00011428 Ry

     iteration #  4     ecut=    50.00 Ry     beta= 0.70
     Davidson diagonalization with overlap
     ethr =  3.81E-07,  avg # of iterations =  2.5

     negative rho (up, down):  6.234E-02 0.000E+00

     total cpu time spent up to now is     1326.3 secs

     total energy              =    -250.99170093 Ry
     estimated scf accuracy    <       0.00000164 Ry

     iteration #  5     ecut=    50.00 Ry     beta= 0.70
     Davidson diagonalization with overlap
     ethr =  5.45E-09,  avg # of iterations =  6.9

     negative rho (up, down):  6.234E-02 0.000E+00

     total cpu time spent up to now is     1329.5 secs

     total energy              =    -250.99170276 Ry
     estimated scf accuracy    <       0.00000209 Ry

     iteration #  6     ecut=    50.00 Ry     beta= 0.70
     Davidson diagonalization with overlap
     ethr =  5.45E-09,  avg # of iterations =  2.0

     negative rho (up, down):  6.235E-02 0.000E+00

     total cpu time spent up to now is     1332.1 secs

     total energy              =    -250.99170284 Ry
     estimated scf accuracy    <       0.00000023 Ry

     iteration #  7     ecut=    50.00 Ry     beta= 0.70
     Davidson diagonalization with overlap
     ethr =  7.59E-10,  avg # of iterations =  5.0

     negative rho (up, down):  6.235E-02 0.000E+00

     total cpu time spent up to now is     1335.0 secs

     total energy              =    -250.99170293 Ry
     estimated scf accuracy    <       0.00000007 Ry

     iteration #  8     ecut=    50.00 Ry     beta= 0.70
     Davidson diagonalization with overlap
     ethr =  2.30E-10,  avg # of iterations =  2.5

     negative rho (up, down):  6.235E-02 0.000E+00

     total cpu time spent up to now is     1337.5 secs

     End of self-consistent calculation

          k = 0.0000 0.0000 0.0000 (  3557 PWs)   bands (ev):

   -71.3983 -44.4463 -38.4920 -38.4920 -38.4693 -22.5228 -22.5228 -22.4431
    -2.8575   0.9493   0.9495   1.1018   1.9841   1.9845   4.4816   5.1006
     5.1009   7.9095   8.3999

          k = 0.3028 0.2079-0.4448 (  3526 PWs)   bands (ev):

   -71.3983 -44.4463 -38.4920 -38.4920 -38.4693 -22.5267 -22.5238 -22.4434
    -1.3109  -1.0662   0.5371   0.6506   1.9947   2.2732   4.2766   5.6272
     5.8500   6.7930   8.1121

          k = 0.0008-0.5768 0.0015 (  3526 PWs)   bands (ev):

   -71.3983 -44.4463 -38.4920 -38.4920 -38.4693 -22.5267 -22.5238 -22.4434
    -1.3107  -1.0663   0.5372   0.6504   1.9947   2.2731   4.2765   5.6273
     5.8500   6.7929   8.1124

          k = 0.3036-0.3689-0.4433 (  3496 PWs)   bands (ev):

   -71.3983 -44.4463 -38.4920 -38.4920 -38.4693 -22.5263 -22.5243 -22.4441
    -1.4794  -0.1286   0.3274   0.9716   1.1371   1.5767   4.2329   5.4065
     5.7718   7.0956   8.6788

          k =-0.5381 0.2079 0.0015 (  3526 PWs)   bands (ev):

   -71.3983 -44.4463 -38.4920 -38.4920 -38.4693 -22.5267 -22.5238 -22.4434
    -1.3110  -1.0662   0.5371   0.6506   1.9947   2.2731   4.2766   5.6272
     5.8499   6.7930   8.1126

          k =-0.2353 0.4158-0.4433 (  3496 PWs)   bands (ev):

   -71.3983 -44.4463 -38.4920 -38.4920 -38.4693 -22.5263 -22.5243 -22.4441
    -1.4794  -0.1285   0.3273   0.9713   1.1372   1.5768   4.2328   5.4065
     5.7719   7.0955   8.6790

          k =-0.5373-0.3689 0.0030 (  3496 PWs)   bands (ev):

   -71.3983 -44.4463 -38.4920 -38.4920 -38.4693 -22.5263 -22.5243 -22.4441
    -1.4794  -0.1285   0.3274   0.9715   1.1369   1.5769   4.2328   5.4065
     5.7719   7.0955   8.6791

          k =-0.2345-0.1610-0.4418 (  3516 PWs)   bands (ev):

   -71.3983 -44.4463 -38.4920 -38.4920 -38.4693 -22.5232 -22.5231 -22.4456
    -1.5395  -1.1876   0.8344   0.8347   2.1585   2.1587   4.9285   5.1804
     5.1807   7.2649   8.4192

     the Fermi energy is     4.9829 ev

!    total energy              =    -250.99170293 Ry
     estimated scf accuracy    <          3.5E-09 Ry
     smearing contrib. (-TS)   =      -0.00031554 Ry
     internal energy E=F+TS    =    -250.99138739 Ry

     The total energy is F=E-TS. E is the sum of the following terms:
     one-electron contribution =    -167.07220500 Ry
     hartree contribution      =      57.06393720 Ry
     xc contribution           =     -37.58366458 Ry
     ewald contribution        =    -110.86299070 Ry
     one-center paw contrib.   =       7.46353569 Ry

     convergence has been achieved in   8 iterations

     negative rho (up, down):  6.235E-02 0.000E+00

     Forces acting on atoms (cartesian axes, Ry/au):

     atom    1 type  2   force =     0.00143369    0.00098068    0.00269572
     atom    2 type  2   force =     0.00033039    0.00021811    0.00060228
     atom    3 type  3   force =     0.00314157    0.00215074    0.00592269
     atom    4 type  4   force =     0.00160957    0.00116335    0.00308868
     atom    5 type  1   force =     0.00003680   -0.00552610   -0.00236037
     atom    6 type  1   force =    -0.00586129    0.00014041   -0.00130323
     atom    7 type  1   force =     0.00091597    0.00199564   -0.00558618
     atom    8 type  1   force =    -0.00123836    0.00075923   -0.00105235
     atom    9 type  1   force =    -0.00102526   -0.00143267   -0.00037343
     atom   10 type  1   force =     0.00065692   -0.00044936   -0.00163380

     Total force =     0.013850     Total SCF correction =     0.000039


     Computing stress (Cartesian axis) and pressure


     negative rho (up, down):  6.235E-02 0.000E+00
          total   stress  (Ry/bohr**3)                   (kbar)     P=       -2.03
  -0.00001479   0.00000102   0.00000266           -2.18        0.15        0.39
   0.00000102  -0.00001531   0.00000175            0.15       -2.25        0.26
   0.00000266   0.00000175  -0.00001123            0.39        0.26       -1.65

     Energy error            =      4.8E-04
     Gradient error          =      5.9E-03
     Cell gradient error     =      1.5E-05


     number of scf cycles    =  27
     number of bfgs steps    =  26

     enthalpy old            =    -250.9912192320 Ry
     enthalpy new            =    -250.9917029349 Ry

     CASE: enthalpy_new < enthalpy_old

     new trust radius        =       0.1229919206 bohr
     new conv_thr            =       0.0000000484 Ry

     new unit-cell volume =    739.84180 a.u.^3 (   109.63324 Ang^3 )
     density =      0.15146 g/cm^3

CELL_PARAMETERS (angstrom)
   4.607760083   0.021603453   3.155579371
   1.674944370   4.292496484   3.155602985
   0.031443447   0.021607162   5.584721835

ATOMIC_POSITIONS (angstrom)
Li            1.6977421073        1.1655343281        3.1984262454
Li            5.0364002604        3.4583216295        9.4886913287
Mg            6.3940289276        4.3906034814       12.0463527488
Zr            3.0902183494        2.1218171454        5.8218097313
H             1.4599399205        2.7217198728        4.8300908456
H             3.6829628912        1.9924067822        3.9158825436
H             2.2831302942        0.3850729479        5.2448358197
H             4.1179019721        0.9277679330        7.0955748595
H             4.5627395603        3.5101301453        5.9182983908
H             2.1476413396        2.9978433009        7.3868866538



     Writing output data file ./tmp/Li2MgZrH6.save/
     NEW-OLD atomic charge density approx. for the potential

     negative rho (up, down):  6.264E-02 0.000E+00
     extrapolated charge   29.97649, renormalised to   30.00000

     total cpu time spent up to now is     1363.5 secs

     Self-consistent Calculation

     iteration #  1     ecut=    50.00 Ry     beta= 0.70
     Davidson diagonalization with overlap
     ethr =  1.00E-06,  avg # of iterations = 11.6

     negative rho (up, down):  6.269E-02 0.000E+00

     total cpu time spent up to now is     1368.5 secs

     total energy              =    -250.99202255 Ry
     estimated scf accuracy    <       0.00212254 Ry

     iteration #  2     ecut=    50.00 Ry     beta= 0.70
     Davidson diagonalization with overlap
     ethr =  7.08E-06,  avg # of iterations =  3.0

     negative rho (up, down):  6.269E-02 0.000E+00

     total cpu time spent up to now is     1371.2 secs

     total energy              =    -250.99206640 Ry
     estimated scf accuracy    <       0.00111901 Ry

     iteration #  3     ecut=    50.00 Ry     beta= 0.70
     Davidson diagonalization with overlap
     ethr =  3.73E-06,  avg # of iterations =  3.4

     negative rho (up, down):  6.271E-02 0.000E+00

     total cpu time spent up to now is     1373.8 secs

     total energy              =    -250.99237523 Ry
     estimated scf accuracy    <       0.00020664 Ry

     iteration #  4     ecut=    50.00 Ry     beta= 0.70
     Davidson diagonalization with overlap
     ethr =  6.89E-07,  avg # of iterations =  2.4

     negative rho (up, down):  6.272E-02 0.000E+00

     total cpu time spent up to now is     1376.3 secs

     total energy              =    -250.99239865 Ry
     estimated scf accuracy    <       0.00000818 Ry

     iteration #  5     ecut=    50.00 Ry     beta= 0.70
     Davidson diagonalization with overlap
     ethr =  2.73E-08,  avg # of iterations =  5.2

     negative rho (up, down):  6.272E-02 0.000E+00

     total cpu time spent up to now is     1379.3 secs

     total energy              =    -250.99240354 Ry
     estimated scf accuracy    <       0.00000318 Ry

     iteration #  6     ecut=    50.00 Ry     beta= 0.70
     Davidson diagonalization with overlap
     ethr =  1.06E-08,  avg # of iterations =  2.0

     negative rho (up, down):  6.272E-02 0.000E+00

     total cpu time spent up to now is     1381.9 secs

     total energy              =    -250.99240373 Ry
     estimated scf accuracy    <       0.00000030 Ry

     iteration #  7     ecut=    50.00 Ry     beta= 0.70
     Davidson diagonalization with overlap
     ethr =  9.85E-10,  avg # of iterations =  5.0

     negative rho (up, down):  6.272E-02 0.000E+00

     total cpu time spent up to now is     1384.8 secs

     total energy              =    -250.99240387 Ry
     estimated scf accuracy    <       0.00000012 Ry

     iteration #  8     ecut=    50.00 Ry     beta= 0.70
     Davidson diagonalization with overlap
     ethr =  4.11E-10,  avg # of iterations =  1.9

     negative rho (up, down):  6.272E-02 0.000E+00

     total cpu time spent up to now is     1387.2 secs

     End of self-consistent calculation

          k = 0.0000 0.0000 0.0000 (  3557 PWs)   bands (ev):

   -71.4426 -44.4343 -38.5383 -38.5382 -38.5102 -22.5155 -22.5154 -22.4229
    -2.8505   0.9983   0.9986   1.0753   1.9830   1.9834   4.4569   5.1848
     5.1853   7.8772   8.3114

          k = 0.3037 0.2086-0.4449 (  3526 PWs)   bands (ev):

   -71.4426 -44.4343 -38.5383 -38.5383 -38.5102 -22.5194 -22.5164 -22.4231
    -1.3218  -1.0419   0.6037   0.6757   1.9992   2.2757   4.1935   5.6386
     5.8920   6.7543   8.1651

          k = 0.0012-0.5777 0.0022 (  3526 PWs)   bands (ev):

   -71.4426 -44.4343 -38.5383 -38.5382 -38.5102 -22.5194 -22.5165 -22.4231
    -1.3215  -1.0420   0.6039   0.6755   1.9992   2.2755   4.1934   5.6387
     5.8920   6.7541   8.1656

          k = 0.3049-0.3691-0.4427 (  3496 PWs)   bands (ev):

   -71.4426 -44.4342 -38.5383 -38.5383 -38.5102 -22.5190 -22.5170 -22.4238
    -1.4645  -0.1271   0.3244   0.9936   1.1710   1.6427   4.1632   5.4178
     5.7720   7.0883   8.6466

          k =-0.5387 0.2086 0.0022 (  3526 PWs)   bands (ev):

   -71.4426 -44.4343 -38.5383 -38.5383 -38.5102 -22.5194 -22.5165 -22.4231
    -1.3219  -1.0417   0.6039   0.6757   1.9992   2.2755   4.1935   5.6386
     5.8920   6.7543   8.1658

          k =-0.2350 0.4171-0.4427 (  3496 PWs)   bands (ev):

   -71.4426 -44.4342 -38.5383 -38.5382 -38.5102 -22.5190 -22.5170 -22.4238
    -1.4645  -0.1268   0.3242   0.9934   1.1712   1.6429   4.1630   5.4178
     5.7721   7.0882   8.6469

          k =-0.5375-0.3691 0.0045 (  3496 PWs)   bands (ev):

   -71.4426 -44.4342 -38.5383 -38.5383 -38.5102 -22.5191 -22.5170 -22.4238
    -1.4646  -0.1268   0.3243   0.9936   1.1707   1.6431   4.1631   5.4177
     5.7721   7.0882   8.6470

          k =-0.2338-0.1605-0.4405 (  3516 PWs)   bands (ev):

   -71.4426 -44.4343 -38.5383 -38.5382 -38.5102 -22.5158 -22.5158 -22.4253
    -1.5462  -1.1865   0.9075   0.9077   2.1357   2.1361   4.9199   5.2087
     5.2091   7.2078   8.4275

     the Fermi energy is     5.0281 ev

!    total energy              =    -250.99240386 Ry
     estimated scf accuracy    <       0.00000003 Ry
     smearing contrib. (-TS)   =       0.00020270 Ry
     internal energy E=F+TS    =    -250.99260655 Ry

     The total energy is F=E-TS. E is the sum of the following terms:
     one-electron contribution =    -166.84780152 Ry
     hartree contribution      =      56.94831375 Ry
     xc contribution           =     -37.58137467 Ry
     ewald contribution        =    -110.97183191 Ry
     one-center paw contrib.   =       7.46008780 Ry

     convergence has been achieved in   8 iterations

     negative rho (up, down):  6.272E-02 0.000E+00

     Forces acting on atoms (cartesian axes, Ry/au):

     atom    1 type  2   force =     0.00165734    0.00113385    0.00311713
     atom    2 type  2   force =     0.00011477    0.00006461    0.00018564
     atom    3 type  3   force =     0.00417492    0.00285594    0.00785977
     atom    4 type  4   force =     0.00305882    0.00218826    0.00585878
     atom    5 type  1   force =     0.00134212   -0.00739752   -0.00366761
     atom    6 type  1   force =    -0.00825396   -0.00088318   -0.00096548
     atom    7 type  1   force =     0.00054554    0.00388135   -0.00737603
     atom    8 type  1   force =    -0.00239029    0.00241939   -0.00196127
     atom    9 type  1   force =    -0.00242270   -0.00310904    0.00005538
     atom   10 type  1   force =     0.00217344   -0.00115364   -0.00310632

     Total force =     0.020146     Total SCF correction =     0.000099


     Computing stress (Cartesian axis) and pressure


     negative rho (up, down):  6.272E-02 0.000E+00
          total   stress  (Ry/bohr**3)                   (kbar)     P=       -2.67
  -0.00001981   0.00000169   0.00000450           -2.91        0.25        0.66
   0.00000169  -0.00002079   0.00000296            0.25       -3.06        0.43
   0.00000450   0.00000296  -0.00001376            0.66        0.43       -2.02

     Energy error            =      7.0E-04
     Gradient error          =      8.3E-03
     Cell gradient error     =      2.1E-05


     number of scf cycles    =  28
     number of bfgs steps    =  27

     enthalpy old            =    -250.9917029349 Ry
     enthalpy new            =    -250.9924038557 Ry

     CASE: enthalpy_new < enthalpy_old

     new trust radius        =       0.1841395543 bohr
     new conv_thr            =       0.0000000701 Ry

     new unit-cell volume =    739.24179 a.u.^3 (   109.54433 Ang^3 )
     density =      0.15159 g/cm^3

CELL_PARAMETERS (angstrom)
   4.611246867   0.033464295   3.178780349
   1.687255122   4.291457224   3.178823930
   0.048693784   0.033475805   5.600635258

ATOMIC_POSITIONS (angstrom)
Li            1.6977607779        1.1654869321        3.1984066769
Li            5.0864470773        3.4926911387        9.5831117366
Mg            6.4281389513        4.4140599097       12.1107181482
Zr            3.0969976451        2.1264333585        5.8345573995
H             1.4221299134        2.6634977804        4.9033457606
H             3.6579881118        2.0896615726        3.9256454582
H             2.3818543588        0.3706757478        5.2296132795
H             4.1017665516        0.9425895569        7.1463171364
H             4.6002678921        3.4898110644        5.9534447081
H             2.1797824292        3.0401899939        7.4020147720



     Writing output data file ./tmp/Li2MgZrH6.save/
     NEW-OLD atomic charge density approx. for the potential

     negative rho (up, down):  6.300E-02 0.000E+00
     extrapolated charge   29.97566, renormalised to   30.00000

     total cpu time spent up to now is     1413.4 secs

     Self-consistent Calculation

     iteration #  1     ecut=    50.00 Ry     beta= 0.70
     Davidson diagonalization with overlap
     ethr =  1.00E-06,  avg # of iterations = 12.2

     negative rho (up, down):  6.307E-02 0.000E+00

     total cpu time spent up to now is     1418.0 secs

     total energy              =    -250.99285769 Ry
     estimated scf accuracy    <       0.00422085 Ry

     iteration #  2     ecut=    50.00 Ry     beta= 0.70
     Davidson diagonalization with overlap
     ethr =  1.41E-05,  avg # of iterations =  2.6

     negative rho (up, down):  6.307E-02 0.000E+00

     total cpu time spent up to now is     1420.7 secs

     total energy              =    -250.99291143 Ry
     estimated scf accuracy    <       0.00148089 Ry

     iteration #  3     ecut=    50.00 Ry     beta= 0.70
     Davidson diagonalization with overlap
     ethr =  4.94E-06,  avg # of iterations =  3.4

     negative rho (up, down):  6.309E-02 0.000E+00

     total cpu time spent up to now is     1423.4 secs

     total energy              =    -250.99330952 Ry
     estimated scf accuracy    <       0.00059422 Ry

     iteration #  4     ecut=    50.00 Ry     beta= 0.70
     Davidson diagonalization with overlap
     ethr =  1.98E-06,  avg # of iterations =  2.4

     negative rho (up, down):  6.309E-02 0.000E+00

     total cpu time spent up to now is     1425.9 secs

     total energy              =    -250.99339936 Ry
     estimated scf accuracy    <       0.00000745 Ry

     iteration #  5     ecut=    50.00 Ry     beta= 0.70
     Davidson diagonalization with overlap
     ethr =  2.48E-08,  avg # of iterations =  5.5

     negative rho (up, down):  6.309E-02 0.000E+00

     total cpu time spent up to now is     1429.0 secs

     total energy              =    -250.99340826 Ry
     estimated scf accuracy    <       0.00000898 Ry

     iteration #  6     ecut=    50.00 Ry     beta= 0.70
     Davidson diagonalization with overlap
     ethr =  2.48E-08,  avg # of iterations =  2.0

     negative rho (up, down):  6.310E-02 0.000E+00

     total cpu time spent up to now is     1431.3 secs

     total energy              =    -250.99340802 Ry
     estimated scf accuracy    <       0.00000178 Ry

     iteration #  7     ecut=    50.00 Ry     beta= 0.70
     Davidson diagonalization with overlap
     ethr =  5.94E-09,  avg # of iterations =  4.6

     negative rho (up, down):  6.310E-02 0.000E+00

     total cpu time spent up to now is     1434.2 secs

     total energy              =    -250.99340862 Ry
     estimated scf accuracy    <       0.00000016 Ry

     iteration #  8     ecut=    50.00 Ry     beta= 0.70
     Davidson diagonalization with overlap
     ethr =  5.30E-10,  avg # of iterations =  2.0

     negative rho (up, down):  6.310E-02 0.000E+00

     total cpu time spent up to now is     1436.6 secs

     End of self-consistent calculation

          k = 0.0000 0.0000 0.0000 (  3557 PWs)   bands (ev):

   -71.5032 -44.4194 -38.6014 -38.6014 -38.5665 -22.5043 -22.5042 -22.4017
    -2.8442   1.0285   1.0803   1.0806   1.9671   1.9678   4.4151   5.3170
     5.3176   7.8129   8.1703

          k = 0.3053 0.2096-0.4450 (  3526 PWs)   bands (ev):

   -71.5032 -44.4193 -38.6014 -38.6014 -38.5665 -22.5083 -22.5053 -22.4019
    -1.3389  -1.0122   0.6737   0.7353   2.0069   2.2762   4.0720   5.6449
     5.9609   6.6869   8.2351

          k = 0.0018-0.5790 0.0034 (  3526 PWs)   bands (ev):

   -71.5032 -44.4193 -38.6015 -38.6014 -38.5665 -22.5083 -22.5054 -22.4019
    -1.3386  -1.0122   0.6741   0.7349   2.0068   2.2760   4.0718   5.6450
     5.9608   6.6865   8.2359

          k = 0.3071-0.3693-0.4416 (  3496 PWs)   bands (ev):

   -71.5032 -44.4193 -38.6014 -38.6014 -38.5665 -22.5080 -22.5058 -22.4026
    -1.4499  -0.1328   0.3234   1.0211   1.2212   1.7463   4.0452   5.4498
     5.7655   7.0681   8.5815

          k =-0.5397 0.2096 0.0034 (  3526 PWs)   bands (ev):

   -71.5032 -44.4193 -38.6014 -38.6014 -38.5665 -22.5083 -22.5053 -22.4019
    -1.3391  -1.0119   0.6742   0.7350   2.0068   2.2760   4.0720   5.6448
     5.9608   6.6869   8.2360

          k =-0.2344 0.4193-0.4416 (  3496 PWs)   bands (ev):

   -71.5032 -44.4193 -38.6014 -38.6014 -38.5665 -22.5080 -22.5058 -22.4026
    -1.4499  -0.1324   0.3231   1.0208   1.2215   1.7466   4.0449   5.4497
     5.7656   7.0680   8.5818

          k =-0.5378-0.3693 0.0069 (  3496 PWs)   bands (ev):

   -71.5032 -44.4193 -38.6014 -38.6014 -38.5665 -22.5080 -22.5058 -22.4026
    -1.4499  -0.1324   0.3232   1.0211   1.2208   1.7468   4.0450   5.4496
     5.7655   7.0679   8.5821

          k =-0.2326-0.1597-0.4382 (  3516 PWs)   bands (ev):

   -71.5032 -44.4194 -38.6014 -38.6014 -38.5665 -22.5046 -22.5046 -22.4041
    -1.5687  -1.1834   1.0209   1.0211   2.0935   2.0941   4.9019   5.2553
     5.2558   7.1314   8.4283

     the Fermi energy is     5.0925 ev

!    total energy              =    -250.99340859 Ry
     estimated scf accuracy    <       0.00000005 Ry
     smearing contrib. (-TS)   =       0.00121745 Ry
     internal energy E=F+TS    =    -250.99462604 Ry

     The total energy is F=E-TS. E is the sum of the following terms:
     one-electron contribution =    -166.58894161 Ry
     hartree contribution      =      56.81113901 Ry
     xc contribution           =     -37.57765857 Ry
     ewald contribution        =    -111.09497658 Ry
     one-center paw contrib.   =       7.45581171 Ry

     convergence has been achieved in   8 iterations

     negative rho (up, down):  6.310E-02 0.000E+00

     Forces acting on atoms (cartesian axes, Ry/au):

     atom    1 type  2   force =     0.00179918    0.00122968    0.00338353
     atom    2 type  2   force =    -0.00048969   -0.00035562   -0.00096592
     atom    3 type  3   force =     0.00545888    0.00373587    0.01027230
     atom    4 type  4   force =     0.00474788    0.00338430    0.00909956
     atom    5 type  1   force =     0.00363962   -0.00963211   -0.00500727
     atom    6 type  1   force =    -0.01119062   -0.00231934    0.00017280
     atom    7 type  1   force =     0.00014111    0.00682262   -0.00916929
     atom    8 type  1   force =    -0.00378249    0.00465779   -0.00333973
     atom    9 type  1   force =    -0.00446400   -0.00522044    0.00059543
     atom   10 type  1   force =     0.00414011   -0.00230275   -0.00504140

     Total force =     0.028609     Total SCF correction =     0.000123


     Computing stress (Cartesian axis) and pressure


     negative rho (up, down):  6.310E-02 0.000E+00
          total   stress  (Ry/bohr**3)                   (kbar)     P=       -3.69
  -0.00002676   0.00000168   0.00000449           -3.94        0.25        0.66
   0.00000168  -0.00002768   0.00000287            0.25       -4.07        0.42
   0.00000449   0.00000287  -0.00002072            0.66        0.42       -3.05

     Energy error            =      1.0E-03
     Gradient error          =      1.1E-02
     Cell gradient error     =      2.8E-05


     number of scf cycles    =  29
     number of bfgs steps    =  28

     enthalpy old            =    -250.9924038557 Ry
     enthalpy new            =    -250.9934085948 Ry

     CASE: enthalpy_new < enthalpy_old

     new trust radius        =       0.2753799964 bohr
     new conv_thr            =       0.0000001005 Ry

     new unit-cell volume =    737.61513 a.u.^3 (   109.30329 Ang^3 )
     density =      0.15192 g/cm^3

CELL_PARAMETERS (angstrom)
   4.613464093   0.047270099   3.204530818
   1.700927025   4.288529733   3.204592338
   0.068765643   0.047278765   5.616927938

ATOMIC_POSITIONS (angstrom)
Li            1.6987857846        1.1661025009        3.2002390665
Li            5.1498711243        3.5362423757        9.7027582283
Mg            6.4683938535        4.4417455653       12.1866814972
Zr            3.1034785073        2.1308267010        5.8467154850
H             1.3665349797        2.5681546086        5.0021437941
H             3.6095402911        2.2292885072        3.9349968817
H             2.5247377642        0.3529790590        5.1946983614
H             4.0771039731        0.9536749411        7.1965026555
H             4.6410310127        3.4629102993        5.9828763279
H             2.2099889423        3.0879223064        7.4097865878



     Writing output data file ./tmp/Li2MgZrH6.save/
     NEW-OLD atomic charge density approx. for the potential

     negative rho (up, down):  6.142E-02 0.000E+00
     extrapolated charge   29.93387, renormalised to   30.00000

     total cpu time spent up to now is     1462.7 secs

     Self-consistent Calculation

     iteration #  1     ecut=    50.00 Ry     beta= 0.70
     Davidson diagonalization with overlap
     ethr =  1.00E-06,  avg # of iterations = 10.9

     negative rho (up, down):  6.157E-02 0.000E+00

     total cpu time spent up to now is     1468.3 secs

     total energy              =    -250.99265540 Ry
     estimated scf accuracy    <       0.00861289 Ry

     iteration #  2     ecut=    50.00 Ry     beta= 0.70
     Davidson diagonalization with overlap
     ethr =  2.87E-05,  avg # of iterations =  3.0

     negative rho (up, down):  6.156E-02 0.000E+00

     total cpu time spent up to now is     1471.0 secs

     total energy              =    -250.99273671 Ry
     estimated scf accuracy    <       0.00580322 Ry

     iteration #  3     ecut=    50.00 Ry     beta= 0.70
     Davidson diagonalization with overlap
     ethr =  1.93E-05,  avg # of iterations =  3.5

     negative rho (up, down):  6.159E-02 0.000E+00

     total cpu time spent up to now is     1473.8 secs

     total energy              =    -250.99424989 Ry
     estimated scf accuracy    <       0.00071356 Ry

     iteration #  4     ecut=    50.00 Ry     beta= 0.70
     Davidson diagonalization with overlap
     ethr =  2.38E-06,  avg # of iterations =  2.0

     negative rho (up, down):  6.160E-02 0.000E+00

     total cpu time spent up to now is     1476.3 secs

     total energy              =    -250.99430817 Ry
     estimated scf accuracy    <       0.00005283 Ry

     iteration #  5     ecut=    50.00 Ry     beta= 0.70
     Davidson diagonalization with overlap
     ethr =  1.76E-07,  avg # of iterations =  5.0

     negative rho (up, down):  6.161E-02 0.000E+00

     total cpu time spent up to now is     1479.1 secs

     total energy              =    -250.99433092 Ry
     estimated scf accuracy    <       0.00000528 Ry

     iteration #  6     ecut=    50.00 Ry     beta= 0.70
     Davidson diagonalization with overlap
     ethr =  1.76E-08,  avg # of iterations =  2.0

     negative rho (up, down):  6.161E-02 0.000E+00

     total cpu time spent up to now is     1481.4 secs

     total energy              =    -250.99433135 Ry
     estimated scf accuracy    <       0.00000058 Ry

     iteration #  7     ecut=    50.00 Ry     beta= 0.70
     Davidson diagonalization with overlap
     ethr =  1.94E-09,  avg # of iterations =  5.1

     negative rho (up, down):  6.161E-02 0.000E+00

     total cpu time spent up to now is     1484.6 secs

     total energy              =    -250.99433167 Ry
     estimated scf accuracy    <       0.00000037 Ry

     iteration #  8     ecut=    50.00 Ry     beta= 0.70
     Davidson diagonalization with overlap
     ethr =  1.25E-09,  avg # of iterations =  2.0

     negative rho (up, down):  6.161E-02 0.000E+00

     total cpu time spent up to now is     1487.0 secs

     End of self-consistent calculation

          k = 0.0000 0.0000 0.0000 (  3557 PWs)   bands (ev):

   -71.5592 -44.3900 -38.6598 -38.6598 -38.6187 -22.4729 -22.4729 -22.3787
    -2.8344   0.9686   1.2056   1.2061   1.9331   1.9341   4.3808   5.5243
     5.5251   7.7334   7.9822

          k = 0.3072 0.2110-0.4454 (  3526 PWs)   bands (ev):

   -71.5592 -44.3899 -38.6598 -38.6598 -38.6187 -22.4771 -22.4740 -22.3788
    -1.3574  -0.9747   0.7210   0.8671   2.0227   2.2886   3.9302   5.6546
     6.0760   6.5921   8.3376

          k = 0.0026-0.5808 0.0049 (  3526 PWs)   bands (ev):

   -71.5592 -44.3899 -38.6598 -38.6598 -38.6187 -22.4771 -22.4741 -22.3788
    -1.3571  -0.9747   0.7214   0.8668   2.0224   2.2884   3.9300   5.6548
     6.0760   6.5915   8.3387

          k = 0.3098-0.3698-0.4405 (  3496 PWs)   bands (ev):

   -71.5592 -44.3899 -38.6598 -38.6598 -38.6187 -22.4768 -22.4745 -22.3795
    -1.4341  -0.1369   0.3290   1.0517   1.2920   1.9131   3.8917   5.5252
     5.7537   7.0496   8.4981

          k =-0.5411 0.2110 0.0048 (  3526 PWs)   bands (ev):

   -71.5592 -44.3899 -38.6598 -38.6598 -38.6187 -22.4771 -22.4740 -22.3788
    -1.3578  -0.9743   0.7216   0.8666   2.0225   2.2884   3.9302   5.6546
     6.0760   6.5919   8.3387

          k =-0.2338 0.4219-0.4405 (  3496 PWs)   bands (ev):

   -71.5592 -44.3899 -38.6598 -38.6598 -38.6187 -22.4768 -22.4745 -22.3795
    -1.4341  -0.1365   0.3286   1.0514   1.2924   1.9136   3.8913   5.5250
     5.7539   7.0494   8.4984

          k =-0.5385-0.3698 0.0097 (  3496 PWs)   bands (ev):

   -71.5592 -44.3899 -38.6598 -38.6598 -38.6187 -22.4768 -22.4745 -22.3795
    -1.4342  -0.1365   0.3288   1.0519   1.2914   1.9140   3.8914   5.5249
     5.7538   7.0494   8.4990

          k =-0.2313-0.1588-0.4357 (  3516 PWs)   bands (ev):

   -71.5592 -44.3900 -38.6598 -38.6598 -38.6187 -22.4733 -22.4732 -22.3810
    -1.5963  -1.1766   1.1817   1.1820   2.0325   2.0334   4.8969   5.3413
     5.3420   7.0415   8.4335

     the Fermi energy is     5.1960 ev

!    total energy              =    -250.99433165 Ry
     estimated scf accuracy    <       0.00000006 Ry
     smearing contrib. (-TS)   =       0.00223386 Ry
     internal energy E=F+TS    =    -250.99656551 Ry

     The total energy is F=E-TS. E is the sum of the following terms:
     one-electron contribution =    -166.21533660 Ry
     hartree contribution      =      56.62727115 Ry
     xc contribution           =     -37.57502623 Ry
     ewald contribution        =    -111.28460715 Ry
     one-center paw contrib.   =       7.45113332 Ry

     convergence has been achieved in   8 iterations

     negative rho (up, down):  6.161E-02 0.000E+00

     Forces acting on atoms (cartesian axes, Ry/au):

     atom    1 type  2   force =     0.00171539    0.00117275    0.00322931
     atom    2 type  2   force =    -0.00226094   -0.00157956   -0.00431935
     atom    3 type  3   force =     0.00658810    0.00450035    0.01238081
     atom    4 type  4   force =     0.00612132    0.00437312    0.01176966
     atom    5 type  1   force =     0.00705497   -0.01092178   -0.00677916
     atom    6 type  1   force =    -0.01359681   -0.00501249    0.00198844
     atom    7 type  1   force =    -0.00133549    0.01047347   -0.01014132
     atom    8 type  1   force =    -0.00435367    0.00792378   -0.00437865
     atom    9 type  1   force =    -0.00693538   -0.00693906    0.00235979
     atom   10 type  1   force =     0.00700250   -0.00399058   -0.00610954

     Total force =     0.037435     Total SCF correction =     0.000185


     Computing stress (Cartesian axis) and pressure


     negative rho (up, down):  6.161E-02 0.000E+00
          total   stress  (Ry/bohr**3)                   (kbar)     P=       -4.29
  -0.00003106   0.00000185   0.00000505           -4.57        0.27        0.74
   0.00000185  -0.00003209   0.00000313            0.27       -4.72        0.46
   0.00000505   0.00000313  -0.00002427            0.74        0.46       -3.57

     Energy error            =      9.2E-04
     Gradient error          =      1.4E-02
     Cell gradient error     =      3.2E-05


     number of scf cycles    =  30
     number of bfgs steps    =  29

     enthalpy old            =    -250.9934085948 Ry
     enthalpy new            =    -250.9943316458 Ry

     CASE: enthalpy_new < enthalpy_old

     new trust radius        =       0.0353750791 bohr
     new conv_thr            =       0.0000000923 Ry

     new unit-cell volume =    736.72516 a.u.^3 (   109.17141 Ang^3 )
     density =      0.15210 g/cm^3

CELL_PARAMETERS (angstrom)
   4.609108018   0.041130656   3.190781209
   1.693643526   4.286703969   3.190827119
   0.059823935   0.041118263   5.605602375

ATOMIC_POSITIONS (angstrom)
Li            1.7010116781        1.1676394423        3.2044121873
Li            5.1306686764        3.5230620850        9.6665178121
Mg            6.4532742810        4.4313617597       12.1581491360
Zr            3.0969905769        2.1263831958        5.8344699780
H             1.3669001560        2.5556116123        4.9831423985
H             3.5921194971        2.2189649011        3.9246403248
H             2.5155078274        0.3577937971        5.1744480814
H             4.0762033043        0.9368739487        7.1608676060
H             4.6205162803        3.4681237819        5.9496392119
H             2.1839084366        3.0669116557        7.3890592479



     Writing output data file ./tmp/Li2MgZrH6.save/
     NEW-OLD atomic charge density approx. for the potential

     negative rho (up, down):  6.218E-02 0.000E+00
     extrapolated charge   29.96377, renormalised to   30.00000

     total cpu time spent up to now is     1513.0 secs

     Self-consistent Calculation

     iteration #  1     ecut=    50.00 Ry     beta= 0.70
     Davidson diagonalization with overlap
     ethr =  1.00E-06,  avg # of iterations =  7.1

     negative rho (up, down):  6.225E-02 0.000E+00

     total cpu time spent up to now is     1517.4 secs

     total energy              =    -250.99539657 Ry
     estimated scf accuracy    <       0.00057799 Ry

     iteration #  2     ecut=    50.00 Ry     beta= 0.70
     Davidson diagonalization with overlap
     ethr =  1.93E-06,  avg # of iterations =  4.8

     negative rho (up, down):  6.224E-02 0.000E+00

     total cpu time spent up to now is     1520.5 secs

     total energy              =    -250.99558524 Ry
     estimated scf accuracy    <       0.00153510 Ry

     iteration #  3     ecut=    50.00 Ry     beta= 0.70
     Davidson diagonalization with overlap
     ethr =  1.93E-06,  avg # of iterations =  3.4

     negative rho (up, down):  6.226E-02 0.000E+00

     total cpu time spent up to now is     1523.2 secs

     total energy              =    -250.99570638 Ry
     estimated scf accuracy    <       0.00005326 Ry

     iteration #  4     ecut=    50.00 Ry     beta= 0.70
     Davidson diagonalization with overlap
     ethr =  1.78E-07,  avg # of iterations =  4.1

     negative rho (up, down):  6.226E-02 0.000E+00

     total cpu time spent up to now is     1526.2 secs

     total energy              =    -250.99571976 Ry
     estimated scf accuracy    <       0.00000216 Ry

     iteration #  5     ecut=    50.00 Ry     beta= 0.70
     Davidson diagonalization with overlap
     ethr =  7.20E-09,  avg # of iterations =  3.6

     negative rho (up, down):  6.225E-02 0.000E+00

     total cpu time spent up to now is     1529.0 secs

     total energy              =    -250.99571980 Ry
     estimated scf accuracy    <       0.00000138 Ry

     iteration #  6     ecut=    50.00 Ry     beta= 0.70
     Davidson diagonalization with overlap
     ethr =  4.58E-09,  avg # of iterations =  2.5

     negative rho (up, down):  6.225E-02 0.000E+00

     total cpu time spent up to now is     1531.6 secs

     End of self-consistent calculation

          k = 0.0000 0.0000 0.0000 (  3557 PWs)   bands (ev):

   -71.5512 -44.3625 -38.6520 -38.6520 -38.6103 -22.4479 -22.4478 -22.3557
    -2.8271   0.9818   1.1856   1.1860   1.9508   1.9517   4.4184   5.5343
     5.5350   7.7522   8.0233

          k = 0.3066 0.2105-0.4456 (  3526 PWs)   bands (ev):

   -71.5512 -44.3624 -38.6521 -38.6521 -38.6103 -22.4521 -22.4489 -22.3558
    -1.3451  -0.9774   0.7318   0.8661   2.0200   2.2952   3.9407   5.6839
     6.0883   6.6182   8.3424

          k = 0.0022-0.5804 0.0042 (  3526 PWs)   bands (ev):

   -71.5512 -44.3624 -38.6521 -38.6520 -38.6103 -22.4520 -22.4490 -22.3558
    -1.3448  -0.9775   0.7323   0.8657   2.0197   2.2950   3.9405   5.6840
     6.0882   6.6177   8.3434

          k = 0.3088-0.3699-0.4413 (  3496 PWs)   bands (ev):

   -71.5512 -44.3624 -38.6521 -38.6520 -38.6103 -22.4517 -22.4494 -22.3566
    -1.4224  -0.1221   0.3223   1.0492   1.2952   1.9160   3.9123   5.5311
     5.7645   7.0699   8.5344

          k =-0.5408 0.2105 0.0042 (  3526 PWs)   bands (ev):

   -71.5512 -44.3624 -38.6521 -38.6520 -38.6103 -22.4521 -22.4490 -22.3558
    -1.3454  -0.9770   0.7325   0.8656   2.0198   2.2950   3.9406   5.6838
     6.0883   6.6180   8.3435

          k =-0.2343 0.4211-0.4413 (  3496 PWs)   bands (ev):

   -71.5512 -44.3624 -38.6521 -38.6520 -38.6103 -22.4517 -22.4495 -22.3566
    -1.4224  -0.1217   0.3218   1.0490   1.2956   1.9164   3.9119   5.5309
     5.7646   7.0698   8.5346

          k =-0.5386-0.3699 0.0085 (  3496 PWs)   bands (ev):

   -71.5512 -44.3624 -38.6521 -38.6521 -38.6103 -22.4517 -22.4494 -22.3566
    -1.4226  -0.1217   0.3220   1.0495   1.2946   1.9168   3.9120   5.5309
     5.7646   7.0697   8.5354

          k =-0.2320-0.1593-0.4371 (  3516 PWs)   bands (ev):

   -71.5512 -44.3625 -38.6520 -38.6520 -38.6103 -22.4482 -22.4482 -22.3581
    -1.5681  -1.1779   1.1817   1.1820   2.0252   2.0261   4.8943   5.3535
     5.3541   7.0531   8.4752

     the Fermi energy is     5.2050 ev

!    total energy              =    -250.99572007 Ry
     estimated scf accuracy    <          4.6E-09 Ry
     smearing contrib. (-TS)   =       0.00218869 Ry
     internal energy E=F+TS    =    -250.99790876 Ry

     The total energy is F=E-TS. E is the sum of the following terms:
     one-electron contribution =    -166.17037197 Ry
     hartree contribution      =      56.62133659 Ry
     xc contribution           =     -37.58138179 Ry
     ewald contribution        =    -111.31795576 Ry
     one-center paw contrib.   =       7.45046417 Ry

     convergence has been achieved in   6 iterations

     negative rho (up, down):  6.225E-02 0.000E+00

     Forces acting on atoms (cartesian axes, Ry/au):

     atom    1 type  2   force =     0.00131682    0.00089959    0.00248125
     atom    2 type  2   force =    -0.00232515   -0.00162381   -0.00443776
     atom    3 type  3   force =     0.00575836    0.00392477    0.01083746
     atom    4 type  4   force =     0.00618173    0.00441792    0.01187354
     atom    5 type  1   force =     0.00526752   -0.01032509   -0.00683943
     atom    6 type  1   force =    -0.01269667   -0.00433648    0.00047450
     atom    7 type  1   force =    -0.00133358    0.00859839   -0.01024367
     atom    8 type  1   force =    -0.00369860    0.00737129   -0.00264510
     atom    9 type  1   force =    -0.00534394   -0.00613189    0.00309808
     atom   10 type  1   force =     0.00687352   -0.00279469   -0.00459887

     Total force =     0.034207     Total SCF correction =     0.000095


     Computing stress (Cartesian axis) and pressure


     negative rho (up, down):  6.225E-02 0.000E+00
          total   stress  (Ry/bohr**3)                   (kbar)     P=       -2.75
  -0.00002136   0.00000262   0.00000724           -3.14        0.38        1.06
   0.00000262  -0.00002306   0.00000463            0.38       -3.39        0.68
   0.00000724   0.00000463  -0.00001159            1.06        0.68       -1.71

     Energy error            =      1.4E-03
     Gradient error          =      1.3E-02
     Cell gradient error     =      2.3E-05


     number of scf cycles    =  31
     number of bfgs steps    =  30

     enthalpy old            =    -250.9943316458 Ry
     enthalpy new            =    -250.9957200726 Ry

     CASE: enthalpy_new < enthalpy_old


     WARNING: bfgs curvature condition failed, Theta= 0.987
     new trust radius        =       0.0530618941 bohr
     new conv_thr            =       0.0000001270 Ry

     new unit-cell volume =    736.50234 a.u.^3 (   109.13839 Ang^3 )
     density =      0.15215 g/cm^3

CELL_PARAMETERS (angstrom)
   4.608223964   0.040139144   3.188454237
   1.692421346   4.286283273   3.188468686
   0.058393016   0.040095634   5.603560167

ATOMIC_POSITIONS (angstrom)
Li            1.7085277100        1.1727919052        3.2185395166
Li            5.1301000938        3.5226626843        9.6653826324
Mg            6.4585989253        4.4349969097       12.1681432643
Zr            3.0951592770        2.1251583407        5.8310270930
H             1.3646644917        2.5266962456        4.9806297513
H             3.5648503386        2.2286300153        3.9213599775
H             2.5290248355        0.3660323619        5.1500128476
H             4.0716221243        0.9333210292        7.1523253621
H             4.6162318057        3.4651511914        5.9407370546
H             2.1790096837        3.0639922689        7.3804584199



     Writing output data file ./tmp/Li2MgZrH6.save/
     NEW-OLD atomic charge density approx. for the potential

     negative rho (up, down):  6.221E-02 0.000E+00
     extrapolated charge   29.99093, renormalised to   30.00000

     total cpu time spent up to now is     1557.6 secs

     Self-consistent Calculation

     iteration #  1     ecut=    50.00 Ry     beta= 0.70
     Davidson diagonalization with overlap
     ethr =  1.00E-06,  avg # of iterations =  6.1

     negative rho (up, down):  6.223E-02 0.000E+00

     total cpu time spent up to now is     1561.6 secs

     total energy              =    -250.99773696 Ry
     estimated scf accuracy    <       0.00045096 Ry

     iteration #  2     ecut=    50.00 Ry     beta= 0.70
     Davidson diagonalization with overlap
     ethr =  1.50E-06,  avg # of iterations =  3.4

     negative rho (up, down):  6.223E-02 0.000E+00

     total cpu time spent up to now is     1564.4 secs

     total energy              =    -250.99772891 Ry
     estimated scf accuracy    <       0.00029997 Ry

     iteration #  3     ecut=    50.00 Ry     beta= 0.70
     Davidson diagonalization with overlap
     ethr =  1.00E-06,  avg # of iterations =  3.0

     negative rho (up, down):  6.224E-02 0.000E+00

     total cpu time spent up to now is     1567.2 secs

     total energy              =    -250.99771500 Ry
     estimated scf accuracy    <       0.00002602 Ry

     iteration #  4     ecut=    50.00 Ry     beta= 0.70
     Davidson diagonalization with overlap
     ethr =  8.67E-08,  avg # of iterations =  3.0

     negative rho (up, down):  6.225E-02 0.000E+00

     total cpu time spent up to now is     1569.9 secs

     total energy              =    -250.99771715 Ry
     estimated scf accuracy    <       0.00000119 Ry

     iteration #  5     ecut=    50.00 Ry     beta= 0.70
     Davidson diagonalization with overlap
     ethr =  3.95E-09,  avg # of iterations =  4.5

     negative rho (up, down):  6.225E-02 0.000E+00

     total cpu time spent up to now is     1572.7 secs

     End of self-consistent calculation

          k = 0.0000 0.0000 0.0000 (  3557 PWs)   bands (ev):

   -71.5628 -44.3466 -38.6639 -38.6638 -38.6216 -22.4334 -22.4334 -22.3446
    -2.8222   0.9780   1.1902   1.1906   1.9555   1.9563   4.4218   5.5538
     5.5544   7.7410   8.0354

          k = 0.3065 0.2105-0.4456 (  3526 PWs)   bands (ev):

   -71.5628 -44.3465 -38.6639 -38.6639 -38.6216 -22.4376 -22.4345 -22.3447
    -1.3317  -0.9807   0.7377   0.8728   2.0340   2.2890   3.9162   5.7024
     6.1077   6.6160   8.3453

          k = 0.0022-0.5803 0.0041 (  3526 PWs)   bands (ev):

   -71.5628 -44.3465 -38.6639 -38.6639 -38.6216 -22.4376 -22.4345 -22.3447
    -1.3316  -0.9807   0.7382   0.8724   2.0336   2.2888   3.9161   5.7025
     6.1077   6.6154   8.3463

          k = 0.3087-0.3699-0.4415 (  3496 PWs)   bands (ev):

   -71.5628 -44.3465 -38.6639 -38.6639 -38.6216 -22.4373 -22.4350 -22.3455
    -1.4077  -0.1234   0.3164   1.0580   1.3032   1.9330   3.8860   5.5447
     5.7585   7.0642   8.5514

          k =-0.5408 0.2105 0.0041 (  3526 PWs)   bands (ev):

   -71.5628 -44.3465 -38.6639 -38.6639 -38.6216 -22.4376 -22.4345 -22.3447
    -1.3321  -0.9803   0.7383   0.8723   2.0337   2.2888   3.9161   5.7024
     6.1077   6.6157   8.3464

          k =-0.2343 0.4209-0.4415 (  3496 PWs)   bands (ev):

   -71.5628 -44.3465 -38.6639 -38.6638 -38.6216 -22.4373 -22.4350 -22.3455
    -1.4078  -0.1231   0.3160   1.0579   1.3037   1.9333   3.8857   5.5445
     5.7586   7.0641   8.5515

          k =-0.5386-0.3699 0.0083 (  3496 PWs)   bands (ev):

   -71.5628 -44.3465 -38.6639 -38.6639 -38.6216 -22.4373 -22.4350 -22.3455
    -1.4079  -0.1230   0.3161   1.0583   1.3027   1.9337   3.8858   5.5445
     5.7585   7.0640   8.5522

          k =-0.2321-0.1594-0.4373 (  3516 PWs)   bands (ev):

   -71.5628 -44.3465 -38.6639 -38.6638 -38.6216 -22.4338 -22.4337 -22.3470
    -1.5465  -1.1881   1.2139   1.2142   1.9976   1.9984   4.8525   5.3664
     5.3671   7.0580   8.4998

     the Fermi energy is     5.2191 ev

!    total energy              =    -250.99771753 Ry
     estimated scf accuracy    <       0.00000006 Ry
     smearing contrib. (-TS)   =       0.00220853 Ry
     internal energy E=F+TS    =    -250.99992606 Ry

     The total energy is F=E-TS. E is the sum of the following terms:
     one-electron contribution =    -166.19491541 Ry
     hartree contribution      =      56.63872470 Ry
     xc contribution           =     -37.58405677 Ry
     ewald contribution        =    -111.30864752 Ry
     one-center paw contrib.   =       7.44896893 Ry

     convergence has been achieved in   5 iterations

     negative rho (up, down):  6.225E-02 0.000E+00

     Forces acting on atoms (cartesian axes, Ry/au):

     atom    1 type  2   force =     0.00066236    0.00044705    0.00125061
     atom    2 type  2   force =    -0.00256202   -0.00178219   -0.00487435
     atom    3 type  3   force =     0.00515230    0.00354014    0.00966138
     atom    4 type  4   force =     0.00695990    0.00491133    0.01330059
     atom    5 type  1   force =     0.00364917   -0.00923602   -0.00646430
     atom    6 type  1   force =    -0.01124439   -0.00359728   -0.00064498
     atom    7 type  1   force =    -0.00126713    0.00671085   -0.00966237
     atom    8 type  1   force =    -0.00350523    0.00680607   -0.00180351
     atom    9 type  1   force =    -0.00440180   -0.00575041    0.00319557
     atom   10 type  1   force =     0.00655684   -0.00204954   -0.00395863

     Total force =     0.032018     Total SCF correction =     0.000408


     Computing stress (Cartesian axis) and pressure


     negative rho (up, down):  6.225E-02 0.000E+00
          total   stress  (Ry/bohr**3)                   (kbar)     P=       -1.90
  -0.00001485   0.00000185   0.00000523           -2.18        0.27        0.77
   0.00000185  -0.00001608   0.00000325            0.27       -2.37        0.48
   0.00000523   0.00000325  -0.00000780            0.77        0.48       -1.15

     Energy error            =      2.0E-03
     Gradient error          =      1.3E-02
     Cell gradient error     =      1.6E-05


     number of scf cycles    =  32
     number of bfgs steps    =  31

     enthalpy old            =    -250.9957200726 Ry
     enthalpy new            =    -250.9977175302 Ry

     CASE: enthalpy_new < enthalpy_old

     new trust radius        =       0.0795983609 bohr
     new conv_thr            =       0.0000001330 Ry

     new unit-cell volume =    735.56087 a.u.^3 (   108.99888 Ang^3 )
     density =      0.15234 g/cm^3

CELL_PARAMETERS (angstrom)
   4.606000372   0.039529518   3.185908925
   1.691083884   4.284478058   3.185874235
   0.057534394   0.039445892   5.600280208

ATOMIC_POSITIONS (angstrom)
Li            1.7155295618        1.1775721103        3.2316802466
Li            5.1293360968        3.5221051863        9.6638466088
Mg            6.4696707348        4.4425697566       12.1889136381
Zr            3.0932759260        2.1238934462        5.8274922310
H             1.3564222260        2.4837608322        4.9791728364
H             3.5260354035        2.2472908054        3.9136972212
H             2.5519688664        0.3736773248        5.1135592196
H             4.0605568395        0.9315810617        7.1450634490
H             4.6133507039        3.4554642792        5.9320280030
H             2.1775132748        3.0647867582        7.3671941699



     Writing output data file ./tmp/Li2MgZrH6.save/
     NEW-OLD atomic charge density approx. for the potential

     negative rho (up, down):  6.220E-02 0.000E+00
     extrapolated charge   29.96162, renormalised to   30.00000

     total cpu time spent up to now is     1598.6 secs

     Self-consistent Calculation

     iteration #  1     ecut=    50.00 Ry     beta= 0.70
     Davidson diagonalization with overlap
     ethr =  1.00E-06,  avg # of iterations =  7.8

     negative rho (up, down):  6.228E-02 0.000E+00

     total cpu time spent up to now is     1602.9 secs

     total energy              =    -250.99987748 Ry
     estimated scf accuracy    <       0.00112366 Ry

     iteration #  2     ecut=    50.00 Ry     beta= 0.70
     Davidson diagonalization with overlap
     ethr =  3.75E-06,  avg # of iterations =  3.5

     negative rho (up, down):  6.227E-02 0.000E+00

     total cpu time spent up to now is     1606.0 secs

     total energy              =    -251.00022343 Ry
     estimated scf accuracy    <       0.00175341 Ry

     iteration #  3     ecut=    50.00 Ry     beta= 0.70
     Davidson diagonalization with overlap
     ethr =  3.75E-06,  avg # of iterations =  3.4

     negative rho (up, down):  6.230E-02 0.000E+00

     total cpu time spent up to now is     1608.6 secs

     total energy              =    -251.00011821 Ry
     estimated scf accuracy    <       0.00004356 Ry

     iteration #  4     ecut=    50.00 Ry     beta= 0.70
     Davidson diagonalization with overlap
     ethr =  1.45E-07,  avg # of iterations =  4.6

     negative rho (up, down):  6.231E-02 0.000E+00

     total cpu time spent up to now is     1611.6 secs

     total energy              =    -251.00013023 Ry
     estimated scf accuracy    <       0.00000986 Ry

     iteration #  5     ecut=    50.00 Ry     beta= 0.70
     Davidson diagonalization with overlap
     ethr =  3.29E-08,  avg # of iterations =  2.0

     negative rho (up, down):  6.230E-02 0.000E+00

     total cpu time spent up to now is     1614.2 secs

     total energy              =    -251.00013057 Ry
     estimated scf accuracy    <       0.00000179 Ry

     iteration #  6     ecut=    50.00 Ry     beta= 0.70
     Davidson diagonalization with overlap
     ethr =  5.97E-09,  avg # of iterations =  4.1

     negative rho (up, down):  6.230E-02 0.000E+00

     total cpu time spent up to now is     1616.9 secs

     End of self-consistent calculation

          k = 0.0000 0.0000 0.0000 (  3557 PWs)   bands (ev):

   -71.5709 -44.3190 -38.6721 -38.6721 -38.6295 -22.4070 -22.4069 -22.3238
    -2.8104   0.9840   1.2163   1.2167   1.9660   1.9668   4.4218   5.5908
     5.5913   7.7395   8.0489

          k = 0.3065 0.2105-0.4458 (  3526 PWs)   bands (ev):

   -71.5709 -44.3189 -38.6721 -38.6721 -38.6295 -22.4112 -22.4080 -22.3239
    -1.3093  -0.9720   0.7531   0.8958   2.0671   2.2921   3.8838   5.7325
     6.1415   6.6130   8.3509

          k = 0.0022-0.5805 0.0041 (  3526 PWs)   bands (ev):

   -71.5709 -44.3189 -38.6721 -38.6721 -38.6295 -22.4112 -22.4081 -22.3239
    -1.3092  -0.9721   0.7536   0.8956   2.0667   2.2919   3.8836   5.7326
     6.1414   6.6126   8.3517

          k = 0.3087-0.3700-0.4417 (  3496 PWs)   bands (ev):

   -71.5709 -44.3189 -38.6721 -38.6721 -38.6295 -22.4108 -22.4086 -22.3247
    -1.3779  -0.1263   0.3246   1.0810   1.3292   1.9725   3.8426   5.5743
     5.7568   7.0645   8.5700

          k =-0.5410 0.2105 0.0041 (  3526 PWs)   bands (ev):

   -71.5709 -44.3189 -38.6721 -38.6721 -38.6295 -22.4112 -22.4081 -22.3239
    -1.3096  -0.9716   0.7537   0.8953   2.0668   2.2920   3.8836   5.7325
     6.1414   6.6127   8.3518

          k =-0.2345 0.4210-0.4417 (  3496 PWs)   bands (ev):

   -71.5709 -44.3189 -38.6721 -38.6721 -38.6295 -22.4108 -22.4086 -22.3247
    -1.3780  -0.1260   0.3242   1.0811   1.3297   1.9727   3.8423   5.5741
     5.7569   7.0644   8.5700

          k =-0.5389-0.3700 0.0081 (  3496 PWs)   bands (ev):

   -71.5709 -44.3189 -38.6721 -38.6721 -38.6295 -22.4109 -22.4085 -22.3247
    -1.3781  -0.1259   0.3244   1.0814   1.3287   1.9730   3.8423   5.5742
     5.7568   7.0643   8.5708

          k =-0.2323-0.1595-0.4377 (  3516 PWs)   bands (ev):

   -71.5709 -44.3190 -38.6721 -38.6721 -38.6295 -22.4073 -22.4073 -22.3263
    -1.5118  -1.1948   1.2738   1.2740   1.9717   1.9722   4.8000   5.3882
     5.3890   7.0673   8.5456

     the Fermi energy is     5.2463 ev

!    total energy              =    -251.00013110 Ry
     estimated scf accuracy    <       0.00000009 Ry
     smearing contrib. (-TS)   =       0.00214054 Ry
     internal energy E=F+TS    =    -251.00227164 Ry

     The total energy is F=E-TS. E is the sum of the following terms:
     one-electron contribution =    -166.13734249 Ry
     hartree contribution      =      56.62239074 Ry
     xc contribution           =     -37.58594393 Ry
     ewald contribution        =    -111.34812084 Ry
     one-center paw contrib.   =       7.44674489 Ry

     convergence has been achieved in   6 iterations

     negative rho (up, down):  6.230E-02 0.000E+00

     Forces acting on atoms (cartesian axes, Ry/au):

     atom    1 type  2   force =     0.00011502    0.00007500    0.00021977
     atom    2 type  2   force =    -0.00248634   -0.00171656   -0.00472101
     atom    3 type  3   force =     0.00270972    0.00183195    0.00508577
     atom    4 type  4   force =     0.00687248    0.00479802    0.01306343
     atom    5 type  1   force =     0.00277779   -0.00760889   -0.00513908
     atom    6 type  1   force =    -0.00916386   -0.00269397   -0.00061625
     atom    7 type  1   force =    -0.00083788    0.00533868   -0.00791801
     atom    8 type  1   force =    -0.00301065    0.00596348   -0.00053957
     atom    9 type  1   force =    -0.00301129   -0.00497212    0.00339704
     atom   10 type  1   force =     0.00603501   -0.00101558   -0.00283209

     Total force =     0.026837     Total SCF correction =     0.000380


     Computing stress (Cartesian axis) and pressure


     negative rho (up, down):  6.230E-02 0.000E+00
          total   stress  (Ry/bohr**3)                   (kbar)     P=       -1.69
  -0.00001202   0.00000041   0.00000140           -1.77        0.06        0.21
   0.00000041  -0.00001230   0.00000063            0.06       -1.81        0.09
   0.00000140   0.00000063  -0.00001015            0.21        0.09       -1.49

     Energy error            =      2.4E-03
     Gradient error          =      1.3E-02
     Cell gradient error     =      1.2E-05


     number of scf cycles    =  33
     number of bfgs steps    =  32

     enthalpy old            =    -250.9977175302 Ry
     enthalpy new            =    -251.0001310985 Ry

     CASE: enthalpy_new < enthalpy_old

     new trust radius        =       0.1193589732 bohr
     new conv_thr            =       0.0000001306 Ry

     new unit-cell volume =    733.81994 a.u.^3 (   108.74090 Ang^3 )
     density =      0.15271 g/cm^3

CELL_PARAMETERS (angstrom)
   4.603931034   0.043420387   3.191482206
   1.694036644   4.281195456   3.191333020
   0.063308242   0.043276328   5.601684130

ATOMIC_POSITIONS (angstrom)
Li            1.7317161907        1.1886289024        3.2621218608
Li            5.1390942469        3.5286922919        9.6821025243
Mg            6.4935851025        4.4588126086       12.2338575982
Zr            3.0984893824        2.1274831496        5.8373717393
H             1.3544274208        2.4216546996        4.9779795077
H             3.4681986217        2.2697529295        3.9113142191
H             2.5838980286        0.3939748773        5.0643611016
H             4.0447672322        0.9448159916        7.1567412771
H             4.6191712009        3.4359156307        5.9441149160
H             2.1966582180        3.0772040072        7.3605783759



     Writing output data file ./tmp/Li2MgZrH6.save/
     NEW-OLD atomic charge density approx. for the potential

     negative rho (up, down):  6.240E-02 0.000E+00
     extrapolated charge   29.92886, renormalised to   30.00000

     total cpu time spent up to now is     1642.9 secs

     Self-consistent Calculation

     iteration #  1     ecut=    50.00 Ry     beta= 0.70
     Davidson diagonalization with overlap
     ethr =  1.00E-06,  avg # of iterations =  9.0

     negative rho (up, down):  6.255E-02 0.000E+00

     total cpu time spent up to now is     1647.8 secs

     total energy              =    -251.00178802 Ry
     estimated scf accuracy    <       0.00306512 Ry

     iteration #  2     ecut=    50.00 Ry     beta= 0.70
     Davidson diagonalization with overlap
     ethr =  1.02E-05,  avg # of iterations =  3.6

     negative rho (up, down):  6.253E-02 0.000E+00

     total cpu time spent up to now is     1651.0 secs

     total energy              =    -251.00258990 Ry
     estimated scf accuracy    <       0.00547496 Ry

     iteration #  3     ecut=    50.00 Ry     beta= 0.70
     Davidson diagonalization with overlap
     ethr =  1.02E-05,  avg # of iterations =  3.5

     negative rho (up, down):  6.258E-02 0.000E+00

     total cpu time spent up to now is     1653.7 secs

     total energy              =    -251.00289770 Ry
     estimated scf accuracy    <       0.00015268 Ry

     iteration #  4     ecut=    50.00 Ry     beta= 0.70
     Davidson diagonalization with overlap
     ethr =  5.09E-07,  avg # of iterations =  4.8

     negative rho (up, down):  6.259E-02 0.000E+00

     total cpu time spent up to now is     1656.7 secs

     total energy              =    -251.00293858 Ry
     estimated scf accuracy    <       0.00001560 Ry

     iteration #  5     ecut=    50.00 Ry     beta= 0.70
     Davidson diagonalization with overlap
     ethr =  5.20E-08,  avg # of iterations =  2.2

     negative rho (up, down):  6.257E-02 0.000E+00

     total cpu time spent up to now is     1659.1 secs

     total energy              =    -251.00293959 Ry
     estimated scf accuracy    <       0.00000540 Ry

     iteration #  6     ecut=    50.00 Ry     beta= 0.70
     Davidson diagonalization with overlap
     ethr =  1.80E-08,  avg # of iterations =  2.6

     negative rho (up, down):  6.256E-02 0.000E+00

     total cpu time spent up to now is     1661.4 secs

     total energy              =    -251.00294027 Ry
     estimated scf accuracy    <       0.00000026 Ry

     iteration #  7     ecut=    50.00 Ry     beta= 0.70
     Davidson diagonalization with overlap
     ethr =  8.75E-10,  avg # of iterations =  5.9

     negative rho (up, down):  6.256E-02 0.000E+00

     total cpu time spent up to now is     1664.4 secs

     total energy              =    -251.00294045 Ry
     estimated scf accuracy    <       0.00000021 Ry

     iteration #  8     ecut=    50.00 Ry     beta= 0.70
     Davidson diagonalization with overlap
     ethr =  6.98E-10,  avg # of iterations =  2.1

     negative rho (up, down):  6.256E-02 0.000E+00

     total cpu time spent up to now is     1667.1 secs

     End of self-consistent calculation

          k = 0.0000 0.0000 0.0000 (  3557 PWs)   bands (ev):

   -71.5761 -44.2757 -38.6772 -38.6772 -38.6348 -22.3665 -22.3664 -22.2872
    -2.8009   0.9756   1.2672   1.2677   1.9786   1.9793   4.4154   5.6476
     5.6480   7.7496   8.0877

          k = 0.3073 0.2110-0.4462 (  3526 PWs)   bands (ev):

   -71.5761 -44.2756 -38.6772 -38.6772 -38.6348 -22.3708 -22.3676 -22.2874
    -1.2876  -0.9609   0.7815   0.9194   2.1415   2.2716   3.8620   5.7866
     6.2027   6.6145   8.3514

          k = 0.0024-0.5814 0.0045 (  3526 PWs)   bands (ev):

   -71.5761 -44.2756 -38.6772 -38.6772 -38.6348 -22.3708 -22.3676 -22.2874
    -1.2875  -0.9610   0.7818   0.9194   2.1412   2.2714   3.8620   5.7867
     6.2026   6.6142   8.3519

          k = 0.3097-0.3704-0.4417 (  3496 PWs)   bands (ev):

   -71.5760 -44.2756 -38.6772 -38.6772 -38.6348 -22.3704 -22.3681 -22.2882
    -1.3498  -0.1345   0.3435   1.1247   1.3684   2.0212   3.7926   5.6335
     5.7621   7.0613   8.5995

          k =-0.5417 0.2110 0.0045 (  3526 PWs)   bands (ev):

   -71.5761 -44.2756 -38.6772 -38.6772 -38.6348 -22.3708 -22.3676 -22.2874
    -1.2879  -0.9605   0.7820   0.9189   2.1412   2.2715   3.8617   5.7866
     6.2025   6.6142   8.3521

          k =-0.2345 0.4220-0.4417 (  3496 PWs)   bands (ev):

   -71.5760 -44.2756 -38.6772 -38.6772 -38.6348 -22.3704 -22.3681 -22.2882
    -1.3502  -0.1344   0.3433   1.1249   1.3690   2.0213   3.7924   5.6333
     5.7621   7.0614   8.5993

          k =-0.5394-0.3703 0.0090 (  3496 PWs)   bands (ev):

   -71.5760 -44.2756 -38.6772 -38.6772 -38.6348 -22.3705 -22.3681 -22.2882
    -1.3502  -0.1342   0.3433   1.1252   1.3682   2.0215   3.7925   5.6335
     5.7620   7.0613   8.5999

          k =-0.2321-0.1594-0.4372 (  3516 PWs)   bands (ev):

   -71.5760 -44.2756 -38.6772 -38.6772 -38.6348 -22.3669 -22.3668 -22.2898
    -1.4951  -1.1881   1.3628   1.3630   1.9513   1.9515   4.7065   5.4151
     5.4162   7.1215   8.6106

     the Fermi energy is     5.2750 ev

!    total energy              =    -251.00294047 Ry
     estimated scf accuracy    <          4.8E-09 Ry
     smearing contrib. (-TS)   =       0.00192279 Ry
     internal energy E=F+TS    =    -251.00486326 Ry

     The total energy is F=E-TS. E is the sum of the following terms:
     one-electron contribution =    -166.07205949 Ry
     hartree contribution      =      56.61504996 Ry
     xc contribution           =     -37.59129917 Ry
     ewald contribution        =    -111.40119317 Ry
     one-center paw contrib.   =       7.44463861 Ry

     convergence has been achieved in   8 iterations

     negative rho (up, down):  6.256E-02 0.000E+00

     Forces acting on atoms (cartesian axes, Ry/au):

     atom    1 type  2   force =    -0.00084918   -0.00058926   -0.00159538
     atom    2 type  2   force =    -0.00256554   -0.00176108   -0.00485606
     atom    3 type  3   force =     0.00043035    0.00028403    0.00079463
     atom    4 type  4   force =     0.00405469    0.00278811    0.00765772
     atom    5 type  1   force =     0.00191818   -0.00435955   -0.00156669
     atom    6 type  1   force =    -0.00490358   -0.00065271    0.00069681
     atom    7 type  1   force =     0.00059665    0.00338582   -0.00365565
     atom    8 type  1   force =    -0.00215071    0.00346092    0.00108408
     atom    9 type  1   force =    -0.00052461   -0.00325933    0.00263133
     atom   10 type  1   force =     0.00399376    0.00070303   -0.00119079

     Total force =     0.015792     Total SCF correction =     0.000032


     Computing stress (Cartesian axis) and pressure


     negative rho (up, down):  6.256E-02 0.000E+00
          total   stress  (Ry/bohr**3)                   (kbar)     P=       -0.49
   0.00000170  -0.00000522  -0.00001399            0.25       -0.77       -2.06
  -0.00000522   0.00000560  -0.00000984           -0.77        0.82       -1.45
  -0.00001399  -0.00000984  -0.00001731           -2.06       -1.45       -2.55

     Energy error            =      2.8E-03
     Gradient error          =      7.7E-03
     Cell gradient error     =      1.7E-05


     number of scf cycles    =  34
     number of bfgs steps    =  33

     enthalpy old            =    -251.0001310985 Ry
     enthalpy new            =    -251.0029404743 Ry

     CASE: enthalpy_new < enthalpy_old

     new trust radius        =       0.1202027889 bohr
     new conv_thr            =       0.0000000766 Ry

     new unit-cell volume =    732.07678 a.u.^3 (   108.48259 Ang^3 )
     density =      0.15307 g/cm^3

CELL_PARAMETERS (angstrom)
   4.601871377   0.047290728   3.197047628
   1.696974476   4.277888410   3.196775751
   0.069077076   0.047097854   5.603080537

ATOMIC_POSITIONS (angstrom)
Li            1.7418698388        1.1955175221        3.2811913412
Li            5.1481109590        3.5347329807        9.6989444447
Mg            6.5173492602        4.4749091543       12.2784962202
Zr            3.1025100110        2.1302073511        5.8449734977
H             1.3466288365        2.3597938993        4.9821674062
H             3.4133810161        2.2992863268        3.9071481558
H             2.6213245410        0.4087773340        5.0166722968
H             4.0218920630        0.9622076926        7.1754277154
H             4.6300213391        3.4082144501        5.9612397843
H             2.2232077812        3.0972277377        7.3520061644



     Writing output data file ./tmp/Li2MgZrH6.save/
     NEW-OLD atomic charge density approx. for the potential

     negative rho (up, down):  6.251E-02 0.000E+00
     extrapolated charge   29.92860, renormalised to   30.00000

     total cpu time spent up to now is     1693.4 secs

     Self-consistent Calculation

     iteration #  1     ecut=    50.00 Ry     beta= 0.70
     Davidson diagonalization with overlap
     ethr =  1.00E-06,  avg # of iterations =  9.5

     negative rho (up, down):  6.267E-02 0.000E+00

     total cpu time spent up to now is     1698.3 secs

     total energy              =    -251.00306643 Ry
     estimated scf accuracy    <       0.00286312 Ry

     iteration #  2     ecut=    50.00 Ry     beta= 0.70
     Davidson diagonalization with overlap
     ethr =  9.54E-06,  avg # of iterations =  3.6

     negative rho (up, down):  6.265E-02 0.000E+00

     total cpu time spent up to now is     1701.3 secs

     total energy              =    -251.00374404 Ry
     estimated scf accuracy    <       0.00485015 Ry

     iteration #  3     ecut=    50.00 Ry     beta= 0.70
     Davidson diagonalization with overlap
     ethr =  9.54E-06,  avg # of iterations =  3.5

     negative rho (up, down):  6.269E-02 0.000E+00

     total cpu time spent up to now is     1704.1 secs

     total energy              =    -251.00398137 Ry
     estimated scf accuracy    <       0.00013349 Ry

     iteration #  4     ecut=    50.00 Ry     beta= 0.70
     Davidson diagonalization with overlap
     ethr =  4.45E-07,  avg # of iterations =  4.5

     negative rho (up, down):  6.270E-02 0.000E+00

     total cpu time spent up to now is     1707.3 secs

     total energy              =    -251.00402753 Ry
     estimated scf accuracy    <       0.00001904 Ry

     iteration #  5     ecut=    50.00 Ry     beta= 0.70
     Davidson diagonalization with overlap
     ethr =  6.35E-08,  avg # of iterations =  2.2

     negative rho (up, down):  6.268E-02 0.000E+00

     total cpu time spent up to now is     1709.9 secs

     total energy              =    -251.00402791 Ry
     estimated scf accuracy    <       0.00000629 Ry

     iteration #  6     ecut=    50.00 Ry     beta= 0.70
     Davidson diagonalization with overlap
     ethr =  2.10E-08,  avg # of iterations =  3.0

     negative rho (up, down):  6.267E-02 0.000E+00

     total cpu time spent up to now is     1712.6 secs

     total energy              =    -251.00402877 Ry
     estimated scf accuracy    <       0.00000027 Ry

     iteration #  7     ecut=    50.00 Ry     beta= 0.70
     Davidson diagonalization with overlap
     ethr =  8.88E-10,  avg # of iterations =  5.6

     negative rho (up, down):  6.267E-02 0.000E+00

     total cpu time spent up to now is     1715.6 secs

     total energy              =    -251.00402894 Ry
     estimated scf accuracy    <       0.00000016 Ry

     iteration #  8     ecut=    50.00 Ry     beta= 0.70
     Davidson diagonalization with overlap
     ethr =  5.27E-10,  avg # of iterations =  2.1

     negative rho (up, down):  6.267E-02 0.000E+00

     total cpu time spent up to now is     1718.1 secs

     End of self-consistent calculation

          k = 0.0000 0.0000 0.0000 (  3557 PWs)   bands (ev):

   -71.5747 -44.2323 -38.6753 -38.6753 -38.6343 -22.3263 -22.3262 -22.2486
    -2.7916   0.9850   1.3260   1.3267   1.9877   1.9884   4.3937   5.6936
     5.6940   7.7630   8.1196

          k = 0.3080 0.2115-0.4465 (  3526 PWs)   bands (ev):

   -71.5747 -44.2322 -38.6754 -38.6753 -38.6343 -22.3307 -22.3274 -22.2488
    -1.2768  -0.9327   0.8080   0.9458   2.2177   2.2639   3.8446   5.8262
     6.2586   6.6108   8.3535

          k = 0.0026-0.5822 0.0049 (  3526 PWs)   bands (ev):

   -71.5747 -44.2322 -38.6754 -38.6753 -38.6343 -22.3307 -22.3274 -22.2488
    -1.2767  -0.9329   0.8081   0.9460   2.2174   2.2637   3.8447   5.8262
     6.2586   6.6108   8.3539

          k = 0.3106-0.3707-0.4417 (  3496 PWs)   bands (ev):

   -71.5747 -44.2322 -38.6754 -38.6753 -38.6343 -22.3303 -22.3280 -22.2496
    -1.3225  -0.1479   0.3773   1.1712   1.4154   2.0681   3.7388   5.6908
     5.7700   7.0611   8.6257

          k =-0.5425 0.2115 0.0049 (  3526 PWs)   bands (ev):

   -71.5747 -44.2322 -38.6754 -38.6753 -38.6343 -22.3307 -22.3274 -22.2488
    -1.2770  -0.9323   0.8084   0.9454   2.2175   2.2638   3.8443   5.8262
     6.2583   6.6106   8.3540

          k =-0.2344 0.4230-0.4416 (  3496 PWs)   bands (ev):

   -71.5747 -44.2322 -38.6754 -38.6753 -38.6343 -22.3303 -22.3279 -22.2496
    -1.3230  -0.1479   0.3772   1.1716   1.4162   2.0682   3.7387   5.6907
     5.7699   7.0612   8.6256

          k =-0.5399-0.3707 0.0098 (  3496 PWs)   bands (ev):

   -71.5747 -44.2322 -38.6754 -38.6753 -38.6343 -22.3303 -22.3279 -22.2496
    -1.3229  -0.1477   0.3772   1.1718   1.4154   2.0682   3.7387   5.6909
     5.7698   7.0611   8.6259

          k =-0.2318-0.1592-0.4367 (  3516 PWs)   bands (ev):

   -71.5747 -44.2322 -38.6753 -38.6753 -38.6343 -22.3266 -22.3266 -22.2512
    -1.4907  -1.1633   1.4413   1.4414   1.9494   1.9495   4.6269   5.4356
     5.4370   7.1728   8.6717

     the Fermi energy is     5.2881 ev

!    total energy              =    -251.00402896 Ry
     estimated scf accuracy    <          3.2E-09 Ry
     smearing contrib. (-TS)   =       0.00169555 Ry
     internal energy E=F+TS    =    -251.00572451 Ry

     The total energy is F=E-TS. E is the sum of the following terms:
     one-electron contribution =    -166.02226269 Ry
     hartree contribution      =      56.61672609 Ry
     xc contribution           =     -37.59559177 Ry
     ewald contribution        =    -111.44787646 Ry
     one-center paw contrib.   =       7.44328032 Ry

     convergence has been achieved in   8 iterations

     negative rho (up, down):  6.267E-02 0.000E+00

     Forces acting on atoms (cartesian axes, Ry/au):

     atom    1 type  2   force =    -0.00157371   -0.00108990   -0.00296151
     atom    2 type  2   force =    -0.00240718   -0.00164341   -0.00454259
     atom    3 type  3   force =    -0.00113983   -0.00079045   -0.00215706
     atom    4 type  4   force =     0.00062101    0.00037377    0.00110395
     atom    5 type  1   force =     0.00197312   -0.00135052    0.00182461
     atom    6 type  1   force =    -0.00110311    0.00085735    0.00266045
     atom    7 type  1   force =     0.00181947    0.00236061    0.00058585
     atom    8 type  1   force =    -0.00130616    0.00062787    0.00210921
     atom    9 type  1   force =     0.00164923   -0.00143503    0.00126997
     atom   10 type  1   force =     0.00146717    0.00208970    0.00010712

     Total force =     0.009832     Total SCF correction =     0.000025


     Computing stress (Cartesian axis) and pressure


     negative rho (up, down):  6.267E-02 0.000E+00
          total   stress  (Ry/bohr**3)                   (kbar)     P=        0.74
   0.00001485  -0.00001004  -0.00002726            2.18       -1.48       -4.01
  -0.00001004   0.00002240  -0.00001882           -1.48        3.30       -2.77
  -0.00002726  -0.00001882  -0.00002213           -4.01       -2.77       -3.26

     Energy error            =      1.1E-03
     Gradient error          =      4.5E-03
     Cell gradient error     =      2.7E-05


     number of scf cycles    =  35
     number of bfgs steps    =  34

     enthalpy old            =    -251.0029404743 Ry
     enthalpy new            =    -251.0040289599 Ry

     CASE: enthalpy_new < enthalpy_old

     new trust radius        =       0.0205049258 bohr
     new conv_thr            =       0.0000000454 Ry

     new unit-cell volume =    732.12442 a.u.^3 (   108.48965 Ang^3 )
     density =      0.15306 g/cm^3

CELL_PARAMETERS (angstrom)
   4.601277453   0.045552555   3.193630322
   1.695152447   4.277933909   3.193328101
   0.066589022   0.045357655   5.600655721

ATOMIC_POSITIONS (angstrom)
Li            1.7377982251        1.1926875857        3.2735004051
Li            5.1421782856        3.5306069064        9.6877057872
Mg            6.5171302933        4.4746796592       12.2780264231
Zr            3.0998225272        2.1283186727        5.8398727474
H             1.3407514484        2.3487931365        4.9812324769
H             3.4040576038        2.3055745339        3.9017558193
H             2.6275033649        0.4072251375        5.0059368615
H             4.0114060011        0.9639697565        7.1760487413
H             4.6316864703        3.3977487164        5.9598290749
H             2.2271875166        3.1025282406        7.3436402729



     Writing output data file ./tmp/Li2MgZrH6.save/
     NEW-OLD atomic charge density approx. for the potential

     negative rho (up, down):  6.263E-02 0.000E+00
     extrapolated charge   30.00195, renormalised to   30.00000

     total cpu time spent up to now is     1744.1 secs

     Self-consistent Calculation

     iteration #  1     ecut=    50.00 Ry     beta= 0.70
     Davidson diagonalization with overlap
     ethr =  1.00E-06,  avg # of iterations =  5.9

     negative rho (up, down):  6.263E-02 0.000E+00

     total cpu time spent up to now is     1747.9 secs

     total energy              =    -251.00429987 Ry
     estimated scf accuracy    <       0.00007018 Ry

     iteration #  2     ecut=    50.00 Ry     beta= 0.70
     Davidson diagonalization with overlap
     ethr =  2.34E-07,  avg # of iterations =  3.0

     negative rho (up, down):  6.263E-02 0.000E+00

     total cpu time spent up to now is     1750.4 secs

     total energy              =    -251.00426674 Ry
     estimated scf accuracy    <       0.00000670 Ry

     iteration #  3     ecut=    50.00 Ry     beta= 0.70
     Davidson diagonalization with overlap
     ethr =  2.23E-08,  avg # of iterations =  3.6

     negative rho (up, down):  6.263E-02 0.000E+00

     total cpu time spent up to now is     1753.1 secs

     total energy              =    -251.00426676 Ry
     estimated scf accuracy    <       0.00000206 Ry

     iteration #  4     ecut=    50.00 Ry     beta= 0.70
     Davidson diagonalization with overlap
     ethr =  6.85E-09,  avg # of iterations =  3.2

     negative rho (up, down):  6.263E-02 0.000E+00

     total cpu time spent up to now is     1755.8 secs

     total energy              =    -251.00426744 Ry
     estimated scf accuracy    <       0.00000048 Ry

     iteration #  5     ecut=    50.00 Ry     beta= 0.70
     Davidson diagonalization with overlap
     ethr =  1.61E-09,  avg # of iterations =  2.0

     negative rho (up, down):  6.263E-02 0.000E+00

     total cpu time spent up to now is     1758.2 secs

     End of self-consistent calculation

          k = 0.0000 0.0000 0.0000 (  3557 PWs)   bands (ev):

   -71.5770 -44.2283 -38.6775 -38.6775 -38.6366 -22.3229 -22.3229 -22.2453
    -2.7884   1.0055   1.3344   1.3352   1.9838   1.9844   4.3821   5.6909
     5.6912   7.7623   8.1166

          k = 0.3078 0.2113-0.4465 (  3526 PWs)   bands (ev):

   -71.5770 -44.2282 -38.6775 -38.6775 -38.6366 -22.3273 -22.3240 -22.2454
    -1.2763  -0.9214   0.8118   0.9482   2.2258   2.2741   3.8308   5.8225
     6.2584   6.6052   8.3544

          k = 0.0025-0.5820 0.0047 (  3526 PWs)   bands (ev):

   -71.5770 -44.2282 -38.6775 -38.6775 -38.6366 -22.3273 -22.3240 -22.2454
    -1.2762  -0.9216   0.8119   0.9484   2.2256   2.2739   3.8308   5.8226
     6.2584   6.6052   8.3548

          k = 0.3103-0.3707-0.4418 (  3496 PWs)   bands (ev):

   -71.5770 -44.2282 -38.6775 -38.6775 -38.6366 -22.3269 -22.3246 -22.2463
    -1.3136  -0.1501   0.3870   1.1765   1.4254   2.0736   3.7156   5.6919
     5.7667   7.0605   8.6293

          k =-0.5423 0.2114 0.0047 (  3526 PWs)   bands (ev):

   -71.5770 -44.2282 -38.6775 -38.6775 -38.6366 -22.3273 -22.3241 -22.2454
    -1.2765  -0.9210   0.8122   0.9478   2.2256   2.2740   3.8305   5.8226
     6.2581   6.6050   8.3549

          k =-0.2345 0.4227-0.4418 (  3496 PWs)   bands (ev):

   -71.5770 -44.2282 -38.6775 -38.6775 -38.6366 -22.3269 -22.3246 -22.2463
    -1.3142  -0.1501   0.3868   1.1770   1.4262   2.0738   3.7155   5.6918
     5.7665   7.0606   8.6292

          k =-0.5398-0.3707 0.0094 (  3496 PWs)   bands (ev):

   -71.5770 -44.2282 -38.6775 -38.6775 -38.6366 -22.3270 -22.3246 -22.2463
    -1.3140  -0.1498   0.3868   1.1771   1.4254   2.0737   3.7155   5.6919
     5.7665   7.0605   8.6296

          k =-0.2320-0.1593-0.4371 (  3516 PWs)   bands (ev):

   -71.5770 -44.2283 -38.6775 -38.6775 -38.6366 -22.3233 -22.3233 -22.2479
    -1.4845  -1.1528   1.4515   1.4516   1.9442   1.9443   4.6133   5.4316
     5.4330   7.1676   8.6823

     the Fermi energy is     5.2826 ev

!    total energy              =    -251.00426753 Ry
     estimated scf accuracy    <       0.00000002 Ry
     smearing contrib. (-TS)   =       0.00166405 Ry
     internal energy E=F+TS    =    -251.00593157 Ry

     The total energy is F=E-TS. E is the sum of the following terms:
     one-electron contribution =    -166.05604278 Ry
     hartree contribution      =      56.63508542 Ry
     xc contribution           =     -37.59485272 Ry
     ewald contribution        =    -111.43323374 Ry
     one-center paw contrib.   =       7.44311225 Ry

     convergence has been achieved in   5 iterations

     negative rho (up, down):  6.263E-02 0.000E+00

     Forces acting on atoms (cartesian axes, Ry/au):

     atom    1 type  2   force =    -0.00135687   -0.00094141   -0.00255189
     atom    2 type  2   force =    -0.00205108   -0.00139829   -0.00386852
     atom    3 type  3   force =    -0.00169134   -0.00117942   -0.00320706
     atom    4 type  4   force =     0.00060128    0.00036933    0.00107152
     atom    5 type  1   force =     0.00207647   -0.00107746    0.00197635
     atom    6 type  1   force =    -0.00082551    0.00082205    0.00282850
     atom    7 type  1   force =     0.00177810    0.00234985    0.00090730
     atom    8 type  1   force =    -0.00124641   -0.00010765    0.00204117
     atom    9 type  1   force =     0.00196914   -0.00110765    0.00068225
     atom   10 type  1   force =     0.00074621    0.00227065    0.00012038

     Total force =     0.009582     Total SCF correction =     0.000354


     Computing stress (Cartesian axis) and pressure


     negative rho (up, down):  6.263E-02 0.000E+00
          total   stress  (Ry/bohr**3)                   (kbar)     P=        0.79
   0.00001467  -0.00000950  -0.00002588            2.16       -1.40       -3.81
  -0.00000950   0.00002190  -0.00001784           -1.40        3.22       -2.62
  -0.00002588  -0.00001784  -0.00002040           -3.81       -2.62       -3.00

     Energy error            =      2.4E-04
     Gradient error          =      3.9E-03
     Cell gradient error     =      2.6E-05


     number of scf cycles    =  36
     number of bfgs steps    =  35

     enthalpy old            =    -251.0040289599 Ry
     enthalpy new            =    -251.0042675258 Ry

     CASE: enthalpy_new < enthalpy_old

     new trust radius        =       0.0225634686 bohr
     new conv_thr            =       0.0000000239 Ry

     new unit-cell volume =    732.54954 a.u.^3 (   108.55264 Ang^3 )
     density =      0.15297 g/cm^3

CELL_PARAMETERS (angstrom)
   4.600391712   0.041136369   3.185325452
   1.690730021   4.278656000   3.184983484
   0.060218312   0.040941938   5.595247058

ATOMIC_POSITIONS (angstrom)
Li            1.7309633327        1.1879482528        3.2606032610
Li            5.1296030458        3.5219042758        9.6639478065
Mg            6.5082055816        4.4684358429       12.2611393054
Zr            3.0952378392        2.1251024524        5.8311762479
H             1.3323553866        2.3357721539        4.9778398725
H             3.3926378948        2.3119903671        3.8928970283
H             2.6332084132        0.4040453580        4.9915304625
H             3.9980386377        0.9605347647        7.1695444136
H             4.6307222160        3.3864460507        5.9495526129
H             2.2247874198        3.1056765175        7.3288889711



     Writing output data file ./tmp/Li2MgZrH6.save/
     NEW-OLD atomic charge density approx. for the potential

     negative rho (up, down):  6.283E-02 0.000E+00
     extrapolated charge   30.01740, renormalised to   30.00000

     total cpu time spent up to now is     1784.3 secs

     Self-consistent Calculation

     iteration #  1     ecut=    50.00 Ry     beta= 0.70
     Davidson diagonalization with overlap
     ethr =  1.00E-06,  avg # of iterations =  6.0

     negative rho (up, down):  6.279E-02 0.000E+00

     total cpu time spent up to now is     1788.1 secs

     total energy              =    -251.00456666 Ry
     estimated scf accuracy    <       0.00007856 Ry

     iteration #  2     ecut=    50.00 Ry     beta= 0.70
     Davidson diagonalization with overlap
     ethr =  2.62E-07,  avg # of iterations =  4.2

     negative rho (up, down):  6.279E-02 0.000E+00

     total cpu time spent up to now is     1791.0 secs

     total energy              =    -251.00459383 Ry
     estimated scf accuracy    <       0.00010618 Ry

     iteration #  3     ecut=    50.00 Ry     beta= 0.70
     Davidson diagonalization with overlap
     ethr =  2.62E-07,  avg # of iterations =  2.6

     negative rho (up, down):  6.279E-02 0.000E+00

     total cpu time spent up to now is     1793.7 secs

     total energy              =    -251.00459540 Ry
     estimated scf accuracy    <       0.00000350 Ry

     iteration #  4     ecut=    50.00 Ry     beta= 0.70
     Davidson diagonalization with overlap
     ethr =  1.17E-08,  avg # of iterations =  5.0

     negative rho (up, down):  6.280E-02 0.000E+00

     total cpu time spent up to now is     1796.6 secs

     total energy              =    -251.00459701 Ry
     estimated scf accuracy    <       0.00000291 Ry

     iteration #  5     ecut=    50.00 Ry     beta= 0.70
     Davidson diagonalization with overlap
     ethr =  9.71E-09,  avg # of iterations =  2.0

     negative rho (up, down):  6.280E-02 0.000E+00

     total cpu time spent up to now is     1799.0 secs

     total energy              =    -251.00459723 Ry
     estimated scf accuracy    <       0.00000026 Ry

     iteration #  6     ecut=    50.00 Ry     beta= 0.70
     Davidson diagonalization with overlap
     ethr =  8.78E-10,  avg # of iterations =  5.1

     negative rho (up, down):  6.280E-02 0.000E+00

     total cpu time spent up to now is     1801.8 secs

     total energy              =    -251.00459733 Ry
     estimated scf accuracy    <       0.00000004 Ry

     iteration #  7     ecut=    50.00 Ry     beta= 0.70
     Davidson diagonalization with overlap
     ethr =  1.27E-10,  avg # of iterations =  2.1

     negative rho (up, down):  6.280E-02 0.000E+00

     total cpu time spent up to now is     1804.3 secs

     End of self-consistent calculation

          k = 0.0000 0.0000 0.0000 (  3557 PWs)   bands (ev):

   -71.5799 -44.2288 -38.6805 -38.6805 -38.6393 -22.3235 -22.3235 -22.2467
    -2.7877   1.0259   1.3364   1.3374   1.9692   1.9699   4.3802   5.6897
     5.6901   7.7601   8.1064

          k = 0.3072 0.2109-0.4464 (  3526 PWs)   bands (ev):

   -71.5799 -44.2287 -38.6805 -38.6805 -38.6393 -22.3279 -22.3247 -22.2469
    -1.2796  -0.9185   0.8170   0.9475   2.2215   2.2820   3.8187   5.8186
     6.2547   6.5971   8.3553

          k = 0.0023-0.5815 0.0042 (  3526 PWs)   bands (ev):

   -71.5799 -44.2287 -38.6805 -38.6805 -38.6393 -22.3279 -22.3247 -22.2469
    -1.2794  -0.9186   0.8171   0.9477   2.2212   2.2818   3.8188   5.8187
     6.2547   6.5971   8.3557

          k = 0.3095-0.3706-0.4422 (  3496 PWs)   bands (ev):

   -71.5799 -44.2287 -38.6805 -38.6805 -38.6393 -22.3275 -22.3252 -22.2477
    -1.3111  -0.1485   0.3883   1.1707   1.4322   2.0772   3.6950   5.6866
     5.7599   7.0581   8.6298

          k =-0.5419 0.2109 0.0043 (  3526 PWs)   bands (ev):

   -71.5799 -44.2287 -38.6805 -38.6805 -38.6393 -22.3279 -22.3247 -22.2468
    -1.2798  -0.9181   0.8174   0.9471   2.2213   2.2820   3.8185   5.8187
     6.2543   6.5969   8.3557

          k =-0.2347 0.4219-0.4421 (  3496 PWs)   bands (ev):

   -71.5799 -44.2287 -38.6805 -38.6805 -38.6393 -22.3275 -22.3252 -22.2477
    -1.3118  -0.1486   0.3881   1.1712   1.4330   2.0775   3.6949   5.6865
     5.7597   7.0582   8.6299

          k =-0.5396-0.3705 0.0085 (  3496 PWs)   bands (ev):

   -71.5799 -44.2287 -38.6805 -38.6805 -38.6393 -22.3276 -22.3252 -22.2477
    -1.3115  -0.1483   0.3881   1.1713   1.4323   2.0773   3.6948   5.6866
     5.7597   7.0582   8.6302

          k =-0.2324-0.1596-0.4379 (  3516 PWs)   bands (ev):

   -71.5799 -44.2287 -38.6805 -38.6805 -38.6393 -22.3239 -22.3239 -22.2493
    -1.4777  -1.1440   1.4477   1.4479   1.9383   1.9386   4.6029   5.4239
     5.4255   7.1494   8.6887

     the Fermi energy is     5.2728 ev

!    total energy              =    -251.00459733 Ry
     estimated scf accuracy    <          7.9E-09 Ry
     smearing contrib. (-TS)   =       0.00161856 Ry
     internal energy E=F+TS    =    -251.00621589 Ry

     The total energy is F=E-TS. E is the sum of the following terms:
     one-electron contribution =    -166.10914361 Ry
     hartree contribution      =      56.66011301 Ry
     xc contribution           =     -37.59414781 Ry
     ewald contribution        =    -111.40612662 Ry
     one-center paw contrib.   =       7.44308915 Ry

     convergence has been achieved in   7 iterations

     negative rho (up, down):  6.280E-02 0.000E+00

     Forces acting on atoms (cartesian axes, Ry/au):

     atom    1 type  2   force =    -0.00096866   -0.00067892   -0.00182491
     atom    2 type  2   force =    -0.00174907   -0.00119448   -0.00330020
     atom    3 type  3   force =    -0.00220733   -0.00152883   -0.00417667
     atom    4 type  4   force =     0.00031954    0.00019879    0.00057570
     atom    5 type  1   force =     0.00226824   -0.00087417    0.00199499
     atom    6 type  1   force =    -0.00066602    0.00066214    0.00299242
     atom    7 type  1   force =     0.00164639    0.00243725    0.00112430
     atom    8 type  1   force =    -0.00109803   -0.00081046    0.00210931
     atom    9 type  1   force =     0.00237182   -0.00071069    0.00022244
     atom   10 type  1   force =     0.00008311    0.00249937    0.00028263

     Total force =     0.009680     Total SCF correction =     0.000053


     Computing stress (Cartesian axis) and pressure


     negative rho (up, down):  6.280E-02 0.000E+00
          total   stress  (Ry/bohr**3)                   (kbar)     P=        0.63
   0.00001249  -0.00000841  -0.00002303            1.84       -1.24       -3.39
  -0.00000841   0.00001900  -0.00001585           -1.24        2.80       -2.33
  -0.00002303  -0.00001585  -0.00001872           -3.39       -2.33       -2.75

     Energy error            =      3.3E-04
     Gradient error          =      4.2E-03
     Cell gradient error     =      2.3E-05


     number of scf cycles    =  37
     number of bfgs steps    =  36

     enthalpy old            =    -251.0042675258 Ry
     enthalpy new            =    -251.0045973268 Ry

     CASE: enthalpy_new < enthalpy_old

     new trust radius        =       0.0338861480 bohr
     new conv_thr            =       0.0000000330 Ry

     new unit-cell volume =    734.02328 a.u.^3 (   108.77103 Ang^3 )
     density =      0.15266 g/cm^3

CELL_PARAMETERS (angstrom)
   4.599172047   0.030372415   3.165697133
   1.680281134   4.281314346   3.165275390
   0.044668069   0.030181029   5.583194208

ATOMIC_POSITIONS (angstrom)
Li            1.7175498740        1.1786468751        3.2352978236
Li            5.0996664543        3.5012187948        9.6074150896
Mg            6.4809558573        4.4494997315       12.2096467750
Zr            3.0854782119        2.1182709850        5.8126859683
H             1.3194580525        2.3160601690        4.9654226611
H             3.3732529424        2.3161556477        3.8752365479
H             2.6358538870        0.3990455165        4.9656120266
H             3.9736091364        0.9493928278        7.1523057234
H             4.6270502195        3.3675314269        5.9240098888
H             2.2142814615        3.1090304790        7.2989227858



     Writing output data file ./tmp/Li2MgZrH6.save/
     NEW-OLD atomic charge density approx. for the potential

     negative rho (up, down):  6.323E-02 0.000E+00
     extrapolated charge   30.06021, renormalised to   30.00000

     total cpu time spent up to now is     1830.4 secs

     Self-consistent Calculation

     iteration #  1     ecut=    50.00 Ry     beta= 0.70
     Davidson diagonalization with overlap
     ethr =  1.00E-06,  avg # of iterations =  7.5

     negative rho (up, down):  6.308E-02 0.000E+00

     total cpu time spent up to now is     1834.4 secs

     total energy              =    -251.00456415 Ry
     estimated scf accuracy    <       0.00052540 Ry

     iteration #  2     ecut=    50.00 Ry     beta= 0.70
     Davidson diagonalization with overlap
     ethr =  1.75E-06,  avg # of iterations =  6.0

     negative rho (up, down):  6.308E-02 0.000E+00

     total cpu time spent up to now is     1837.3 secs

     total energy              =    -251.00532131 Ry
     estimated scf accuracy    <       0.00302829 Ry

     iteration #  3     ecut=    50.00 Ry     beta= 0.70
     Davidson diagonalization with overlap
     ethr =  1.75E-06,  avg # of iterations =  3.1

     negative rho (up, down):  6.309E-02 0.000E+00

     total cpu time spent up to now is     1840.0 secs

     total energy              =    -251.00518371 Ry
     estimated scf accuracy    <       0.00021166 Ry

     iteration #  4     ecut=    50.00 Ry     beta= 0.70
     Davidson diagonalization with overlap
     ethr =  7.06E-07,  avg # of iterations =  3.4

     negative rho (up, down):  6.308E-02 0.000E+00

     total cpu time spent up to now is     1842.5 secs

     total energy              =    -251.00522539 Ry
     estimated scf accuracy    <       0.00000615 Ry

     iteration #  5     ecut=    50.00 Ry     beta= 0.70
     Davidson diagonalization with overlap
     ethr =  2.05E-08,  avg # of iterations =  5.0

     negative rho (up, down):  6.309E-02 0.000E+00

     total cpu time spent up to now is     1845.5 secs

     total energy              =    -251.00522898 Ry
     estimated scf accuracy    <       0.00000342 Ry

     iteration #  6     ecut=    50.00 Ry     beta= 0.70
     Davidson diagonalization with overlap
     ethr =  1.14E-08,  avg # of iterations =  2.0

     negative rho (up, down):  6.310E-02 0.000E+00

     total cpu time spent up to now is     1848.0 secs

     total energy              =    -251.00522899 Ry
     estimated scf accuracy    <       0.00000060 Ry

     iteration #  7     ecut=    50.00 Ry     beta= 0.70
     Davidson diagonalization with overlap
     ethr =  1.99E-09,  avg # of iterations =  4.5

     negative rho (up, down):  6.310E-02 0.000E+00

     total cpu time spent up to now is     1850.7 secs

     End of self-consistent calculation

          k = 0.0000 0.0000 0.0000 (  3557 PWs)   bands (ev):

   -71.5863 -44.2395 -38.6873 -38.6872 -38.6450 -22.3343 -22.3342 -22.2588
    -2.7935   1.0535   1.3250   1.3263   1.9326   1.9335   4.3874   5.6805
     5.6809   7.7499   8.0855

          k = 0.3057 0.2098-0.4461 (  3526 PWs)   bands (ev):

   -71.5863 -44.2394 -38.6873 -38.6873 -38.6450 -22.3385 -22.3353 -22.2590
    -1.2940  -0.9298   0.8231   0.9359   2.2005   2.2861   3.8019   5.8094
     6.2405   6.5816   8.3542

          k = 0.0017-0.5800 0.0031 (  3526 PWs)   bands (ev):

   -71.5863 -44.2394 -38.6873 -38.6873 -38.6450 -22.3385 -22.3353 -22.2590
    -1.2939  -0.9300   0.8233   0.9360   2.2002   2.2859   3.8021   5.8094
     6.2405   6.5817   8.3545

          k = 0.3073-0.3702-0.4430 (  3496 PWs)   bands (ev):

   -71.5863 -44.2394 -38.6873 -38.6873 -38.6450 -22.3381 -22.3359 -22.2599
    -1.3209  -0.1470   0.3775   1.1454   1.4351   2.0728   3.6666   5.6660
     5.7410   7.0482   8.6280

          k =-0.5408 0.2099 0.0032 (  3526 PWs)   bands (ev):

   -71.5863 -44.2394 -38.6873 -38.6873 -38.6450 -22.3385 -22.3354 -22.2590
    -1.2943  -0.9294   0.8236   0.9354   2.2004   2.2861   3.8018   5.8095
     6.2402   6.5813   8.3544

          k =-0.2351 0.4197-0.4429 (  3496 PWs)   bands (ev):

   -71.5863 -44.2394 -38.6873 -38.6873 -38.6450 -22.3381 -22.3359 -22.2599
    -1.3217  -0.1471   0.3774   1.1459   1.4361   2.0732   3.6664   5.6659
     5.7408   7.0482   8.6283

          k =-0.5391-0.3702 0.0063 (  3496 PWs)   bands (ev):

   -71.5863 -44.2394 -38.6873 -38.6873 -38.6450 -22.3381 -22.3359 -22.2599
    -1.3213  -0.1469   0.3773   1.1459   1.4354   2.0729   3.6664   5.6660
     5.7409   7.0482   8.6285

          k =-0.2334-0.1603-0.4398 (  3516 PWs)   bands (ev):

   -71.5863 -44.2394 -38.6873 -38.6873 -38.6450 -22.3347 -22.3347 -22.2615
    -1.4724  -1.1328   1.4217   1.4219   1.9225   1.9230   4.5797   5.4019
     5.4037   7.1041   8.6873

     the Fermi energy is     5.2460 ev

!    total energy              =    -251.00522914 Ry
     estimated scf accuracy    <          5.7E-09 Ry
     smearing contrib. (-TS)   =       0.00152143 Ry
     internal energy E=F+TS    =    -251.00675057 Ry

     The total energy is F=E-TS. E is the sum of the following terms:
     one-electron contribution =    -166.25390709 Ry
     hartree contribution      =      56.72032963 Ry
     xc contribution           =     -37.59249659 Ry
     ewald contribution        =    -111.32420005 Ry
     one-center paw contrib.   =       7.44352353 Ry

     convergence has been achieved in   7 iterations

     negative rho (up, down):  6.310E-02 0.000E+00

     Forces acting on atoms (cartesian axes, Ry/au):

     atom    1 type  2   force =    -0.00027279   -0.00021043   -0.00052358
     atom    2 type  2   force =    -0.00127713   -0.00087759   -0.00241444
     atom    3 type  3   force =    -0.00246237   -0.00169182   -0.00463846
     atom    4 type  4   force =    -0.00018405   -0.00010155   -0.00031621
     atom    5 type  1   force =     0.00218352   -0.00054004    0.00186272
     atom    6 type  1   force =    -0.00037205    0.00048398    0.00284206
     atom    7 type  1   force =     0.00137618    0.00220166    0.00126816
     atom    8 type  1   force =    -0.00093098   -0.00201275    0.00212938
     atom    9 type  1   force =     0.00300169   -0.00011304   -0.00064226
     atom   10 type  1   force =    -0.00106203    0.00286158    0.00043265

     Total force =     0.009640     Total SCF correction =     0.000178


     Computing stress (Cartesian axis) and pressure


     negative rho (up, down):  6.310E-02 0.000E+00
          total   stress  (Ry/bohr**3)                   (kbar)     P=        0.18
   0.00000735  -0.00000623  -0.00001731            1.08       -0.92       -2.55
  -0.00000623   0.00001241  -0.00001186           -0.92        1.83       -1.74
  -0.00001731  -0.00001186  -0.00001610           -2.55       -1.74       -2.37

     Energy error            =      6.3E-04
     Gradient error          =      4.6E-03
     Cell gradient error     =      1.7E-05


     number of scf cycles    =  38
     number of bfgs steps    =  37

     enthalpy old            =    -251.0045973268 Ry
     enthalpy new            =    -251.0052291396 Ry

     CASE: enthalpy_new < enthalpy_old

     new trust radius        =       0.0506108671 bohr
     new conv_thr            =       0.0000000464 Ry

     new unit-cell volume =    736.13826 a.u.^3 (   109.08444 Ang^3 )
     density =      0.15223 g/cm^3

CELL_PARAMETERS (angstrom)
   4.596365688   0.012021829   3.131701808
   1.662198999   4.285215659   3.131166037
   0.018117310   0.011828496   5.561756896

ATOMIC_POSITIONS (angstrom)
Li            1.6974963644        1.1647381022        3.1974552931
Li            5.0500606872        3.4669951303        9.5137619411
Mg            6.4290395679        4.4135617548       12.1116124478
Zr            3.0685294691        2.1064725094        5.7806211191
H             1.2981497018        2.2827164380        4.9445077793
H             3.3403625935        2.3230369131        3.8458232701
H             2.6402929229        0.3910560176        4.9219211221
H             3.9362660950        0.9242788770        7.1184999570
H             4.6195088571        3.3415797542        5.8745391614
H             2.1884506089        3.1113322997        7.2489499696



     Writing output data file ./tmp/Li2MgZrH6.save/
     NEW-OLD atomic charge density approx. for the potential

     negative rho (up, down):  6.309E-02 0.000E+00
     extrapolated charge   30.08616, renormalised to   30.00000

     total cpu time spent up to now is     1876.9 secs

     Self-consistent Calculation

     iteration #  1     ecut=    50.00 Ry     beta= 0.70
     Davidson diagonalization with overlap
     ethr =  1.00E-06,  avg # of iterations =  8.6

     negative rho (up, down):  6.286E-02 0.000E+00

     total cpu time spent up to now is     1881.9 secs

     total energy              =    -251.00477401 Ry
     estimated scf accuracy    <       0.00122703 Ry

     iteration #  2     ecut=    50.00 Ry     beta= 0.70
     Davidson diagonalization with overlap
     ethr =  4.09E-06,  avg # of iterations =  7.0

     negative rho (up, down):  6.285E-02 0.000E+00

     total cpu time spent up to now is     1885.2 secs

     total energy              =    -251.00574175 Ry
     estimated scf accuracy    <       0.00643947 Ry

     iteration #  3     ecut=    50.00 Ry     beta= 0.70
     Davidson diagonalization with overlap
     ethr =  4.09E-06,  avg # of iterations =  3.1

     negative rho (up, down):  6.281E-02 0.000E+00

     total cpu time spent up to now is     1888.0 secs

     total energy              =    -251.00604653 Ry
     estimated scf accuracy    <       0.00057114 Ry

     iteration #  4     ecut=    50.00 Ry     beta= 0.70
     Davidson diagonalization with overlap
     ethr =  1.90E-06,  avg # of iterations =  4.4

     negative rho (up, down):  6.281E-02 0.000E+00

     total cpu time spent up to now is     1890.4 secs

     total energy              =    -251.00621679 Ry
     estimated scf accuracy    <       0.00003114 Ry

     iteration #  5     ecut=    50.00 Ry     beta= 0.70
     Davidson diagonalization with overlap
     ethr =  1.04E-07,  avg # of iterations =  2.2

     negative rho (up, down):  6.283E-02 0.000E+00

     total cpu time spent up to now is     1893.0 secs

     total energy              =    -251.00621794 Ry
     estimated scf accuracy    <       0.00000630 Ry

     iteration #  6     ecut=    50.00 Ry     beta= 0.70
     Davidson diagonalization with overlap
     ethr =  2.10E-08,  avg # of iterations =  3.6

     negative rho (up, down):  6.284E-02 0.000E+00

     total cpu time spent up to now is     1895.6 secs

     End of self-consistent calculation

          k = 0.0000 0.0000 0.0000 (  3557 PWs)   bands (ev):

   -71.5780 -44.2437 -38.6798 -38.6798 -38.6352 -22.3390 -22.3390 -22.2663
    -2.8054   1.0841   1.3070   1.3088   1.8723   1.8735   4.4207   5.6764
     5.6769   7.7413   8.0628

          k = 0.3031 0.2081-0.4456 (  3526 PWs)   bands (ev):

   -71.5780 -44.2437 -38.6799 -38.6798 -38.6352 -22.3430 -22.3400 -22.2667
    -1.3167  -0.9624   0.8283   0.9294   2.1607   2.2891   3.7944   5.8090
     6.2275   6.5670   8.3648

          k = 0.0007-0.5777 0.0012 (  3526 PWs)   bands (ev):

   -71.5780 -44.2437 -38.6799 -38.6798 -38.6352 -22.3430 -22.3400 -22.2667
    -1.3165  -0.9627   0.8288   0.9291   2.1603   2.2890   3.7947   5.8090
     6.2276   6.5673   8.3651

          k = 0.3038-0.3696-0.4444 (  3496 PWs)   bands (ev):

   -71.5780 -44.2436 -38.6798 -38.6798 -38.6352 -22.3426 -22.3406 -22.2676
    -1.3464  -0.1377   0.3512   1.0980   1.4389   2.0716   3.6455   5.6391
     5.7208   7.0429   8.6387

          k =-0.5390 0.2081 0.0013 (  3526 PWs)   bands (ev):

   -71.5780 -44.2437 -38.6798 -38.6798 -38.6352 -22.3430 -22.3400 -22.2667
    -1.3170  -0.9620   0.8287   0.9289   2.1607   2.2891   3.7945   5.8091
     6.2272   6.5668   8.3647

          k =-0.2359 0.4162-0.4443 (  3496 PWs)   bands (ev):

   -71.5780 -44.2436 -38.6799 -38.6798 -38.6352 -22.3426 -22.3406 -22.2676
    -1.3474  -0.1378   0.3513   1.0984   1.4402   2.0722   3.6451   5.6391
     5.7205   7.0429   8.6392

          k =-0.5383-0.3696 0.0025 (  3496 PWs)   bands (ev):

   -71.5780 -44.2436 -38.6799 -38.6798 -38.6352 -22.3426 -22.3406 -22.2676
    -1.3468  -0.1377   0.3510   1.0985   1.4395   2.0717   3.6451   5.6390
     5.7207   7.0429   8.6392

          k =-0.2352-0.1615-0.4431 (  3516 PWs)   bands (ev):

   -71.5780 -44.2437 -38.6798 -38.6798 -38.6352 -22.3395 -22.3394 -22.2692
    -1.4691  -1.1171   1.3680   1.3683   1.9102   1.9110   4.5559   5.3770
     5.3793   7.0320   8.6808

     the Fermi energy is     4.7548 ev

!    total energy              =    -251.00621930 Ry
     estimated scf accuracy    <       0.00000004 Ry
     smearing contrib. (-TS)   =       0.00041543 Ry
     internal energy E=F+TS    =    -251.00663473 Ry

     The total energy is F=E-TS. E is the sum of the following terms:
     one-electron contribution =    -166.46781081 Ry
     hartree contribution      =      56.81865618 Ry
     xc contribution           =     -37.59286936 Ry
     ewald contribution        =    -111.20993243 Ry
     one-center paw contrib.   =       7.44532169 Ry

     convergence has been achieved in   6 iterations

     negative rho (up, down):  6.284E-02 0.000E+00

     Forces acting on atoms (cartesian axes, Ry/au):

     atom    1 type  2   force =     0.00073494    0.00048758    0.00137301
     atom    2 type  2   force =    -0.00094669   -0.00063905   -0.00176749
     atom    3 type  3   force =    -0.00219092   -0.00150736   -0.00414342
     atom    4 type  4   force =    -0.00139617   -0.00085524   -0.00249639
     atom    5 type  1   force =     0.00192129    0.00014710    0.00185803
     atom    6 type  1   force =     0.00033013    0.00036408    0.00262628
     atom    7 type  1   force =     0.00106822    0.00167927    0.00171169
     atom    8 type  1   force =    -0.00075162   -0.00328462    0.00197957
     atom    9 type  1   force =     0.00354883    0.00049751   -0.00164518
     atom   10 type  1   force =    -0.00231801    0.00311072    0.00050390

     Total force =     0.010371     Total SCF correction =     0.000111


     Computing stress (Cartesian axis) and pressure


     negative rho (up, down):  6.284E-02 0.000E+00
          total   stress  (Ry/bohr**3)                   (kbar)     P=        0.02
   0.00000280  -0.00000257  -0.00000756            0.41       -0.38       -1.11
  -0.00000257   0.00000503  -0.00000491           -0.38        0.74       -0.72
  -0.00000756  -0.00000491  -0.00000744           -1.11       -0.72       -1.09

     Energy error            =      9.9E-04
     Gradient error          =      4.1E-03
     Cell gradient error     =      7.6E-06


     number of scf cycles    =  39
     number of bfgs steps    =  38

     enthalpy old            =    -251.0052291396 Ry
     enthalpy new            =    -251.0062192985 Ry

     CASE: enthalpy_new < enthalpy_old

     new trust radius        =       0.0570465663 bohr
     new conv_thr            =       0.0000000414 Ry

     new unit-cell volume =    739.50174 a.u.^3 (   109.58285 Ang^3 )
     density =      0.15153 g/cm^3

CELL_PARAMETERS (angstrom)
   4.594803807  -0.010258807   3.091551696
   1.640866637   4.291721905   3.090958779
  -0.014223725  -0.010436375   5.537894684

ATOMIC_POSITIONS (angstrom)
Li            1.6761870211        1.1499868797        3.1572470743
Li            4.9922730832        3.4272724808        9.4047293078
Mg            6.3625928029        4.3677583094       11.9861768175
Zr            3.0473274630        2.0918681474        5.7406278762
H             1.2759607793        2.2503061266        4.9207981108
H             3.3076811726        2.3279054424        3.8141173456
H             2.6421067625        0.3819536599        4.8770725156
H             3.8965848210        0.8890118596        7.0798098697
H             4.6137779762        3.3171906767        5.8137676814
H             2.1521025919        3.1148351677        7.1943484858



     Writing output data file ./tmp/Li2MgZrH6.save/
     NEW-OLD atomic charge density approx. for the potential

     Program PWSCF v.6.7MaX starts on  8Jan2026 at 15:49:45 

     This program is part of the open-source Quantum ESPRESSO suite
     for quantum simulation of materials; please cite
         "P. Giannozzi et al., J. Phys.:Condens. Matter 21 395502 (2009);
         "P. Giannozzi et al., J. Phys.:Condens. Matter 29 465901 (2017);
          URL http://www.quantum-espresso.org", 
     in publications or presentations arising from this work. More details at
     http://www.quantum-espresso.org/quote

     Parallel version (MPI), running on     4 processors

     MPI processes distributed on     1 nodes
     R & G space division:  proc/nbgrp/npool/nimage =       4
     Waiting for input...
     Reading input from standard input

     Current dimensions of program PWSCF are:
     Max number of different atomic species (ntypx) = 10
     Max number of k-points (npk) =  40000
     Max angular momentum in pseudopotentials (lmaxx) =  3
     Message from routine read_pp_mesh:
     mismatch in mesh size, discarding the one in header
     file H.UPF: wavefunction(s)  1S renormalized

     Subspace diagonalization in iterative solution of the eigenvalue problem:
     one sub-group per band group will be used
     scalapack distributed-memory algorithm (size of sub-group:  2*  2 procs)


     Parallelization info
     --------------------
     sticks:   dense  smooth     PW     G-vecs:    dense   smooth      PW
     Min         608     303     88                19957     7034    1074
     Max         609     304     89                19959     7035    1075
     Sum        2433    1213    353                79831    28139    4297



     bravais-lattice index     =            0
     lattice parameter (alat)  =       9.3376  a.u.
     unit-cell volume          =     590.5517 (a.u.)^3
     number of atoms/cell      =           10
     number of atomic types    =            4
     number of electrons       =        30.00
     number of Kohn-Sham states=           19
     kinetic-energy cutoff     =      50.0000  Ry
     charge density cutoff     =     400.0000  Ry
     scf convergence threshold =      1.0E-06
     mixing beta               =       0.7000
     number of iterations used =            8  plain     mixing
     energy convergence thresh.=      1.0E-04
     force convergence thresh. =      1.0E-03
     press convergence thresh. =      5.0E-01
     Exchange-correlation=  SLA  PW   PBE  PBE
                           (   1   4   3   4   0   0   0)
     nstep                     =           50


     celldm(1)=   9.337650  celldm(2)=   0.000000  celldm(3)=   0.000000
     celldm(4)=   0.000000  celldm(5)=   0.000000  celldm(6)=   0.000000

     crystal axes: (cart. coord. in units of alat)
               a(1) = (   0.852663  -0.031505   0.521511 )  
               a(2) = (   0.276814   0.807094   0.521511 )  
               a(3) = (  -0.045880  -0.031505   0.998450 )  

     reciprocal axes: (cart. coord. in units 2 pi/alat)
               b(1) = (  1.133629 -0.414025  0.039027 )  
               b(2) = (  0.020715  1.206691  0.039027 )  
               b(3) = ( -0.602937 -0.414025  0.960783 )  


     PseudoPot. # 1 for H  read from file:
     /home/marco/ZOS_Cloud_Compute/pseudo/H.UPF
     MD5 check sum: 850d63dcbcc06c5de8b44e0ab9f952da
     Pseudo is Projector augmented-wave, Zval =  1.0
     Generated using "atomic" code by A. Dal Corso  v.5.1.2
     Shape of augmentation charge: PSQ
     Using radial grid of  929 points,  2 beta functions with: 
                l(1) =   0
                l(2) =   0
     Q(r) pseudized with 0 coefficients 


     PseudoPot. # 2 for Li read from file:
     /home/marco/ZOS_Cloud_Compute/pseudo/Li.UPF
     MD5 check sum: 057edeeab9105e5446fd9e29ea3f9c2f
     Pseudo is Ultrasoft + core correction, Zval =  1.0
     Generated by new atomic code, or converted to UPF format
     Using radial grid of  751 points,  2 beta functions with: 
                l(1) =   1
                l(2) =   1
     Q(r) pseudized with  8 coefficients,  rinner =    1.000   1.000   1.000


     PseudoPot. # 3 for Mg read from file:
     /home/marco/ZOS_Cloud_Compute/pseudo/Mg.UPF
     MD5 check sum: a77e51077e70c6c73445c6cac60d158f
     Pseudo is Projector augmented-wave + core cor, Zval = 10.0
     Generated using ATOMPAW code
     Shape of augmentation charge: BESSEL
     Using radial grid of 1171 points,  6 beta functions with: 
                l(1) =   0
                l(2) =   0
                l(3) =   0
                l(4) =   0
                l(5) =   1
                l(6) =   1
     Q(r) pseudized with 0 coefficients 


     PseudoPot. # 4 for Zr read from file:
     /home/marco/ZOS_Cloud_Compute/pseudo/Zr.UPF
     MD5 check sum: 56bebf6edcd38415d7dd1a973c3f3403
     Pseudo is Ultrasoft + core correction, Zval = 12.0
     Generated by new atomic code, or converted to UPF format
     Using radial grid of  887 points,  6 beta functions with: 
                l(1) =   0
                l(2) =   0
                l(3) =   1
                l(4) =   1
                l(5) =   2
                l(6) =   2
     Q(r) pseudized with  6 coefficients,  rinner =    1.200   1.200   1.200
                                                       1.200   1.200

     atomic species   valence    mass     pseudopotential
        H              1.00     1.00000     H ( 1.00)
        Li             1.00     1.00000     Li( 1.00)
        Mg            10.00     1.00000     Mg( 1.00)
        Zr            12.00     1.00000     Zr( 1.00)

     No symmetry found



   Cartesian axes

     site n.     atom                  positions (alat units)
         1           Li  tau(   1) = (   0.2982516   0.2048036   0.5618991  )
         2           Li  tau(   2) = (   0.8444751   0.5798843   1.5909715  )
         3           Mg  tau(   3) = (   1.1024017   0.7569975   2.0768992  )
         4           Zr  tau(   4) = (   0.5586283   0.3835990   1.0524429  )
         5           H   tau(   5) = (   0.2642678   0.5274312   0.8160041  )
         6           H   tau(   6) = (   0.6817775   0.3031305   0.6761474  )
         7           H   tau(   7) = (   0.3468174   0.0572215   0.9435715  )
         8           H   tau(   8) = (   0.7967716   0.0744654   1.1661901  )
         9           H   tau(   9) = (   0.7665871   0.7168744   0.9480637  )
        10           H   tau(  10) = (   0.2560252   0.4579953   1.3134233  )

     number of k points=     8  Methfessel-Paxton smearing, width (Ry)=  0.0200
                       cart. coord. in units 2pi/alat
        k(    1) = (   0.0000000   0.0000000   0.0000000), wk =   0.2500000
        k(    2) = (   0.3014686   0.2070126  -0.4803914), wk =   0.2500000
        k(    3) = (  -0.0103577  -0.6033453  -0.0195136), wk =   0.2500000
        k(    4) = (   0.2911110  -0.3963327  -0.4999051), wk =   0.2500000
        k(    5) = (  -0.5668143   0.2070126  -0.0195137), wk =   0.2500000
        k(    6) = (  -0.2653457   0.4140252  -0.4999051), wk =   0.2500000
        k(    7) = (  -0.5771720  -0.3963327  -0.0390273), wk =   0.2500000
        k(    8) = (  -0.2757034  -0.1893201  -0.5194187), wk =   0.2500000

     Dense  grid:    79831 G-vectors     FFT dimensions: (  60,  60,  60)

     Smooth grid:    28139 G-vectors     FFT dimensions: (  45,  45,  45)

     Estimated max dynamical RAM per process >      91.27 MB

     Estimated total dynamical RAM >     365.07 MB

     Atomic positions and unit cell read from directory:
     ./tmp/Li2MgZrH6.save/
     Atomic positions from file used, from input discarded


     The initial density is read from file :
     ./tmp/Li2MgZrH6.save/charge-density


     starting charge   30.13707, renormalised to   30.00000

     negative rho (up, down):  6.284E-02 0.000E+00
     Cannot read wfcs: file not found
     Starting wfcs are   37 randomized atomic wfcs
     Checking if some PAW data can be deallocated... 

     total cpu time spent up to now is       10.3 secs

     Self-consistent Calculation

     iteration #  1     ecut=    50.00 Ry     beta= 0.70
     Davidson diagonalization with overlap
     c_bands:  1 eigenvalues not converged
     c_bands:  1 eigenvalues not converged
     c_bands:  1 eigenvalues not converged
     ethr =  1.00E-05,  avg # of iterations = 15.9

     negative rho (up, down):  6.253E-02 0.000E+00

     total cpu time spent up to now is       17.4 secs

     total energy              =    -250.98191985 Ry
     estimated scf accuracy    <       0.11774899 Ry

     iteration #  2     ecut=    50.00 Ry     beta= 0.70
     Davidson diagonalization with overlap
     ethr =  3.92E-04,  avg # of iterations =  2.1

     negative rho (up, down):  6.251E-02 0.000E+00

     total cpu time spent up to now is       20.6 secs

     total energy              =    -251.00360994 Ry
     estimated scf accuracy    <       0.01505308 Ry

     iteration #  3     ecut=    50.00 Ry     beta= 0.70
     Davidson diagonalization with overlap
     ethr =  5.02E-05,  avg # of iterations =  4.9

     negative rho (up, down):  6.250E-02 0.000E+00

     total cpu time spent up to now is       24.0 secs

     total energy              =    -251.00656304 Ry
     estimated scf accuracy    <       0.00075840 Ry

     iteration #  4     ecut=    50.00 Ry     beta= 0.70
     Davidson diagonalization with overlap
