
     Program PWSCF v.6.7MaX starts on 18Feb2026 at 10:42:36 

     This program is part of the open-source Quantum ESPRESSO suite
     for quantum simulation of materials; please cite
         "P. Giannozzi et al., J. Phys.:Condens. Matter 21 395502 (2009);
         "P. Giannozzi et al., J. Phys.:Condens. Matter 29 465901 (2017);
          URL http://www.quantum-espresso.org", 
     in publications or presentations arising from this work. More details at
     http://www.quantum-espresso.org/quote

     Parallel version (MPI), running on     2 processors

     MPI processes distributed on     1 nodes
     R & G space division:  proc/nbgrp/npool/nimage =       2
     Waiting for input...
     Reading input from standard input

     Current dimensions of program PWSCF are:
     Max number of different atomic species (ntypx) = 10
     Max number of k-points (npk) =  40000
     Max angular momentum in pseudopotentials (lmaxx) =  3
     file Gd.UPF: wavefunction(s)  5S 4D 5D 4F renormalized
     file H.UPF: wavefunction(s)  1S renormalized

     Subspace diagonalization in iterative solution of the eigenvalue problem:
     a serial algorithm will be used


     Parallelization info
     --------------------
     sticks:   dense  smooth     PW     G-vecs:    dense   smooth      PW
     Min        3986    1989    550               246269    87001   12699
     Max        3987    1990    551               246270    87002   12700
     Sum        7973    3979   1101               492539   174003   25399



     bravais-lattice index     =            0
     lattice parameter (alat)  =      15.5486  a.u.
     unit-cell volume          =    3645.2764 (a.u.)^3
     number of atoms/cell      =           44
     number of atomic types    =            6
     number of electrons       =       131.00
     number of Kohn-Sham states=           79
     kinetic-energy cutoff     =      50.0000  Ry
     charge density cutoff     =     400.0000  Ry
     scf convergence threshold =      1.0E-06
     mixing beta               =       0.7000
     number of iterations used =            8  plain     mixing
     energy convergence thresh.=      1.0E-04
     force convergence thresh. =      1.0E-03
     press convergence thresh. =      5.0E-01
     Exchange-correlation=  SLA  PW   PBE  PBE
                           (   1   4   3   4   0   0   0)
     nstep                     =           50


     celldm(1)=  15.548635  celldm(2)=   0.000000  celldm(3)=   0.000000
     celldm(4)=   0.000000  celldm(5)=   0.000000  celldm(6)=   0.000000

     crystal axes: (cart. coord. in units of alat)
               a(1) = (   0.989145  -0.043437  -0.140375 )  
               a(2) = (  -0.042729   1.037560   0.022012 )  
               a(3) = (   0.028011   0.021169   0.942969 )  

     reciprocal axes: (cart. coord. in units 2 pi/alat)
               b(1) = (  1.008441  0.042185 -0.030903 )  
               b(2) = (  0.039173  0.965897 -0.022847 )  
               b(3) = (  0.149207 -0.016267  1.056413 )  


     PseudoPot. # 1 for B  read from file:
     /home/marco/ZOS_Cloud_Compute/pseudo/B.UPF
     MD5 check sum: d9c678ba5d3b2fd7b74e61139c9288d8
     Pseudo is Projector augmented-wave + core cor, Zval =  3.0
     Generated using "atomic" code by A. Dal Corso  v.5.1.2
     Shape of augmentation charge: PSQ
     Using radial grid of 1059 points,  4 beta functions with: 
                l(1) =   0
                l(2) =   0
                l(3) =   1
                l(4) =   1
     Q(r) pseudized with 0 coefficients 


     PseudoPot. # 2 for Ba read from file:
     /home/marco/ZOS_Cloud_Compute/pseudo/Ba.UPF
     MD5 check sum: a011de417d3466d8e94df216395bc359
     Pseudo is Ultrasoft + core correction, Zval = 10.0
     Generated by new atomic code, or converted to UPF format
     Using radial grid of  907 points,  6 beta functions with: 
                l(1) =   0
                l(2) =   0
                l(3) =   1
                l(4) =   1
                l(5) =   2
                l(6) =   2
     Q(r) pseudized with  6 coefficients,  rinner =    1.200   1.200   1.200
                                                       1.200   1.200

     PseudoPot. # 3 for Gd read from file:
     /home/marco/ZOS_Cloud_Compute/pseudo/Gd.UPF
     MD5 check sum: d117a02c1bd6889937708b4e5b0bfd41
     Pseudo is Projector augmented-wave + core cor, Zval = 28.0
     Generated using "atomic" code by A. Dal Corso  v.5.1.2
     Shape of augmentation charge: PSQ
     Using radial grid of 1263 points,  8 beta functions with: 
                l(1) =   0
                l(2) =   0
                l(3) =   1
                l(4) =   1
                l(5) =   2
                l(6) =   2
                l(7) =   3
                l(8) =   3
     Q(r) pseudized with 0 coefficients 


     PseudoPot. # 4 for H  read from file:
     /home/marco/ZOS_Cloud_Compute/pseudo/H.UPF
     MD5 check sum: 850d63dcbcc06c5de8b44e0ab9f952da
     Pseudo is Projector augmented-wave, Zval =  1.0
     Generated using "atomic" code by A. Dal Corso  v.5.1.2
     Shape of augmentation charge: PSQ
     Using radial grid of  929 points,  2 beta functions with: 
                l(1) =   0
                l(2) =   0
     Q(r) pseudized with 0 coefficients 


     PseudoPot. # 5 for K  read from file:
     /home/marco/ZOS_Cloud_Compute/pseudo/K.UPF
     MD5 check sum: 0975f8d1feef6b2899f42b1061589f29
     Pseudo is Norm-conserving + core correction, Zval =  1.0
     Generated by new atomic code, or converted to UPF format
     Using radial grid of 1165 points,  2 beta functions with: 
                l(1) =   0
                l(2) =   1

     PseudoPot. # 6 for La read from file:
     /home/marco/ZOS_Cloud_Compute/pseudo/La.UPF
     MD5 check sum: b2f11743f52dde65f77d1302becd7929
     Pseudo is Ultrasoft + core correction, Zval = 11.0
     Generated by new atomic code, or converted to UPF format
     Using radial grid of  907 points,  6 beta functions with: 
                l(1) =   0
                l(2) =   0
                l(3) =   1
                l(4) =   1
                l(5) =   2
                l(6) =   2
     Q(r) pseudized with  6 coefficients,  rinner =    1.200   1.200   1.200
                                                       1.200   1.200

     atomic species   valence    mass     pseudopotential
        B              3.00     1.00000     B ( 1.00)
        Ba            10.00     1.00000     Ba( 1.00)
        Gd            28.00     1.00000     Gd( 1.00)
        H              1.00     1.00000     H ( 1.00)
        K              1.00     1.00000     K ( 1.00)
        La            11.00     1.00000     La( 1.00)

     No symmetry found



   Cartesian axes

     site n.     atom                  positions (alat units)
         1           K   tau(   1) = (   0.4747805   0.4433560  -0.0660315  )
         2           Ba  tau(   2) = (   0.5114161   0.0176216   0.4521256  )
         3           Gd  tau(   3) = (  -0.0088301  -0.0092193   0.0010846  )
         4           Gd  tau(   4) = (  -0.0065680   0.5333077   0.4780423  )
         5           B   tau(   5) = (   0.8542330   0.7364633   0.6500091  )
         6           B   tau(   6) = (   0.1154454   0.2596024   0.6424114  )
         7           B   tau(   7) = (   0.1040776   0.2811053   0.1723099  )
         8           B   tau(   8) = (   0.8453770   0.7643821   0.1820676  )
         9           B   tau(   9) = (   0.6740511   0.3831189   0.3010171  )
        10           La  tau(  10) = (   0.3765465   0.9135742   0.0034902  )
        11           B   tau(  11) = (   0.3085215   0.6342539   0.5301537  )
        12           B   tau(  12) = (   0.6933857   0.0914742   0.7551702  )
        13           H   tau(  13) = (   0.8638313   0.7335370   0.7997036  )
        14           H   tau(  14) = (   0.1100508   0.2639828   0.4922838  )
        15           H   tau(  15) = (   0.1034562   0.2809873   0.0233591  )
        16           H   tau(  16) = (   0.8563114   0.7605330   0.3320144  )
        17           H   tau(  17) = (   0.9425505   0.8433172   0.5959002  )
        18           H   tau(  18) = (   0.0294377   0.3685247   0.7019246  )
        19           H   tau(  19) = (   0.0089935   0.1768071   0.2239558  )
        20           H   tau(  20) = (   0.9410510   0.6657419   0.1202914  )
        21           H   tau(  21) = (   0.9072747   0.6047180   0.6008724  )
        22           H   tau(  22) = (   0.0495917   0.1299519   0.6786922  )
        23           H   tau(  23) = (   0.0522764   0.4142134   0.2169028  )
        24           H   tau(  24) = (   0.8875602   0.9028488   0.1493247  )
        25           H   tau(  25) = (   0.7153585   0.7616067   0.6090003  )
        26           H   tau(  26) = (   0.2559982   0.2729126   0.6841659  )
        27           H   tau(  27) = (   0.2398035   0.2592060   0.2220737  )
        28           H   tau(  28) = (   0.7084061   0.7360828   0.1402551  )
        29           H   tau(  29) = (   0.5842136   0.2664259   0.2984438  )
        30           H   tau(  30) = (   0.4226756   0.6934418   0.1000636  )
        31           H   tau(  31) = (   0.3961178   0.7534152   0.5307039  )
        32           H   tau(  32) = (   0.6047545   0.2059455   0.7355519  )
        33           H   tau(  33) = (   0.5952054   0.5012550   0.2690133  )
        34           H   tau(  34) = (   0.4235230   1.0843136   0.1759160  )
        35           H   tau(  35) = (   0.3878060   0.5145895   0.5601698  )
        36           H   tau(  36) = (   0.6119202  -0.0339404   0.7361338  )
        37           H   tau(  37) = (   0.7316198   0.3990003   0.4385699  )
        38           H   tau(  38) = (   0.1884947   0.9851032   0.8244521  )
        39           H   tau(  39) = (   0.2523816   0.6167752   0.3923029  )
        40           H   tau(  40) = (   0.7274691   0.0699288  -0.0537572  )
        41           H   tau(  41) = (   0.7816054   0.3616068   0.1956456  )
        42           H   tau(  42) = (   0.1509043   0.9388040   0.1451963  )
        43           H   tau(  43) = (   0.1988086   0.6494371   0.6340354  )
        44           H   tau(  44) = (   0.7910841   0.0910357   0.6417289  )

     number of k points=     8  Methfessel-Paxton smearing, width (Ry)=  0.0200
                       cart. coord. in units 2pi/alat
        k(    1) = (   0.0000000   0.0000000   0.0000000), wk =   0.2500000
        k(    2) = (  -0.0746034   0.0081337  -0.5282064), wk =   0.2500000
        k(    3) = (  -0.0195867  -0.4829486   0.0114237), wk =   0.2500000
        k(    4) = (  -0.0941901  -0.4748149  -0.5167827), wk =   0.2500000
        k(    5) = (  -0.5042204  -0.0210927   0.0154514), wk =   0.2500000
        k(    6) = (  -0.5788238  -0.0129590  -0.5127550), wk =   0.2500000
        k(    7) = (  -0.5238072  -0.5040414   0.0268752), wk =   0.2500000
        k(    8) = (  -0.5984106  -0.4959076  -0.5013313), wk =   0.2500000

     Dense  grid:   492539 G-vectors     FFT dimensions: ( 100, 108,  96)

     Smooth grid:   174003 G-vectors     FFT dimensions: (  72,  75,  72)

     Estimated max dynamical RAM per process >       2.75 GB

     Estimated total dynamical RAM >       5.50 GB

     Initial potential from superposition of free atoms

     starting charge  130.91725, renormalised to  131.00000
     Starting wfcs are  134 randomized atomic wfcs
     Checking if some PAW data can be deallocated... 

     total cpu time spent up to now is       88.5 secs

     Self-consistent Calculation

     iteration #  1     ecut=    50.00 Ry     beta= 0.70
     Davidson diagonalization with overlap
     ethr =  1.00E-02,  avg # of iterations =  4.1

     total cpu time spent up to now is      135.7 secs

     total energy              =   -2601.57413779 Ry
     estimated scf accuracy    <     110.33489457 Ry

     iteration #  2     ecut=    50.00 Ry     beta= 0.70
     Davidson diagonalization with overlap
     ethr =  1.00E-02,  avg # of iterations = 10.0

     total cpu time spent up to now is      211.3 secs

     total energy              =   -2579.35952056 Ry
     estimated scf accuracy    <    1594.09222199 Ry

     iteration #  3     ecut=    50.00 Ry     beta= 0.70
     Davidson diagonalization with overlap
     ethr =  1.00E-02,  avg # of iterations =  8.5

     total cpu time spent up to now is      280.3 secs

     total energy              =   -2694.91539969 Ry
     estimated scf accuracy    <     141.36567655 Ry

     iteration #  4     ecut=    50.00 Ry     beta= 0.70
     Davidson diagonalization with overlap
     ethr =  1.00E-02,  avg # of iterations =  2.2

     total cpu time spent up to now is      321.8 secs

     total energy              =   -2693.53498704 Ry
     estimated scf accuracy    <      97.87076189 Ry

     iteration #  5     ecut=    50.00 Ry     beta= 0.70
     Davidson diagonalization with overlap
     ethr =  1.00E-02,  avg # of iterations =  1.0

     total cpu time spent up to now is      359.3 secs

     total energy              =   -2691.64842582 Ry
     estimated scf accuracy    <      80.91305979 Ry

     iteration #  6     ecut=    50.00 Ry     beta= 0.70
     Davidson diagonalization with overlap
     ethr =  1.00E-02,  avg # of iterations =  1.0

     total cpu time spent up to now is      396.8 secs

     total energy              =   -2687.71709902 Ry
     estimated scf accuracy    <      40.48038845 Ry

     iteration #  7     ecut=    50.00 Ry     beta= 0.70
     Davidson diagonalization with overlap
     ethr =  1.00E-02,  avg # of iterations =  5.4

     total cpu time spent up to now is      438.4 secs

     total energy              =   -2690.28596101 Ry
     estimated scf accuracy    <      85.26350728 Ry

     iteration #  8     ecut=    50.00 Ry     beta= 0.70
     Davidson diagonalization with overlap
     ethr =  1.00E-02,  avg # of iterations =  1.0

     total cpu time spent up to now is      475.7 secs

     total energy              =   -2690.78048714 Ry
     estimated scf accuracy    <      79.83519490 Ry

     iteration #  9     ecut=    50.00 Ry     beta= 0.70
     Davidson diagonalization with overlap
     ethr =  1.00E-02,  avg # of iterations =  1.0

     total cpu time spent up to now is      513.6 secs

     total energy              =   -2690.48811485 Ry
     estimated scf accuracy    <      61.60627827 Ry

     iteration # 10     ecut=    50.00 Ry     beta= 0.70
     Davidson diagonalization with overlap
     ethr =  1.00E-02,  avg # of iterations =  1.0

     negative rho (up, down):  2.035E-07 0.000E+00

     total cpu time spent up to now is      551.6 secs

     total energy              =   -2691.26757752 Ry
     estimated scf accuracy    <      22.01102511 Ry

     iteration # 11     ecut=    50.00 Ry     beta= 0.70
     Davidson diagonalization with overlap
     ethr =  1.00E-02,  avg # of iterations =  1.0

     negative rho (up, down):  4.945E-07 0.000E+00

     total cpu time spent up to now is      589.5 secs

     total energy              =   -2691.22112721 Ry
     estimated scf accuracy    <      70.38633942 Ry

     iteration # 12     ecut=    50.00 Ry     beta= 0.70
     Davidson diagonalization with overlap
     ethr =  1.00E-02,  avg # of iterations =  1.0

     negative rho (up, down):  1.351E-07 0.000E+00

     total cpu time spent up to now is      627.2 secs

     total energy              =   -2691.05269660 Ry
     estimated scf accuracy    <      61.41471504 Ry

     iteration # 13     ecut=    50.00 Ry     beta= 0.70
     Davidson diagonalization with overlap
     ethr =  1.00E-02,  avg # of iterations =  1.0

     negative rho (up, down):  2.873E-06 0.000E+00

     total cpu time spent up to now is      665.2 secs

     total energy              =   -2690.91227201 Ry
     estimated scf accuracy    <      12.16622791 Ry

     iteration # 14     ecut=    50.00 Ry     beta= 0.70
     Davidson diagonalization with overlap
     ethr =  9.29E-03,  avg # of iterations =  1.0

     negative rho (up, down):  3.072E-07 0.000E+00

     total cpu time spent up to now is      702.8 secs

     total energy              =   -2690.67558445 Ry
     estimated scf accuracy    <      53.40700972 Ry

     iteration # 15     ecut=    50.00 Ry     beta= 0.70
     Davidson diagonalization with overlap
     ethr =  9.29E-03,  avg # of iterations =  1.0

     negative rho (up, down):  3.525E-06 0.000E+00

     total cpu time spent up to now is      740.3 secs

     total energy              =   -2690.64594032 Ry
     estimated scf accuracy    <      71.67183788 Ry

     iteration # 16     ecut=    50.00 Ry     beta= 0.70
     Davidson diagonalization with overlap
     ethr =  9.29E-03,  avg # of iterations =  1.0

     negative rho (up, down):  2.136E-06 0.000E+00

     total cpu time spent up to now is      778.1 secs

     total energy              =   -2691.01601596 Ry
     estimated scf accuracy    <      54.76445018 Ry

     iteration # 17     ecut=    50.00 Ry     beta= 0.70
     Davidson diagonalization with overlap
     ethr =  9.29E-03,  avg # of iterations =  1.0

     negative rho (up, down):  1.040E-05 0.000E+00

     total cpu time spent up to now is      815.8 secs

     total energy              =   -2690.98554431 Ry
     estimated scf accuracy    <      22.01635996 Ry

     iteration # 18     ecut=    50.00 Ry     beta= 0.70
     Davidson diagonalization with overlap
     ethr =  9.29E-03,  avg # of iterations =  1.0

     negative rho (up, down):  1.636E-05 0.000E+00

     total cpu time spent up to now is      854.1 secs

     total energy              =   -2690.98988236 Ry
     estimated scf accuracy    <       5.56302168 Ry

     iteration # 19     ecut=    50.00 Ry     beta= 0.70
     Davidson diagonalization with overlap
     ethr =  4.25E-03,  avg # of iterations =  1.0

     negative rho (up, down):  2.509E-05 0.000E+00

     total cpu time spent up to now is      892.0 secs

     total energy              =   -2690.99857012 Ry
     estimated scf accuracy    <       0.54366346 Ry

     iteration # 20     ecut=    50.00 Ry     beta= 0.70
     Davidson diagonalization with overlap
     ethr =  4.15E-04,  avg # of iterations =  1.1

     negative rho (up, down):  4.039E-05 0.000E+00

     total cpu time spent up to now is      930.1 secs

     total energy              =   -2691.00058613 Ry
     estimated scf accuracy    <       2.36971608 Ry

     iteration # 21     ecut=    50.00 Ry     beta= 0.70
     Davidson diagonalization with overlap
     ethr =  4.15E-04,  avg # of iterations =  1.0

     negative rho (up, down):  6.388E-05 0.000E+00

     total cpu time spent up to now is      968.0 secs

     total energy              =   -2690.99998420 Ry
     estimated scf accuracy    <       0.65676526 Ry

     iteration # 22     ecut=    50.00 Ry     beta= 0.70
     Davidson diagonalization with overlap
     ethr =  4.15E-04,  avg # of iterations =  1.0

     negative rho (up, down):  5.331E-05 0.000E+00

     total cpu time spent up to now is     1005.6 secs

     total energy              =   -2691.00306038 Ry
     estimated scf accuracy    <       0.43818228 Ry

     iteration # 23     ecut=    50.00 Ry     beta= 0.70
     Davidson diagonalization with overlap
     ethr =  3.34E-04,  avg # of iterations =  1.6

     negative rho (up, down):  5.806E-05 0.000E+00

     total cpu time spent up to now is     1044.0 secs

     total energy              =   -2691.00420288 Ry
     estimated scf accuracy    <       0.05299817 Ry

     iteration # 24     ecut=    50.00 Ry     beta= 0.70
     Davidson diagonalization with overlap
     ethr =  4.05E-05,  avg # of iterations = 10.0

     total cpu time spent up to now is     1088.9 secs

     total energy              =   -2691.01674656 Ry
     estimated scf accuracy    <       0.01890810 Ry

     iteration # 25     ecut=    50.00 Ry     beta= 0.70
     Davidson diagonalization with overlap
     ethr =  1.44E-05,  avg # of iterations =  3.6

     negative rho (up, down):  5.873E-06 0.000E+00

     total cpu time spent up to now is     1129.7 secs

     total energy              =   -2691.01214011 Ry
     estimated scf accuracy    <       0.65943013 Ry

     iteration # 26     ecut=    50.00 Ry     beta= 0.70
     Davidson diagonalization with overlap
     ethr =  1.44E-05,  avg # of iterations =  1.5

     negative rho (up, down):  1.145E-05 0.000E+00

     total cpu time spent up to now is     1168.2 secs

     total energy              =   -2691.01273345 Ry
     estimated scf accuracy    <       0.05675356 Ry

     iteration # 27     ecut=    50.00 Ry     beta= 0.70
     Davidson diagonalization with overlap
     ethr =  1.44E-05,  avg # of iterations =  1.0

     negative rho (up, down):  1.885E-08 0.000E+00

     total cpu time spent up to now is     1205.7 secs

     total energy              =   -2691.01808210 Ry
     estimated scf accuracy    <       0.05519651 Ry

     iteration # 28     ecut=    50.00 Ry     beta= 0.70
     Davidson diagonalization with overlap
     ethr =  1.44E-05,  avg # of iterations =  2.0

     negative rho (up, down):  1.620E-06 0.000E+00

     total cpu time spent up to now is     1244.9 secs

     total energy              =   -2691.00537697 Ry
     estimated scf accuracy    <       0.49831042 Ry

     iteration # 29     ecut=    50.00 Ry     beta= 0.70
     Davidson diagonalization with overlap
     ethr =  1.44E-05,  avg # of iterations =  1.0

     negative rho (up, down):  1.578E-05 0.000E+00

     total cpu time spent up to now is     1282.5 secs

     total energy              =   -2691.01577359 Ry
     estimated scf accuracy    <       0.02750814 Ry

     iteration # 30     ecut=    50.00 Ry     beta= 0.70
     Davidson diagonalization with overlap
     ethr =  1.44E-05,  avg # of iterations =  2.0

     negative rho (up, down):  6.267E-08 0.000E+00

     total cpu time spent up to now is     1322.1 secs

     total energy              =   -2691.01963953 Ry
     estimated scf accuracy    <       0.66337938 Ry

     iteration # 31     ecut=    50.00 Ry     beta= 0.70
     Davidson diagonalization with overlap
     ethr =  1.44E-05,  avg # of iterations =  1.0

     negative rho (up, down):  2.408E-06 0.000E+00

     total cpu time spent up to now is     1359.3 secs

     total energy              =   -2691.01922232 Ry
     estimated scf accuracy    <       0.41344411 Ry

     iteration # 32     ecut=    50.00 Ry     beta= 0.70
     Davidson diagonalization with overlap
     ethr =  1.44E-05,  avg # of iterations =  1.0

     negative rho (up, down):  3.192E-06 0.000E+00

     total cpu time spent up to now is     1396.7 secs

     total energy              =   -2691.02004682 Ry
     estimated scf accuracy    <       0.09508348 Ry

     iteration # 33     ecut=    50.00 Ry     beta= 0.70
     Davidson diagonalization with overlap
     ethr =  1.44E-05,  avg # of iterations =  1.0

     negative rho (up, down):  7.227E-07 0.000E+00

     total cpu time spent up to now is     1433.9 secs

     total energy              =   -2691.02438807 Ry
     estimated scf accuracy    <       0.01671859 Ry

     iteration # 34     ecut=    50.00 Ry     beta= 0.70
     Davidson diagonalization with overlap
     ethr =  1.28E-05,  avg # of iterations =  1.0

     negative rho (up, down):  7.444E-07 0.000E+00

     total cpu time spent up to now is     1471.4 secs

     total energy              =   -2691.02446942 Ry
     estimated scf accuracy    <       0.01271653 Ry

     iteration # 35     ecut=    50.00 Ry     beta= 0.70
     Davidson diagonalization with overlap
     ethr =  9.71E-06,  avg # of iterations =  1.0

     negative rho (up, down):  3.835E-07 0.000E+00

     total cpu time spent up to now is     1508.7 secs

     total energy              =   -2691.02622495 Ry
     estimated scf accuracy    <       0.00336930 Ry

     iteration # 36     ecut=    50.00 Ry     beta= 0.70
     Davidson diagonalization with overlap
     ethr =  2.57E-06,  avg # of iterations =  1.0

     negative rho (up, down):  1.018E-06 0.000E+00

     total cpu time spent up to now is     1546.0 secs

     total energy              =   -2691.02599656 Ry
     estimated scf accuracy    <       0.00419960 Ry

     iteration # 37     ecut=    50.00 Ry     beta= 0.70
     Davidson diagonalization with overlap
     ethr =  2.57E-06,  avg # of iterations =  1.1

     total cpu time spent up to now is     1583.5 secs

     total energy              =   -2691.02826819 Ry
     estimated scf accuracy    <       0.00625321 Ry

     iteration # 38     ecut=    50.00 Ry     beta= 0.70
     Davidson diagonalization with overlap
     ethr =  2.57E-06,  avg # of iterations =  1.0

     negative rho (up, down):  2.415E-07 0.000E+00

     total cpu time spent up to now is     1620.8 secs

     total energy              =   -2691.02799896 Ry
     estimated scf accuracy    <       0.01174975 Ry

     iteration # 39     ecut=    50.00 Ry     beta= 0.70
     Davidson diagonalization with overlap
     ethr =  2.57E-06,  avg # of iterations =  1.0

     negative rho (up, down):  6.746E-08 0.000E+00

     total cpu time spent up to now is     1658.0 secs

     total energy              =   -2691.02846579 Ry
     estimated scf accuracy    <       0.07242343 Ry

     iteration # 40     ecut=    50.00 Ry     beta= 0.70
     Davidson diagonalization with overlap
     ethr =  2.57E-06,  avg # of iterations =  1.0

     total cpu time spent up to now is     1694.8 secs

     total energy              =   -2691.03024943 Ry
     estimated scf accuracy    <       0.00698379 Ry

     iteration # 41     ecut=    50.00 Ry     beta= 0.70
     Davidson diagonalization with overlap
     ethr =  2.57E-06,  avg # of iterations =  1.0

     negative rho (up, down):  7.286E-08 0.000E+00

     total cpu time spent up to now is     1731.9 secs

     total energy              =   -2691.02956237 Ry
     estimated scf accuracy    <       0.07272095 Ry

     iteration # 42     ecut=    50.00 Ry     beta= 0.70
     Davidson diagonalization with overlap
     ethr =  2.57E-06,  avg # of iterations =  1.0

     negative rho (up, down):  1.854E-08 0.000E+00

     total cpu time spent up to now is     1769.0 secs

     total energy              =   -2691.03028295 Ry
     estimated scf accuracy    <       0.05126711 Ry

     iteration # 43     ecut=    50.00 Ry     beta= 0.70
     Davidson diagonalization with overlap
     ethr =  2.57E-06,  avg # of iterations =  1.0

     negative rho (up, down):  2.397E-07 0.000E+00

     total cpu time spent up to now is     1806.2 secs

     total energy              =   -2691.02968639 Ry
     estimated scf accuracy    <       0.05163312 Ry

     iteration # 44     ecut=    50.00 Ry     beta= 0.70
     Davidson diagonalization with overlap
     ethr =  2.57E-06,  avg # of iterations =  1.0

     negative rho (up, down):  2.926E-07 0.000E+00

     total cpu time spent up to now is     1843.5 secs

     total energy              =   -2691.02997887 Ry
     estimated scf accuracy    <       0.00693440 Ry

     iteration # 45     ecut=    50.00 Ry     beta= 0.70
     Davidson diagonalization with overlap
     ethr =  2.57E-06,  avg # of iterations =  1.0

     negative rho (up, down):  1.044E-08 0.000E+00

     total cpu time spent up to now is     1880.9 secs

     total energy              =   -2691.03109854 Ry
     estimated scf accuracy    <       0.00208050 Ry

     iteration # 46     ecut=    50.00 Ry     beta= 0.70
     Davidson diagonalization with overlap
     ethr =  1.59E-06,  avg # of iterations =  1.0

     negative rho (up, down):  1.320E-07 0.000E+00

     total cpu time spent up to now is     1918.3 secs

     total energy              =   -2691.03138799 Ry
     estimated scf accuracy    <       0.00227101 Ry

     iteration # 47     ecut=    50.00 Ry     beta= 0.70
     Davidson diagonalization with overlap
     ethr =  1.59E-06,  avg # of iterations =  1.0

     total cpu time spent up to now is     1955.4 secs

     total energy              =   -2691.03159419 Ry
     estimated scf accuracy    <       0.00273113 Ry

     iteration # 48     ecut=    50.00 Ry     beta= 0.70
     Davidson diagonalization with overlap
     ethr =  1.59E-06,  avg # of iterations =  1.0

     negative rho (up, down):  4.344E-08 0.000E+00

     total cpu time spent up to now is     1992.8 secs

     total energy              =   -2691.03196990 Ry
     estimated scf accuracy    <       0.00368447 Ry

     iteration # 49     ecut=    50.00 Ry     beta= 0.70
     Davidson diagonalization with overlap
     ethr =  1.59E-06,  avg # of iterations =  1.0

     total cpu time spent up to now is     2030.1 secs

     total energy              =   -2691.03228889 Ry
     estimated scf accuracy    <       0.00741823 Ry

     iteration # 50     ecut=    50.00 Ry     beta= 0.70
     Davidson diagonalization with overlap
     ethr =  1.59E-06,  avg # of iterations =  1.0

     total cpu time spent up to now is     2067.4 secs

     total energy              =   -2691.03206329 Ry
     estimated scf accuracy    <       0.02586171 Ry

     iteration # 51     ecut=    50.00 Ry     beta= 0.70
     Davidson diagonalization with overlap
     ethr =  1.59E-06,  avg # of iterations =  1.0

     total cpu time spent up to now is     2105.0 secs

     total energy              =   -2691.03225460 Ry
     estimated scf accuracy    <       0.04251756 Ry

     iteration # 52     ecut=    50.00 Ry     beta= 0.70
     Davidson diagonalization with overlap
     ethr =  1.59E-06,  avg # of iterations =  1.0

     total cpu time spent up to now is     2142.4 secs

     total energy              =   -2691.03245124 Ry
     estimated scf accuracy    <       0.03468351 Ry

     iteration # 53     ecut=    50.00 Ry     beta= 0.70
     Davidson diagonalization with overlap
     ethr =  1.59E-06,  avg # of iterations =  1.0

     total cpu time spent up to now is     2179.9 secs

     total energy              =   -2691.03255078 Ry
     estimated scf accuracy    <       0.00939621 Ry

     iteration # 54     ecut=    50.00 Ry     beta= 0.70
     Davidson diagonalization with overlap
     ethr =  1.59E-06,  avg # of iterations =  1.0

     total cpu time spent up to now is     2217.6 secs

     total energy              =   -2691.03252755 Ry
     estimated scf accuracy    <       0.00806312 Ry

     iteration # 55     ecut=    50.00 Ry     beta= 0.70
     Davidson diagonalization with overlap
     ethr =  1.59E-06,  avg # of iterations =  1.0

     total cpu time spent up to now is     2255.3 secs

     total energy              =   -2691.03261223 Ry
     estimated scf accuracy    <       0.00316944 Ry

     iteration # 56     ecut=    50.00 Ry     beta= 0.70
     Davidson diagonalization with overlap
     ethr =  1.59E-06,  avg # of iterations =  1.0

     total cpu time spent up to now is     2292.8 secs

     total energy              =   -2691.03281038 Ry
     estimated scf accuracy    <       0.00053372 Ry

     iteration # 57     ecut=    50.00 Ry     beta= 0.70
     Davidson diagonalization with overlap
     ethr =  4.07E-07,  avg # of iterations =  1.0

     total cpu time spent up to now is     2330.3 secs

     total energy              =   -2691.03282604 Ry
     estimated scf accuracy    <       0.00010926 Ry

     iteration # 58     ecut=    50.00 Ry     beta= 0.70
     Davidson diagonalization with overlap
     ethr =  8.34E-08,  avg # of iterations =  1.0

     total cpu time spent up to now is     2367.8 secs

     total energy              =   -2691.03284947 Ry
     estimated scf accuracy    <       0.00011932 Ry

     iteration # 59     ecut=    50.00 Ry     beta= 0.70
     Davidson diagonalization with overlap
     ethr =  8.34E-08,  avg # of iterations =  1.0

     total cpu time spent up to now is     2405.5 secs

     total energy              =   -2691.03285966 Ry
     estimated scf accuracy    <       0.00005237 Ry

     iteration # 60     ecut=    50.00 Ry     beta= 0.70
     Davidson diagonalization with overlap
     ethr =  4.00E-08,  avg # of iterations =  1.4

     total cpu time spent up to now is     2443.6 secs

     total energy              =   -2691.03285270 Ry
     estimated scf accuracy    <       0.00040499 Ry

     iteration # 61     ecut=    50.00 Ry     beta= 0.70
     Davidson diagonalization with overlap
     ethr =  4.00E-08,  avg # of iterations =  1.0

     total cpu time spent up to now is     2481.4 secs

     total energy              =   -2691.03285834 Ry
     estimated scf accuracy    <       0.00051801 Ry

     iteration # 62     ecut=    50.00 Ry     beta= 0.70
     Davidson diagonalization with overlap
     ethr =  4.00E-08,  avg # of iterations =  1.0

     total cpu time spent up to now is     2519.4 secs

     total energy              =   -2691.03286295 Ry
     estimated scf accuracy    <       0.00075021 Ry

     iteration # 63     ecut=    50.00 Ry     beta= 0.70
     Davidson diagonalization with overlap
     ethr =  4.00E-08,  avg # of iterations =  1.0

     total cpu time spent up to now is     2557.0 secs

     total energy              =   -2691.03286562 Ry
     estimated scf accuracy    <       0.00010808 Ry

     iteration # 64     ecut=    50.00 Ry     beta= 0.70
     Davidson diagonalization with overlap
     ethr =  4.00E-08,  avg # of iterations =  1.0

     total cpu time spent up to now is     2594.5 secs

     total energy              =   -2691.03286506 Ry
     estimated scf accuracy    <       0.00068470 Ry

     iteration # 65     ecut=    50.00 Ry     beta= 0.70
     Davidson diagonalization with overlap
     ethr =  4.00E-08,  avg # of iterations =  1.0

     total cpu time spent up to now is     2631.9 secs

     total energy              =   -2691.03286374 Ry
     estimated scf accuracy    <       0.00007263 Ry

     iteration # 66     ecut=    50.00 Ry     beta= 0.70
     Davidson diagonalization with overlap
     ethr =  4.00E-08,  avg # of iterations =  1.0

     total cpu time spent up to now is     2669.4 secs

     total energy              =   -2691.03286199 Ry
     estimated scf accuracy    <       0.00009293 Ry

     iteration # 67     ecut=    50.00 Ry     beta= 0.70
     Davidson diagonalization with overlap
     ethr =  4.00E-08,  avg # of iterations =  1.0

     total cpu time spent up to now is     2707.1 secs

     total energy              =   -2691.03287042 Ry
     estimated scf accuracy    <       0.00001528 Ry

     iteration # 68     ecut=    50.00 Ry     beta= 0.70
     Davidson diagonalization with overlap
     ethr =  1.17E-08,  avg # of iterations =  1.0

     total cpu time spent up to now is     2744.7 secs

     total energy              =   -2691.03287105 Ry
     estimated scf accuracy    <       0.00002334 Ry

     iteration # 69     ecut=    50.00 Ry     beta= 0.70
     Davidson diagonalization with overlap
     ethr =  1.17E-08,  avg # of iterations =  1.0

     total cpu time spent up to now is     2782.5 secs

     total energy              =   -2691.03287297 Ry
     estimated scf accuracy    <       0.00000431 Ry

     iteration # 70     ecut=    50.00 Ry     beta= 0.70
     Davidson diagonalization with overlap
     ethr =  3.29E-09,  avg # of iterations =  1.0

     total cpu time spent up to now is     2820.4 secs

     total energy              =   -2691.03287212 Ry
     estimated scf accuracy    <       0.00002245 Ry

     iteration # 71     ecut=    50.00 Ry     beta= 0.70
     Davidson diagonalization with overlap
     ethr =  3.29E-09,  avg # of iterations =  1.0

     total cpu time spent up to now is     2858.1 secs

     total energy              =   -2691.03287300 Ry
     estimated scf accuracy    <       0.00003646 Ry

     iteration # 72     ecut=    50.00 Ry     beta= 0.70
     Davidson diagonalization with overlap
     ethr =  3.29E-09,  avg # of iterations =  1.0

     total cpu time spent up to now is     2895.7 secs

     total energy              =   -2691.03287347 Ry
     estimated scf accuracy    <       0.00001640 Ry

     iteration # 73     ecut=    50.00 Ry     beta= 0.70
     Davidson diagonalization with overlap
     ethr =  3.29E-09,  avg # of iterations =  1.0

     total cpu time spent up to now is     2934.1 secs

     total energy              =   -2691.03287356 Ry
     estimated scf accuracy    <       0.00000225 Ry

     iteration # 74     ecut=    50.00 Ry     beta= 0.70
     Davidson diagonalization with overlap
     ethr =  1.72E-09,  avg # of iterations =  1.0

     total cpu time spent up to now is     2972.7 secs

     total energy              =   -2691.03287361 Ry
     estimated scf accuracy    <       0.00004058 Ry

     iteration # 75     ecut=    50.00 Ry     beta= 0.70
     Davidson diagonalization with overlap
     ethr =  1.72E-09,  avg # of iterations =  1.0

     total cpu time spent up to now is     3011.8 secs

     total energy              =   -2691.03287408 Ry
     estimated scf accuracy    <       0.00000107 Ry

     iteration # 76     ecut=    50.00 Ry     beta= 0.70
     Davidson diagonalization with overlap
     ethr =  8.14E-10,  avg # of iterations =  1.0

     total cpu time spent up to now is     3051.3 secs

     total energy              =   -2691.03287342 Ry
     estimated scf accuracy    <       0.00000379 Ry

     iteration # 77     ecut=    50.00 Ry     beta= 0.70
     Davidson diagonalization with overlap
     ethr =  8.14E-10,  avg # of iterations =  2.0

     total cpu time spent up to now is     3091.3 secs

     total energy              =   -2691.03287387 Ry
     estimated scf accuracy    <       0.00000435 Ry

     iteration # 78     ecut=    50.00 Ry     beta= 0.70
     Davidson diagonalization with overlap
     ethr =  8.14E-10,  avg # of iterations =  1.0

     total cpu time spent up to now is     3129.4 secs

     total energy              =   -2691.03287388 Ry
     estimated scf accuracy    <       0.00000228 Ry

     iteration # 79     ecut=    50.00 Ry     beta= 0.70
     Davidson diagonalization with overlap
     ethr =  8.14E-10,  avg # of iterations =  1.0

     total cpu time spent up to now is     3167.4 secs

     total energy              =   -2691.03287408 Ry
     estimated scf accuracy    <       0.00000112 Ry

     iteration # 80     ecut=    50.00 Ry     beta= 0.70
     Davidson diagonalization with overlap
     ethr =  8.14E-10,  avg # of iterations =  1.0

     total cpu time spent up to now is     3205.6 secs

     total energy              =   -2691.03287406 Ry
     estimated scf accuracy    <       0.00000338 Ry

     iteration # 81     ecut=    50.00 Ry     beta= 0.70
     Davidson diagonalization with overlap
     ethr =  8.14E-10,  avg # of iterations =  1.0

     total cpu time spent up to now is     3243.5 secs

     total energy              =   -2691.03287406 Ry
     estimated scf accuracy    <       0.00000792 Ry

     iteration # 82     ecut=    50.00 Ry     beta= 0.70
     Davidson diagonalization with overlap
     ethr =  8.14E-10,  avg # of iterations =  1.0

     total cpu time spent up to now is     3281.3 secs

     total energy              =   -2691.03287424 Ry
     estimated scf accuracy    <       0.00000348 Ry

     iteration # 83     ecut=    50.00 Ry     beta= 0.70
     Davidson diagonalization with overlap
     ethr =  8.14E-10,  avg # of iterations =  1.0

     total cpu time spent up to now is     3319.1 secs

     End of self-consistent calculation

          k = 0.0000 0.0000 0.0000 ( 21779 PWs)   bands (ev):

  -136.2525-136.1688-136.1433-136.0854-136.0518-136.0167-135.9935-135.9346
  -135.9228-135.8736 -40.5166 -40.4322 -30.3583 -26.7265 -18.1043 -18.0865
   -18.0501 -18.0302 -17.9771 -17.9645 -14.3963 -14.1814 -14.0722 -11.9813
   -11.9145 -11.8893  -7.9137  -6.7832  -6.2937  -6.1665  -6.0053  -5.7967
    -5.6587  -3.3927  -3.2013  -3.0758  -2.3615  -2.1192  -1.9638  -1.9076
    -1.7624  -1.6784  -1.5770  -1.4656  -1.2602  -1.1592  -1.1533  -0.9726
    -0.8941  -0.7316  -0.6222  -0.4936  -0.4372  -0.0713   0.0237   0.0809
     0.4865   0.8076   1.9331   1.9482   1.9648   2.0021   2.0145   2.0219
     2.0456   2.0841   2.4502   2.4855   2.4985   2.5345   2.5673   2.5969
     3.7592   4.1508   4.5371   4.7559   4.8697   4.9660   5.2756

          k =-0.0746 0.0081-0.5282 ( 21718 PWs)   bands (ev):

  -136.0900-136.0381-136.0286-136.0056-135.9441-135.9298-135.9232-135.9045
  -135.8355-135.7734 -40.5165 -40.4321 -30.3583 -26.7267 -18.1043 -18.0864
   -18.0499 -18.0302 -17.9773 -17.9646 -14.3810 -14.1821 -14.0717 -12.0094
   -11.9171 -11.8894  -7.8888  -6.6730  -6.2493  -6.1474  -6.0698  -5.9202
    -5.7943  -3.4027  -3.2085  -3.0709  -2.2298  -1.9509  -1.7768  -1.7609
    -1.5892  -1.5606  -1.5386  -1.3509  -1.2470  -1.1482  -1.0944  -0.9918
    -0.9216  -0.8554  -0.7905  -0.6978  -0.6321  -0.4821  -0.1258   0.1047
     0.5068   0.8323   1.9891   2.0033   2.0255   2.0379   2.0592   2.0769
     2.0804   2.1015   2.4865   2.5031   2.5188   2.5359   2.5823   2.6257
     3.5263   4.2552   4.4549   4.8200   5.0129   5.0989   5.4411

          k =-0.0196-0.4829 0.0114 ( 21800 PWs)   bands (ev):

  -136.2663-136.1992-136.1507-136.1305-136.1078-136.0921-136.0217-136.0023
  -135.9339-135.9063 -40.5166 -40.4322 -30.3583 -26.7265 -18.1043 -18.0864
   -18.0500 -18.0302 -17.9773 -17.9646 -14.3963 -14.1816 -14.0723 -11.9813
   -11.9145 -11.8899  -7.9072  -6.6723  -6.3986  -6.1627  -6.0630  -5.7916
    -5.6645  -3.3923  -3.1970  -3.0725  -2.1659  -2.0978  -1.9514  -1.9216
    -1.7273  -1.6575  -1.5122  -1.4566  -1.3802  -1.2562  -1.1301  -1.0668
    -0.8936  -0.8172  -0.6511  -0.5323  -0.2648  -0.1528   0.0417   0.0542
     0.4823   0.8094   1.9390   1.9446   1.9627   1.9920   2.0073   2.0195
     2.0390   2.0562   2.4224   2.4407   2.4792   2.4967   2.5379   2.5668
     3.7801   4.1774   4.5894   4.7486   4.8706   5.1311   5.2485

          k =-0.0942-0.4748-0.5168 ( 21740 PWs)   bands (ev):

  -136.2445-136.1040-136.0799-136.0585-136.0354-136.0094-135.9164-135.8695
  -135.8259-135.7181 -40.5166 -40.4321 -30.3583 -26.7267 -18.1043 -18.0866
   -18.0501 -18.0302 -17.9771 -17.9644 -14.3810 -14.1823 -14.0719 -12.0093
   -11.9171 -11.8900  -7.8866  -6.6179  -6.2654  -6.1201  -6.0822  -5.9982
    -5.7966  -3.3981  -3.1970  -3.0629  -2.1856  -1.8856  -1.8528  -1.7197
    -1.6506  -1.5445  -1.4565  -1.3197  -1.2473  -1.1935  -1.1324  -1.0213
    -0.9583  -0.8681  -0.8186  -0.6855  -0.6100  -0.4506  -0.1313   0.1116
     0.4619   0.8383   1.9625   1.9701   2.0143   2.0240   2.0467   2.0516
     2.0812   2.1416   2.4307   2.4468   2.5145   2.5528   2.5673   2.6038
     3.5273   4.2544   4.5246   4.8636   5.0105   5.1554   5.3018

          k =-0.5042-0.0211 0.0155 ( 21738 PWs)   bands (ev):

  -136.1688-136.1242-136.0576-136.0116-136.0036-135.9935-135.9037-135.8828
  -135.8436-135.8117 -40.5166 -40.4321 -30.3583 -26.7265 -18.1043 -18.0865
   -18.0501 -18.0279 -17.9771 -17.9644 -14.4009 -14.1834 -14.0750 -11.9807
   -11.9148 -11.8894  -7.8769  -6.7134  -6.3177  -6.1489  -6.1027  -5.8010
    -5.6810  -3.4494  -3.1814  -3.0464  -2.2259  -2.1157  -1.9508  -1.7990
    -1.7387  -1.6473  -1.5821  -1.4835  -1.4148  -1.2373  -1.1653  -0.9834
    -0.8607  -0.7835  -0.6779  -0.5486  -0.2368  -0.1279   0.0215   0.0716
     0.3696   0.9137   1.9626   1.9824   2.0009   2.0442   2.0494   2.0665
     2.0835   2.1111   2.4636   2.4832   2.5109   2.5452   2.5580   2.6206
     3.6537   4.1139   4.6722   4.8017   5.0281   5.1474   5.2346

          k =-0.5788-0.0130-0.5128 ( 21748 PWs)   bands (ev):

  -136.1514-136.1431-136.0781-136.0737-136.0249-135.9981-135.9661-135.9225
  -135.8246-135.7848 -40.5166 -40.4321 -30.3583 -26.7267 -18.1043 -18.0864
   -18.0499 -18.0279 -17.9773 -17.9645 -14.3858 -14.1838 -14.0746 -12.0083
   -11.9174 -11.8894  -7.8594  -6.5603  -6.2518  -6.2319  -6.0873  -5.9638
    -5.8088  -3.4569  -3.1837  -3.0424  -2.0850  -1.8974  -1.8630  -1.7842
    -1.6286  -1.5360  -1.4592  -1.2739  -1.2188  -1.1552  -1.1233  -1.0146
    -0.9967  -0.8953  -0.8049  -0.7096  -0.6846  -0.4744  -0.0897   0.1163
     0.3579   0.9373   1.9634   1.9914   2.0124   2.0269   2.0453   2.0638
     2.0685   2.0759   2.4672   2.4822   2.4861   2.4991   2.5724   2.6051
     3.4585   4.3417   4.4936   4.9833   5.0890   5.1409   5.1885

          k =-0.5238-0.5040 0.0269 ( 21762 PWs)   bands (ev):

  -136.2063-136.1756-136.1196-136.0832-136.0391-136.0045-135.9567-135.9255
  -135.8962-135.7955 -40.5166 -40.4322 -30.3583 -26.7265 -18.1043 -18.0864
   -18.0500 -18.0279 -17.9773 -17.9645 -14.4010 -14.1836 -14.0752 -11.9807
   -11.9147 -11.8897  -7.8735  -6.6085  -6.4220  -6.1989  -6.0829  -5.7983
    -5.6782  -3.4426  -3.1766  -3.0240  -2.1774  -2.1115  -1.9346  -1.9043
    -1.8293  -1.7479  -1.4603  -1.3349  -1.3169  -1.2189  -1.0804  -1.0179
    -0.8913  -0.8300  -0.7549  -0.5404  -0.2341  -0.2045   0.0060   0.0728
     0.3471   0.9045   1.9262   1.9633   2.0145   2.0220   2.0503   2.0533
     2.0667   2.0921   2.4358   2.4660   2.4920   2.5114   2.5486   2.5920
     3.6657   4.1215   4.5637   4.8113   4.9832   5.1086   5.3068

          k =-0.5984-0.4959-0.5013 ( 21718 PWs)   bands (ev):

  -136.0953-136.0723-136.0412-136.0299-135.9918-135.9378-135.9194-135.8605
  -135.7914-135.7518 -40.5166 -40.4321 -30.3583 -26.7267 -18.1043 -18.0866
   -18.0501 -18.0279 -17.9772 -17.9643 -14.3859 -14.1840 -14.0748 -12.0083
   -11.9173 -11.8897  -7.8578  -6.5693  -6.2547  -6.1808  -6.1030  -5.9692
    -5.8272  -3.4598  -3.1845  -3.0250  -2.1777  -1.9678  -1.8796  -1.6949
    -1.6340  -1.4854  -1.3504  -1.2723  -1.2264  -1.1690  -1.1130  -1.0351
    -0.9796  -0.9031  -0.8363  -0.7289  -0.6595  -0.4782  -0.1164   0.1469
     0.3708   0.9119   1.9789   2.0235   2.0398   2.0581   2.0657   2.0764
     2.0908   2.1228   2.4579   2.4689   2.5148   2.5281   2.5850   2.6251
     3.4189   4.3677   4.4661   4.8606   4.9039   5.0822   5.2387

     the Fermi energy is     2.2262 ev

!    total energy              =   -2691.03287427 Ry
     estimated scf accuracy    <       0.00000024 Ry
     smearing contrib. (-TS)   =       0.01142346 Ry
     internal energy E=F+TS    =   -2691.04429773 Ry

     The total energy is F=E-TS. E is the sum of the following terms:
     one-electron contribution =   -1982.00418769 Ry
     hartree contribution      =     980.25033576 Ry
     xc contribution           =    -270.46024553 Ry
     ewald contribution        =    -532.81378163 Ry
     one-center paw contrib.   =    -886.01641863 Ry

     convergence has been achieved in  83 iterations

     Forces acting on atoms (cartesian axes, Ry/au):

     atom    1 type  5   force =    -0.00125093   -0.00556244    0.00825960
     atom    2 type  2   force =    -0.01282134    0.01456058   -0.03114039
     atom    3 type  3   force =     0.02363214    0.00557400   -0.00014953
     atom    4 type  3   force =    -0.00542942   -0.00008529   -0.00845303
     atom    5 type  1   force =     0.00676078   -0.00006073    0.00741232
     atom    6 type  1   force =    -0.01745873    0.00018353   -0.01097733
     atom    7 type  1   force =    -0.00870815   -0.00557415   -0.00094806
     atom    8 type  1   force =     0.01081430    0.00070168    0.01045292
     atom    9 type  1   force =     0.00643121   -0.00439686   -0.00427056
     atom   10 type  6   force =    -0.00987401   -0.01990115    0.02816739
     atom   11 type  1   force =    -0.01262979   -0.00604120    0.00606824
     atom   12 type  1   force =     0.00259457   -0.00683853   -0.02088220
     atom   13 type  4   force =     0.00026616   -0.00162055   -0.00035566
     atom   14 type  4   force =    -0.00303642    0.00060233    0.00429308
     atom   15 type  4   force =    -0.00362781   -0.00072880   -0.00644511
     atom   16 type  4   force =     0.00069620   -0.00337948   -0.00510079
     atom   17 type  4   force =     0.00316941    0.00869769   -0.00273846
     atom   18 type  4   force =     0.00738615    0.00236682    0.00133903
     atom   19 type  4   force =     0.00079598   -0.00523733    0.00189479
     atom   20 type  4   force =    -0.00141494    0.00079134   -0.00404423
     atom   21 type  4   force =    -0.00442671   -0.00151448   -0.00000781
     atom   22 type  4   force =     0.00414446   -0.00243009    0.00313903
     atom   23 type  4   force =    -0.00285781    0.00935007   -0.00030219
     atom   24 type  4   force =     0.00552282    0.00986338   -0.00604737
     atom   25 type  4   force =    -0.01691377   -0.00018411   -0.00519551
     atom   26 type  4   force =     0.00909970   -0.00432636    0.00795256
     atom   27 type  4   force =     0.01302684   -0.00491918    0.00612710
     atom   28 type  4   force =    -0.01604923   -0.00119729   -0.00576555
     atom   29 type  4   force =    -0.00518946   -0.01314733   -0.00227239
     atom   30 type  4   force =    -0.00215521   -0.02910301    0.00212881
     atom   31 type  4   force =     0.00726175    0.01524987    0.00412921
     atom   32 type  4   force =    -0.01218447    0.00679868   -0.00261566
     atom   33 type  4   force =    -0.00501135    0.00838628   -0.00167711
     atom   34 type  4   force =     0.01337456    0.01043997    0.03884670
     atom   35 type  4   force =     0.00807697   -0.00351014    0.00325982
     atom   36 type  4   force =     0.03161084    0.01398985   -0.02352899
     atom   37 type  4   force =     0.00705035   -0.00284603    0.00267998
     atom   38 type  4   force =    -0.01414710    0.00225224   -0.01448501
     atom   39 type  4   force =    -0.00172001    0.00572196   -0.00077834
     atom   40 type  4   force =    -0.00837437   -0.00071280    0.00670013
     atom   41 type  4   force =    -0.00783416   -0.00409190    0.00848293
     atom   42 type  4   force =     0.00780204    0.00673527    0.00601279
     atom   43 type  4   force =     0.00673292    0.00518033   -0.00403936
     atom   44 type  4   force =    -0.00313496   -0.00003665    0.00487420

     Total force =     0.114349     Total SCF correction =     0.000144


     Computing stress (Cartesian axis) and pressure

          total   stress  (Ry/bohr**3)                   (kbar)     P=    -2657.31
  -0.01806708   0.00001051   0.00000514        -2657.76        1.55        0.76
   0.00001051  -0.01804996  -0.00002302            1.55    -2655.24       -3.39
   0.00000514  -0.00002302  -0.01807501            0.76       -3.39    -2658.93


     BFGS Geometry Optimization
     Energy error            =      0.0E+00
     Gradient error          =      3.9E-02
     Cell gradient error     =      1.8E-02


     number of scf cycles    =   1
     number of bfgs steps    =   0

     enthalpy new            =   -2691.0328742681 Ry

     new trust radius        =       0.5000000000 bohr
     new conv_thr            =       0.0000010000 Ry

     new unit-cell volume =   3211.20002 a.u.^3 (   475.85075 Ang^3 )
     density =      0.15354 g/cm^3

CELL_PARAMETERS (angstrom)
   7.801797230  -0.342361833  -1.107062162
  -0.336815007   8.184008499   0.173162203
   0.221030413   0.166573166   7.437463066

ATOMIC_POSITIONS (angstrom)
K             3.7448241671        3.4969495539       -0.5205717571
Ba            4.0332129856        0.1395768020        3.5646386621
Gd           -0.0685501405       -0.0724624608        0.0085506774
Gd           -0.0519047307        4.2063899831        3.7698316589
B             6.7382315077        5.8089295437        5.1269158049
B             0.9098704702        2.0474335967        5.0662708958
B             0.8205732503        2.2169778150        1.3589016494
B             6.6685290513        6.0293826159        1.4362552600
B             5.3169388214        3.0217481521        2.3739090094
La            2.9697085594        7.2052005897        0.0284773217
B             2.4330337936        5.0023925171        4.1815111722
B             5.4692472868        0.7210181540        5.9553008531
H             6.8136498313        5.7857116171        6.3072405116
H             0.8679773441        2.0820687862        3.8828792385
H             0.8158935842        2.2163367281        0.1838281589
H             6.7543167886        5.9987695811        2.6182086381
H             7.4346792319        6.6522153724        4.6996338460
H             0.2326723843        2.9066451800        5.5361858549
H             0.0710290150        1.3942730352        1.7664162460
H             7.4225575528        5.2513823850        0.9483873655
H             7.1560434132        4.7697187753        4.7390779002
H             0.3914357735        1.0246315697        5.3531342060
H             0.4122966817        3.2675663391        1.7105862031
H             7.0010249720        7.1220233272        1.1771796543
H             5.6417683479        6.0072387057        4.8028569639
H             2.0197128338        2.1522212188        5.3964890208
H             1.8921130020        2.0442772481        1.7517548029
H             5.5869217101        5.8060674595        1.1057137452
H             4.6077881553        2.1008784932        2.3537475517
H             3.3338739027        5.4683895580        0.7890697252
H             3.1248924386        5.9433148042        4.1857173252
H             4.7695082165        1.6245650279        5.8013565277
H             4.6945369326        3.9541698230        2.1215472286
H             3.3413640831        8.5532967770        1.3888762245
H             3.0593264241        4.0586286674        4.4181858448
H             4.8280152478       -0.2672613623        5.8050789453
H             5.7710541835        3.1470407065        3.4591490009
H             1.4863570802        7.7700410973        6.5016074787
H             1.9907243979        4.8651197544        3.0939263474
H             5.7374858388        0.5517158261       -0.4236466007
H             6.1645889493        2.8521472460        1.5434262779
H             1.1908107391        7.4053398547        1.1450918569
H             1.5685933331        5.1226086990        5.0003689697
H             6.2395599919        0.7179440394        5.0617637687



     Writing output data file ./tmp/KBaLaGd2B7H32.save/
