
     Program PWSCF v.6.1 starts on 23Nov2025 at 20:20: 8 

     This program is part of the open-source Quantum ESPRESSO suite
     for quantum simulation of materials; please cite
         "P. Giannozzi et al., J. Phys.:Condens. Matter 21 395502 (2009);
          URL http://www.quantum-espresso.org", 
     in publications or presentations arising from this work. More details at
     http://www.quantum-espresso.org/quote

     Parallel version (MPI & OpenMP), running on      12 processor cores
     Number of MPI processes:                 1
     Threads/MPI process:                    12
     Waiting for input...
     Reading input from standard input

     Current dimensions of program PWSCF are:
     Max number of different atomic species (ntypx) = 10
     Max number of k-points (npk) =  40000
     Max angular momentum in pseudopotentials (lmaxx) =  3
               file Al.UPF: wavefunction(s)  3S 3P renormalized
               file H.UPF: wavefunction(s)  1S renormalized

     Subspace diagonalization in iterative solution of the eigenvalue problem:
     a serial algorithm will be used


     G-vector sticks info
     --------------------
     sticks:   dense  smooth     PW     G-vecs:    dense   smooth      PW
     Sum        3923    1959    551               235903    83399   12721



     bravais-lattice index     =            0
     lattice parameter (alat)  =      10.6409  a.u.
     unit-cell volume          =    1746.5009 (a.u.)^3
     number of atoms/cell      =           24
     number of atomic types    =            4
     number of electrons       =        52.00
     number of Kohn-Sham states=           31
     kinetic-energy cutoff     =      50.0000  Ry
     charge density cutoff     =     400.0000  Ry
     convergence threshold     =      1.0E-08
     mixing beta               =       0.7000
     number of iterations used =            8  plain     mixing
     Exchange-correlation      =  SLA  PW   PBE  PBE ( 1  4  3  4 0 0)

     celldm(1)=  10.640872  celldm(2)=   0.000000  celldm(3)=   0.000000
     celldm(4)=   0.000000  celldm(5)=   0.000000  celldm(6)=   0.000000

     crystal axes: (cart. coord. in units of alat)
               a(1) = (   0.995218  -0.000000  -0.097679 )  
               a(2) = (  -0.000000   1.088208  -0.000000 )  
               a(3) = (  -0.127384  -0.000000   1.350967 )  

     reciprocal axes: (cart. coord. in units 2 pi/alat)
               b(1) = (  1.014191  0.000000  0.095629 )  
               b(2) = (  0.000000  0.918942  0.000000 )  
               b(3) = (  0.073329  0.000000  0.747125 )  


     PseudoPot. # 1 for Al read from file:
     C:/Users/Acer/Desktop/Quantum_Espresso/pseudo/Al.UPF
     MD5 check sum: da22aad9e98c60ce88de1cf925d56fcc
     Pseudo is Projector augmented-wave + core cor, Zval =  3.0
     Generated using "atomic" code by A. Dal Corso  v.5.1.2
     Shape of augmentation charge: PSQ
     Using radial grid of 1135 points,  6 beta functions with: 
                l(1) =   0
                l(2) =   0
                l(3) =   1
                l(4) =   1
                l(5) =   2
                l(6) =   2
     Q(r) pseudized with 0 coefficients 


     PseudoPot. # 2 for  H read from file:
     C:/Users/Acer/Desktop/Quantum_Espresso/pseudo/H.UPF
     MD5 check sum: 850d63dcbcc06c5de8b44e0ab9f952da
     Pseudo is Projector augmented-wave, Zval =  1.0
     Generated using "atomic" code by A. Dal Corso  v.5.1.2
     Shape of augmentation charge: PSQ
     Using radial grid of  929 points,  2 beta functions with: 
                l(1) =   0
                l(2) =   0
     Q(r) pseudized with 0 coefficients 


     PseudoPot. # 3 for Sr read from file:
     C:/Users/Acer/Desktop/Quantum_Espresso/pseudo/Sr.UPF
     MD5 check sum: 71c4688e601547c0814ef38edf55aea6
     Pseudo is Ultrasoft + core correction, Zval = 10.0
     Generated by new atomic code, or converted to UPF format
     Using radial grid of  883 points,  6 beta functions with: 
                l(1) =   0
                l(2) =   0
                l(3) =   1
                l(4) =   1
                l(5) =   2
                l(6) =   2
     Q(r) pseudized with  8 coefficients,  rinner =    1.200   1.200   1.200
                                                       1.200   1.200

     PseudoPot. # 4 for Zr read from file:
     C:/Users/Acer/Desktop/Quantum_Espresso/pseudo/Zr.UPF
     MD5 check sum: 56bebf6edcd38415d7dd1a973c3f3403
     Pseudo is Ultrasoft + core correction, Zval = 12.0
     Generated by new atomic code, or converted to UPF format
     Using radial grid of  887 points,  6 beta functions with: 
                l(1) =   0
                l(2) =   0
                l(3) =   1
                l(4) =   1
                l(5) =   2
                l(6) =   2
     Q(r) pseudized with  6 coefficients,  rinner =    1.200   1.200   1.200
                                                       1.200   1.200

     atomic species   valence    mass     pseudopotential
        Al             3.00     1.00000     Al( 1.00)
        H              1.00     1.00000      H( 1.00)
        Sr            10.00     1.00000     Sr( 1.00)
        Zr            12.00     1.00000     Zr( 1.00)

      2 Sym. Ops. (no inversion) found



   Cartesian axes

     site n.     atom                  positions (alat units)
         1           Sr  tau(   1) = (   0.0914595  -0.0000000   1.0778814  )
         2           Al  tau(   2) = (   0.8112583   0.0000000   0.0651955  )
         3           Al  tau(   3) = (   0.6387887   0.5441042   0.6993403  )
         4           Al  tau(   4) = (  -0.0243194   0.5441042   0.0151148  )
         5           Al  tau(   5) = (   0.2082329   0.5441042   0.5465993  )
         6           Zr  tau(   6) = (   0.4400872  -0.0000000   0.4613431  )
         7           H   tau(   7) = (   0.7906240   0.7650242   0.0575414  )
         8           H   tau(   8) = (   0.1285033   0.0000000   0.2315702  )
         9           H   tau(   9) = (   0.6862997   0.5441042   0.9968749  )
        10           H   tau(  10) = (   0.0342165   0.7481122   1.2651994  )
        11           H   tau(  11) = (   0.7737457  -0.0000000   0.3787294  )
        12           H   tau(  12) = (   0.5060872   0.5441042   0.4181476  )
        13           H   tau(  13) = (   0.6301436   0.8618185   0.6692900  )
        14           H   tau(  14) = (   0.3533640   0.5441042   0.8110665  )
        15           H   tau(  15) = (   0.1108258   0.5441042   0.2814023  )
        16           H   tau(  16) = (   0.4997135  -0.0000000   0.0842866  )
        17           H   tau(  17) = (   0.6871504  -0.0000000   1.1234318  )
        18           H   tau(  18) = (   0.3560989  -0.0000000   0.7808174  )
        19           H   tau(  19) = (   0.2148322   0.8454961   0.5587182  )
        20           H   tau(  20) = (   0.6301436   0.2263898   0.6692900  )
        21           H   tau(  21) = (   0.0342165   0.3400962   1.2651994  )
        22           H   tau(  22) = (   0.2148322   0.2427140   0.5587182  )
        23           H   tau(  23) = (   0.7906240   0.3231859   0.0575414  )
        24           H   tau(  24) = (  -0.0607611   0.5441042   0.7128532  )

     number of k points=    30  Methfessel-Paxton smearing, width (Ry)=  0.0100
                       cart. coord. in units 2pi/alat
        k(    1) = (   0.0000000   0.0000000   0.0000000), wk =   0.0312500
        k(    2) = (   0.0183322   0.0000000   0.1867812), wk =   0.0625000
        k(    3) = (  -0.0366644   0.0000000  -0.3735624), wk =   0.0312500
        k(    4) = (   0.0000000   0.2297354   0.0000000), wk =   0.0625000
        k(    5) = (   0.0183322   0.2297354   0.1867812), wk =   0.1250000
        k(    6) = (  -0.0366644   0.2297354  -0.3735624), wk =   0.0625000
        k(    7) = (   0.0000000  -0.4594708   0.0000000), wk =   0.0312500
        k(    8) = (   0.0183322  -0.4594708   0.1867812), wk =   0.0625000
        k(    9) = (  -0.0366644  -0.4594708  -0.3735624), wk =   0.0312500
        k(   10) = (   0.2535477   0.0000000   0.0239073), wk =   0.0625000
        k(   11) = (   0.2718799   0.0000000   0.2106885), wk =   0.0625000
        k(   12) = (   0.2168833   0.0000000  -0.3496550), wk =   0.0625000
        k(   13) = (   0.2352155   0.0000000  -0.1628738), wk =   0.0625000
        k(   14) = (   0.2535477   0.2297354   0.0239073), wk =   0.1250000
        k(   15) = (   0.2718799   0.2297354   0.2106885), wk =   0.1250000
        k(   16) = (   0.2168833   0.2297354  -0.3496550), wk =   0.1250000
        k(   17) = (   0.2352155   0.2297354  -0.1628738), wk =   0.1250000
        k(   18) = (   0.2535477  -0.4594708   0.0239073), wk =   0.0625000
        k(   19) = (   0.2718799  -0.4594708   0.2106885), wk =   0.0625000
        k(   20) = (   0.2168833  -0.4594708  -0.3496550), wk =   0.0625000
        k(   21) = (   0.2352155  -0.4594708  -0.1628738), wk =   0.0625000
        k(   22) = (  -0.5070954   0.0000000  -0.0478147), wk =   0.0312500
        k(   23) = (  -0.4887632   0.0000000   0.1389665), wk =   0.0625000
        k(   24) = (  -0.5437599   0.0000000  -0.4213771), wk =   0.0312500
        k(   25) = (  -0.5070954   0.2297354  -0.0478147), wk =   0.0625000
        k(   26) = (  -0.4887632   0.2297354   0.1389665), wk =   0.1250000
        k(   27) = (  -0.5437599   0.2297354  -0.4213771), wk =   0.0625000
        k(   28) = (  -0.5070954  -0.4594708  -0.0478147), wk =   0.0312500
        k(   29) = (  -0.4887632  -0.4594708   0.1389665), wk =   0.0625000
        k(   30) = (  -0.5437599  -0.4594708  -0.4213771), wk =   0.0312500

     Dense  grid:   235903 G-vectors     FFT dimensions: (  72,  75,  96)

     Smooth grid:    83399 G-vectors     FFT dimensions: (  48,  54,  72)

     Estimated max dynamical RAM per process >     355.52MB

     Initial potential from superposition of free atoms
     Check: negative starting charge=   -0.061039

     starting charge   51.95487, renormalised to   52.00000

     negative rho (up, down):  6.109E-02 0.000E+00
     Starting wfc are   60 randomized atomic wfcs
     Checking if some PAW data can be deallocated... 

     total cpu time spent up to now is       44.6 secs

     Self-consistent Calculation

     iteration #  1     ecut=    50.00 Ry     beta=0.70
     Davidson diagonalization with overlap
     ethr =  1.00E-02,  avg # of iterations =  2.9

     negative rho (up, down):  6.287E-02 0.000E+00

     total cpu time spent up to now is       77.9 secs

     total energy              =    -351.41340765 Ry
     Harris-Foulkes estimate   =    -352.06153944 Ry
     estimated scf accuracy    <       1.37729626 Ry

     iteration #  2     ecut=    50.00 Ry     beta=0.70
     Davidson diagonalization with overlap
     ethr =  2.65E-03,  avg # of iterations =  2.1

     negative rho (up, down):  6.290E-02 0.000E+00

     total cpu time spent up to now is      111.3 secs

     total energy              =    -351.42408109 Ry
     Harris-Foulkes estimate   =    -351.66292991 Ry
     estimated scf accuracy    <       0.34845342 Ry

     iteration #  3     ecut=    50.00 Ry     beta=0.70
     Davidson diagonalization with overlap
     ethr =  6.70E-04,  avg # of iterations =  6.1

     negative rho (up, down):  6.299E-02 0.000E+00

     total cpu time spent up to now is      160.5 secs

     total energy              =    -351.53398713 Ry
     Harris-Foulkes estimate   =    -351.71652947 Ry
     estimated scf accuracy    <       0.46970209 Ry

     iteration #  4     ecut=    50.00 Ry     beta=0.70
     Davidson diagonalization with overlap
     ethr =  6.70E-04,  avg # of iterations =  3.5

     negative rho (up, down):  6.319E-02 0.000E+00

     total cpu time spent up to now is      199.2 secs

     total energy              =    -351.59878847 Ry
     Harris-Foulkes estimate   =    -351.60172089 Ry
     estimated scf accuracy    <       0.00764824 Ry

     iteration #  5     ecut=    50.00 Ry     beta=0.70
     Davidson diagonalization with overlap
     ethr =  1.47E-05,  avg # of iterations =  5.4

     negative rho (up, down):  6.327E-02 0.000E+00

     total cpu time spent up to now is      260.2 secs

     total energy              =    -351.60050931 Ry
     Harris-Foulkes estimate   =    -351.60060053 Ry
     estimated scf accuracy    <       0.00041475 Ry

     iteration #  6     ecut=    50.00 Ry     beta=0.70
     Davidson diagonalization with overlap
     ethr =  7.98E-07,  avg # of iterations =  4.0

     negative rho (up, down):  6.325E-02 0.000E+00

     total cpu time spent up to now is      313.4 secs

     total energy              =    -351.60061904 Ry
     Harris-Foulkes estimate   =    -351.60062223 Ry
     estimated scf accuracy    <       0.00003954 Ry

     iteration #  7     ecut=    50.00 Ry     beta=0.70
     Davidson diagonalization with overlap
     ethr =  7.60E-08,  avg # of iterations =  2.6

     negative rho (up, down):  6.323E-02 0.000E+00

     total cpu time spent up to now is      352.9 secs

     total energy              =    -351.60062714 Ry
     Harris-Foulkes estimate   =    -351.60063013 Ry
     estimated scf accuracy    <       0.00000849 Ry

     iteration #  8     ecut=    50.00 Ry     beta=0.70
     Davidson diagonalization with overlap
     ethr =  1.63E-08,  avg # of iterations =  2.0

     negative rho (up, down):  6.321E-02 0.000E+00

     total cpu time spent up to now is      384.9 secs

     total energy              =    -351.60062884 Ry
     Harris-Foulkes estimate   =    -351.60062904 Ry
     estimated scf accuracy    <       0.00000051 Ry

     iteration #  9     ecut=    50.00 Ry     beta=0.70
     Davidson diagonalization with overlap
     ethr =  9.90E-10,  avg # of iterations =  3.0

     negative rho (up, down):  6.320E-02 0.000E+00

     total cpu time spent up to now is      419.5 secs

     total energy              =    -351.60062900 Ry
     Harris-Foulkes estimate   =    -351.60062900 Ry
     estimated scf accuracy    <       0.00000002 Ry

     iteration # 10     ecut=    50.00 Ry     beta=0.70
     Davidson diagonalization with overlap
     ethr =  3.47E-11,  avg # of iterations =  2.8

     negative rho (up, down):  6.320E-02 0.000E+00

     total cpu time spent up to now is      456.2 secs

     End of self-consistent calculation

          k = 0.0000 0.0000 0.0000 ( 10409 PWs)   bands (ev):

   -46.1393 -31.9514 -24.2909 -24.1719 -24.1009 -14.0398 -13.9934 -13.9463
    -6.3328  -4.6614  -3.2766  -3.1089  -1.8522  -1.7819  -1.3549  -1.0230
    -0.9945  -0.7427  -0.7126  -0.4865  -0.1953   0.3621   0.5945   1.0001
     1.5667   1.8835   4.4195   4.4779   5.3687   5.9784   6.2924

          k = 0.0183 0.0000 0.1868 ( 10400 PWs)   bands (ev):

   -46.1393 -31.9514 -24.2909 -24.1719 -24.1009 -14.0401 -13.9934 -13.9466
    -6.2610  -4.9009  -3.3804  -2.5596  -1.8416  -1.8167  -1.3188  -1.2695
    -1.0403  -0.7673  -0.7132  -0.4498  -0.2075   0.0232   0.6554   1.2429
     1.5776   1.9499   4.3928   4.6378   5.3436   5.9996   6.3638

          k =-0.0367 0.0000-0.3736 ( 10396 PWs)   bands (ev):

   -46.1393 -31.9514 -24.2909 -24.1719 -24.1008 -14.0403 -13.9934 -13.9469
    -6.1709  -5.1239  -3.3623  -1.9786  -1.9249  -1.8305  -1.4534  -1.2046
    -1.0796  -0.9388  -0.7558  -0.6908  -0.3096   0.1220   0.6737   1.3838
     1.5887   2.0245   4.3663   4.8634   5.2287   6.0238   6.2590

          k = 0.0000 0.2297 0.0000 ( 10428 PWs)   bands (ev):

   -46.1393 -31.9513 -24.2911 -24.1719 -24.1009 -14.0397 -13.9956 -13.9460
    -6.1945  -4.6124  -3.6527  -3.1416  -2.2100  -1.7211  -1.4434  -1.1027
    -0.9494  -0.6403  -0.3667  -0.2490   0.1567   0.3838   0.5636   0.9159
     1.5418   1.6892   4.4049   4.6776   5.0807   6.0015   6.3798

          k = 0.0183 0.2297 0.1868 ( 10411 PWs)   bands (ev):

   -46.1393 -31.9513 -24.2911 -24.1719 -24.1008 -14.0399 -13.9956 -13.9462
    -6.1314  -4.7774  -3.8114  -2.6453  -2.3438  -1.7388  -1.3666  -1.1902
    -0.7979  -0.6690  -0.4429  -0.3131  -0.0443   0.2326   0.6153   1.1356
     1.5268   1.7368   4.4770   4.6600   5.1450   5.9351   6.4142

          k =-0.0367 0.2297-0.3736 ( 10406 PWs)   bands (ev):

   -46.1393 -31.9513 -24.2911 -24.1719 -24.1008 -14.0402 -13.9955 -13.9465
    -6.0546  -4.9586  -3.8180  -2.6217  -1.9238  -1.8683  -1.2347  -1.1584
    -0.9651  -0.7534  -0.6255  -0.4542   0.0326   0.2285   0.5956   1.2725
     1.5229   1.7702   4.5300   4.6909   5.1513   5.9074   6.3484

          k = 0.0000-0.4595 0.0000 ( 10430 PWs)   bands (ev):

   -46.1393 -31.9513 -24.2914 -24.1719 -24.1009 -14.0396 -13.9977 -13.9456
    -6.0154  -4.6464  -3.9181  -3.0949  -2.5913  -1.6722  -1.3663  -1.2656
    -0.9371  -0.5207  -0.3702   0.1612   0.4223   0.5388   0.7628   0.7700
     1.0339   1.8171   4.4979   4.6723   4.8801   6.0420   6.4131

          k = 0.0183-0.4595 0.1868 ( 10412 PWs)   bands (ev):

   -46.1393 -31.9513 -24.2914 -24.1719 -24.1008 -14.0398 -13.9977 -13.9459
    -5.9684  -4.5785  -4.2741  -2.8225  -2.5652  -1.7129  -1.3190  -1.1421
    -0.8160  -0.5436  -0.4013  -0.1689   0.1015   0.6751   0.7656   0.9932
     1.1008   1.7658   4.5457   4.5505   5.1184   5.9162   6.4403

          k =-0.0367-0.4595-0.3736 ( 10436 PWs)   bands (ev):

   -46.1393 -31.9513 -24.2914 -24.1719 -24.1008 -14.0400 -13.9977 -13.9461
    -5.9141  -4.5112  -4.4994  -3.0277  -1.9752  -1.8652  -1.1186  -1.0885
    -0.9005  -0.6721  -0.5403  -0.2983   0.0251   0.6955   0.7774   1.1119
     1.1940   1.6769   4.4966   4.6063   5.2786   5.7901   6.3813

          k = 0.2535 0.0000 0.0239 ( 10412 PWs)   bands (ev):

   -46.1393 -31.9513 -24.2908 -24.1724 -24.1009 -14.0414 -13.9931 -13.9495
    -6.1073  -4.7562  -3.6063  -2.9389  -2.2047  -1.7819  -1.5247  -1.0914
    -0.8847  -0.6954  -0.5750  -0.3832  -0.1000   0.1085   0.7117   1.4399
     1.4703   2.0028   4.4597   4.7226   5.2410   5.6033   6.2142

          k = 0.2719 0.0000 0.2107 ( 10412 PWs)   bands (ev):

   -46.1393 -31.9513 -24.2908 -24.1724 -24.1009 -14.0416 -13.9931 -13.9497
    -6.0054  -5.0220  -3.6077  -2.7289  -1.7657  -1.7325  -1.5822  -1.2005
    -1.1413  -0.8703  -0.6666  -0.4730  -0.0184   0.1571   0.7037   1.4526
     1.5911   1.9594   4.4134   4.8683   5.2711   5.6826   6.1485

          k = 0.2169 0.0000-0.3497 ( 10414 PWs)   bands (ev):

   -46.1393 -31.9513 -24.2908 -24.1724 -24.1009 -14.0417 -13.9931 -13.9500
    -5.9962  -4.9856  -3.6344  -2.8795  -1.9242  -1.7812  -1.5092  -1.1591
    -1.0570  -0.7483  -0.6466  -0.2801   0.0931   0.2553   0.5326   1.2641
     1.4565   2.0869   4.4308   4.8961   5.1303   5.7969   5.9229

          k = 0.2352 0.0000-0.1629 ( 10421 PWs)   bands (ev):

   -46.1393 -31.9513 -24.2908 -24.1724 -24.1009 -14.0414 -13.9931 -13.9498
    -6.0990  -4.6934  -3.6616  -3.1186  -2.1445  -1.7960  -1.5266  -1.0587
    -0.9804  -0.8052  -0.4399  -0.0913   0.0048   0.3464   0.6891   0.9300
     1.4438   2.1207   4.4765   4.7317   5.1243   5.7101   6.0447

          k = 0.2535 0.2297 0.0239 ( 10427 PWs)   bands (ev):

   -46.1393 -31.9513 -24.2911 -24.1724 -24.1009 -14.0413 -13.9953 -13.9491
    -5.9766  -4.6348  -3.8576  -3.0802  -2.3523  -2.1687  -1.4142  -1.0398
    -0.9441  -0.6484  -0.3264  -0.1920   0.0452   0.3746   0.7107   1.2582
     1.6562   1.7347   4.5484   4.8692   5.1296   5.8784   6.2196

          k = 0.2719 0.2297 0.2107 ( 10427 PWs)   bands (ev):

   -46.1393 -31.9513 -24.2911 -24.1724 -24.1009 -14.0415 -13.9953 -13.9493
    -5.8848  -4.8749  -3.8730  -2.8786  -2.4483  -1.6956  -1.5083  -1.2402
    -0.9148  -0.7623  -0.4038  -0.2148   0.0498   0.3644   0.6527   1.3244
     1.5715   1.8337   4.6235   4.8902   5.2494   5.7601   6.2046

          k = 0.2169 0.2297-0.3497 ( 10430 PWs)   bands (ev):

   -46.1393 -31.9513 -24.2911 -24.1724 -24.1009 -14.0415 -13.9953 -13.9496
    -5.8851  -4.8195  -3.8098  -3.1395  -2.5231  -1.8177  -1.4865  -1.0237
    -0.7634  -0.7035  -0.4280  -0.0864   0.1214   0.4118   0.5471   1.1921
     1.4932   1.8843   4.6109   4.7933   5.1549   5.7947   6.0905

          k = 0.2352 0.2297-0.1629 ( 10428 PWs)   bands (ev):

   -46.1393 -31.9513 -24.2911 -24.1724 -24.1009 -14.0413 -13.9953 -13.9494
    -5.9756  -4.5605  -3.6626  -3.5336  -2.4215  -2.0423  -1.4552  -1.1039
    -0.8619  -0.5303  -0.3300   0.0371   0.2257   0.3888   0.6979   0.9487
     1.5462   1.8438   4.5136   4.7514   5.1256   5.8659   6.1878

          k = 0.2535-0.4595 0.0239 ( 10448 PWs)   bands (ev):

   -46.1393 -31.9513 -24.2914 -24.1724 -24.1009 -14.0412 -13.9974 -13.9487
    -5.8114  -4.4268  -4.2517  -3.1219  -2.7233  -2.1086  -1.4333  -1.1515
    -0.8420  -0.6586  -0.2738  -0.1604   0.3339   0.7358   0.9268   1.1918
     1.2068   1.8239   4.6912   4.8290   5.2439   5.8494   6.4509

          k = 0.2719-0.4595 0.2107 ( 10420 PWs)   bands (ev):

   -46.1393 -31.9513 -24.2914 -24.1724 -24.1009 -14.0414 -13.9974 -13.9489
    -5.7384  -4.5414  -4.3733  -2.9286  -2.8486  -1.6124  -1.5440  -1.2155
    -0.9316  -0.6381  -0.4121  -0.2096   0.3036   0.6932   0.9521   1.0987
     1.2760   1.8735   4.7591   4.9872   5.2436   5.7668   6.2967

          k = 0.2169-0.4595-0.3497 ( 10444 PWs)   bands (ev):

   -46.1393 -31.9513 -24.2914 -24.1724 -24.1008 -14.0414 -13.9974 -13.9492
    -5.7527  -4.4175  -4.3231  -3.2113  -2.9513  -1.7544  -1.5454  -1.0084
    -0.7697  -0.4654  -0.4099   0.0164   0.1248   0.6592   0.8990   1.0521
     1.3492   1.8090   4.6588   4.7023   5.4105   5.7341   6.1933

          k = 0.2352-0.4595-0.1629 ( 10428 PWs)   bands (ev):

   -46.1393 -31.9513 -24.2914 -24.1724 -24.1009 -14.0412 -13.9974 -13.9490
    -5.8222  -4.3823  -3.9760  -3.5910  -2.8243  -2.0225  -1.4778  -1.1349
    -0.7597  -0.4912  -0.2995   0.1705   0.3998   0.6446   0.8305   0.8904
     1.4755   1.7259   4.5863   4.6009   5.3689   5.8021   6.4102

          k =-0.5071 0.0000-0.0478 ( 10416 PWs)   bands (ev):

   -46.1393 -31.9513 -24.2908 -24.1729 -24.1010 -14.0432 -13.9929 -13.9524
    -5.6825  -5.1575  -3.7213  -3.0279  -1.9034  -1.6826  -1.6726  -1.2750
    -1.2237  -0.9048  -0.6338  -0.4183   0.2066   0.2800   0.8495   1.3077
     1.8349   2.1342   4.4916   5.1028   5.4495   5.5169   6.0586

          k =-0.4888 0.0000 0.1390 ( 10429 PWs)   bands (ev):

   -46.1393 -31.9513 -24.2908 -24.1729 -24.1009 -14.0432 -13.9929 -13.9527
    -5.7220  -5.0015  -3.9369  -3.0208  -2.0563  -1.7099  -1.7040  -1.1536
    -0.9772  -0.8183  -0.6953  -0.2895   0.2028   0.3515   0.8282   1.3133
     1.5094   2.1426   4.5119   4.9885   5.4096   5.5096   5.8349

          k =-0.5438 0.0000-0.4214 ( 10416 PWs)   bands (ev):

   -46.1393 -31.9513 -24.2908 -24.1729 -24.1009 -14.0432 -13.9929 -13.9530
    -5.7512  -4.7940  -4.1940  -3.0445  -2.1283  -1.7224  -1.6843  -1.0638
    -1.0282  -0.7791  -0.5453  -0.1240   0.3242   0.4541   0.8459   1.0038
     1.3189   2.1293   4.5307   4.8846   5.2751   5.5786   5.7119

          k =-0.5071 0.2297-0.0478 ( 10440 PWs)   bands (ev):

   -46.1393 -31.9512 -24.2911 -24.1729 -24.1009 -14.0430 -13.9950 -13.9520
    -5.5725  -5.0081  -3.8401  -3.1568  -2.5948  -1.7795  -1.5685  -1.3700
    -1.0957  -0.7624  -0.5567   0.0558   0.2364   0.4279   0.8054   1.3952
     1.8185   1.9304   4.6043   5.2594   5.3830   5.8283   6.1310

          k =-0.4888 0.2297 0.1390 ( 10427 PWs)   bands (ev):

   -46.1393 -31.9512 -24.2911 -24.1729 -24.1009 -14.0430 -13.9950 -13.9523
    -5.6165  -4.8432  -3.9514  -3.2700  -2.6047  -2.0001  -1.5539  -1.2247
    -0.9849  -0.5953  -0.3787   0.0054   0.2687   0.4177   0.7969   1.3304
     1.5732   1.9903   4.6028   5.1763   5.3227   5.7473   5.9500

          k =-0.5438 0.2297-0.4214 ( 10420 PWs)   bands (ev):

   -46.1393 -31.9512 -24.2911 -24.1729 -24.1009 -14.0430 -13.9950 -13.9525
    -5.6497  -4.6105  -4.1628  -3.3447  -2.6314  -2.0929  -1.4945  -1.3556
    -0.7361  -0.5168  -0.1658   0.0696   0.2574   0.4692   0.8796   0.9972
     1.4066   2.0349   4.5909   5.1399   5.2216   5.5939   5.9110

          k =-0.5071-0.4595-0.0478 ( 10476 PWs)   bands (ev):

   -46.1393 -31.9512 -24.2913 -24.1729 -24.1009 -14.0429 -13.9971 -13.9516
    -5.4436  -4.7729  -4.0945  -3.2253  -3.0526  -1.7280  -1.5799  -1.3487
    -1.1959  -0.7046  -0.5823   0.2656   0.3067   0.7214   1.0013   1.4150
     1.5830   1.8912   4.9329   5.0622   5.4388   6.1497   6.3612

          k =-0.4888-0.4595 0.1390 ( 10446 PWs)   bands (ev):

   -46.1393 -31.9512 -24.2913 -24.1729 -24.1009 -14.0429 -13.9971 -13.9518
    -5.4931  -4.5818  -4.0837  -3.5069  -3.0302  -1.9569  -1.6331  -1.3202
    -0.9582  -0.5173  -0.3000   0.2345   0.2595   0.7022   0.9521   1.3438
     1.4182   1.9716   4.9253   4.9788   5.3824   5.8639   6.1342

          k =-0.5438-0.4595-0.4214 ( 10420 PWs)   bands (ev):

   -46.1393 -31.9512 -24.2913 -24.1729 -24.1009 -14.0429 -13.9971 -13.9521
    -5.5317  -4.2656  -4.0724  -3.9024  -3.0099  -2.0744  -1.5762  -1.5303
    -0.6731  -0.3354  -0.0247   0.2025   0.3476   0.6861   0.9062   0.9339
     1.4237   2.0390   4.7728   5.0675   5.3582   5.5316   5.9971

     the Fermi energy is     3.4021 ev

!    total energy              =    -351.60062900 Ry
     Harris-Foulkes estimate   =    -351.60062900 Ry
     estimated scf accuracy    <          2.4E-09 Ry

     The total energy is the sum of the following terms:

     one-electron contribution =     -86.02365246 Ry
     hartree contribution      =      54.76245954 Ry
     xc contribution           =     -62.60410675 Ry
     ewald contribution        =    -119.04827822 Ry
     one-center paw contrib.   =    -138.68705111 Ry
     smearing contrib. (-TS)   =       0.00000000 Ry

     convergence has been achieved in  10 iterations

     Writing output data file 02_SrZrAl2H92.save

     init_run     :     73.05s CPU     44.15s WALL (       1 calls)
     electrons    :    678.64s CPU    411.58s WALL (       1 calls)

     Called by init_run:
     wfcinit      :     42.84s CPU     17.88s WALL (       1 calls)
     potinit      :      9.41s CPU      8.96s WALL (       1 calls)

     Called by electrons:
     c_bands      :    430.58s CPU    316.47s WALL (      10 calls)
     sum_band     :    183.61s CPU     68.54s WALL (      10 calls)
     v_of_rho     :      5.83s CPU      4.39s WALL (      11 calls)
     newd         :     52.31s CPU     19.28s WALL (      11 calls)
     PAW_pot      :     12.48s CPU      4.82s WALL (      11 calls)
     mix_rho      :      0.58s CPU      0.49s WALL (      10 calls)

     Called by c_bands:
     init_us_2    :      9.38s CPU      7.54s WALL (     630 calls)
     cegterg      :    410.55s CPU    294.71s WALL (     300 calls)

     Called by sum_band:
     sum_band:bec :      1.61s CPU      1.35s WALL (     300 calls)
     addusdens    :    107.30s CPU     23.92s WALL (      10 calls)

     Called by *egterg:
     h_psi        :    347.70s CPU    186.51s WALL (    1364 calls)
     s_psi        :     30.73s CPU     28.39s WALL (    1364 calls)
     g_psi        :      0.91s CPU      0.94s WALL (    1034 calls)
     cdiaghg      :     25.17s CPU     44.71s WALL (    1334 calls)

     Called by h_psi:
     h_psi:pot    :    346.42s CPU    184.78s WALL (    1364 calls)
     h_psi:calbec :     23.61s CPU     27.14s WALL (    1364 calls)
     vloc_psi     :    293.86s CPU    129.06s WALL (    1364 calls)
     add_vuspsi   :     28.89s CPU     28.57s WALL (    1364 calls)

     General routines
     calbec       :     31.02s CPU     36.56s WALL (    1664 calls)
     fft          :      2.20s CPU      1.51s WALL (     172 calls)
     ffts         :      0.09s CPU      0.06s WALL (      21 calls)
     fftw         :    267.67s CPU     92.34s WALL (   63826 calls)
     interpolate  :      0.50s CPU      0.35s WALL (      21 calls)
     davcio       :      0.03s CPU      0.10s WALL (      30 calls)

     Parallel routines
     fft_scatter  :      5.00s CPU     25.78s WALL (   64019 calls)

     PWSCF        : 12m32.23s CPU     7m36.60s WALL


   This run was terminated on:  20:27:44  23Nov2025            

=------------------------------------------------------------------------------=
   JOB DONE.
=------------------------------------------------------------------------------=
