
     Program PWSCF v.6.1 starts on 23Nov2025 at 20:27:45 

     This program is part of the open-source Quantum ESPRESSO suite
     for quantum simulation of materials; please cite
         "P. Giannozzi et al., J. Phys.:Condens. Matter 21 395502 (2009);
          URL http://www.quantum-espresso.org", 
     in publications or presentations arising from this work. More details at
     http://www.quantum-espresso.org/quote

     Parallel version (MPI & OpenMP), running on      12 processor cores
     Number of MPI processes:                 1
     Threads/MPI process:                    12
     Waiting for input...
     Reading input from standard input

     Current dimensions of program PWSCF are:
     Max number of different atomic species (ntypx) = 10
     Max number of k-points (npk) =  40000
     Max angular momentum in pseudopotentials (lmaxx) =  3

     Atomic positions and unit cell read from directory:
     ./tmp/02_SrZrAl2H92.save/

               file Al.UPF: wavefunction(s)  3S 3P renormalized
               file H.UPF: wavefunction(s)  1S renormalized

     Subspace diagonalization in iterative solution of the eigenvalue problem:
     a serial algorithm will be used


     G-vector sticks info
     --------------------
     sticks:   dense  smooth     PW     G-vecs:    dense   smooth      PW
     Sum        3923    1959    551               235903    83399   12721



     bravais-lattice index     =            0
     lattice parameter (alat)  =      10.6409  a.u.
     unit-cell volume          =    1746.5009 (a.u.)^3
     number of atoms/cell      =           24
     number of atomic types    =            4
     number of electrons       =        52.00
     number of Kohn-Sham states=           31
     kinetic-energy cutoff     =      50.0000  Ry
     charge density cutoff     =     400.0000  Ry
     Exchange-correlation      =  SLA  PW   PBE  PBE ( 1  4  3  4 0 0)

     celldm(1)=  10.640872  celldm(2)=   0.000000  celldm(3)=   0.000000
     celldm(4)=   0.000000  celldm(5)=   0.000000  celldm(6)=   0.000000

     crystal axes: (cart. coord. in units of alat)
               a(1) = (   0.995218  -0.000000  -0.097679 )  
               a(2) = (  -0.000000   1.088208  -0.000000 )  
               a(3) = (  -0.127384  -0.000000   1.350967 )  

     reciprocal axes: (cart. coord. in units 2 pi/alat)
               b(1) = (  1.014191  0.000000  0.095629 )  
               b(2) = (  0.000000  0.918942  0.000000 )  
               b(3) = (  0.073329  0.000000  0.747125 )  


     PseudoPot. # 1 for Al read from file:
     C:/Users/Acer/Desktop/Quantum_Espresso/pseudo/Al.UPF
     MD5 check sum: e89421766d8034880bfd87239630352a
     Pseudo is Projector augmented-wave + core cor, Zval =  3.0
     Generated using "atomic" code by A. Dal Corso  v.5.1.2
     Shape of augmentation charge: PSQ
     Using radial grid of 1135 points,  6 beta functions with: 
                l(1) =   0
                l(2) =   0
                l(3) =   1
                l(4) =   1
                l(5) =   2
                l(6) =   2
     Q(r) pseudized with 0 coefficients 


     PseudoPot. # 2 for  H read from file:
     C:/Users/Acer/Desktop/Quantum_Espresso/pseudo/H.UPF
     MD5 check sum: f872269930354f4c44a8fadb7eac41ed
     Pseudo is Projector augmented-wave, Zval =  1.0
     Generated using "atomic" code by A. Dal Corso  v.5.1.2
     Shape of augmentation charge: PSQ
     Using radial grid of  929 points,  2 beta functions with: 
                l(1) =   0
                l(2) =   0
     Q(r) pseudized with 0 coefficients 


     PseudoPot. # 3 for Sr read from file:
     C:/Users/Acer/Desktop/Quantum_Espresso/pseudo/Sr.UPF
     MD5 check sum: c68c63002e5401f2868976ad802e5de3
     Pseudo is Ultrasoft + core correction, Zval = 10.0
     Generated by new atomic code, or converted to UPF format
     Using radial grid of  883 points,  6 beta functions with: 
                l(1) =   0
                l(2) =   0
                l(3) =   1
                l(4) =   1
                l(5) =   2
                l(6) =   2
     Q(r) pseudized with  8 coefficients,  rinner =    1.200   1.200   1.200
                                                       1.200   1.200

     PseudoPot. # 4 for Zr read from file:
     C:/Users/Acer/Desktop/Quantum_Espresso/pseudo/Zr.UPF
     MD5 check sum: 41400efcc1c4b777902023850388155d
     Pseudo is Ultrasoft + core correction, Zval = 12.0
     Generated by new atomic code, or converted to UPF format
     Using radial grid of  887 points,  6 beta functions with: 
                l(1) =   0
                l(2) =   0
                l(3) =   1
                l(4) =   1
                l(5) =   2
                l(6) =   2
     Q(r) pseudized with  6 coefficients,  rinner =    1.200   1.200   1.200
                                                       1.200   1.200

     atomic species   valence    mass     pseudopotential
        Al             3.00     1.00000     Al( 1.00)
        H              1.00     1.00000      H( 1.00)
        Sr            10.00     1.00000     Sr( 1.00)
        Zr            12.00     1.00000     Zr( 1.00)

      2 Sym. Ops. (no inversion) found



   Cartesian axes

     site n.     atom                  positions (alat units)
         1           Sr  tau(   1) = (   0.0914595  -0.0000000   1.0778814  )
         2           Al  tau(   2) = (   0.8112583   0.0000000   0.0651955  )
         3           Al  tau(   3) = (   0.6387887   0.5441042   0.6993403  )
         4           Al  tau(   4) = (  -0.0243194   0.5441042   0.0151148  )
         5           Al  tau(   5) = (   0.2082329   0.5441042   0.5465993  )
         6           Zr  tau(   6) = (   0.4400872  -0.0000000   0.4613431  )
         7           H   tau(   7) = (   0.7906240   0.7650242   0.0575414  )
         8           H   tau(   8) = (   0.1285033   0.0000000   0.2315702  )
         9           H   tau(   9) = (   0.6862997   0.5441042   0.9968749  )
        10           H   tau(  10) = (   0.0342165   0.7481122   1.2651994  )
        11           H   tau(  11) = (   0.7737457  -0.0000000   0.3787294  )
        12           H   tau(  12) = (   0.5060872   0.5441042   0.4181476  )
        13           H   tau(  13) = (   0.6301436   0.8618185   0.6692900  )
        14           H   tau(  14) = (   0.3533640   0.5441042   0.8110665  )
        15           H   tau(  15) = (   0.1108258   0.5441042   0.2814023  )
        16           H   tau(  16) = (   0.4997135  -0.0000000   0.0842866  )
        17           H   tau(  17) = (   0.6871504  -0.0000000   1.1234318  )
        18           H   tau(  18) = (   0.3560989  -0.0000000   0.7808174  )
        19           H   tau(  19) = (   0.2148322   0.8454961   0.5587182  )
        20           H   tau(  20) = (   0.6301436   0.2263898   0.6692900  )
        21           H   tau(  21) = (   0.0342165   0.3400962   1.2651994  )
        22           H   tau(  22) = (   0.2148322   0.2427140   0.5587182  )
        23           H   tau(  23) = (   0.7906240   0.3231859   0.0575414  )
        24           H   tau(  24) = (  -0.0607611   0.5441042   0.7128532  )

     number of k points=   170 (tetrahedron method)

     Number of k-points >= 100: set verbosity='high' to print them.

     Dense  grid:   235903 G-vectors     FFT dimensions: (  72,  75,  96)

     Smooth grid:    83399 G-vectors     FFT dimensions: (  48,  54,  72)

     Estimated max dynamical RAM per process >     142.41MB

     The potential is recalculated from file :
     ./tmp/02_SrZrAl2H92.save/charge-density.dat


     negative rho (up, down):  6.320E-02 0.000E+00
     Starting wfc are   60 randomized atomic wfcs
     Checking if some PAW data can be deallocated... 

     Band Structure Calculation
     Davidson diagonalization with overlap

     ethr =  1.92E-11,  avg # of iterations = 27.5

     total cpu time spent up to now is     1221.3 secs

     End of band structure calculation

     Number of k-points >= 100: set verbosity='high' to print the bands.

     the Fermi energy is     3.0744 ev

     Writing output data file 02_SrZrAl2H92.save

     init_run     :     23.98s CPU     20.74s WALL (       1 calls)
     electrons    :   1700.14s CPU   1199.94s WALL (       1 calls)

     Called by init_run:
     wfcinit      :      0.00s CPU      0.00s WALL (       1 calls)
     potinit      :      1.27s CPU      0.90s WALL (       1 calls)

     Called by electrons:
     c_bands      :   1700.14s CPU   1199.92s WALL (       1 calls)
     v_of_rho     :      0.50s CPU      0.39s WALL (       1 calls)
     newd         :      4.94s CPU      1.54s WALL (       1 calls)
     PAW_pot      :      0.70s CPU      0.44s WALL (       1 calls)

     Called by c_bands:
     init_us_2    :      2.05s CPU      2.31s WALL (     170 calls)
     cegterg      :   1489.27s CPU   1102.47s WALL (     346 calls)

     Called by sum_band:

     Called by *egterg:
     h_psi        :   1218.02s CPU    628.51s WALL (    5184 calls)
     s_psi        :    104.41s CPU     87.67s WALL (    5184 calls)
     g_psi        :      3.66s CPU      4.08s WALL (    4668 calls)
     cdiaghg      :    132.17s CPU    215.19s WALL (    4838 calls)

     Called by h_psi:
     h_psi:pot    :   1213.11s CPU    622.57s WALL (    5184 calls)
     h_psi:calbec :     73.81s CPU     82.14s WALL (    5184 calls)
     vloc_psi     :   1051.44s CPU    452.26s WALL (    5184 calls)
     add_vuspsi   :     87.75s CPU     88.15s WALL (    5184 calls)

     General routines
     calbec       :     73.69s CPU     82.12s WALL (    5184 calls)
     fft          :      0.14s CPU      0.09s WALL (      13 calls)
     ffts         :      0.02s CPU      0.02s WALL (       1 calls)
     fftw         :    807.34s CPU    267.66s WALL (  178936 calls)
     interpolate  :      0.03s CPU      0.03s WALL (       1 calls)
     davcio       :      0.36s CPU      0.69s WALL (     170 calls)

     Parallel routines
     fft_scatter  :     17.86s CPU     76.69s WALL (  178950 calls)

     PWSCF        : 28m44.91s CPU    20m22.17s WALL


   This run was terminated on:  20:48: 7  23Nov2025            

=------------------------------------------------------------------------------=
   JOB DONE.
=------------------------------------------------------------------------------=
