
     Program PWSCF v.6.1 starts on 24Dec2025 at 10:58:40 

     This program is part of the open-source Quantum ESPRESSO suite
     for quantum simulation of materials; please cite
         "P. Giannozzi et al., J. Phys.:Condens. Matter 21 395502 (2009);
          URL http://www.quantum-espresso.org", 
     in publications or presentations arising from this work. More details at
     http://www.quantum-espresso.org/quote

     Parallel version (MPI & OpenMP), running on      12 processor cores
     Number of MPI processes:                 1
     Threads/MPI process:                    12
     Waiting for input...
     Reading input from standard input

     Current dimensions of program PWSCF are:
     Max number of different atomic species (ntypx) = 10
     Max number of k-points (npk) =  40000
     Max angular momentum in pseudopotentials (lmaxx) =  3
               file Al.UPF: wavefunction(s)  3S 3P renormalized
               file Ga.UPF: wavefunction(s)  4S renormalized
               file H.UPF: wavefunction(s)  1S renormalized
               file Mg.UPF: wavefunction(s)  Xn Xn Xn Xn Xn Xn renormalized

     Subspace diagonalization in iterative solution of the eigenvalue problem:
     a serial algorithm will be used


     G-vector sticks info
     --------------------
     sticks:   dense  smooth     PW     G-vecs:    dense   smooth      PW
     Sum        8645    4319   1195               820371   290049   42347



     bravais-lattice index     =            0
     lattice parameter (alat)  =      15.7667  a.u.
     unit-cell volume          =    6072.5179 (a.u.)^3
     number of atoms/cell      =           68
     number of atomic types    =            6
     number of electrons       =       150.00
     number of Kohn-Sham states=           90
     kinetic-energy cutoff     =      50.0000  Ry
     charge density cutoff     =     400.0000  Ry
     convergence threshold     =      1.0E-08
     mixing beta               =       0.7000
     number of iterations used =            8  plain     mixing
     Exchange-correlation      =  SLA  PW   PBE  PBE ( 1  4  3  4 0 0)

     celldm(1)=  15.766705  celldm(2)=   0.000000  celldm(3)=   0.000000
     celldm(4)=   0.000000  celldm(5)=   0.000000  celldm(6)=   0.000000

     crystal axes: (cart. coord. in units of alat)
               a(1) = (   0.839186   0.028511  -0.543096 )  
               a(2) = (   0.023930   1.093508  -0.020112 )  
               a(3) = (   0.033476  -0.030757   1.668090 )  

     reciprocal axes: (cart. coord. in units 2 pi/alat)
               b(1) = (  1.176923 -0.026199 -0.024102 )  
               b(2) = ( -0.019915  0.915242  0.017275 )  
               b(3) = (  0.382942  0.002505  0.591849 )  


     PseudoPot. # 1 for Al read from file:
     C:/Users/Acer/Desktop/Quantum_Espresso/pseudo/Al.UPF
     MD5 check sum: da22aad9e98c60ce88de1cf925d56fcc
     Pseudo is Projector augmented-wave + core cor, Zval =  3.0
     Generated using "atomic" code by A. Dal Corso  v.5.1.2
     Shape of augmentation charge: PSQ
     Using radial grid of 1135 points,  6 beta functions with: 
                l(1) =   0
                l(2) =   0
                l(3) =   1
                l(4) =   1
                l(5) =   2
                l(6) =   2
     Q(r) pseudized with 0 coefficients 


     PseudoPot. # 2 for Ga read from file:
     C:/Users/Acer/Desktop/Quantum_Espresso/pseudo/Ga.UPF
     MD5 check sum: 79e63b61437c88080bf469cc04ca4be8
     Pseudo is Projector augmented-wave + core cor, Zval = 13.0
     Generated using "atomic" code by A. Dal Corso  v.5.1.2
     Shape of augmentation charge: PSQ
     Using radial grid of 1205 points,  6 beta functions with: 
                l(1) =   0
                l(2) =   0
                l(3) =   1
                l(4) =   1
                l(5) =   2
                l(6) =   2
     Q(r) pseudized with 0 coefficients 


     PseudoPot. # 3 for  H read from file:
     C:/Users/Acer/Desktop/Quantum_Espresso/pseudo/H.UPF
     MD5 check sum: 850d63dcbcc06c5de8b44e0ab9f952da
     Pseudo is Projector augmented-wave, Zval =  1.0
     Generated using "atomic" code by A. Dal Corso  v.5.1.2
     Shape of augmentation charge: PSQ
     Using radial grid of  929 points,  2 beta functions with: 
                l(1) =   0
                l(2) =   0
     Q(r) pseudized with 0 coefficients 


     PseudoPot. # 4 for Li read from file:
     C:/Users/Acer/Desktop/Quantum_Espresso/pseudo/Li.UPF
     MD5 check sum: 057edeeab9105e5446fd9e29ea3f9c2f
     Pseudo is Ultrasoft + core correction, Zval =  1.0
     Generated by new atomic code, or converted to UPF format
     Using radial grid of  751 points,  2 beta functions with: 
                l(1) =   1
                l(2) =   1
     Q(r) pseudized with  8 coefficients,  rinner =    1.000   1.000   1.000


     PseudoPot. # 5 for Mg read from file:
     C:/Users/Acer/Desktop/Quantum_Espresso/pseudo/Mg.UPF
     MD5 check sum: a77e51077e70c6c73445c6cac60d158f
     Pseudo is Projector augmented-wave + core cor, Zval = 10.0
     Generated using ATOMPAW code
     Shape of augmentation charge: BESSEL
     Using radial grid of 1171 points,  6 beta functions with: 
                l(1) =   0
                l(2) =   0
                l(3) =   0
                l(4) =   0
                l(5) =   1
                l(6) =   1
     Q(r) pseudized with 0 coefficients 


     PseudoPot. # 6 for Ta read from file:
     C:/Users/Acer/Desktop/Quantum_Espresso/pseudo/Ta.UPF
     MD5 check sum: 395be6f3d7fb4652d9fb26f9961305c8
     Pseudo is Ultrasoft + core correction, Zval = 13.0
     Generated by new atomic code, or converted to UPF format
     Using radial grid of  921 points,  6 beta functions with: 
                l(1) =   0
                l(2) =   0
                l(3) =   1
                l(4) =   1
                l(5) =   2
                l(6) =   2
     Q(r) pseudized with  6 coefficients,  rinner =    1.000   1.000   1.000
                                                       1.000   1.000

     atomic species   valence    mass     pseudopotential
        Al             3.00     1.00000     Al( 1.00)
        Ga            13.00     1.00000     Ga( 1.00)
        H              1.00     1.00000      H( 1.00)
        Li             1.00     1.00000     Li( 1.00)
        Mg            10.00     1.00000     Mg( 1.00)
        Ta            13.00     1.00000     Ta( 1.00)

     No symmetry found



   Cartesian axes

     site n.     atom                  positions (alat units)
         1           Li  tau(   1) = (   0.1837373   0.0379079   1.3987327  )
         2           Li  tau(   2) = (   0.7499166   0.5476377   0.5648274  )
         3           Li  tau(   3) = (   0.7460609   1.0976785  -0.3079387  )
         4           Ga  tau(   4) = (   0.1086214   0.5221157   0.5876071  )
         5           Mg  tau(   5) = (   0.5912663   1.0633004   0.2863228  )
         6           Mg  tau(   6) = (   0.3168236   0.5302131  -0.0157322  )
         7           Mg  tau(   7) = (   0.3387200  -0.0127538   0.8260308  )
         8           Mg  tau(   8) = (   0.5534087   0.5781241   1.1056273  )
         9           Ta  tau(   9) = (   0.7364976   0.9522542   0.6437091  )
        10           Al  tau(  10) = (   0.2422543   0.3832895   1.2762188  )
        11           Al  tau(  11) = (   0.2058039   0.1136182   0.4454058  )
        12           Al  tau(  12) = (   0.6236417   0.7192336  -0.2001335  )
        13           Al  tau(  13) = (   0.4465348   0.6940112   0.3361910  )
        14           Al  tau(  14) = (   0.4500502   0.1604338  -0.0468024  )
        15           Al  tau(  15) = (   0.4705311   0.3727506   0.7652797  )
        16           Al  tau(  16) = (   0.4565164   0.9452451   1.1554045  )
        17           Al  tau(  17) = (   0.8468713   0.2875285   1.1391281  )
        18           Al  tau(  18) = (   0.0327685   0.8437143   0.8879530  )
        19           Al  tau(  19) = (   0.0257989   0.8122978  -0.1113026  )
        20           Al  tau(  20) = (   0.8437155   0.2672382   0.3228895  )
        21           H   tau(  21) = (   0.5578182   0.9482067   0.7807111  )
        22           H   tau(  22) = (   0.3527395   0.4595199   1.1314106  )
        23           H   tau(  23) = (   0.3510423   0.0648083   0.3218827  )
        24           H   tau(  24) = (   0.5086727   0.6565396  -0.0509302  )
        25           H   tau(  25) = (   0.5776591   1.0436680   0.5237661  )
        26           H   tau(  26) = (   0.3522085   0.4065930   1.4391911  )
        27           H   tau(  27) = (   0.2811222   0.0680048   0.6216197  )
        28           H   tau(  28) = (   0.5017522   0.7053304  -0.3549988  )
        29           H   tau(  29) = (   0.7091406   0.7439382   0.6856369  )
        30           H   tau(  30) = (   0.2322380   0.1926581   1.2454867  )
        31           H   tau(  31) = (   0.1772075   0.3077002   0.4380730  )
        32           H   tau(  32) = (   0.6615412   0.9073444  -0.1733266  )
        33           H   tau(  33) = (   0.9075194   1.0786407   0.6711548  )
        34           H   tau(  34) = (   0.0737195   0.4771651   1.2910486  )
        35           H   tau(  35) = (   0.0521000  -0.0007323   0.4167699  )
        36           H   tau(  36) = (   0.7738709   0.6016326  -0.2285321  )
        37           H   tau(  37) = (   0.4861866   0.8588077   0.2367422  )
        38           H   tau(  38) = (   0.4482979   0.3406185   0.0356103  )
        39           H   tau(  39) = (   0.4737132   0.1922530   0.8441182  )
        40           H   tau(  40) = (   0.4320850   0.7742449   1.0580663  )
        41           H   tau(  41) = (   0.6072958   0.5881105   0.3625868  )
        42           H   tau(  42) = (   0.2642586   0.1099458  -0.0761658  )
        43           H   tau(  43) = (   0.2857043   0.4272069   0.7289635  )
        44           H   tau(  44) = (   0.6456387   0.9761990   1.1854415  )
        45           H   tau(  45) = (   0.3286689   0.5973202   0.2061478  )
        46           H   tau(  46) = (   0.5302047   0.0409019   0.0848205  )
        47           H   tau(  47) = (   0.5456373   0.5027710   0.8906114  )
        48           H   tau(  48) = (   0.3990864   1.0860945   1.0321667  )
        49           H   tau(  49) = (   0.3478290   0.7295927   0.4989524  )
        50           H   tau(  50) = (   0.5571339   0.1561298  -0.2089573  )
        51           H   tau(  51) = (   0.5865871   0.3808516   0.6109765  )
        52           H   tau(  52) = (   0.3545529   0.9557876   1.3204383  )
        53           H   tau(  53) = (   0.8495729   0.2106268   0.9596865  )
        54           H   tau(  54) = (   0.0710491   0.8081017   1.1276448  )
        55           H   tau(  55) = (   0.0633688   0.9483949   0.0206080  )
        56           H   tau(  56) = (   0.8381506   0.3422078   0.1410435  )
        57           H   tau(  57) = (   0.6785690   0.3887153   1.1649330  )
        58           H   tau(  58) = (   0.2211801   0.9038758   0.8567642  )
        59           H   tau(  59) = (   0.1897324   0.7003252  -0.1264176  )
        60           H   tau(  60) = (   0.6721963   0.1776834   0.3584039  )
        61           H   tau(  61) = (   0.1150493   0.4250112   0.0357229  )
        62           H   tau(  62) = (   0.7857282   0.9748410   0.1902898  )
        63           H   tau(  63) = (   0.7498819   0.6888071   1.0521286  )
        64           H   tau(  64) = (   0.1478286   0.1104109   0.8921323  )
        65           H   tau(  65) = (   0.8286713   0.1889630  -0.3867437  )
        66           H   tau(  66) = (   0.0419938   0.6634433   0.8141592  )
        67           H   tau(  67) = (   0.0197702   0.8728524   1.3823269  )
        68           H   tau(  68) = (   0.8786570   0.4049449   0.4543913  )

     number of k points=    36  Methfessel-Paxton smearing, width (Ry)=  0.0100
                       cart. coord. in units 2pi/alat
        k(    1) = (   0.0000000   0.0000000   0.0000000), wk =   0.0312500
        k(    2) = (   0.0957355   0.0006262   0.1479623), wk =   0.0625000
        k(    3) = (  -0.1914711  -0.0012525  -0.2959246), wk =   0.0312500
        k(    4) = (  -0.0049788   0.2288105   0.0043189), wk =   0.0625000
        k(    5) = (   0.0907568   0.2294367   0.1522812), wk =   0.0625000
        k(    6) = (  -0.1964498   0.2275580  -0.2916058), wk =   0.0625000
        k(    7) = (  -0.1007143   0.2281843  -0.1436434), wk =   0.0625000
        k(    8) = (   0.0099575  -0.4576210  -0.0086377), wk =   0.0312500
        k(    9) = (   0.1056931  -0.4569948   0.1393246), wk =   0.0625000
        k(   10) = (  -0.1815136  -0.4588735  -0.3045624), wk =   0.0312500
        k(   11) = (   0.2942307  -0.0065498  -0.0060255), wk =   0.0625000
        k(   12) = (   0.3899662  -0.0059235   0.1419369), wk =   0.0625000
        k(   13) = (   0.1027596  -0.0078022  -0.3019501), wk =   0.0625000
        k(   14) = (   0.1984952  -0.0071760  -0.1539878), wk =   0.0625000
        k(   15) = (   0.2892519   0.2222607  -0.0017066), wk =   0.0625000
        k(   16) = (   0.3849875   0.2228870   0.1462557), wk =   0.0625000
        k(   17) = (   0.0977809   0.2210082  -0.2976312), wk =   0.0625000
        k(   18) = (   0.1935164   0.2216345  -0.1496689), wk =   0.0625000
        k(   19) = (   0.3041882  -0.4641708  -0.0146632), wk =   0.0625000
        k(   20) = (   0.3999238  -0.4635445   0.1332991), wk =   0.0625000
        k(   21) = (   0.1127171  -0.4654232  -0.3105878), wk =   0.0625000
        k(   22) = (   0.2084527  -0.4647970  -0.1626255), wk =   0.0625000
        k(   23) = (   0.2992095  -0.2353603  -0.0103443), wk =   0.0625000
        k(   24) = (   0.3949450  -0.2347340   0.1376180), wk =   0.0625000
        k(   25) = (   0.1077384  -0.2366127  -0.3062690), wk =   0.0625000
        k(   26) = (   0.2034739  -0.2359865  -0.1583066), wk =   0.0625000
        k(   27) = (  -0.5884614   0.0130995   0.0120509), wk =   0.0312500
        k(   28) = (  -0.4927259   0.0137258   0.1600132), wk =   0.0625000
        k(   29) = (  -0.7799325   0.0118471  -0.2838737), wk =   0.0312500
        k(   30) = (  -0.5934402   0.2419100   0.0163698), wk =   0.0625000
        k(   31) = (  -0.4977046   0.2425363   0.1643321), wk =   0.0625000
        k(   32) = (  -0.7849112   0.2406576  -0.2795548), wk =   0.0625000
        k(   33) = (  -0.6891757   0.2412838  -0.1315925), wk =   0.0625000
        k(   34) = (  -0.5785039  -0.4445215   0.0034132), wk =   0.0312500
        k(   35) = (  -0.4827683  -0.4438952   0.1513755), wk =   0.0625000
        k(   36) = (  -0.7699750  -0.4457739  -0.2925114), wk =   0.0312500

     Dense  grid:   820371 G-vectors     FFT dimensions: ( 108, 120, 180)

     Smooth grid:   290049 G-vectors     FFT dimensions: (  72,  80, 120)

     Estimated max dynamical RAM per process >    3006.94MB

     Initial potential from superposition of free atoms

     starting charge  149.95293, renormalised to  150.00000
     Starting wfc are  166 randomized atomic wfcs
     Checking if some PAW data can be deallocated... 

     total cpu time spent up to now is      427.8 secs

     Self-consistent Calculation

     iteration #  1     ecut=    50.00 Ry     beta=0.70
     Davidson diagonalization with overlap
     ethr =  1.00E-02,  avg # of iterations =  3.0

     total cpu time spent up to now is      811.2 secs

     total energy              =   -1480.36499944 Ry
     Harris-Foulkes estimate   =   -1481.98560666 Ry
     estimated scf accuracy    <       3.72675084 Ry

     iteration #  2     ecut=    50.00 Ry     beta=0.70
     Davidson diagonalization with overlap
     ethr =  2.48E-03,  avg # of iterations =  2.0

     total cpu time spent up to now is     1164.9 secs

     total energy              =   -1480.60131251 Ry
     Harris-Foulkes estimate   =   -1480.80624147 Ry
     estimated scf accuracy    <       0.31003949 Ry

     iteration #  3     ecut=    50.00 Ry     beta=0.70
     Davidson diagonalization with overlap
     ethr =  2.07E-04,  avg # of iterations =  8.0

     total cpu time spent up to now is     1683.3 secs

     total energy              =   -1480.64604080 Ry
     Harris-Foulkes estimate   =   -1480.89330349 Ry
     estimated scf accuracy    <       0.58246235 Ry

     iteration #  4     ecut=    50.00 Ry     beta=0.70
     Davidson diagonalization with overlap
     ethr =  2.07E-04,  avg # of iterations =  4.4

     total cpu time spent up to now is     2088.4 secs

     total energy              =   -1480.75417840 Ry
     Harris-Foulkes estimate   =   -1480.76524774 Ry
     estimated scf accuracy    <       0.02448585 Ry

     iteration #  5     ecut=    50.00 Ry     beta=0.70
     Davidson diagonalization with overlap
     ethr =  1.63E-05,  avg # of iterations =  8.0

     total cpu time spent up to now is     2568.6 secs

     total energy              =   -1480.76146967 Ry
     Harris-Foulkes estimate   =   -1480.76229657 Ry
     estimated scf accuracy    <       0.00267054 Ry

     iteration #  6     ecut=    50.00 Ry     beta=0.70
     Davidson diagonalization with overlap
     ethr =  1.78E-06,  avg # of iterations =  7.0

     total cpu time spent up to now is     3040.4 secs

     total energy              =   -1480.76229465 Ry
     Harris-Foulkes estimate   =   -1480.76232972 Ry
     estimated scf accuracy    <       0.00025021 Ry

     iteration #  7     ecut=    50.00 Ry     beta=0.70
     Davidson diagonalization with overlap
     ethr =  1.67E-07,  avg # of iterations =  4.6

     total cpu time spent up to now is     3517.2 secs

     total energy              =   -1480.76239468 Ry
     Harris-Foulkes estimate   =   -1480.76241001 Ry
     estimated scf accuracy    <       0.00003298 Ry

     iteration #  8     ecut=    50.00 Ry     beta=0.70
     Davidson diagonalization with overlap
     ethr =  2.20E-08,  avg # of iterations =  2.8

     total cpu time spent up to now is     3887.9 secs

     total energy              =   -1480.76240278 Ry
     Harris-Foulkes estimate   =   -1480.76240464 Ry
     estimated scf accuracy    <       0.00000383 Ry

     iteration #  9     ecut=    50.00 Ry     beta=0.70
     Davidson diagonalization with overlap
     ethr =  2.55E-09,  avg # of iterations =  4.0

     total cpu time spent up to now is     4287.3 secs

     total energy              =   -1480.76240395 Ry
     Harris-Foulkes estimate   =   -1480.76240428 Ry
     estimated scf accuracy    <       0.00000072 Ry

     iteration # 10     ecut=    50.00 Ry     beta=0.70
     Davidson diagonalization with overlap
     ethr =  4.83E-10,  avg # of iterations =  4.4

     total cpu time spent up to now is     4685.7 secs

     total energy              =   -1480.76240416 Ry
     Harris-Foulkes estimate   =   -1480.76240419 Ry
     estimated scf accuracy    <       0.00000009 Ry

     iteration # 11     ecut=    50.00 Ry     beta=0.70
     Davidson diagonalization with overlap
     ethr =  5.89E-11,  avg # of iterations =  3.5

     total cpu time spent up to now is     5069.5 secs

     End of self-consistent calculation

          k = 0.0000 0.0000 0.0000 ( 36247 PWs)   bands (ev):

   -74.7780 -74.7395 -74.5671 -74.3201 -66.9718 -41.8725 -41.8656 -41.8569
   -41.8346 -41.8317 -41.8141 -41.6707 -41.6471 -41.6447 -41.4220 -41.4005
   -41.3980 -33.7454 -33.4014 -33.2313 -13.2031 -13.1926 -13.1863 -13.1796
   -13.1712  -7.0277  -6.4965  -6.0968  -5.9413  -5.7481  -5.6590  -5.5636
    -5.4012  -5.2439  -5.1759  -4.9392  -4.7908  -4.4657  -4.3672  -3.8245
    -3.6010  -3.5002  -3.2390  -3.1309  -3.0107  -2.9333  -2.8598  -2.7630
    -2.7240  -2.6689  -2.5977  -2.5630  -2.5003  -2.4051  -2.3332  -2.2969
    -2.1505  -2.1265  -2.0708  -1.9773  -1.9105  -1.8774  -1.8356  -1.7500
    -1.7145  -1.5902  -1.5674  -1.5564  -1.4830  -1.3885  -1.3227  -1.2448
    -1.1450  -0.1277   0.6296   1.5782   2.4264   3.4422   3.7106   3.8596
     3.9389   4.1238   4.1416   4.3181   4.3619   4.5375   4.5807   4.6702
     4.7390   4.7933

          k = 0.0957 0.0006 0.1480 ( 36275 PWs)   bands (ev):

   -74.7780 -74.7395 -74.5671 -74.3201 -66.9718 -41.8725 -41.8656 -41.8569
   -41.8346 -41.8317 -41.8141 -41.6707 -41.6471 -41.6447 -41.4220 -41.4005
   -41.3980 -33.7454 -33.4014 -33.2313 -13.2031 -13.1926 -13.1863 -13.1796
   -13.1712  -6.9897  -6.6152  -6.0870  -5.8302  -5.7328  -5.6307  -5.5315
    -5.3918  -5.3002  -5.2324  -5.0072  -4.7891  -4.4264  -4.3042  -3.8440
    -3.6830  -3.5001  -3.2493  -3.0900  -2.9920  -2.9006  -2.8755  -2.8146
    -2.7139  -2.6612  -2.5649  -2.5332  -2.4878  -2.3932  -2.3162  -2.3064
    -2.1964  -2.1680  -2.0865  -2.0186  -1.9462  -1.8680  -1.8178  -1.7482
    -1.6835  -1.6035  -1.5586  -1.5112  -1.4567  -1.3988  -1.3075  -1.2474
    -1.1687  -0.1114   0.6343   1.5844   2.4155   3.3993   3.6912   3.8708
     3.9690   4.0703   4.1481   4.3100   4.3314   4.5452   4.6528   4.6810
     4.7906   4.8462

          k =-0.1915-0.0013-0.2959 ( 36316 PWs)   bands (ev):

   -74.7780 -74.7395 -74.5671 -74.3201 -66.9718 -41.8725 -41.8656 -41.8569
   -41.8346 -41.8317 -41.8141 -41.6707 -41.6471 -41.6447 -41.4220 -41.4005
   -41.3980 -33.7454 -33.4014 -33.2313 -13.2032 -13.1926 -13.1863 -13.1796
   -13.1712  -6.9270  -6.7362  -6.0821  -5.7899  -5.6599  -5.5833  -5.5099
    -5.3634  -5.3475  -5.2528  -5.1463  -4.8054  -4.3832  -4.1716  -3.9891
    -3.6718  -3.5033  -3.2561  -3.0394  -3.0304  -2.9541  -2.8320  -2.7570
    -2.7139  -2.6619  -2.5883  -2.5345  -2.4951  -2.3772  -2.3092  -2.2609
    -2.2322  -2.1686  -2.0762  -2.0623  -1.9674  -1.9065  -1.8532  -1.7254
    -1.6306  -1.6010  -1.5758  -1.4674  -1.4559  -1.3677  -1.3227  -1.2471
    -1.1880  -0.0950   0.6393   1.5908   2.4038   3.3579   3.6513   3.9492
     3.9984   4.0336   4.1373   4.2560   4.3715   4.4903   4.5909   4.7145
     4.8302   4.8574

          k =-0.0050 0.2288 0.0043 ( 36259 PWs)   bands (ev):

   -74.7780 -74.7395 -74.5671 -74.3201 -66.9718 -41.8725 -41.8656 -41.8569
   -41.8346 -41.8317 -41.8141 -41.6707 -41.6471 -41.6447 -41.4220 -41.4005
   -41.3980 -33.7454 -33.4014 -33.2313 -13.2031 -13.1926 -13.1863 -13.1796
   -13.1712  -6.9555  -6.5257  -6.2056  -5.9467  -5.7609  -5.6481  -5.5813
    -5.4410  -5.2468  -5.1536  -4.9819  -4.6836  -4.4116  -4.3111  -3.8128
    -3.6364  -3.4732  -3.3108  -3.0943  -3.0029  -2.9038  -2.8678  -2.7652
    -2.6832  -2.6329  -2.6113  -2.5110  -2.4516  -2.3792  -2.3363  -2.2630
    -2.1875  -2.1261  -2.0684  -2.0059  -1.9472  -1.9105  -1.8606  -1.7638
    -1.7296  -1.6586  -1.5913  -1.5352  -1.4984  -1.4329  -1.3599  -1.2509
    -1.1437  -0.0821   0.6260   1.5807   2.3726   3.4959   3.6708   3.7822
     3.9061   4.0305   4.1597   4.2710   4.4091   4.5008   4.6446   4.6687
     4.7527   4.8148

          k = 0.0908 0.2294 0.1523 ( 36270 PWs)   bands (ev):

   -74.7780 -74.7395 -74.5671 -74.3201 -66.9718 -41.8725 -41.8656 -41.8569
   -41.8346 -41.8317 -41.8141 -41.6707 -41.6471 -41.6447 -41.4220 -41.4005
   -41.3980 -33.7454 -33.4014 -33.2313 -13.2031 -13.1926 -13.1863 -13.1796
   -13.1712  -6.9260  -6.5700  -6.2579  -5.9715  -5.7014  -5.6112  -5.5347
    -5.3653  -5.2866  -5.1806  -5.0145  -4.7023  -4.4120  -4.3020  -3.8774
    -3.5964  -3.4905  -3.3257  -3.0673  -2.9704  -2.9067  -2.8651  -2.8190
    -2.6960  -2.6432  -2.5981  -2.5080  -2.4667  -2.3981  -2.3176  -2.2257
    -2.2093  -2.1210  -2.0792  -2.0191  -1.9504  -1.9085  -1.8202  -1.7736
    -1.6780  -1.6344  -1.5830  -1.5244  -1.4767  -1.4538  -1.3640  -1.2645
    -1.1757  -0.0910   0.6266   1.5864   2.3693   3.4364   3.6794   3.7935
     3.9079   4.0209   4.1765   4.2896   4.4269   4.4975   4.6247   4.6719
     4.7394   4.8144

          k =-0.1964 0.2276-0.2916 ( 36269 PWs)   bands (ev):

   -74.7780 -74.7395 -74.5671 -74.3201 -66.9718 -41.8725 -41.8656 -41.8569
   -41.8346 -41.8317 -41.8141 -41.6707 -41.6471 -41.6447 -41.4220 -41.4005
   -41.3980 -33.7454 -33.4014 -33.2313 -13.2031 -13.1926 -13.1863 -13.1796
   -13.1712  -6.8620  -6.6872  -6.2424  -5.9858  -5.6855  -5.5389  -5.4519
    -5.3537  -5.3281  -5.1810  -5.1103  -4.7255  -4.3534  -4.2159  -4.0259
    -3.6094  -3.5365  -3.3234  -3.0424  -2.9713  -2.8920  -2.8255  -2.7326
    -2.6849  -2.6674  -2.6200  -2.5223  -2.4439  -2.3846  -2.3102  -2.2683
    -2.2031  -2.1781  -2.0802  -2.0259  -1.9615  -1.8888  -1.8469  -1.7378
    -1.6775  -1.6494  -1.5945  -1.5050  -1.4627  -1.4316  -1.3434  -1.2687
    -1.2062  -0.0773   0.6312   1.5878   2.3824   3.3759   3.6542   3.8603
     3.9125   3.9956   4.0963   4.2890   4.3655   4.5985   4.6321   4.6811
     4.7456   4.8002

          k =-0.1007 0.2282-0.1436 ( 36273 PWs)   bands (ev):

   -74.7780 -74.7395 -74.5671 -74.3201 -66.9718 -41.8725 -41.8656 -41.8569
   -41.8346 -41.8317 -41.8141 -41.6707 -41.6471 -41.6447 -41.4220 -41.4005
   -41.3980 -33.7454 -33.4014 -33.2313 -13.2032 -13.1926 -13.1863 -13.1796
   -13.1712  -6.9130  -6.6165  -6.2301  -5.9008  -5.7109  -5.6632  -5.5285
    -5.3737  -5.3208  -5.1672  -5.0349  -4.6763  -4.3814  -4.2585  -3.9317
    -3.6455  -3.5167  -3.3055  -3.1162  -2.9680  -2.8623  -2.8148  -2.7528
    -2.6599  -2.6229  -2.5820  -2.5339  -2.4545  -2.3695  -2.3152  -2.2956
    -2.2354  -2.1745  -2.1045  -1.9917  -1.9682  -1.9176  -1.8163  -1.7460
    -1.7041  -1.6852  -1.5839  -1.5421  -1.4920  -1.4274  -1.3096  -1.2677
    -1.1712  -0.0683   0.6304   1.5822   2.3854   3.4358   3.6339   3.8418
     3.8862   4.0329   4.0985   4.3108   4.3660   4.5114   4.5689   4.7511
     4.8181   4.8467

          k = 0.0100-0.4576-0.0086 ( 36246 PWs)   bands (ev):

   -74.7780 -74.7395 -74.5671 -74.3201 -66.9718 -41.8725 -41.8656 -41.8569
   -41.8346 -41.8317 -41.8141 -41.6707 -41.6471 -41.6447 -41.4220 -41.4005
   -41.3980 -33.7454 -33.4014 -33.2313 -13.2031 -13.1926 -13.1863 -13.1796
   -13.1712  -6.7988  -6.6929  -6.2208  -5.9479  -5.7384  -5.7225  -5.6015
    -5.4866  -5.2198  -5.1678  -4.9807  -4.5872  -4.3594  -4.1702  -4.0334
    -3.5252  -3.4580  -3.2693  -3.0826  -2.9587  -2.9141  -2.8689  -2.8072
    -2.7089  -2.6348  -2.6078  -2.4997  -2.4007  -2.3491  -2.3127  -2.2396
    -2.1910  -2.1452  -2.0454  -2.0072  -1.9688  -1.9131  -1.8886  -1.8154
    -1.7474  -1.6825  -1.6392  -1.5701  -1.5066  -1.4242  -1.4107  -1.2730
    -1.1392  -0.0411   0.6217   1.5825   2.3249   3.5271   3.6302   3.7410
     3.8226   3.9841   4.1130   4.3000   4.4249   4.4765   4.6757   4.7015
     4.8079   4.8214

          k = 0.1057-0.4570 0.1393 ( 36237 PWs)   bands (ev):

   -74.7780 -74.7395 -74.5671 -74.3201 -66.9718 -41.8725 -41.8656 -41.8569
   -41.8346 -41.8317 -41.8141 -41.6707 -41.6471 -41.6447 -41.4220 -41.4005
   -41.3980 -33.7454 -33.4014 -33.2313 -13.2031 -13.1926 -13.1863 -13.1796
   -13.1712  -6.7739  -6.6756  -6.3052  -6.0886  -5.6904  -5.6062  -5.5046
    -5.4120  -5.2924  -5.1683  -5.0191  -4.5988  -4.3570  -4.1966  -4.0433
    -3.5336  -3.4973  -3.2829  -3.0825  -3.0192  -2.8962  -2.8343  -2.7603
    -2.7293  -2.6659  -2.5664  -2.4528  -2.3937  -2.3647  -2.3235  -2.2645
    -2.2257  -2.0868  -2.0483  -2.0288  -1.9502  -1.8986  -1.8652  -1.8184
    -1.7344  -1.6643  -1.6334  -1.5648  -1.4978  -1.4567  -1.3774  -1.2948
    -1.1732  -0.0517   0.6221   1.5842   2.3391   3.4614   3.6384   3.7637
     3.8236   3.9827   4.1368   4.2834   4.4315   4.4805   4.6249   4.6787
     4.7731   4.8188

          k =-0.1815-0.4589-0.3046 ( 36212 PWs)   bands (ev):

   -74.7780 -74.7395 -74.5671 -74.3201 -66.9718 -41.8725 -41.8656 -41.8569
   -41.8346 -41.8317 -41.8141 -41.6707 -41.6471 -41.6447 -41.4220 -41.4005
   -41.3980 -33.7454 -33.4014 -33.2313 -13.2031 -13.1926 -13.1863 -13.1796
   -13.1712  -6.7404  -6.6596  -6.3750  -6.1851  -5.6726  -5.5122  -5.4305
    -5.3436  -5.2712  -5.1862  -5.1104  -4.6273  -4.3548  -4.2147  -4.0507
    -3.5954  -3.4762  -3.2903  -3.0676  -3.0494  -2.9102  -2.8472  -2.7590
    -2.6999  -2.6450  -2.5251  -2.5037  -2.4332  -2.3314  -2.3014  -2.2606
    -2.1980  -2.0804  -2.0489  -2.0289  -1.9558  -1.8789  -1.8748  -1.8049
    -1.7315  -1.6640  -1.6185  -1.5290  -1.5180  -1.4242  -1.3891  -1.3151
    -1.2134  -0.0626   0.6225   1.5859   2.3541   3.4080   3.6595   3.7713
     3.8223   3.9807   4.0999   4.2955   4.4534   4.5138   4.5917   4.6339
     4.7129   4.8055

          k = 0.2942-0.0065-0.0060 ( 36254 PWs)   bands (ev):

   -74.7780 -74.7395 -74.5671 -74.3201 -66.9718 -41.8725 -41.8656 -41.8569
   -41.8346 -41.8317 -41.8141 -41.6707 -41.6471 -41.6447 -41.4220 -41.4005
   -41.3980 -33.7454 -33.4014 -33.2313 -13.2031 -13.1926 -13.1863 -13.1796
   -13.1712  -6.9047  -6.5203  -6.1346  -6.0936  -5.7310  -5.6681  -5.5351
    -5.4178  -5.3060  -5.1960  -5.0002  -4.7448  -4.5143  -4.1315  -3.9129
    -3.6968  -3.4524  -3.3034  -3.0911  -2.9773  -2.9138  -2.8328  -2.8057
    -2.6849  -2.5934  -2.5271  -2.4775  -2.4235  -2.3689  -2.3068  -2.2337
    -2.1535  -2.1265  -2.0356  -2.0260  -1.9575  -1.8651  -1.8109  -1.7543
    -1.7281  -1.6557  -1.6173  -1.5274  -1.4796  -1.4373  -1.3348  -1.2717
    -1.1999  -0.1327   0.6225   1.6140   2.3911   3.4532   3.6500   3.7173
     3.8432   4.0072   4.1012   4.2577   4.3768   4.4316   4.5152   4.6583
     4.7077   4.8093

          k = 0.3900-0.0059 0.1419 ( 36261 PWs)   bands (ev):

   -74.7780 -74.7395 -74.5671 -74.3201 -66.9718 -41.8725 -41.8656 -41.8569
   -41.8346 -41.8317 -41.8141 -41.6707 -41.6471 -41.6447 -41.4220 -41.4005
   -41.3980 -33.7454 -33.4014 -33.2313 -13.2032 -13.1926 -13.1863 -13.1796
   -13.1712  -6.8371  -6.6488  -6.1771  -6.0305  -5.7359  -5.5524  -5.5379
    -5.3599  -5.2960  -5.2481  -5.0602  -4.7903  -4.4857  -4.1396  -3.9712
    -3.6573  -3.4619  -3.2703  -3.0645  -2.9900  -2.9186  -2.8367  -2.7877
    -2.7326  -2.5707  -2.5479  -2.5122  -2.4039  -2.3564  -2.2810  -2.2279
    -2.1862  -2.1527  -2.0307  -1.9957  -1.9286  -1.8711  -1.8268  -1.7548
    -1.7361  -1.6617  -1.6059  -1.5303  -1.4704  -1.4152  -1.3595  -1.2633
    -1.2014  -0.1168   0.6273   1.6210   2.3772   3.3652   3.6481   3.7406
     3.8733   4.0286   4.1237   4.2574   4.3288   4.4243   4.5003   4.6232
     4.7243   4.7509

          k = 0.1028-0.0078-0.3020 ( 36238 PWs)   bands (ev):

   -74.7780 -74.7395 -74.5671 -74.3201 -66.9718 -41.8725 -41.8656 -41.8569
   -41.8346 -41.8317 -41.8141 -41.6707 -41.6471 -41.6447 -41.4220 -41.4005
   -41.3980 -33.7454 -33.4014 -33.2313 -13.2031 -13.1926 -13.1863 -13.1796
   -13.1712  -6.8863  -6.5592  -6.2280  -5.9829  -5.7112  -5.5880  -5.5201
    -5.4564  -5.3063  -5.2541  -5.0466  -4.7331  -4.4833  -4.2224  -3.8599
    -3.6514  -3.4940  -3.2564  -3.0993  -2.9826  -2.9188  -2.8414  -2.7985
    -2.7040  -2.5972  -2.5213  -2.4545  -2.3932  -2.3496  -2.2999  -2.2243
    -2.1901  -2.1179  -2.0510  -2.0285  -1.9431  -1.8863  -1.8072  -1.7481
    -1.7266  -1.7087  -1.5995  -1.5526  -1.4886  -1.4046  -1.3574  -1.2848
    -1.1684  -0.1255   0.6187   1.6138   2.3953   3.3917   3.6569   3.8064
     3.8472   4.0033   4.0872   4.2280   4.3529   4.4534   4.5413   4.6349
     4.6729   4.8169

          k = 0.1985-0.0072-0.1540 ( 36248 PWs)   bands (ev):

   -74.7780 -74.7395 -74.5671 -74.3201 -66.9718 -41.8725 -41.8656 -41.8569
   -41.8346 -41.8317 -41.8141 -41.6707 -41.6471 -41.6447 -41.4220 -41.4005
   -41.3980 -33.7454 -33.4014 -33.2313 -13.2031 -13.1926 -13.1863 -13.1796
   -13.1712  -6.9322  -6.4382  -6.2135  -6.0171  -5.8046  -5.6156  -5.5537
    -5.4213  -5.3330  -5.2295  -5.0105  -4.6738  -4.5247  -4.1974  -3.8292
    -3.6568  -3.4877  -3.2821  -3.1695  -2.9692  -2.9169  -2.8493  -2.7267
    -2.6638  -2.5937  -2.5280  -2.4894  -2.4167  -2.3872  -2.3094  -2.2276
    -2.1682  -2.0993  -2.0204  -1.9914  -1.9507  -1.9128  -1.8308  -1.7489
    -1.7029  -1.6804  -1.6391  -1.5661  -1.5080  -1.4034  -1.3442  -1.2884
    -1.1648  -0.1413   0.6139   1.6073   2.4078   3.4767   3.6779   3.7489
     3.8485   3.9975   4.0471   4.2386   4.3866   4.4504   4.5906   4.6499
     4.7100   4.7827

          k = 0.2893 0.2223-0.0017 ( 36275 PWs)   bands (ev):

   -74.7780 -74.7395 -74.5671 -74.3201 -66.9718 -41.8725 -41.8656 -41.8569
   -41.8346 -41.8317 -41.8141 -41.6707 -41.6471 -41.6447 -41.4220 -41.4005
   -41.3980 -33.7454 -33.4014 -33.2313 -13.2032 -13.1926 -13.1863 -13.1796
   -13.1712  -6.8505  -6.4948  -6.1950  -6.0741  -5.8292  -5.6320  -5.5705
    -5.5397  -5.3029  -5.1817  -5.0420  -4.7587  -4.3317  -4.0865  -3.8192
    -3.6246  -3.4426  -3.3097  -3.0829  -2.9317  -2.8837  -2.8303  -2.7341
    -2.6914  -2.6206  -2.5786  -2.5183  -2.4394  -2.4033  -2.2877  -2.2539
    -2.1783  -2.0849  -2.0702  -2.0232  -1.9564  -1.9029  -1.8549  -1.7951
    -1.7512  -1.6981  -1.6458  -1.5383  -1.4969  -1.4093  -1.3458  -1.2699
    -1.2203  -0.0910   0.6409   1.6039   2.3480   3.4043   3.6451   3.7647
     3.8358   3.9882   4.1045   4.2947   4.3847   4.4246   4.4801   4.6294
     4.7223   4.7578

          k = 0.3850 0.2229 0.1463 ( 36261 PWs)   bands (ev):

   -74.7780 -74.7395 -74.5671 -74.3201 -66.9718 -41.8725 -41.8656 -41.8569
   -41.8346 -41.8317 -41.8141 -41.6707 -41.6471 -41.6447 -41.4220 -41.4005
   -41.3980 -33.7454 -33.4014 -33.2313 -13.2032 -13.1926 -13.1863 -13.1796
   -13.1712  -6.7838  -6.6084  -6.2152  -6.0578  -5.8039  -5.6688  -5.5685
    -5.4090  -5.3209  -5.1184  -5.0419  -4.8776  -4.2999  -4.0509  -3.9346
    -3.6311  -3.4615  -3.2921  -3.0374  -2.9833  -2.8877  -2.7965  -2.7171
    -2.7085  -2.6264  -2.5641  -2.5137  -2.4151  -2.3325  -2.2878  -2.2292
    -2.1790  -2.1327  -2.0845  -2.0353  -1.9807  -1.9440  -1.8639  -1.7953
    -1.7203  -1.6608  -1.6347  -1.5608  -1.4863  -1.4389  -1.3735  -1.2532
    -1.1914  -0.0774   0.6440   1.6034   2.3644   3.2962   3.6621   3.7771
     3.8713   3.9138   4.1256   4.2405   4.3789   4.4757   4.5195   4.5934
     4.6930   4.7458

          k = 0.0978 0.2210-0.2976 ( 36254 PWs)   bands (ev):

   -74.7780 -74.7395 -74.5671 -74.3201 -66.9718 -41.8725 -41.8656 -41.8569
   -41.8346 -41.8317 -41.8141 -41.6707 -41.6471 -41.6447 -41.4220 -41.4005
   -41.3980 -33.7454 -33.4014 -33.2313 -13.2031 -13.1926 -13.1863 -13.1796
   -13.1712  -6.8204  -6.5589  -6.2252  -6.0642  -5.7299  -5.6561  -5.5558
    -5.4544  -5.3060  -5.2466  -5.0438  -4.8729  -4.2799  -4.1191  -3.8188
    -3.6478  -3.4360  -3.2746  -3.0645  -2.9354  -2.8728  -2.8002  -2.7125
    -2.6752  -2.5642  -2.5166  -2.4748  -2.4534  -2.3640  -2.3137  -2.2629
    -2.2393  -2.2092  -2.1168  -2.0105  -1.9880  -1.9252  -1.8612  -1.8251
    -1.7597  -1.6557  -1.6119  -1.5909  -1.4918  -1.4414  -1.3400  -1.2499
    -1.1607  -0.0688   0.6392   1.5979   2.3771   3.3768   3.6741   3.7288
     3.8470   3.9214   4.0861   4.2327   4.3133   4.4467   4.5437   4.6463
     4.6798   4.7863

          k = 0.1935 0.2216-0.1497 ( 36283 PWs)   bands (ev):

   -74.7780 -74.7395 -74.5671 -74.3201 -66.9718 -41.8725 -41.8656 -41.8569
   -41.8346 -41.8317 -41.8141 -41.6707 -41.6471 -41.6447 -41.4220 -41.4005
   -41.3980 -33.7454 -33.4014 -33.2313 -13.2031 -13.1926 -13.1863 -13.1796
   -13.1712  -6.8703  -6.4656  -6.1967  -6.0634  -5.8070  -5.6649  -5.5463
    -5.4335  -5.3962  -5.2584  -5.0568  -4.7827  -4.3021  -4.1228  -3.7252
    -3.6331  -3.4539  -3.2594  -3.0799  -2.9364  -2.8753  -2.7958  -2.7319
    -2.6600  -2.6123  -2.5399  -2.5146  -2.4370  -2.4219  -2.2940  -2.2689
    -2.2450  -2.1348  -2.1057  -2.0039  -1.9464  -1.9329  -1.8655  -1.8263
    -1.7572  -1.6980  -1.6426  -1.5789  -1.4633  -1.4046  -1.3365  -1.2833
    -1.1703  -0.0825   0.6362   1.5984   2.3603   3.5301   3.6401   3.7195
     3.8121   3.9297   4.1075   4.2631   4.3000   4.4457   4.5249   4.6728
     4.7074   4.7992

          k = 0.3042-0.4642-0.0147 ( 36241 PWs)   bands (ev):

   -74.7780 -74.7395 -74.5671 -74.3201 -66.9718 -41.8725 -41.8656 -41.8569
   -41.8346 -41.8317 -41.8141 -41.6707 -41.6471 -41.6447 -41.4220 -41.4005
   -41.3980 -33.7454 -33.4014 -33.2313 -13.2031 -13.1926 -13.1863 -13.1796
   -13.1712  -6.6983  -6.5975  -6.2575  -6.0468  -5.9050  -5.6958  -5.6038
    -5.4681  -5.3992  -5.1687  -5.0388  -4.6892  -4.2254  -3.9931  -3.8049
    -3.5486  -3.5083  -3.2233  -3.1019  -2.9922  -2.8619  -2.8317  -2.7317
    -2.6790  -2.6223  -2.5635  -2.5015  -2.4329  -2.3867  -2.3126  -2.2866
    -2.2069  -2.1697  -2.0830  -2.0251  -1.9951  -1.8933  -1.8641  -1.8080
    -1.7267  -1.6907  -1.6455  -1.5732  -1.4637  -1.4179  -1.3704  -1.3242
    -1.2274  -0.0581   0.6330   1.6102   2.3522   3.4313   3.6041   3.7883
     3.8778   3.9914   4.0849   4.1989   4.3933   4.4405   4.5501   4.5720
     4.6446   4.7370

          k = 0.3999-0.4635 0.1333 ( 36257 PWs)   bands (ev):

   -74.7780 -74.7395 -74.5671 -74.3201 -66.9718 -41.8725 -41.8656 -41.8569
   -41.8346 -41.8317 -41.8141 -41.6707 -41.6471 -41.6447 -41.4220 -41.4005
   -41.3980 -33.7454 -33.4014 -33.2313 -13.2031 -13.1926 -13.1863 -13.1796
   -13.1712  -6.6532  -6.5935  -6.3104  -6.1513  -5.9070  -5.6733  -5.6050
    -5.4086  -5.2898  -5.1202  -5.0654  -4.7340  -4.2106  -4.0147  -3.8928
    -3.5840  -3.5073  -3.2333  -3.1100  -3.0200  -2.9124  -2.8347  -2.7217
    -2.6510  -2.6090  -2.5441  -2.4705  -2.4108  -2.3517  -2.3145  -2.2590
    -2.1783  -2.1482  -2.0904  -2.0194  -1.9524  -1.8910  -1.8645  -1.7955
    -1.7382  -1.6973  -1.6392  -1.6047  -1.5110  -1.4350  -1.3967  -1.3237
    -1.1956  -0.0691   0.6332   1.6109   2.3655   3.3299   3.6018   3.8112
     3.8531   3.9878   4.0449   4.2341   4.4004   4.4069   4.5551   4.6246
     4.6484   4.7688

          k = 0.1127-0.4654-0.3106 ( 36219 PWs)   bands (ev):

   -74.7780 -74.7395 -74.5671 -74.3201 -66.9718 -41.8725 -41.8656 -41.8569
   -41.8346 -41.8317 -41.8141 -41.6707 -41.6471 -41.6447 -41.4220 -41.4005
   -41.3980 -33.7454 -33.4014 -33.2313 -13.2031 -13.1926 -13.1863 -13.1796
   -13.1712  -6.6796  -6.5959  -6.2855  -6.1333  -5.8567  -5.7163  -5.5385
    -5.3718  -5.3130  -5.2429  -5.0918  -4.7899  -4.1725  -3.9967  -3.9160
    -3.5362  -3.4436  -3.1941  -3.0603  -2.9968  -2.8949  -2.8323  -2.7203
    -2.6593  -2.6156  -2.5441  -2.4936  -2.4658  -2.3472  -2.3005  -2.2699
    -2.2349  -2.1164  -2.0765  -2.0592  -2.0239  -1.9175  -1.8790  -1.8291
    -1.7680  -1.6528  -1.6390  -1.6025  -1.5080  -1.4400  -1.3793  -1.3146
    -1.1421  -0.0672   0.6299   1.6125   2.3514   3.4076   3.6705   3.7745
     3.8480   3.9505   4.0470   4.2336   4.3102   4.3891   4.5364   4.6438
     4.7159   4.7449

          k = 0.2085-0.4648-0.1626 ( 36248 PWs)   bands (ev):

   -74.7780 -74.7395 -74.5671 -74.3201 -66.9718 -41.8725 -41.8656 -41.8569
   -41.8346 -41.8317 -41.8141 -41.6707 -41.6471 -41.6447 -41.4220 -41.4005
   -41.3980 -33.7454 -33.4014 -33.2313 -13.2031 -13.1926 -13.1863 -13.1796
   -13.1712  -6.7144  -6.6071  -6.2292  -6.0544  -5.7742  -5.7066  -5.6574
    -5.5034  -5.3702  -5.2032  -5.0843  -4.7760  -4.1819  -3.9764  -3.8287
    -3.5244  -3.4090  -3.1741  -3.0499  -2.9280  -2.8667  -2.8302  -2.7916
    -2.6847  -2.6492  -2.5858  -2.4853  -2.4322  -2.4004  -2.3105  -2.3024
    -2.2096  -2.1807  -2.1396  -2.0440  -1.9698  -1.9408  -1.9088  -1.8365
    -1.7495  -1.6837  -1.6399  -1.5525  -1.4482  -1.4180  -1.3825  -1.3225
    -1.1568  -0.0563   0.6296   1.6118   2.3390   3.5742   3.6454   3.7306
     3.8194   3.9508   4.1035   4.2236   4.3570   4.3950   4.4738   4.6381
     4.6913   4.7363

          k = 0.2992-0.2354-0.0103 ( 36238 PWs)   bands (ev):

   -74.7780 -74.7395 -74.5671 -74.3201 -66.9718 -41.8725 -41.8656 -41.8569
   -41.8346 -41.8317 -41.8141 -41.6707 -41.6471 -41.6447 -41.4220 -41.4005
   -41.3980 -33.7454 -33.4014 -33.2313 -13.2031 -13.1926 -13.1863 -13.1796
   -13.1712  -6.8224  -6.5230  -6.2279  -6.0913  -5.8079  -5.6624  -5.5970
    -5.4417  -5.3595  -5.1046  -5.0487  -4.6460  -4.4270  -4.1020  -3.8379
    -3.6568  -3.5091  -3.2173  -3.0961  -2.9812  -2.8976  -2.8261  -2.7546
    -2.6653  -2.6102  -2.5603  -2.5241  -2.5071  -2.3781  -2.3048  -2.2564
    -2.1656  -2.0924  -2.0592  -1.9954  -1.9369  -1.8686  -1.8415  -1.7913
    -1.7098  -1.6515  -1.6312  -1.5546  -1.5126  -1.4232  -1.3908  -1.2839
    -1.2126  -0.0962   0.6154   1.6205   2.3931   3.4979   3.5926   3.7751
     3.8342   4.0103   4.1259   4.2599   4.3130   4.4340   4.4795   4.6173
     4.7339   4.7970

          k = 0.3949-0.2347 0.1376 ( 36231 PWs)   bands (ev):

   -74.7780 -74.7395 -74.5671 -74.3201 -66.9718 -41.8725 -41.8656 -41.8569
   -41.8346 -41.8317 -41.8141 -41.6707 -41.6471 -41.6447 -41.4220 -41.4005
   -41.3980 -33.7454 -33.4014 -33.2313 -13.2031 -13.1926 -13.1863 -13.1796
   -13.1712  -6.7642  -6.6021  -6.2426  -6.0895  -5.8768  -5.6727  -5.5222
    -5.3415  -5.2839  -5.1869  -5.0575  -4.6100  -4.4501  -4.1484  -3.9170
    -3.6243  -3.5039  -3.2362  -3.0957  -3.0320  -2.8581  -2.8325  -2.7857
    -2.7114  -2.6399  -2.5459  -2.4633  -2.4111  -2.3366  -2.3050  -2.2730
    -2.1794  -2.1407  -2.0233  -1.9837  -1.8927  -1.8695  -1.8543  -1.7549
    -1.7127  -1.6539  -1.6251  -1.5933  -1.4907  -1.4406  -1.3811  -1.3290
    -1.2045  -0.1065   0.6175   1.6278   2.3806   3.3932   3.6100   3.7622
     3.8832   4.0051   4.1368   4.2198   4.3231   4.4194   4.5296   4.6204
     4.7681   4.7896

          k = 0.1077-0.2366-0.3063 ( 36205 PWs)   bands (ev):

   -74.7780 -74.7395 -74.5671 -74.3201 -66.9718 -41.8725 -41.8656 -41.8569
   -41.8346 -41.8317 -41.8141 -41.6707 -41.6471 -41.6447 -41.4220 -41.4005
   -41.3980 -33.7454 -33.4014 -33.2313 -13.2031 -13.1926 -13.1863 -13.1796
   -13.1712  -6.8174  -6.5106  -6.2426  -6.1529  -5.7976  -5.6535  -5.5119
    -5.4283  -5.2812  -5.2200  -5.0693  -4.6520  -4.3848  -4.2059  -3.8272
    -3.5947  -3.4944  -3.1997  -3.1241  -2.9648  -2.9173  -2.8623  -2.8271
    -2.7213  -2.6313  -2.5460  -2.4334  -2.4165  -2.3598  -2.2877  -2.2003
    -2.1836  -2.1156  -2.0537  -2.0007  -1.9235  -1.8812  -1.8341  -1.7828
    -1.7061  -1.6942  -1.6375  -1.5678  -1.5210  -1.4500  -1.3846  -1.3269
    -1.1522  -0.1204   0.6098   1.6274   2.3705   3.4239   3.6811   3.7723
     3.8994   4.0218   4.1326   4.2297   4.3352   4.4091   4.5215   4.5723
     4.6774   4.7883

          k = 0.2035-0.2360-0.1583 ( 36232 PWs)   bands (ev):

   -74.7780 -74.7395 -74.5671 -74.3201 -66.9718 -41.8725 -41.8656 -41.8569
   -41.8346 -41.8317 -41.8141 -41.6707 -41.6471 -41.6447 -41.4220 -41.4005
   -41.3980 -33.7454 -33.4014 -33.2313 -13.2031 -13.1926 -13.1863 -13.1796
   -13.1712  -6.8544  -6.4558  -6.2272  -6.1247  -5.7785  -5.6361  -5.5946
    -5.4823  -5.3472  -5.1767  -5.0523  -4.6941  -4.3635  -4.1440  -3.7343
    -3.6479  -3.5098  -3.1473  -3.0689  -3.0464  -2.9067  -2.8715  -2.7581
    -2.7301  -2.6062  -2.5451  -2.5173  -2.4478  -2.3683  -2.3179  -2.1939
    -2.1626  -2.1223  -2.0521  -2.0267  -1.9358  -1.8895  -1.8602  -1.7938
    -1.7054  -1.6768  -1.6390  -1.5501  -1.4976  -1.4695  -1.3921  -1.2945
    -1.1511  -0.1100   0.6077   1.6202   2.3828   3.5249   3.6602   3.7989
     3.8689   4.0126   4.1111   4.2731   4.3502   4.3939   4.4581   4.5873
     4.6751   4.7130

          k =-0.5885 0.0131 0.0121 ( 36280 PWs)   bands (ev):

   -74.7780 -74.7395 -74.5671 -74.3201 -66.9718 -41.8725 -41.8656 -41.8569
   -41.8346 -41.8317 -41.8141 -41.6707 -41.6471 -41.6447 -41.4220 -41.4005
   -41.3980 -33.7454 -33.4014 -33.2313 -13.2032 -13.1926 -13.1863 -13.1796
   -13.1712  -6.6512  -6.4926  -6.4477  -6.2404  -5.7283  -5.6093  -5.4935
    -5.3753  -5.2634  -5.2134  -5.0315  -4.8085  -4.5782  -4.1498  -3.9789
    -3.6191  -3.3310  -3.1929  -3.1144  -3.0217  -2.8607  -2.8084  -2.7733
    -2.7131  -2.6430  -2.5768  -2.4627  -2.3886  -2.2978  -2.2319  -2.1395
    -2.1110  -2.0365  -2.0174  -1.9934  -1.9541  -1.8741  -1.8328  -1.8156
    -1.7682  -1.6444  -1.6142  -1.5891  -1.5248  -1.4334  -1.3857  -1.3132
    -1.2356  -0.1375   0.6148   1.6524   2.3454   3.3966   3.5751   3.6979
     3.8201   3.9651   4.0343   4.1004   4.3372   4.4153   4.4639   4.5592
     4.6178   4.7280

          k =-0.4927 0.0137 0.1600 ( 36261 PWs)   bands (ev):

   -74.7780 -74.7395 -74.5671 -74.3201 -66.9718 -41.8725 -41.8656 -41.8569
   -41.8346 -41.8317 -41.8141 -41.6707 -41.6471 -41.6447 -41.4220 -41.4005
   -41.3980 -33.7454 -33.4014 -33.2313 -13.2031 -13.1926 -13.1863 -13.1796
   -13.1712  -6.6887  -6.5498  -6.3681  -6.1289  -5.7512  -5.6141  -5.5291
    -5.4234  -5.3419  -5.2305  -5.0443  -4.7413  -4.5385  -4.0799  -3.9527
    -3.6521  -3.4255  -3.2114  -3.0911  -2.9936  -2.9123  -2.8144  -2.7642
    -2.6521  -2.6230  -2.4707  -2.4487  -2.4178  -2.2761  -2.2565  -2.1588
    -2.1129  -2.0624  -2.0299  -1.9920  -1.9456  -1.9207  -1.8609  -1.7983
    -1.7516  -1.6800  -1.6352  -1.5598  -1.5353  -1.4474  -1.3819  -1.3078
    -1.2158  -0.1452   0.6057   1.6449   2.3659   3.4476   3.5882   3.7480
     3.7657   3.8942   4.0377   4.1508   4.3366   4.4162   4.4450   4.5516
     4.6653   4.7233

          k =-0.7799 0.0118-0.2839 ( 36292 PWs)   bands (ev):

   -74.7780 -74.7395 -74.5671 -74.3201 -66.9718 -41.8725 -41.8656 -41.8569
   -41.8346 -41.8317 -41.8141 -41.6707 -41.6471 -41.6447 -41.4220 -41.4005
   -41.3980 -33.7454 -33.4014 -33.2313 -13.2032 -13.1926 -13.1863 -13.1796
   -13.1712  -6.7145  -6.5867  -6.2957  -6.0017  -5.8036  -5.6221  -5.5755
    -5.5083  -5.3568  -5.2545  -5.0569  -4.6660  -4.5239  -3.9915  -3.9108
    -3.7494  -3.4591  -3.2544  -3.0472  -3.0028  -2.8893  -2.8033  -2.7406
    -2.6839  -2.5815  -2.5131  -2.4056  -2.3306  -2.3252  -2.2669  -2.1984
    -2.1123  -2.0597  -2.0040  -1.9550  -1.9375  -1.9196  -1.8796  -1.8425
    -1.7778  -1.7003  -1.6680  -1.5745  -1.4971  -1.4724  -1.3779  -1.3043
    -1.1942  -0.1526   0.5966   1.6379   2.3847   3.4975   3.6565   3.6820
     3.7633   3.8602   4.0471   4.2051   4.3514   4.3838   4.4653   4.4942
     4.6585   4.7325

          k =-0.5934 0.2419 0.0164 ( 36274 PWs)   bands (ev):

   -74.7780 -74.7395 -74.5671 -74.3201 -66.9718 -41.8725 -41.8656 -41.8569
   -41.8346 -41.8317 -41.8141 -41.6707 -41.6471 -41.6447 -41.4220 -41.4005
   -41.3980 -33.7454 -33.4014 -33.2313 -13.2031 -13.1926 -13.1863 -13.1796
   -13.1712  -6.5992  -6.4579  -6.4049  -6.2159  -5.8510  -5.7401  -5.6252
    -5.4602  -5.3310  -5.1045  -5.0238  -4.7799  -4.3402  -4.0418  -3.8751
    -3.6113  -3.4028  -3.1795  -3.0968  -2.9989  -2.8694  -2.8305  -2.7346
    -2.6483  -2.5927  -2.5233  -2.4396  -2.3809  -2.3574  -2.2853  -2.2197
    -2.1765  -2.0982  -2.0674  -2.0140  -1.9535  -1.9384  -1.8674  -1.8102
    -1.7724  -1.6752  -1.6337  -1.5703  -1.5380  -1.4570  -1.3788  -1.2997
    -1.2142  -0.1053   0.6317   1.6482   2.3589   3.3240   3.6045   3.7397
     3.8295   3.9334   4.0614   4.1660   4.2971   4.3972   4.5168   4.5304
     4.6503   4.7200

          k =-0.4977 0.2425 0.1643 ( 36257 PWs)   bands (ev):

   -74.7780 -74.7395 -74.5671 -74.3201 -66.9718 -41.8725 -41.8656 -41.8569
   -41.8346 -41.8317 -41.8141 -41.6707 -41.6471 -41.6447 -41.4220 -41.4005
   -41.3980 -33.7454 -33.4014 -33.2313 -13.2031 -13.1926 -13.1863 -13.1796
   -13.1712  -6.6252  -6.4861  -6.3780  -6.1823  -5.7999  -5.7065  -5.5644
    -5.4595  -5.4300  -5.1296  -5.0945  -4.8947  -4.2871  -3.9303  -3.8294
    -3.6256  -3.3924  -3.1688  -3.0580  -2.9526  -2.9040  -2.8066  -2.7405
    -2.6300  -2.5758  -2.5161  -2.4970  -2.4250  -2.3798  -2.2873  -2.2204
    -2.1852  -2.1257  -2.0957  -2.0282  -1.9822  -1.9406  -1.8755  -1.8070
    -1.7507  -1.7088  -1.6316  -1.5767  -1.5151  -1.4481  -1.3644  -1.3048
    -1.1887  -0.0942   0.6248   1.6418   2.3803   3.4251   3.6192   3.7461
     3.8234   3.8663   4.0264   4.1486   4.2792   4.3970   4.4617   4.5811
     4.6715   4.7503

          k =-0.7849 0.2407-0.2796 ( 36282 PWs)   bands (ev):

   -74.7780 -74.7395 -74.5671 -74.3201 -66.9718 -41.8725 -41.8656 -41.8569
   -41.8346 -41.8317 -41.8141 -41.6707 -41.6471 -41.6447 -41.4220 -41.4005
   -41.3980 -33.7454 -33.4014 -33.2313 -13.2032 -13.1926 -13.1863 -13.1796
   -13.1712  -6.6557  -6.5258  -6.3164  -6.1031  -5.7950  -5.6804  -5.6296
    -5.4726  -5.3800  -5.2675  -5.1520  -4.8481  -4.2359  -3.8872  -3.8186
    -3.6443  -3.3825  -3.1259  -3.0029  -2.9356  -2.8884  -2.8433  -2.7507
    -2.6800  -2.6423  -2.5604  -2.4657  -2.3929  -2.3549  -2.3007  -2.2277
    -2.1928  -2.1677  -2.0713  -2.0003  -1.9682  -1.9220  -1.8823  -1.8076
    -1.7679  -1.7378  -1.6506  -1.6014  -1.4642  -1.4449  -1.3802  -1.3223
    -1.1663  -0.1071   0.6187   1.6425   2.3680   3.5617   3.6268   3.7207
     3.8184   3.8910   4.0329   4.1688   4.2833   4.3796   4.4880   4.5643
     4.6314   4.6372

          k =-0.6892 0.2413-0.1316 ( 36259 PWs)   bands (ev):

   -74.7780 -74.7395 -74.5671 -74.3201 -66.9718 -41.8725 -41.8656 -41.8569
   -41.8346 -41.8317 -41.8141 -41.6707 -41.6471 -41.6447 -41.4220 -41.4005
   -41.3980 -33.7454 -33.4014 -33.2313 -13.2031 -13.1926 -13.1863 -13.1796
   -13.1712  -6.6391  -6.5011  -6.3446  -6.1032  -5.9014  -5.7318  -5.6177
    -5.4297  -5.3449  -5.2469  -5.0819  -4.7330  -4.2793  -4.0042  -3.8837
    -3.5950  -3.4021  -3.1789  -3.0187  -2.9598  -2.8743  -2.8547  -2.7604
    -2.7077  -2.6051  -2.5472  -2.4545  -2.3859  -2.3035  -2.2577  -2.2339
    -2.2199  -2.0942  -2.0378  -2.0173  -1.9697  -1.9387  -1.8435  -1.8228
    -1.7465  -1.7126  -1.6821  -1.5774  -1.5266  -1.4318  -1.3696  -1.3299
    -1.1907  -0.1182   0.6256   1.6488   2.3475   3.3982   3.6516   3.7868
     3.8375   3.8761   4.0521   4.1849   4.3278   4.3953   4.4817   4.5187
     4.6403   4.6911

          k =-0.5785-0.4445 0.0034 ( 36224 PWs)   bands (ev):

   -74.7780 -74.7395 -74.5671 -74.3201 -66.9718 -41.8725 -41.8656 -41.8569
   -41.8346 -41.8317 -41.8141 -41.6707 -41.6471 -41.6447 -41.4220 -41.4005
   -41.3980 -33.7454 -33.4014 -33.2313 -13.2031 -13.1926 -13.1863 -13.1796
   -13.1712  -6.5123  -6.4361  -6.3669  -6.1701  -5.9699  -5.8534  -5.7531
    -5.5837  -5.2936  -5.0596  -5.0428  -4.7471  -4.1203  -3.8518  -3.7866
    -3.7130  -3.4537  -3.1439  -3.0466  -2.9314  -2.8630  -2.8011  -2.7051
    -2.6236  -2.6033  -2.5800  -2.4911  -2.4414  -2.3855  -2.3047  -2.2416
    -2.1721  -2.1221  -2.0789  -2.0734  -1.9820  -1.9717  -1.9145  -1.7955
    -1.7576  -1.7084  -1.6729  -1.6189  -1.5507  -1.4129  -1.3961  -1.2904
    -1.1949  -0.0755   0.6484   1.6431   2.3746   3.2832   3.6208   3.6852
     3.8580   4.0177   4.0945   4.1462   4.3308   4.3940   4.5326   4.5655
     4.6685   4.7246

          k =-0.4828-0.4439 0.1514 ( 36222 PWs)   bands (ev):

   -74.7780 -74.7395 -74.5671 -74.3201 -66.9718 -41.8725 -41.8656 -41.8569
   -41.8346 -41.8317 -41.8141 -41.6707 -41.6471 -41.6447 -41.4220 -41.4005
   -41.3980 -33.7454 -33.4014 -33.2313 -13.2031 -13.1926 -13.1863 -13.1796
   -13.1712  -6.5331  -6.4325  -6.3699  -6.2317  -5.8474  -5.8089  -5.6974
    -5.5365  -5.3645  -5.1726  -5.1250  -4.8294  -4.0888  -3.7711  -3.7408
    -3.6218  -3.4437  -3.0754  -3.0141  -2.9364  -2.8392  -2.8025  -2.7272
    -2.6485  -2.6205  -2.5559  -2.5097  -2.4558  -2.4305  -2.3448  -2.2894
    -2.2283  -2.1971  -2.0694  -2.0444  -2.0058  -1.9623  -1.8944  -1.8216
    -1.7827  -1.7390  -1.6609  -1.5526  -1.4985  -1.4114  -1.3920  -1.3036
    -1.1774  -0.0722   0.6453   1.6451   2.3627   3.3822   3.6443   3.7625
     3.8684   3.9829   4.0602   4.1577   4.2959   4.3874   4.4477   4.5386
     4.5981   4.6825

          k =-0.7700-0.4458-0.2925 ( 36232 PWs)   bands (ev):

   -74.7780 -74.7395 -74.5671 -74.3201 -66.9718 -41.8725 -41.8656 -41.8569
   -41.8346 -41.8317 -41.8141 -41.6707 -41.6471 -41.6447 -41.4220 -41.4005
   -41.3980 -33.7454 -33.4014 -33.2313 -13.2031 -13.1926 -13.1863 -13.1796
   -13.1712  -6.5491  -6.4338  -6.3737  -6.2685  -5.7490  -5.6875  -5.6588
    -5.5083  -5.4059  -5.3392  -5.1920  -4.9287  -4.0564  -3.7203  -3.6548
    -3.5668  -3.4190  -2.9584  -2.9509  -2.8996  -2.8696  -2.8425  -2.7576
    -2.6949  -2.6441  -2.5733  -2.4922  -2.4905  -2.4512  -2.3847  -2.3157
    -2.2866  -2.2685  -2.0526  -2.0072  -2.0052  -1.9460  -1.9385  -1.8502
    -1.8090  -1.7160  -1.6714  -1.5217  -1.4476  -1.4002  -1.3575  -1.3486
    -1.1598  -0.0689   0.6421   1.6472   2.3516   3.5394   3.6199   3.8375
     3.9040   3.9261   4.0762   4.1336   4.2535   4.3449   4.4280   4.4565
     4.5940   4.6164

     the Fermi energy is     1.4920 ev

!    total energy              =   -1480.76240418 Ry
     Harris-Foulkes estimate   =   -1480.76240418 Ry
     estimated scf accuracy    <          6.2E-09 Ry

     The total energy is the sum of the following terms:

     one-electron contribution =    -860.12901427 Ry
     hartree contribution      =     338.17159661 Ry
     xc contribution           =    -196.14143141 Ry
     ewald contribution        =    -299.98200108 Ry
     one-center paw contrib.   =    -462.68217851 Ry
     smearing contrib. (-TS)   =       0.00062449 Ry

     convergence has been achieved in  11 iterations

     Writing output data file 10_Li3Mg4TaAl11GaH48.save

     init_run     :   1206.84s CPU    426.53s WALL (       1 calls)
     electrons    :  19966.14s CPU   4641.84s WALL (       1 calls)

     Called by init_run:
     wfcinit      :    952.30s CPU    192.04s WALL (       1 calls)
     potinit      :     87.61s CPU     84.49s WALL (       1 calls)

     Called by electrons:
     c_bands      :  16610.19s CPU   3873.21s WALL (      11 calls)
     sum_band     :   2973.86s CPU    655.83s WALL (      11 calls)
     v_of_rho     :     31.45s CPU     17.74s WALL (      12 calls)
     newd         :    334.69s CPU     84.88s WALL (      12 calls)
     PAW_pot      :     40.64s CPU     13.88s WALL (      12 calls)
     mix_rho      :      3.31s CPU      3.20s WALL (      11 calls)

     Called by c_bands:
     init_us_2    :     55.56s CPU     54.22s WALL (     828 calls)
     cegterg      :  16430.17s CPU   3676.69s WALL (     396 calls)

     Called by sum_band:
     sum_band:bec :      5.62s CPU      2.99s WALL (     396 calls)
     addusdens    :    630.27s CPU    115.33s WALL (      11 calls)

     Called by *egterg:
     h_psi        :  11240.17s CPU   2524.34s WALL (    2294 calls)
     s_psi        :   2433.42s CPU    330.02s WALL (    2294 calls)
     g_psi        :     10.81s CPU      7.83s WALL (    1862 calls)
     cdiaghg      :    317.02s CPU    323.63s WALL (    2258 calls)

     Called by h_psi:
     h_psi:pot    :  11223.34s CPU   2509.73s WALL (    2294 calls)
     h_psi:calbec :   2431.45s CPU    331.81s WALL (    2294 calls)
     vloc_psi     :   6313.78s CPU   1846.68s WALL (    2294 calls)
     add_vuspsi   :   2477.91s CPU    331.18s WALL (    2294 calls)

     General routines
     calbec       :   3366.20s CPU    417.00s WALL (    2690 calls)
     fft          :     24.67s CPU      6.54s WALL (     188 calls)
     ffts         :      0.41s CPU      0.22s WALL (      23 calls)
     fftw         :   4966.11s CPU   1297.26s WALL (  247378 calls)
     interpolate  :      3.94s CPU      1.35s WALL (      23 calls)
     davcio       :      0.12s CPU      7.36s WALL (      36 calls)

     Parallel routines
     fft_scatter  :    302.36s CPU    324.14s WALL (  247589 calls)

     PWSCF        :     5h52m CPU        1h24m WALL


   This run was terminated on:  12:23:19  24Dec2025            

=------------------------------------------------------------------------------=
   JOB DONE.
=------------------------------------------------------------------------------=
