
     Program PWSCF v.6.1 starts on 24Dec2025 at 12:23:19 

     This program is part of the open-source Quantum ESPRESSO suite
     for quantum simulation of materials; please cite
         "P. Giannozzi et al., J. Phys.:Condens. Matter 21 395502 (2009);
          URL http://www.quantum-espresso.org", 
     in publications or presentations arising from this work. More details at
     http://www.quantum-espresso.org/quote

     Parallel version (MPI & OpenMP), running on      12 processor cores
     Number of MPI processes:                 1
     Threads/MPI process:                    12
     Waiting for input...
     Reading input from standard input

     Current dimensions of program PWSCF are:
     Max number of different atomic species (ntypx) = 10
     Max number of k-points (npk) =  40000
     Max angular momentum in pseudopotentials (lmaxx) =  3

     Atomic positions and unit cell read from directory:
     ./tmp/10_Li3Mg4TaAl11GaH48.save/

               file Al.UPF: wavefunction(s)  3S 3P renormalized
               file Ga.UPF: wavefunction(s)  4S renormalized
               file H.UPF: wavefunction(s)  1S renormalized
               file Mg.UPF: wavefunction(s)  Xn Xn Xn Xn Xn Xn renormalized

     Subspace diagonalization in iterative solution of the eigenvalue problem:
     a serial algorithm will be used


     G-vector sticks info
     --------------------
     sticks:   dense  smooth     PW     G-vecs:    dense   smooth      PW
     Sum        8645    4319   1195               820371   290049   42347



     bravais-lattice index     =            0
     lattice parameter (alat)  =      15.7667  a.u.
     unit-cell volume          =    6072.5179 (a.u.)^3
     number of atoms/cell      =           68
     number of atomic types    =            6
     number of electrons       =       150.00
     number of Kohn-Sham states=           90
     kinetic-energy cutoff     =      50.0000  Ry
     charge density cutoff     =     400.0000  Ry
     Exchange-correlation      =  SLA  PW   PBE  PBE ( 1  4  3  4 0 0)

     celldm(1)=  15.766705  celldm(2)=   0.000000  celldm(3)=   0.000000
     celldm(4)=   0.000000  celldm(5)=   0.000000  celldm(6)=   0.000000

     crystal axes: (cart. coord. in units of alat)
               a(1) = (   0.839186   0.028511  -0.543096 )  
               a(2) = (   0.023930   1.093508  -0.020112 )  
               a(3) = (   0.033476  -0.030757   1.668090 )  

     reciprocal axes: (cart. coord. in units 2 pi/alat)
               b(1) = (  1.176923 -0.026199 -0.024102 )  
               b(2) = ( -0.019915  0.915242  0.017275 )  
               b(3) = (  0.382942  0.002505  0.591849 )  


     PseudoPot. # 1 for Al read from file:
     C:/Users/Acer/Desktop/Quantum_Espresso/pseudo/Al.UPF
     MD5 check sum: e89421766d8034880bfd87239630352a
     Pseudo is Projector augmented-wave + core cor, Zval =  3.0
     Generated using "atomic" code by A. Dal Corso  v.5.1.2
     Shape of augmentation charge: PSQ
     Using radial grid of 1135 points,  6 beta functions with: 
                l(1) =   0
                l(2) =   0
                l(3) =   1
                l(4) =   1
                l(5) =   2
                l(6) =   2
     Q(r) pseudized with 0 coefficients 


     PseudoPot. # 2 for Ga read from file:
     C:/Users/Acer/Desktop/Quantum_Espresso/pseudo/Ga.UPF
     MD5 check sum: 7815679c68c53c1d9d428b4d54d7752e
     Pseudo is Projector augmented-wave + core cor, Zval = 13.0
     Generated using "atomic" code by A. Dal Corso  v.5.1.2
     Shape of augmentation charge: PSQ
     Using radial grid of 1205 points,  6 beta functions with: 
                l(1) =   0
                l(2) =   0
                l(3) =   1
                l(4) =   1
                l(5) =   2
                l(6) =   2
     Q(r) pseudized with 0 coefficients 


     PseudoPot. # 3 for  H read from file:
     C:/Users/Acer/Desktop/Quantum_Espresso/pseudo/H.UPF
     MD5 check sum: f872269930354f4c44a8fadb7eac41ed
     Pseudo is Projector augmented-wave, Zval =  1.0
     Generated using "atomic" code by A. Dal Corso  v.5.1.2
     Shape of augmentation charge: PSQ
     Using radial grid of  929 points,  2 beta functions with: 
                l(1) =   0
                l(2) =   0
     Q(r) pseudized with 0 coefficients 


     PseudoPot. # 4 for Li read from file:
     C:/Users/Acer/Desktop/Quantum_Espresso/pseudo/Li.UPF
     MD5 check sum: a33e1da9cc385e08515ef569b3dd683e
     Pseudo is Ultrasoft + core correction, Zval =  1.0
     Generated by new atomic code, or converted to UPF format
     Using radial grid of  751 points,  2 beta functions with: 
                l(1) =   1
                l(2) =   1
     Q(r) pseudized with  8 coefficients,  rinner =    1.000   1.000   1.000


     PseudoPot. # 5 for Mg read from file:
     C:/Users/Acer/Desktop/Quantum_Espresso/pseudo/Mg.UPF
     MD5 check sum: bcba648c56df50954a929b3b87969c21
     Pseudo is Projector augmented-wave + core cor, Zval = 10.0
     Generated using ATOMPAW code
     Shape of augmentation charge: BESSEL
     Using radial grid of 1171 points,  6 beta functions with: 
                l(1) =   0
                l(2) =   0
                l(3) =   0
                l(4) =   0
                l(5) =   1
                l(6) =   1
     Q(r) pseudized with 0 coefficients 


     PseudoPot. # 6 for Ta read from file:
     C:/Users/Acer/Desktop/Quantum_Espresso/pseudo/Ta.UPF
     MD5 check sum: f34f1fa3a0735d3d4a3c45a0affad432
     Pseudo is Ultrasoft + core correction, Zval = 13.0
     Generated by new atomic code, or converted to UPF format
     Using radial grid of  921 points,  6 beta functions with: 
                l(1) =   0
                l(2) =   0
                l(3) =   1
                l(4) =   1
                l(5) =   2
                l(6) =   2
     Q(r) pseudized with  6 coefficients,  rinner =    1.000   1.000   1.000
                                                       1.000   1.000

     atomic species   valence    mass     pseudopotential
        Al             3.00     1.00000     Al( 1.00)
        Ga            13.00     1.00000     Ga( 1.00)
        H              1.00     1.00000      H( 1.00)
        Li             1.00     1.00000     Li( 1.00)
        Mg            10.00     1.00000     Mg( 1.00)
        Ta            13.00     1.00000     Ta( 1.00)

     No symmetry found



   Cartesian axes

     site n.     atom                  positions (alat units)
         1           Li  tau(   1) = (   0.1837373   0.0379079   1.3987327  )
         2           Li  tau(   2) = (   0.7499166   0.5476377   0.5648274  )
         3           Li  tau(   3) = (   0.7460609   1.0976785  -0.3079387  )
         4           Ga  tau(   4) = (   0.1086214   0.5221157   0.5876071  )
         5           Mg  tau(   5) = (   0.5912663   1.0633004   0.2863228  )
         6           Mg  tau(   6) = (   0.3168236   0.5302131  -0.0157322  )
         7           Mg  tau(   7) = (   0.3387200  -0.0127538   0.8260308  )
         8           Mg  tau(   8) = (   0.5534087   0.5781241   1.1056273  )
         9           Ta  tau(   9) = (   0.7364976   0.9522542   0.6437091  )
        10           Al  tau(  10) = (   0.2422543   0.3832895   1.2762188  )
        11           Al  tau(  11) = (   0.2058039   0.1136182   0.4454058  )
        12           Al  tau(  12) = (   0.6236417   0.7192336  -0.2001335  )
        13           Al  tau(  13) = (   0.4465348   0.6940112   0.3361910  )
        14           Al  tau(  14) = (   0.4500502   0.1604338  -0.0468024  )
        15           Al  tau(  15) = (   0.4705311   0.3727506   0.7652797  )
        16           Al  tau(  16) = (   0.4565164   0.9452451   1.1554045  )
        17           Al  tau(  17) = (   0.8468713   0.2875285   1.1391281  )
        18           Al  tau(  18) = (   0.0327685   0.8437143   0.8879530  )
        19           Al  tau(  19) = (   0.0257989   0.8122978  -0.1113026  )
        20           Al  tau(  20) = (   0.8437155   0.2672382   0.3228895  )
        21           H   tau(  21) = (   0.5578182   0.9482067   0.7807111  )
        22           H   tau(  22) = (   0.3527395   0.4595199   1.1314106  )
        23           H   tau(  23) = (   0.3510423   0.0648083   0.3218827  )
        24           H   tau(  24) = (   0.5086727   0.6565396  -0.0509302  )
        25           H   tau(  25) = (   0.5776591   1.0436680   0.5237661  )
        26           H   tau(  26) = (   0.3522085   0.4065930   1.4391911  )
        27           H   tau(  27) = (   0.2811222   0.0680048   0.6216197  )
        28           H   tau(  28) = (   0.5017522   0.7053304  -0.3549988  )
        29           H   tau(  29) = (   0.7091406   0.7439382   0.6856369  )
        30           H   tau(  30) = (   0.2322380   0.1926581   1.2454867  )
        31           H   tau(  31) = (   0.1772075   0.3077002   0.4380730  )
        32           H   tau(  32) = (   0.6615412   0.9073444  -0.1733266  )
        33           H   tau(  33) = (   0.9075194   1.0786407   0.6711548  )
        34           H   tau(  34) = (   0.0737195   0.4771651   1.2910486  )
        35           H   tau(  35) = (   0.0521000  -0.0007323   0.4167699  )
        36           H   tau(  36) = (   0.7738709   0.6016326  -0.2285321  )
        37           H   tau(  37) = (   0.4861866   0.8588077   0.2367422  )
        38           H   tau(  38) = (   0.4482979   0.3406185   0.0356103  )
        39           H   tau(  39) = (   0.4737132   0.1922530   0.8441182  )
        40           H   tau(  40) = (   0.4320850   0.7742449   1.0580663  )
        41           H   tau(  41) = (   0.6072958   0.5881105   0.3625868  )
        42           H   tau(  42) = (   0.2642586   0.1099458  -0.0761658  )
        43           H   tau(  43) = (   0.2857043   0.4272069   0.7289635  )
        44           H   tau(  44) = (   0.6456387   0.9761990   1.1854415  )
        45           H   tau(  45) = (   0.3286689   0.5973202   0.2061478  )
        46           H   tau(  46) = (   0.5302047   0.0409019   0.0848205  )
        47           H   tau(  47) = (   0.5456373   0.5027710   0.8906114  )
        48           H   tau(  48) = (   0.3990864   1.0860945   1.0321667  )
        49           H   tau(  49) = (   0.3478290   0.7295927   0.4989524  )
        50           H   tau(  50) = (   0.5571339   0.1561298  -0.2089573  )
        51           H   tau(  51) = (   0.5865871   0.3808516   0.6109765  )
        52           H   tau(  52) = (   0.3545529   0.9557876   1.3204383  )
        53           H   tau(  53) = (   0.8495729   0.2106268   0.9596865  )
        54           H   tau(  54) = (   0.0710491   0.8081017   1.1276448  )
        55           H   tau(  55) = (   0.0633688   0.9483949   0.0206080  )
        56           H   tau(  56) = (   0.8381506   0.3422078   0.1410435  )
        57           H   tau(  57) = (   0.6785690   0.3887153   1.1649330  )
        58           H   tau(  58) = (   0.2211801   0.9038758   0.8567642  )
        59           H   tau(  59) = (   0.1897324   0.7003252  -0.1264176  )
        60           H   tau(  60) = (   0.6721963   0.1776834   0.3584039  )
        61           H   tau(  61) = (   0.1150493   0.4250112   0.0357229  )
        62           H   tau(  62) = (   0.7857282   0.9748410   0.1902898  )
        63           H   tau(  63) = (   0.7498819   0.6888071   1.0521286  )
        64           H   tau(  64) = (   0.1478286   0.1104109   0.8921323  )
        65           H   tau(  65) = (   0.8286713   0.1889630  -0.3867437  )
        66           H   tau(  66) = (   0.0419938   0.6634433   0.8141592  )
        67           H   tau(  67) = (   0.0197702   0.8728524   1.3823269  )
        68           H   tau(  68) = (   0.8786570   0.4049449   0.4543913  )

     number of k points=   260 (tetrahedron method)

     Number of k-points >= 100: set verbosity='high' to print them.

     Dense  grid:   820371 G-vectors     FFT dimensions: ( 108, 120, 180)

     Smooth grid:   290049 G-vectors     FFT dimensions: (  72,  80, 120)

     Estimated max dynamical RAM per process >     983.95MB

     The potential is recalculated from file :
     ./tmp/10_Li3Mg4TaAl11GaH48.save/charge-density.dat

     Starting wfc are  166 randomized atomic wfcs
     Checking if some PAW data can be deallocated... 

     Band Structure Calculation
     Davidson diagonalization with overlap
     c_bands:  1 eigenvalues not converged
     c_bands:  1 eigenvalues not converged
     c_bands:  2 eigenvalues not converged
     c_bands:  1 eigenvalues not converged
     c_bands:  1 eigenvalues not converged
     c_bands:  1 eigenvalues not converged
     c_bands:  1 eigenvalues not converged
     c_bands:  1 eigenvalues not converged
     c_bands:  2 eigenvalues not converged
     c_bands:  1 eigenvalues not converged
     c_bands:  1 eigenvalues not converged
     c_bands:  2 eigenvalues not converged
     c_bands:  1 eigenvalues not converged
     c_bands:  1 eigenvalues not converged
     c_bands:  1 eigenvalues not converged
     c_bands:  2 eigenvalues not converged
     c_bands:  1 eigenvalues not converged
     c_bands:  2 eigenvalues not converged
     c_bands:  1 eigenvalues not converged
     c_bands:  1 eigenvalues not converged
     c_bands:  1 eigenvalues not converged
     c_bands:  1 eigenvalues not converged
     c_bands:  1 eigenvalues not converged
     c_bands:  1 eigenvalues not converged
     c_bands:  2 eigenvalues not converged
     c_bands:  1 eigenvalues not converged
     c_bands:  1 eigenvalues not converged
     c_bands:  1 eigenvalues not converged
     c_bands:  1 eigenvalues not converged
     c_bands:  1 eigenvalues not converged
     c_bands:  1 eigenvalues not converged
     c_bands:  1 eigenvalues not converged
     c_bands:  1 eigenvalues not converged
     c_bands:  1 eigenvalues not converged
     c_bands:  1 eigenvalues not converged
     c_bands:  1 eigenvalues not converged
     c_bands:  1 eigenvalues not converged
     c_bands:  2 eigenvalues not converged
     c_bands:  1 eigenvalues not converged
     c_bands:  1 eigenvalues not converged
     c_bands:  1 eigenvalues not converged
     c_bands:  1 eigenvalues not converged
     c_bands:  1 eigenvalues not converged
     c_bands:  1 eigenvalues not converged
     c_bands:  1 eigenvalues not converged
     c_bands:  1 eigenvalues not converged
     c_bands:  1 eigenvalues not converged
     c_bands:  1 eigenvalues not converged
     c_bands:  1 eigenvalues not converged
     c_bands:  1 eigenvalues not converged
     c_bands:  1 eigenvalues not converged
     c_bands:  1 eigenvalues not converged
     c_bands:  1 eigenvalues not converged
     c_bands:  1 eigenvalues not converged
     c_bands:  1 eigenvalues not converged
     c_bands:  1 eigenvalues not converged
     c_bands:  1 eigenvalues not converged
     c_bands:  1 eigenvalues not converged
     c_bands:  1 eigenvalues not converged
     c_bands:  1 eigenvalues not converged
     c_bands:  1 eigenvalues not converged
     c_bands:  1 eigenvalues not converged
     c_bands:  1 eigenvalues not converged
     c_bands:  1 eigenvalues not converged
     c_bands:  1 eigenvalues not converged
     c_bands:  1 eigenvalues not converged
     c_bands:  1 eigenvalues not converged
     c_bands:  1 eigenvalues not converged
     c_bands:  1 eigenvalues not converged
     c_bands:  1 eigenvalues not converged
     c_bands:  1 eigenvalues not converged
     c_bands:  1 eigenvalues not converged
     c_bands:  1 eigenvalues not converged
     c_bands:  1 eigenvalues not converged
     c_bands:  1 eigenvalues not converged
     c_bands:  1 eigenvalues not converged
     c_bands:  1 eigenvalues not converged
     c_bands:  1 eigenvalues not converged
     c_bands:  2 eigenvalues not converged
     c_bands:  1 eigenvalues not converged
     c_bands:  1 eigenvalues not converged
     c_bands:  1 eigenvalues not converged
     c_bands:  1 eigenvalues not converged

 %%%%%%%%%%%%%%%%%%%%%%%%%%%%%%%%%%%%%%%%%%%%%%%%%%%%%%%%%%%%%%%%%%%%%%%%%%%%%%
     Error in routine cdiaghg (246):
     S matrix not positive definite
 %%%%%%%%%%%%%%%%%%%%%%%%%%%%%%%%%%%%%%%%%%%%%%%%%%%%%%%%%%%%%%%%%%%%%%%%%%%%%%

     stopping ...

job aborted:
[ranks] message

[0] application aborted
aborting MPI_COMM_WORLD (comm=0x44000000), error 1, comm rank 0
