
     Program PWSCF v.6.4.1 starts on 28Dec2025 at 11:18:22 

     This program is part of the open-source Quantum ESPRESSO suite
     for quantum simulation of materials; please cite
         "P. Giannozzi et al., J. Phys.:Condens. Matter 21 395502 (2009);
         "P. Giannozzi et al., J. Phys.:Condens. Matter 29 465901 (2017);
          URL http://www.quantum-espresso.org", 
     in publications or presentations arising from this work. More details at
     http://www.quantum-espresso.org/quote

     Parallel version (MPI & OpenMP), running on      12 processor cores
     Number of MPI processes:                 1
     Threads/MPI process:                    12

     MPI processes distributed on     1 nodes
     Waiting for input...
     Reading input from standard input

     Current dimensions of program PWSCF are:
     Max number of different atomic species (ntypx) = 10
     Max number of k-points (npk) =  40000
     Max angular momentum in pseudopotentials (lmaxx) =  3
     Message from routine read_upf::
     Pseudo file B.UPF has been fixed on the fly.
To avoid this message in the future, permanently fix 
 your pseudo files following these instructions: 
https://gitlab.com/QEF/q-e/blob/master/upftools/how_to_fix_upf.md
     Message from routine read_upf::
     Pseudo file H.UPF has been fixed on the fly.
To avoid this message in the future, permanently fix 
 your pseudo files following these instructions: 
https://gitlab.com/QEF/q-e/blob/master/upftools/how_to_fix_upf.md
               file H.UPF: wavefunction(s)  1S renormalized

     Subspace diagonalization in iterative solution of the eigenvalue problem:
     a serial algorithm will be used


     G-vector sticks info
     --------------------
     sticks:   dense  smooth     PW     G-vecs:    dense   smooth      PW
     Sum        7831    3907   1043               743695   262937   36309



     bravais-lattice index     =            0
     lattice parameter (alat)  =      11.6718  a.u.
     unit-cell volume          =    4187.7797 (a.u.)^3
     number of atoms/cell      =           56
     number of atomic types    =            3
     number of electrons       =        96.00
     number of Kohn-Sham states=           58
     kinetic-energy cutoff     =      60.0000  Ry
     charge density cutoff     =     480.0000  Ry
     convergence threshold     =      1.0E-12
     mixing beta               =       0.7000
     number of iterations used =            8  plain     mixing
     Exchange-correlation      =  SLA  PW   PBE  PBE ( 1  4  3  4 0 0)

     celldm(1)=  11.671755  celldm(2)=   0.000000  celldm(3)=   0.000000
     celldm(4)=   0.000000  celldm(5)=   0.000000  celldm(6)=   0.000000

     crystal axes: (cart. coord. in units of alat)
               a(1) = (   0.999876   0.014840   0.005296 )  
               a(2) = (  -0.389236   1.499571  -0.015141 )  
               a(3) = (   0.009355  -0.015415   1.750001 )  

     reciprocal axes: (cart. coord. in units 2 pi/alat)
               b(1) = (  0.996303  0.258575 -0.003048 )  
               b(2) = ( -0.009892  0.664350  0.005905 )  
               b(3) = ( -0.003101  0.004966  0.571489 )  


     PseudoPot. # 1 for B  read from file:
     C:/Users/Acer/Desktop/Quantum_Espresso/pseudo/\B.UPF
     MD5 check sum: d9c678ba5d3b2fd7b74e61139c9288d8
     Pseudo is Projector augmented-wave + core cor, Zval =  3.0
     Generated using "atomic" code by A. Dal Corso v.5.1.2
     Shape of augmentation charge: PSQ
     Using radial grid of 1059 points,  4 beta functions with: 
                l(1) =   0
                l(2) =   0
                l(3) =   1
                l(4) =   1
     Q(r) pseudized with 0 coefficients 


     PseudoPot. # 2 for H  read from file:
     C:/Users/Acer/Desktop/Quantum_Espresso/pseudo/\H.UPF
     MD5 check sum: 850d63dcbcc06c5de8b44e0ab9f952da
     Pseudo is Projector augmented-wave, Zval =  1.0
     Generated using "atomic" code by A. Dal Corso v.5.1.2
     Shape of augmentation charge: PSQ
     Using radial grid of  929 points,  2 beta functions with: 
                l(1) =   0
                l(2) =   0
     Q(r) pseudized with 0 coefficients 


     PseudoPot. # 3 for Y  read from file:
     C:/Users/Acer/Desktop/Quantum_Espresso/pseudo/\Y.UPF
     MD5 check sum: e11e343c2e9fd2e6ee9cb5aa0e490caa
     Pseudo is Ultrasoft + core correction, Zval = 11.0
     Generated by new atomic code, or converted to UPF format
     Using radial grid of  885 points,  6 beta functions with: 
                l(1) =   0
                l(2) =   0
                l(3) =   1
                l(4) =   1
                l(5) =   2
                l(6) =   2
     Q(r) pseudized with  6 coefficients,  rinner =    1.200   1.200   1.200
                                                       1.200   1.200

     atomic species   valence    mass     pseudopotential
        B              3.00     1.00000     B ( 1.00)
        H              1.00     1.00000     H ( 1.00)
        Y             11.00     1.00000     Y ( 1.00)

     No symmetry found



   Cartesian axes

     site n.     atom                  positions (alat units)
         1           B   tau(   1) = (   0.0551435   0.4077989   0.7070965  )
         2           B   tau(   2) = (   0.2616480   0.3333837   1.5799961  )
         3           B   tau(   3) = (   0.5686330   1.0689951   1.0194600  )
         4           B   tau(   4) = (   0.3569491   1.1647090   0.1462949  )
         5           B   tau(   5) = (   0.1263012   0.1898752   0.5177233  )
         6           B   tau(   6) = (   0.2076670   0.5719666   1.4102863  )
         7           Y   tau(   7) = (   0.4464620   1.3943855   1.2816035  )
         8           B   tau(   8) = (   0.4316314   0.9452990   0.3333821  )
         9           B   tau(   9) = (  -0.0836584   0.3946214   0.4672847  )
        10           B   tau(  10) = (   0.4063822   0.3614987   1.3455191  )
        11           B   tau(  11) = (   0.7167688   1.0583417   1.2639509  )
        12           B   tau(  12) = (   0.2254362   1.1518537   0.3903632  )
        13           B   tau(  13) = (   0.7641344   0.3707564   0.7261529  )
        14           B   tau(  14) = (   0.5569191   0.3667655   1.5995268  )
        15           B   tau(  15) = (  -0.1427557   1.1216404   1.0109437  )
        16           B   tau(  16) = (   0.0619792   1.1235088   0.1439165  )
        17           H   tau(  17) = (   0.1501111   0.5722160   0.7410838  )
        18           H   tau(  18) = (   0.1600618   0.1692241   1.5965024  )
        19           H   tau(  19) = (   0.4780369   0.9016459   0.9800375  )
        20           H   tau(  20) = (   0.4551758   1.3285254   0.1142959  )
        21           H   tau(  21) = (   0.1789125   0.2453198   0.7323765  )
        22           H   tau(  22) = (   0.1443197   0.4969637   1.6189862  )
        23           H   tau(  23) = (   0.4536927   1.2242872   0.9672550  )
        24           H   tau(  24) = (   0.4754966   0.9997528   0.1143687  )
        25           H   tau(  25) = (   0.2916168   0.2121647   0.4185057  )
        26           H   tau(  26) = (   0.0442295   0.5679708   1.3071830  )
        27           H   tau(  27) = (   0.1656735   1.3172276   1.4128055  )
        28           H   tau(  28) = (   0.6011583   0.9688514   0.4243165  )
        29           H   tau(  29) = (  -0.3190809   1.5081730   0.5465264  )
        30           H   tau(  30) = (   0.2730883   0.7435189   1.4746471  )
        31           H   tau(  31) = (   0.8830445   0.1926535   1.1913765  )
        32           H   tau(  32) = (   0.3749336   0.7634948   0.2928344  )
        33           H   tau(  33) = (  -0.0393529   0.2233120   0.3624345  )
        34           H   tau(  34) = (   0.3736869   0.5421662   1.2540325  )
        35           H   tau(  35) = (   0.7183393   1.2063609   1.3986485  )
        36           H   tau(  36) = (   0.2731353   0.9804747   0.4939830  )
        37           H   tau(  37) = (  -0.0708759   0.5507748   0.3549447  )
        38           H   tau(  38) = (   0.3886600   0.2147374   1.2215331  )
        39           H   tau(  39) = (   0.7026344   0.8865984   1.3533925  )
        40           H   tau(  40) = (   0.2414843   1.3069498   0.5032764  )
        41           H   tau(  41) = (   0.7203291   0.3550143   0.5004576  )
        42           H   tau(  42) = (   0.6057807   0.4023281   1.3793153  )
        43           H   tau(  43) = (  -0.0803361   1.0436844   1.2120989  )
        44           H   tau(  44) = (   0.0283772   1.0965062   0.3681627  )
        45           H   tau(  45) = (   0.6537243   0.5187660   0.7849069  )
        46           H   tau(  46) = (   0.6574950   0.2059654   1.6452004  )
        47           H   tau(  47) = (  -0.0001943   1.0221444   0.9215118  )
        48           H   tau(  48) = (  -0.0435009   1.2788624   0.0968149  )
        49           H   tau(  49) = (   0.7051148   0.1895206   0.7668107  )
        50           H   tau(  50) = (   0.6270535   0.5369091   1.6626571  )
        51           H   tau(  51) = (  -0.1232039   1.3162789   1.0067164  )
        52           H   tau(  52) = (  -0.0050531   0.9474410   0.0947166  )
        53           H   tau(  53) = (  -0.0608572   0.3529856   0.8687450  )
        54           H   tau(  54) = (   0.3702141   0.3783142  -0.0038032  )
        55           H   tau(  55) = (   0.7059567   1.0713962   0.8623724  )
        56           H   tau(  56) = (   0.2411006   1.1069993   1.7387934  )

     number of k points=    14  Methfessel-Paxton smearing, width (Ry)=  0.0100
                       cart. coord. in units 2pi/alat
        k(    1) = (   0.0000000   0.0000000   0.0000000), wk =   0.0740741
        k(    2) = (  -0.0010335   0.0016552   0.1904962), wk =   0.1481481
        k(    3) = (  -0.0032972   0.2214498   0.0019683), wk =   0.1481481
        k(    4) = (  -0.0043308   0.2231050   0.1924645), wk =   0.1481481
        k(    5) = (  -0.0022637   0.2197946  -0.1885280), wk =   0.1481481
        k(    6) = (   0.3321008   0.0861916  -0.0010161), wk =   0.1481481
        k(    7) = (   0.3310673   0.0878468   0.1894802), wk =   0.1481481
        k(    8) = (   0.3331344   0.0845363  -0.1915123), wk =   0.1481481
        k(    9) = (   0.3288036   0.3076414   0.0009522), wk =   0.1481481
        k(   10) = (   0.3277701   0.3092966   0.1914485), wk =   0.1481481
        k(   11) = (   0.3298372   0.3059862  -0.1895440), wk =   0.1481481
        k(   12) = (   0.3353981  -0.1352583  -0.0029844), wk =   0.1481481
        k(   13) = (   0.3343645  -0.1336031   0.1875119), wk =   0.1481481
        k(   14) = (   0.3364316  -0.1369135  -0.1934806), wk =   0.1481481

     Dense  grid:   743695 G-vectors     FFT dimensions: (  81, 128, 144)

     Smooth grid:   262937 G-vectors     FFT dimensions: (  60,  90, 108)

     Estimated max dynamical RAM per process >       3.49 GB

     Initial potential from superposition of free atoms

     starting charge   95.99091, renormalised to   96.00000

     negative rho (up, down):  4.380E-02 0.000E+00
     Starting wfcs are  113 randomized atomic wfcs
     Checking if some PAW data can be deallocated... 

     total cpu time spent up to now is       82.3 secs

     Self-consistent Calculation

     iteration #  1     ecut=    60.00 Ry     beta= 0.70
     Davidson diagonalization with overlap
     ethr =  1.00E-02,  avg # of iterations =  2.0

     negative rho (up, down):  4.428E-02 0.000E+00

     total cpu time spent up to now is      139.8 secs

     total energy              =    -305.21757543 Ry
     Harris-Foulkes estimate   =    -307.90756666 Ry
     estimated scf accuracy    <       4.68017791 Ry

     iteration #  2     ecut=    60.00 Ry     beta= 0.70
     Davidson diagonalization with overlap
     ethr =  4.88E-03,  avg # of iterations =  3.3

     negative rho (up, down):  4.395E-02 0.000E+00

     total cpu time spent up to now is      198.2 secs

     total energy              =    -305.85639843 Ry
     Harris-Foulkes estimate   =    -306.62812294 Ry
     estimated scf accuracy    <       1.27719220 Ry

     iteration #  3     ecut=    60.00 Ry     beta= 0.70
     Davidson diagonalization with overlap
     ethr =  1.33E-03,  avg # of iterations =  2.6

     negative rho (up, down):  4.380E-02 0.000E+00

     total cpu time spent up to now is      253.5 secs

     total energy              =    -306.21067107 Ry
     Harris-Foulkes estimate   =    -306.29395780 Ry
     estimated scf accuracy    <       0.15659728 Ry

     iteration #  4     ecut=    60.00 Ry     beta= 0.70
     Davidson diagonalization with overlap
     ethr =  1.63E-04,  avg # of iterations =  3.2

     negative rho (up, down):  4.387E-02 0.000E+00

     total cpu time spent up to now is      308.2 secs

     total energy              =    -306.24230215 Ry
     Harris-Foulkes estimate   =    -306.24880457 Ry
     estimated scf accuracy    <       0.01206471 Ry

     iteration #  5     ecut=    60.00 Ry     beta= 0.70
     Davidson diagonalization with overlap
     ethr =  1.26E-05,  avg # of iterations =  7.7

     negative rho (up, down):  4.393E-02 0.000E+00

     total cpu time spent up to now is      369.0 secs

     total energy              =    -306.24563517 Ry
     Harris-Foulkes estimate   =    -306.24587427 Ry
     estimated scf accuracy    <       0.00064926 Ry

     iteration #  6     ecut=    60.00 Ry     beta= 0.70
     Davidson diagonalization with overlap
     ethr =  6.76E-07,  avg # of iterations =  3.7

     negative rho (up, down):  4.395E-02 0.000E+00

     total cpu time spent up to now is      422.8 secs

     total energy              =    -306.24579314 Ry
     Harris-Foulkes estimate   =    -306.24580387 Ry
     estimated scf accuracy    <       0.00004422 Ry

     iteration #  7     ecut=    60.00 Ry     beta= 0.70
     Davidson diagonalization with overlap
     ethr =  4.61E-08,  avg # of iterations =  2.7

     negative rho (up, down):  4.395E-02 0.000E+00

     total cpu time spent up to now is      475.1 secs

     total energy              =    -306.24580283 Ry
     Harris-Foulkes estimate   =    -306.24580711 Ry
     estimated scf accuracy    <       0.00000913 Ry

     iteration #  8     ecut=    60.00 Ry     beta= 0.70
     Davidson diagonalization with overlap
     ethr =  9.51E-09,  avg # of iterations =  2.4

     negative rho (up, down):  4.394E-02 0.000E+00

     total cpu time spent up to now is      524.5 secs

     total energy              =    -306.24580506 Ry
     Harris-Foulkes estimate   =    -306.24580526 Ry
     estimated scf accuracy    <       0.00000057 Ry

     iteration #  9     ecut=    60.00 Ry     beta= 0.70
     Davidson diagonalization with overlap
     ethr =  5.95E-10,  avg # of iterations =  2.4

     negative rho (up, down):  4.394E-02 0.000E+00

     total cpu time spent up to now is      574.6 secs

     total energy              =    -306.24580522 Ry
     Harris-Foulkes estimate   =    -306.24580523 Ry
     estimated scf accuracy    <       0.00000005 Ry

     iteration # 10     ecut=    60.00 Ry     beta= 0.70
     Davidson diagonalization with overlap
     ethr =  4.97E-11,  avg # of iterations =  2.4

     negative rho (up, down):  4.394E-02 0.000E+00

     total cpu time spent up to now is      627.2 secs

     total energy              =    -306.24580523 Ry
     Harris-Foulkes estimate   =    -306.24580523 Ry
     estimated scf accuracy    <          4.5E-09 Ry

     iteration # 11     ecut=    60.00 Ry     beta= 0.70
     Davidson diagonalization with overlap
     ethr =  4.70E-12,  avg # of iterations =  2.4

     negative rho (up, down):  4.394E-02 0.000E+00

     total cpu time spent up to now is      679.1 secs

     total energy              =    -306.24580523 Ry
     Harris-Foulkes estimate   =    -306.24580523 Ry
     estimated scf accuracy    <          3.7E-10 Ry

     iteration # 12     ecut=    60.00 Ry     beta= 0.70
     Davidson diagonalization with overlap
     ethr =  3.84E-13,  avg # of iterations =  2.4

     negative rho (up, down):  4.394E-02 0.000E+00

     total cpu time spent up to now is      730.8 secs

     total energy              =    -306.24580524 Ry
     Harris-Foulkes estimate   =    -306.24580523 Ry
     estimated scf accuracy    <          2.3E-11 Ry

     iteration # 13     ecut=    60.00 Ry     beta= 0.70
     Davidson diagonalization with overlap
     ethr =  1.00E-13,  avg # of iterations =  2.4

     negative rho (up, down):  4.394E-02 0.000E+00

     total cpu time spent up to now is      775.5 secs

     total energy              =    -306.24580524 Ry
     Harris-Foulkes estimate   =    -306.24580524 Ry
     estimated scf accuracy    <          3.9E-12 Ry

     iteration # 14     ecut=    60.00 Ry     beta= 0.70
     Davidson diagonalization with overlap
     ethr =  1.00E-13,  avg # of iterations =  1.4

     negative rho (up, down):  4.394E-02 0.000E+00

     total cpu time spent up to now is      817.6 secs

     End of self-consistent calculation

          k = 0.0000 0.0000 0.0000 ( 32875 PWs)   bands (ev):

   -43.3014 -23.5558 -23.2680 -23.0853 -13.7340 -13.5718 -13.4594 -12.2349
   -10.1484 -10.0172  -9.9477  -9.8378  -9.7871  -9.6438  -8.9738  -7.4843
    -7.2697  -7.0876  -6.8516  -6.6075  -6.4582  -6.3046  -5.9593  -5.8414
    -5.6834  -5.4878  -5.2369  -4.8554  -4.6978  -4.6089  -4.5827  -4.5044
    -4.4639  -4.3778  -4.3365  -4.3091  -4.1589  -4.0227  -3.8610  -3.7938
    -3.6943  -3.6689  -3.5533  -3.4740  -3.3738  -2.8861  -1.9797  -1.5012
     1.4960   1.9820   2.4353   2.6205   2.9398   3.3199   3.3312   3.4645
     3.5795   3.7893

          k =-0.0010 0.0017 0.1905 ( 32905 PWs)   bands (ev):

   -43.3014 -23.5558 -23.2680 -23.0853 -13.7333 -13.5720 -13.4601 -12.2354
   -10.1467 -10.0158  -9.9302  -9.8507  -9.7849  -9.6516  -8.9792  -7.4859
    -7.2609  -7.1024  -6.8489  -6.6034  -6.4572  -6.3022  -5.9466  -5.8354
    -5.6844  -5.4825  -5.2455  -4.8310  -4.7024  -4.6278  -4.5731  -4.5090
    -4.4846  -4.3889  -4.3404  -4.3078  -4.1592  -4.0232  -3.8784  -3.7714
    -3.7237  -3.6314  -3.5501  -3.4897  -3.3672  -2.8857  -1.9762  -1.4970
     1.5079   1.9745   2.4814   2.5975   2.9477   3.3276   3.4208   3.4862
     3.5997   3.7790

          k =-0.0033 0.2214 0.0020 ( 32870 PWs)   bands (ev):

   -43.3014 -23.5558 -23.2680 -23.0853 -13.7332 -13.5711 -13.4609 -12.2354
   -10.1520 -10.0137  -9.9478  -9.8377  -9.7873  -9.6439  -8.9744  -7.4891
    -7.2484  -7.0490  -6.9014  -6.6039  -6.4625  -6.3091  -6.0274  -5.7604
    -5.6646  -5.5114  -5.2400  -4.8439  -4.6983  -4.6279  -4.5915  -4.5074
    -4.4477  -4.3779  -4.3474  -4.3083  -4.1631  -4.0341  -3.8370  -3.7738
    -3.7290  -3.6901  -3.5081  -3.4668  -3.3883  -2.8833  -1.9864  -1.5069
     1.5087   1.9861   2.4460   2.5879   2.9336   3.3243   3.4178   3.5553
     3.6011   3.7458

          k =-0.0043 0.2231 0.1925 ( 32873 PWs)   bands (ev):

   -43.3014 -23.5558 -23.2680 -23.0853 -13.7325 -13.5711 -13.4616 -12.2359
   -10.1500 -10.0126  -9.9299  -9.8508  -9.7850  -9.6519  -8.9798  -7.4906
    -7.2432  -7.0579  -6.8989  -6.6006  -6.4623  -6.3057  -6.0283  -5.7512
    -5.6510  -5.5123  -5.2475  -4.8120  -4.7045  -4.6502  -4.5876  -4.5042
    -4.4758  -4.3862  -4.3476  -4.3149  -4.1652  -4.0289  -3.8551  -3.7664
    -3.7333  -3.6597  -3.5053  -3.4780  -3.3906  -2.8825  -1.9790  -1.5054
     1.5190   1.9791   2.4928   2.5748   2.9352   3.3771   3.4771   3.5245
     3.6393   3.7421

          k =-0.0023 0.2198-0.1885 ( 32896 PWs)   bands (ev):

   -43.3014 -23.5558 -23.2680 -23.0853 -13.7326 -13.5710 -13.4617 -12.2359
   -10.1500 -10.0126  -9.9298  -9.8511  -9.7849  -9.6519  -8.9798  -7.4908
    -7.2472  -7.0461  -6.9072  -6.6003  -6.4618  -6.3059  -6.0195  -5.7664
    -5.6560  -5.5022  -5.2470  -4.8178  -4.7055  -4.6421  -4.5866  -4.5032
    -4.4696  -4.3810  -4.3414  -4.3298  -4.1665  -4.0323  -3.8530  -3.7693
    -3.7419  -3.6507  -3.5059  -3.4781  -3.3898  -2.8817  -1.9811  -1.5041
     1.5193   1.9773   2.4928   2.5763   2.9357   3.3859   3.4461   3.5661
     3.6191   3.7468

          k = 0.3321 0.0862-0.0010 ( 32871 PWs)   bands (ev):

   -43.3014 -23.5558 -23.2682 -23.0854 -13.7181 -13.5547 -13.4461 -12.2202
   -10.2118 -10.0809  -9.9526  -9.9116  -9.8028  -9.6635  -8.9940  -7.6117
    -7.2556  -7.0519  -6.8889  -6.5424  -6.4231  -6.2484  -5.8402  -5.7715
    -5.5351  -5.3992  -5.1797  -4.7978  -4.7079  -4.6468  -4.5769  -4.5067
    -4.4896  -4.4259  -4.3865  -4.2874  -4.1748  -4.0027  -3.8393  -3.7972
    -3.7393  -3.6229  -3.5305  -3.4861  -3.3718  -2.9437  -1.9506  -1.5231
     1.5313   1.9934   2.5138   2.6135   2.8499   3.3201   3.3650   3.5051
     3.6022   3.6484

          k = 0.3311 0.0878 0.1895 ( 32866 PWs)   bands (ev):

   -43.3014 -23.5558 -23.2682 -23.0854 -13.7178 -13.5547 -13.4463 -12.2204
   -10.2121 -10.0810  -9.9711  -9.8895  -9.8021  -9.6665  -8.9948  -7.6063
    -7.2529  -7.0575  -6.8883  -6.5407  -6.4248  -6.2517  -5.8409  -5.7686
    -5.5327  -5.4110  -5.1965  -4.7919  -4.7125  -4.6681  -4.5708  -4.4960
    -4.4766  -4.4389  -4.3688  -4.2723  -4.1799  -3.9987  -3.8348  -3.7883
    -3.7291  -3.6562  -3.5242  -3.4850  -3.3689  -2.9364  -1.9552  -1.5251
     1.5314   1.9923   2.5061   2.5994   2.8398   3.3082   3.4035   3.5157
     3.5618   3.6105

          k = 0.3331 0.0845-0.1915 ( 32851 PWs)   bands (ev):

   -43.3014 -23.5558 -23.2682 -23.0854 -13.7178 -13.5547 -13.4464 -12.2203
   -10.2134 -10.0819  -9.9547  -9.9055  -9.8018  -9.6661  -8.9924  -7.6097
    -7.2508  -7.0597  -6.8879  -6.5404  -6.4261  -6.2493  -5.8452  -5.7704
    -5.5365  -5.4032  -5.1850  -4.7983  -4.7063  -4.6368  -4.5733  -4.5224
    -4.4840  -4.4423  -4.3669  -4.2700  -4.1890  -3.9992  -3.8218  -3.7874
    -3.7539  -3.6364  -3.5448  -3.4619  -3.3769  -2.9349  -1.9569  -1.5258
     1.5342   1.9918   2.5188   2.6125   2.8400   3.3115   3.3424   3.5268
     3.5954   3.6382

          k = 0.3288 0.3076 0.0010 ( 32844 PWs)   bands (ev):

   -43.3014 -23.5558 -23.2682 -23.0854 -13.7175 -13.5547 -13.4465 -12.2204
   -10.2152 -10.0822  -9.9496  -9.9095  -9.8032  -9.6639  -8.9938  -7.6163
    -7.2531  -7.0326  -6.9011  -6.5389  -6.4235  -6.2492  -5.8710  -5.7467
    -5.5512  -5.3802  -5.1775  -4.8151  -4.6956  -4.6109  -4.5925  -4.5194
    -4.5040  -4.4198  -4.3855  -4.2841  -4.1677  -4.0029  -3.8612  -3.7698
    -3.7509  -3.6164  -3.5354  -3.4947  -3.3758  -2.9417  -1.9565  -1.5269
     1.5369   1.9991   2.5261   2.6237   2.8501   3.3081   3.3796   3.5101
     3.5973   3.6574

          k = 0.3278 0.3093 0.1914 ( 32856 PWs)   bands (ev):

   -43.3014 -23.5558 -23.2682 -23.0854 -13.7173 -13.5547 -13.4467 -12.2205
   -10.2155 -10.0835  -9.9662  -9.8880  -9.8025  -9.6669  -8.9948  -7.6109
    -7.2526  -7.0302  -6.9064  -6.5369  -6.4250  -6.2525  -5.8723  -5.7461
    -5.5454  -5.3930  -5.1948  -4.8126  -4.6951  -4.6435  -4.5972  -4.5041
    -4.4600  -4.4269  -4.3763  -4.2837  -4.1789  -3.9954  -3.8350  -3.7809
    -3.7229  -3.6586  -3.5567  -3.4542  -3.3895  -2.9337  -1.9627  -1.5281
     1.5380   1.9975   2.5192   2.6118   2.8397   3.3143   3.3970   3.5175
     3.5714   3.6144

          k = 0.3298 0.3060-0.1895 ( 32864 PWs)   bands (ev):

   -43.3014 -23.5558 -23.2682 -23.0854 -13.7172 -13.5547 -13.4468 -12.2205
   -10.2167 -10.0842  -9.9504  -9.9035  -9.8023  -9.6667  -8.9924  -7.6142
    -7.2522  -7.0297  -6.9065  -6.5374  -6.4263  -6.2505  -5.8695  -5.7559
    -5.5520  -5.3810  -5.1826  -4.8092  -4.7044  -4.6302  -4.5829  -4.5238
    -4.4859  -4.4116  -4.3673  -4.2895  -4.1772  -4.0016  -3.8424  -3.7788
    -3.7386  -3.6346  -3.5510  -3.4777  -3.3780  -2.9314  -1.9615  -1.5309
     1.5402   1.9984   2.5205   2.6339   2.8375   3.3062   3.3784   3.4969
     3.5774   3.6478

          k = 0.3354-0.1353-0.0030 ( 32853 PWs)   bands (ev):

   -43.3014 -23.5558 -23.2682 -23.0854 -13.7176 -13.5553 -13.4457 -12.2204
   -10.2151 -10.0809  -9.9505  -9.9097  -9.8025  -9.6638  -8.9936  -7.6134
    -7.2719  -7.0738  -6.8456  -6.5390  -6.4242  -6.2497  -5.8917  -5.7082
    -5.5207  -5.4188  -5.1819  -4.8366  -4.7005  -4.6158  -4.5686  -4.5181
    -4.4946  -4.4067  -4.3830  -4.2855  -4.1658  -4.0058  -3.8755  -3.7681
    -3.7276  -3.6175  -3.5669  -3.4841  -3.3866  -2.9448  -1.9561  -1.5248
     1.5377   2.0042   2.5343   2.5988   2.8545   3.3162   3.4074   3.4587
     3.6153   3.6934

          k = 0.3344-0.1336 0.1875 ( 32878 PWs)   bands (ev):

   -43.3014 -23.5558 -23.2682 -23.0854 -13.7174 -13.5553 -13.4459 -12.2205
   -10.2151 -10.0824  -9.9671  -9.8884  -9.8020  -9.6667  -8.9944  -7.6083
    -7.2705  -7.0716  -6.8519  -6.5372  -6.4256  -6.2529  -5.8921  -5.7087
    -5.5152  -5.4294  -5.2005  -4.8321  -4.6984  -4.6322  -4.5727  -4.5066
    -4.4787  -4.4184  -4.3633  -4.2888  -4.1686  -3.9912  -3.8657  -3.7639
    -3.7045  -3.6646  -3.5638  -3.4823  -3.3811  -2.9365  -1.9642  -1.5248
     1.5395   2.0013   2.5285   2.5848   2.8430   3.3034   3.3970   3.4976
     3.5822   3.6650

          k = 0.3364-0.1369-0.1935 ( 32847 PWs)   bands (ev):

   -43.3014 -23.5558 -23.2682 -23.0854 -13.7173 -13.5554 -13.4460 -12.2205
   -10.2168 -10.0823  -9.9509  -9.9048  -9.8015  -9.6664  -8.9922  -7.6115
    -7.2668  -7.0791  -6.8478  -6.5374  -6.4269  -6.2508  -5.8935  -5.7128
    -5.5222  -5.4165  -5.1904  -4.8328  -4.7018  -4.5944  -4.5699  -4.5364
    -4.4982  -4.4215  -4.3620  -4.2789  -4.1727  -4.0002  -3.8488  -3.7761
    -3.7256  -3.6318  -3.5822  -3.4708  -3.3847  -2.9353  -1.9641  -1.5270
     1.5420   2.0018   2.5325   2.6119   2.8358   3.3192   3.3614   3.5156
     3.5925   3.6623

     the Fermi energy is     1.4115 ev

!    total energy              =    -306.24580524 Ry
     Harris-Foulkes estimate   =    -306.24580524 Ry
     estimated scf accuracy    <          1.9E-13 Ry

     The total energy is the sum of the following terms:

     one-electron contribution =    -162.20722995 Ry
     hartree contribution      =     100.16870850 Ry
     xc contribution           =     -94.16258155 Ry
     ewald contribution        =     -71.88537640 Ry
     one-center paw contrib.   =     -78.15992835 Ry
     smearing contrib. (-TS)   =       0.00060253 Ry

     convergence has been achieved in  14 iterations

     Writing output data file YB3H85.save\

     init_run     :    304.52s CPU     80.69s WALL (       1 calls)
     electrons    :   4568.80s CPU    735.37s WALL (       1 calls)

     Called by init_run:
     wfcinit      :    175.45s CPU     29.87s WALL (       1 calls)
     potinit      :     53.41s CPU      5.30s WALL (       1 calls)
     hinit0       :     63.23s CPU     39.85s WALL (       1 calls)

     Called by electrons:
     c_bands      :   3489.42s CPU    553.76s WALL (      14 calls)
     sum_band     :    805.75s CPU    129.23s WALL (      14 calls)
     v_of_rho     :     55.91s CPU      7.27s WALL (      15 calls)
     newd         :    182.11s CPU     40.52s WALL (      15 calls)
     PAW_pot      :     42.02s CPU      8.39s WALL (      15 calls)
     mix_rho      :      9.69s CPU      1.83s WALL (      14 calls)

     Called by c_bands:
     init_us_2    :     69.27s CPU      7.77s WALL (     406 calls)
     cegterg      :   3386.64s CPU    541.48s WALL (     196 calls)

     Called by sum_band:
     sum_band:bec :      9.86s CPU      1.95s WALL (     196 calls)
     addusdens    :    244.25s CPU     44.68s WALL (      14 calls)

     Called by *egterg:
     h_psi        :   2431.83s CPU    379.91s WALL (     781 calls)
     s_psi        :    343.12s CPU     58.19s WALL (     781 calls)
     g_psi        :     17.56s CPU      2.24s WALL (     571 calls)
     cdiaghg      :     27.59s CPU      4.97s WALL (     767 calls)

     Called by h_psi:
     h_psi:pot    :   2403.77s CPU    376.99s WALL (     781 calls)
     h_psi:calbec :    376.34s CPU     63.79s WALL (     781 calls)
     vloc_psi     :   1674.89s CPU    253.12s WALL (     781 calls)
     add_vuspsi   :    352.50s CPU     60.08s WALL (     781 calls)

     General routines
     calbec       :    507.67s CPU     86.28s WALL (     977 calls)
     fft          :      8.72s CPU      1.64s WALL (     193 calls)
     ffts         :      0.70s CPU      0.10s WALL (      29 calls)
     fftw         :    821.31s CPU    233.19s WALL (   75144 calls)
     interpolate  :      1.77s CPU      0.43s WALL (      15 calls)

     Parallel routines

     PWSCF        :      1h21m CPU  13m38.38s WALL


   This run was terminated on:  11:32: 0  28Dec2025            

=------------------------------------------------------------------------------=
   JOB DONE.
=------------------------------------------------------------------------------=
