
     Program PWSCF v.6.1 starts on 10Dec2025 at 23:33: 3 

     This program is part of the open-source Quantum ESPRESSO suite
     for quantum simulation of materials; please cite
         "P. Giannozzi et al., J. Phys.:Condens. Matter 21 395502 (2009);
          URL http://www.quantum-espresso.org", 
     in publications or presentations arising from this work. More details at
     http://www.quantum-espresso.org/quote

     Parallel version (MPI & OpenMP), running on      12 processor cores
     Number of MPI processes:                 1
     Threads/MPI process:                    12
     Waiting for input...
     Reading input from standard input

     Current dimensions of program PWSCF are:
     Max number of different atomic species (ntypx) = 10
     Max number of k-points (npk) =  40000
     Max angular momentum in pseudopotentials (lmaxx) =  3
               file H.UPF: wavefunction(s)  1S renormalized
               file Zn.UPF: wavefunction(s)  4S 3D renormalized

     Subspace diagonalization in iterative solution of the eigenvalue problem:
     a serial algorithm will be used


     G-vector sticks info
     --------------------
     sticks:   dense  smooth     PW     G-vecs:    dense   smooth      PW
     Sum       18697    9349   2487              1941397   686459   94131



     bravais-lattice index     =            0
     lattice parameter (alat)  =      24.1522  a.u.
     unit-cell volume          =   14371.9700 (a.u.)^3
     number of atoms/cell      =          136
     number of atomic types    =            5
     number of electrons       =       282.00
     number of Kohn-Sham states=          169
     kinetic-energy cutoff     =      50.0000  Ry
     charge density cutoff     =     400.0000  Ry
     convergence threshold     =      1.0E-08
     mixing beta               =       0.7000
     number of iterations used =            8  plain     mixing
     Exchange-correlation      =  SLA  PW   PBX  PBC ( 1  4  3  4 0 0)

     celldm(1)=  24.152220  celldm(2)=   0.000000  celldm(3)=   0.000000
     celldm(4)=   0.000000  celldm(5)=   0.000000  celldm(6)=   0.000000

     crystal axes: (cart. coord. in units of alat)
               a(1) = (   0.999697  -0.024452  -0.002871 )  
               a(2) = (  -0.024112   1.007582   0.036452 )  
               a(3) = (  -0.002851   0.037904   1.014705 )  

     reciprocal axes: (cart. coord. in units 2 pi/alat)
               b(1) = (  1.000893  0.023882  0.001920 )  
               b(2) = (  0.024216  0.994396 -0.037077 )  
               b(3) = (  0.001962 -0.035655  0.986846 )  


     PseudoPot. # 1 for  B read from file:
     C:/Users/Acer/Desktop/Quantum_Espresso/pseudo/B.UPF
     MD5 check sum: d9c678ba5d3b2fd7b74e61139c9288d8
     Pseudo is Projector augmented-wave + core cor, Zval =  3.0
     Generated using "atomic" code by A. Dal Corso  v.5.1.2
     Shape of augmentation charge: PSQ
     Using radial grid of 1059 points,  4 beta functions with: 
                l(1) =   0
                l(2) =   0
                l(3) =   1
                l(4) =   1
     Q(r) pseudized with 0 coefficients 


     PseudoPot. # 2 for  H read from file:
     C:/Users/Acer/Desktop/Quantum_Espresso/pseudo/H.UPF
     MD5 check sum: 850d63dcbcc06c5de8b44e0ab9f952da
     Pseudo is Projector augmented-wave, Zval =  1.0
     Generated using "atomic" code by A. Dal Corso  v.5.1.2
     Shape of augmentation charge: PSQ
     Using radial grid of  929 points,  2 beta functions with: 
                l(1) =   0
                l(2) =   0
     Q(r) pseudized with 0 coefficients 


     PseudoPot. # 3 for Li read from file:
     C:/Users/Acer/Desktop/Quantum_Espresso/pseudo/Li.UPF
     MD5 check sum: 057edeeab9105e5446fd9e29ea3f9c2f
     Pseudo is Ultrasoft + core correction, Zval =  1.0
     Generated by new atomic code, or converted to UPF format
     Using radial grid of  751 points,  2 beta functions with: 
                l(1) =   1
                l(2) =   1
     Q(r) pseudized with  8 coefficients,  rinner =    1.000   1.000   1.000


     PseudoPot. # 4 for Ta read from file:
     C:/Users/Acer/Desktop/Quantum_Espresso/pseudo/Ta.UPF
     MD5 check sum: 395be6f3d7fb4652d9fb26f9961305c8
     Pseudo is Ultrasoft + core correction, Zval = 13.0
     Generated by new atomic code, or converted to UPF format
     Using radial grid of  921 points,  6 beta functions with: 
                l(1) =   0
                l(2) =   0
                l(3) =   1
                l(4) =   1
                l(5) =   2
                l(6) =   2
     Q(r) pseudized with  6 coefficients,  rinner =    1.000   1.000   1.000
                                                       1.000   1.000

     PseudoPot. # 5 for Zn read from file:
     C:/Users/Acer/Desktop/Quantum_Espresso/pseudo/Zn.UPF
     MD5 check sum: 877bad15deadaf993162987df7215f60
     Pseudo is Projector augmented-wave + core cor, Zval = 12.0
     Generated using "atomic" code by A. Dal Corso  v.5.1.2
     Shape of augmentation charge: PSQ
     Using radial grid of 1201 points,  6 beta functions with: 
                l(1) =   0
                l(2) =   0
                l(3) =   1
                l(4) =   1
                l(5) =   2
                l(6) =   2
     Q(r) pseudized with 0 coefficients 


     atomic species   valence    mass     pseudopotential
        B              3.00     1.00000      B( 1.00)
        H              1.00     1.00000      H( 1.00)
        Li             1.00     1.00000     Li( 1.00)
        Ta            13.00     1.00000     Ta( 1.00)
        Zn            12.00     1.00000     Zn( 1.00)

     No symmetry found



   Cartesian axes

     site n.     atom                  positions (alat units)
         1           Li  tau(   1) = (   0.5954586   0.6682240   0.5068625  )
         2           Li  tau(   2) = (   0.1259420   0.4452779   0.2559346  )
         3           Li  tau(   3) = (   0.0814886   0.6989724   0.2373755  )
         4           Li  tau(   4) = (   0.3873637   0.0409919   0.8487737  )
         5           Li  tau(   5) = (   0.4786585   0.2818594   0.1822444  )
         6           Li  tau(   6) = (   0.1512370   0.1470142   0.7724373  )
         7           Li  tau(   7) = (   0.6648862   0.7599530   0.6791975  )
         8           Li  tau(   8) = (   0.6068976   0.0302023   0.6998370  )
         9           Ta  tau(   9) = (   0.6216135   0.0820637   0.1831191  )
        10           Zn  tau(  10) = (   0.4416858   0.4544221   0.4482331  )
        11           Zn  tau(  11) = (   0.9297905   0.4484162   0.8765520  )
        12           Zn  tau(  12) = (   0.2952451   0.8618096   0.8316941  )
        13           Zn  tau(  13) = (   0.5918352   0.8645168   0.1539121  )
        14           Zn  tau(  14) = (   0.3751438   0.5216503   0.6626774  )
        15           Zn  tau(  15) = (   0.1439847   0.8522750   0.4285278  )
        16           Zn  tau(  16) = (   0.5217293   0.6169408   0.2762267  )
        17           Zn  tau(  17) = (   0.2002276   0.3114248   0.4389450  )
        18           B   tau(  18) = (   0.2216050   0.5969781   0.5358575  )
        19           B   tau(  19) = (   0.1748841   0.2219414   0.3039269  )
        20           B   tau(  20) = (   0.6283227   0.8494004   0.5032046  )
        21           B   tau(  21) = (   0.7058672   0.6685565   0.8623315  )
        22           B   tau(  22) = (   0.6179627   0.3816716   0.3994084  )
        23           B   tau(  23) = (   0.5513589   0.8690126   0.5988254  )
        24           B   tau(  24) = (   0.7823936   0.4052781   0.4178282  )
        25           B   tau(  25) = (   0.4338976   0.2862128   0.6603912  )
        26           B   tau(  26) = (   0.8087120   0.6812318   0.7954906  )
        27           B   tau(  27) = (   0.8338223   0.5491830   0.7930096  )
        28           B   tau(  28) = (   0.5237120   0.4616282   0.1845291  )
        29           B   tau(  29) = (   0.1909786   0.5293462   0.8670010  )
        30           B   tau(  30) = (   0.1826466   0.6534112   0.8372087  )
        31           B   tau(  31) = (   0.4369905   0.8150989   0.5796654  )
        32           B   tau(  32) = (   0.7631922   0.7958678   0.5234467  )
        33           B   tau(  33) = (   0.4431130   0.2269709   0.7725766  )
        34           B   tau(  34) = (   0.6888565   0.7886499   0.4034120  )
        35           B   tau(  35) = (   0.7976814   0.6764817   0.5408752  )
        36           B   tau(  36) = (   0.7892179   0.8051645   0.8053179  )
        37           B   tau(  37) = (   0.1975071   0.7564454   0.7803813  )
        38           B   tau(  38) = (   0.6007439   0.4340752   0.2802719  )
        39           B   tau(  39) = (   0.7390599   0.4644739   0.2467756  )
        40           B   tau(  40) = (   0.0920200   0.4581895   0.8949194  )
        41           H   tau(  41) = (   0.1792438   0.8870506   0.5378433  )
        42           H   tau(  42) = (   0.6868065   0.1335824   0.4679338  )
        43           H   tau(  43) = (   0.3945432   0.2567069   0.8484216  )
        44           H   tau(  44) = (   0.8019918   0.1102317   0.1361675  )
        45           H   tau(  45) = (   0.3519325   0.3711621   0.4790012  )
        46           H   tau(  46) = (   0.7750968   0.6773056   0.2232301  )
        47           H   tau(  47) = (   0.7982698   0.8561378   0.5839280  )
        48           H   tau(  48) = (   0.2554080   0.5653431   0.4479859  )
        49           H   tau(  49) = (   0.9404275   0.3236181   0.2301436  )
        50           H   tau(  50) = (   0.3417273   0.3482418   0.3030287  )
        51           H   tau(  51) = (   0.9463951   0.3779152   0.2550246  )
        52           H   tau(  52) = (   0.4320276   0.6815471   0.0716739  )
        53           H   tau(  53) = (   0.5688734   0.1959149   0.1186029  )
        54           H   tau(  54) = (   0.8095328   0.9059250   0.9768885  )
        55           H   tau(  55) = (   0.8007329   0.2153910   0.8908571  )
        56           H   tau(  56) = (   0.5545034   0.6632540   0.6500280  )
        57           H   tau(  57) = (   0.1508450   0.5479327   0.5716925  )
        58           H   tau(  58) = (   0.7299807   0.0870540   0.2579087  )
        59           H   tau(  59) = (   0.5536702   0.5025897   0.1013317  )
        60           H   tau(  60) = (   0.5892329   0.6167507   0.6634019  )
        61           H   tau(  61) = (   0.6497040   0.7012430   0.3833061  )
        62           H   tau(  62) = (   0.7860249   0.4953593   0.1733169  )
        63           H   tau(  63) = (   0.6234780   0.6528955   0.9107925  )
        64           H   tau(  64) = (   0.3480133   0.8428898   0.6049220  )
        65           H   tau(  65) = (   0.2190574   0.9796895   0.8212848  )
        66           H   tau(  66) = (   0.2580659   0.6733152   0.7623503  )
        67           H   tau(  67) = (   0.4284073   0.7217809   0.7826738  )
        68           H   tau(  68) = (   0.4413830   0.6642274   0.7855773  )
        69           H   tau(  69) = (   0.7633659   0.2536241   0.2883520  )
        70           H   tau(  70) = (   0.8134277   0.9191378   0.9184946  )
        71           H   tau(  71) = (   0.3353568   0.1233084   0.5204273  )
        72           H   tau(  72) = (   0.6258448   0.2895812   0.3997651  )
        73           H   tau(  73) = (   0.8135075   0.5103356   0.7093075  )
        74           H   tau(  74) = (   0.2186490   0.6633205   0.1975478  )
        75           H   tau(  75) = (   0.4023135   0.2283166   0.5899089  )
        76           H   tau(  76) = (   0.3893511   0.3812827   0.2803783  )
        77           H   tau(  77) = (   0.8007626   0.6715696   0.2777548  )
        78           H   tau(  78) = (   0.8128870   0.3149458   0.4094781  )
        79           H   tau(  79) = (   0.6185738   0.4813641   0.6967472  )
        80           H   tau(  80) = (   0.2728545   0.5445941   0.1215503  )
        81           H   tau(  81) = (   0.2008942   0.6944289   0.5396945  )
        82           H   tau(  82) = (   0.2306592   0.7187357   0.1802860  )
        83           H   tau(  83) = (   0.5014098   0.1344743   0.2479946  )
        84           H   tau(  84) = (   0.1557414   0.2942835   0.6874481  )
        85           H   tau(  85) = (   0.2773441   0.4887775   0.8446738  )
        86           H   tau(  86) = (   0.3190136   0.0940160   0.4719875  )
        87           H   tau(  87) = (   0.9229912   0.5879145   0.7870232  )
        88           H   tau(  88) = (   0.8180706   0.7130756   0.6944665  )
        89           H   tau(  89) = (   0.6818663   0.3319040   0.7885411  )
        90           H   tau(  90) = (   0.7659596   0.2295036   0.2344000  )
        91           H   tau(  91) = (   0.7000099   0.3808235   0.2258762  )
        92           H   tau(  92) = (   0.1440457   0.3064150   0.7443796  )
        93           H   tau(  93) = (   0.1565739   0.2967388   0.2419621  )
        94           H   tau(  94) = (   0.4378465   0.4261273   0.1697264  )
        95           H   tau(  95) = (   0.7330306   0.6065698   0.5572349  )
        96           H   tau(  96) = (   0.1543252   0.7797553   0.7020536  )
        97           H   tau(  97) = (   0.6749341   0.5294565   0.2760546  )
        98           H   tau(  98) = (   0.1017745   0.5737221   0.2544410  )
        99           H   tau(  99) = (   0.4371595   0.8181160   0.3446786  )
       100           H   tau( 100) = (   0.6470430   0.1428768   0.4260999  )
       101           H   tau( 101) = (   0.6721463   0.1299144   0.0554136  )
       102           H   tau( 102) = (   0.2610524   0.1900546   0.2886102  )
       103           H   tau( 103) = (   0.6896170   0.4302437   0.4563633  )
       104           H   tau( 104) = (   0.0996150   0.1622738   0.3196012  )
       105           H   tau( 105) = (   0.2786593   0.9126437   0.2226894  )
       106           H   tau( 106) = (   0.2218335   0.4255515   0.6355586  )
       107           H   tau( 107) = (   0.7746633   0.2330096   0.5829406  )
       108           H   tau( 108) = (   0.5311325   0.0935035   0.5651366  )
       109           H   tau( 109) = (   0.5269254   0.3217935   0.6493903  )
       110           H   tau( 110) = (   0.7155575   0.8264456   0.3245469  )
       111           H   tau( 111) = (   0.1345447   0.8390489   0.3117120  )
       112           H   tau( 112) = (   0.2916945   0.6022751   0.6054721  )
       113           H   tau( 113) = (   0.3095541   0.5012885   0.1361174  )
       114           H   tau( 114) = (   0.4998809   0.1511368   0.7937059  )
       115           H   tau( 115) = (   0.8003925   0.4706167   0.3291952  )
       116           H   tau( 116) = (   0.8857580   0.6326589   0.5510710  )
       117           H   tau( 117) = (   0.4669237   0.5279057   0.7353927  )
       118           H   tau( 118) = (   0.6399887   0.3089117   0.7539745  )
       119           H   tau( 119) = (   0.4616642   0.5771343   0.4627142  )
       120           H   tau( 120) = (   0.4832607   0.0844078   0.5985148  )
       121           H   tau( 121) = (   0.5297210   0.7299752   0.2404270  )
       122           H   tau( 122) = (   0.7578639   0.2677382   0.6272782  )
       123           H   tau( 123) = (   0.5635655   0.3985000   0.4850211  )
       124           H   tau( 124) = (   0.6742267   0.4953186   0.7069954  )
       125           H   tau( 125) = (   0.6716901   0.7165997   0.1264443  )
       126           H   tau( 126) = (   0.5683805   0.9146983   0.6818890  )
       127           H   tau( 127) = (   0.7837347   0.2382409   0.8386530  )
       128           H   tau( 128) = (   0.1432727   0.5435041   0.7729881  )
       129           H   tau( 129) = (   0.4301592   0.9279533   0.8293977  )
       130           H   tau( 130) = (   0.4203601   0.7299149   0.5420050  )
       131           H   tau( 131) = (   0.3983756   0.8418422   0.3808814  )
       132           H   tau( 132) = (   0.2315371   0.4319141   0.6941848  )
       133           H   tau( 133) = (   0.3313446   0.9195204   0.1940879  )
       134           H   tau( 134) = (   0.3825456   0.7125264   0.0734789  )
       135           H   tau( 135) = (   0.8314555   0.4604460   0.4794362  )
       136           H   tau( 136) = (   0.3826692   0.3653041   0.6731744  )

     number of k points=    36  Methfessel-Paxton smearing, width (Ry)=  0.0100
                       cart. coord. in units 2pi/alat
        k(    1) = (   0.0000000   0.0000000   0.0000000), wk =   0.0312500
        k(    2) = (   0.0004906  -0.0089138   0.2467115), wk =   0.0625000
        k(    3) = (  -0.0009812   0.0178276  -0.4934230), wk =   0.0312500
        k(    4) = (   0.0060540   0.2485989  -0.0092693), wk =   0.0625000
        k(    5) = (   0.0065447   0.2396852   0.2374422), wk =   0.0625000
        k(    6) = (   0.0050728   0.2664265  -0.5026922), wk =   0.0625000
        k(    7) = (   0.0055634   0.2575127  -0.2559807), wk =   0.0625000
        k(    8) = (  -0.0121081  -0.4971979   0.0185385), wk =   0.0312500
        k(    9) = (  -0.0116175  -0.5061117   0.2652500), wk =   0.0625000
        k(   10) = (  -0.0130893  -0.4793703  -0.4748844), wk =   0.0312500
        k(   11) = (   0.2502232   0.0059706   0.0004801), wk =   0.0625000
        k(   12) = (   0.2507138  -0.0029432   0.2471915), wk =   0.0625000
        k(   13) = (   0.2492420   0.0237982  -0.4929429), wk =   0.0625000
        k(   14) = (   0.2497326   0.0148844  -0.2462314), wk =   0.0625000
        k(   15) = (   0.2562773   0.2545695  -0.0087892), wk =   0.0625000
        k(   16) = (   0.2567679   0.2456558   0.2379223), wk =   0.0625000
        k(   17) = (   0.2552960   0.2723971  -0.5022122), wk =   0.0625000
        k(   18) = (   0.2557866   0.2634833  -0.2555007), wk =   0.0625000
        k(   19) = (   0.2381152  -0.4912273   0.0190186), wk =   0.0625000
        k(   20) = (   0.2386058  -0.5001411   0.2657301), wk =   0.0625000
        k(   21) = (   0.2371339  -0.4733997  -0.4744044), wk =   0.0625000
        k(   22) = (   0.2376245  -0.4823135  -0.2276929), wk =   0.0625000
        k(   23) = (   0.2441692  -0.2426284   0.0097493), wk =   0.0625000
        k(   24) = (   0.2446598  -0.2515421   0.2564608), wk =   0.0625000
        k(   25) = (   0.2431880  -0.2248008  -0.4836737), wk =   0.0625000
        k(   26) = (   0.2436786  -0.2337146  -0.2369622), wk =   0.0625000
        k(   27) = (  -0.5004464  -0.0119412  -0.0009601), wk =   0.0312500
        k(   28) = (  -0.4999558  -0.0208550   0.2457514), wk =   0.0625000
        k(   29) = (  -0.5014277   0.0058864  -0.4943831), wk =   0.0312500
        k(   30) = (  -0.4943924   0.2366578  -0.0102294), wk =   0.0625000
        k(   31) = (  -0.4939018   0.2277440   0.2364821), wk =   0.0625000
        k(   32) = (  -0.4953736   0.2544853  -0.5036524), wk =   0.0625000
        k(   33) = (  -0.4948830   0.2455715  -0.2569409), wk =   0.0625000
        k(   34) = (  -0.5125545  -0.5091391   0.0175784), wk =   0.0312500
        k(   35) = (  -0.5120639  -0.5180529   0.2642899), wk =   0.0625000
        k(   36) = (  -0.5135357  -0.4913115  -0.4758446), wk =   0.0312500

     Dense  grid:  1941397 G-vectors     FFT dimensions: ( 160, 160, 160)

     Smooth grid:   686459 G-vectors     FFT dimensions: ( 120, 120, 120)

     Estimated max dynamical RAM per process >   11907.81MB

     Initial potential from superposition of free atoms

     starting charge  281.92432, renormalised to  282.00000
     Starting wfc are  305 randomized atomic wfcs
     Checking if some PAW data can be deallocated... 

     total cpu time spent up to now is     1380.0 secs

     Self-consistent Calculation

     iteration #  1     ecut=    50.00 Ry     beta=0.70
     Davidson diagonalization with overlap
     ethr =  1.00E-02,  avg # of iterations =  2.1

     total cpu time spent up to now is    41071.5 secs

     total energy              =   -2474.25972631 Ry
     Harris-Foulkes estimate   =   -2483.33844074 Ry
     estimated scf accuracy    <      14.08285161 Ry

     iteration #  2     ecut=    50.00 Ry     beta=0.70
     Davidson diagonalization with overlap
     ethr =  4.99E-03,  avg # of iterations =  4.3

     total cpu time spent up to now is    43350.3 secs

     total energy              =   -2460.18921879 Ry
     Harris-Foulkes estimate   =   -2489.44927217 Ry
     estimated scf accuracy    <     110.65002083 Ry

     iteration #  3     ecut=    50.00 Ry     beta=0.70
     Davidson diagonalization with overlap
     ethr =  4.99E-03,  avg # of iterations =  6.0

     negative rho (up, down):  1.969E-06 0.000E+00

     total cpu time spent up to now is    45911.6 secs

     total energy              =   -2474.60222036 Ry
     Harris-Foulkes estimate   =   -2483.36865802 Ry
     estimated scf accuracy    <      41.52800450 Ry

     iteration #  4     ecut=    50.00 Ry     beta=0.70
     Davidson diagonalization with overlap
     ethr =  4.99E-03,  avg # of iterations =  6.3

     negative rho (up, down):  5.820E-05 0.000E+00

     total cpu time spent up to now is    47751.6 secs

     total energy              =   -2477.71765192 Ry
     Harris-Foulkes estimate   =   -2480.07032400 Ry
     estimated scf accuracy    <       8.06976729 Ry

     iteration #  5     ecut=    50.00 Ry     beta=0.70
     Davidson diagonalization with overlap
     ethr =  2.86E-03,  avg # of iterations =  4.0

     negative rho (up, down):  1.468E-04 0.000E+00

     total cpu time spent up to now is    49282.7 secs

     total energy              =   -2478.85525811 Ry
     Harris-Foulkes estimate   =   -2479.47200057 Ry
     estimated scf accuracy    <       1.97281308 Ry

     iteration #  6     ecut=    50.00 Ry     beta=0.70
     Davidson diagonalization with overlap
     ethr =  7.00E-04,  avg # of iterations =  4.8

     negative rho (up, down):  2.292E-04 0.000E+00

     total cpu time spent up to now is    50975.5 secs

     total energy              =   -2479.00392432 Ry
     Harris-Foulkes estimate   =   -2479.09815017 Ry
     estimated scf accuracy    <       0.32556534 Ry

     iteration #  7     ecut=    50.00 Ry     beta=0.70
     Davidson diagonalization with overlap
     ethr =  1.15E-04,  avg # of iterations =  7.4

     negative rho (up, down):  2.982E-04 0.000E+00

     total cpu time spent up to now is    52896.5 secs

     total energy              =   -2479.00449976 Ry
     Harris-Foulkes estimate   =   -2479.05505253 Ry
     estimated scf accuracy    <       0.20592903 Ry

     iteration #  8     ecut=    50.00 Ry     beta=0.70
     Davidson diagonalization with overlap
     ethr =  7.30E-05,  avg # of iterations =  3.4

     negative rho (up, down):  5.198E-04 0.000E+00

     total cpu time spent up to now is    54452.2 secs

     total energy              =   -2479.00786779 Ry
     Harris-Foulkes estimate   =   -2479.03659364 Ry
     estimated scf accuracy    <       0.09000207 Ry

     iteration #  9     ecut=    50.00 Ry     beta=0.70
     Davidson diagonalization with overlap
     ethr =  3.19E-05,  avg # of iterations =  7.5

     negative rho (up, down):  6.935E-04 0.000E+00

     total cpu time spent up to now is    56166.3 secs

     total energy              =   -2479.01582167 Ry
     Harris-Foulkes estimate   =   -2479.02094140 Ry
     estimated scf accuracy    <       0.01645024 Ry

     iteration # 10     ecut=    50.00 Ry     beta=0.70
     Davidson diagonalization with overlap
     ethr =  5.83E-06,  avg # of iterations =  7.9

     negative rho (up, down):  7.444E-04 0.000E+00

     total cpu time spent up to now is    58680.9 secs

     total energy              =   -2479.01748577 Ry
     Harris-Foulkes estimate   =   -2479.02036120 Ry
     estimated scf accuracy    <       0.01202691 Ry

     iteration # 11     ecut=    50.00 Ry     beta=0.70
     Davidson diagonalization with overlap
     c_bands:  1 eigenvalues not converged
     ethr =  4.26E-06,  avg # of iterations =  3.8

     negative rho (up, down):  7.290E-04 0.000E+00

     total cpu time spent up to now is    60160.3 secs

     total energy              =   -2479.01684799 Ry
     Harris-Foulkes estimate   =   -2479.02018367 Ry
     estimated scf accuracy    <       0.03610872 Ry

     iteration # 12     ecut=    50.00 Ry     beta=0.70
     Davidson diagonalization with overlap
     ethr =  4.26E-06,  avg # of iterations =  2.0

     negative rho (up, down):  7.250E-04 0.000E+00

     total cpu time spent up to now is    61542.4 secs

     total energy              =   -2479.01821949 Ry
     Harris-Foulkes estimate   =   -2479.01896500 Ry
     estimated scf accuracy    <       0.00244407 Ry

     iteration # 13     ecut=    50.00 Ry     beta=0.70
     Davidson diagonalization with overlap
     ethr =  8.67E-07,  avg # of iterations =  5.4

     negative rho (up, down):  7.110E-04 0.000E+00

     total cpu time spent up to now is    63381.9 secs

     total energy              =   -2479.01820410 Ry
     Harris-Foulkes estimate   =   -2479.01880544 Ry
     estimated scf accuracy    <       0.00150215 Ry

     iteration # 14     ecut=    50.00 Ry     beta=0.70
     Davidson diagonalization with overlap
     ethr =  5.33E-07,  avg # of iterations =  3.0

     negative rho (up, down):  7.032E-04 0.000E+00

     total cpu time spent up to now is    65002.4 secs

     total energy              =   -2479.01843061 Ry
     Harris-Foulkes estimate   =   -2479.01865132 Ry
     estimated scf accuracy    <       0.00069176 Ry

     iteration # 15     ecut=    50.00 Ry     beta=0.70
     Davidson diagonalization with overlap
     ethr =  2.45E-07,  avg # of iterations =  3.0

     negative rho (up, down):  7.039E-04 0.000E+00

     total cpu time spent up to now is    66500.3 secs

     total energy              =   -2479.01852573 Ry
     Harris-Foulkes estimate   =   -2479.01856685 Ry
     estimated scf accuracy    <       0.00017772 Ry

     iteration # 16     ecut=    50.00 Ry     beta=0.70
     Davidson diagonalization with overlap
     ethr =  6.30E-08,  avg # of iterations =  2.8

     negative rho (up, down):  7.019E-04 0.000E+00

     total cpu time spent up to now is    67962.7 secs

     total energy              =   -2479.01854370 Ry
     Harris-Foulkes estimate   =   -2479.01854999 Ry
     estimated scf accuracy    <       0.00002882 Ry

     iteration # 17     ecut=    50.00 Ry     beta=0.70
     Davidson diagonalization with overlap
     ethr =  1.02E-08,  avg # of iterations =  4.0

     negative rho (up, down):  7.014E-04 0.000E+00

     total cpu time spent up to now is    69498.3 secs

     total energy              =   -2479.01854691 Ry
     Harris-Foulkes estimate   =   -2479.01854848 Ry
     estimated scf accuracy    <       0.00000639 Ry

     iteration # 18     ecut=    50.00 Ry     beta=0.70
     Davidson diagonalization with overlap
     ethr =  2.27E-09,  avg # of iterations =  3.0

     negative rho (up, down):  7.009E-04 0.000E+00

     total cpu time spent up to now is    70967.5 secs

     total energy              =   -2479.01854756 Ry
     Harris-Foulkes estimate   =   -2479.01854795 Ry
     estimated scf accuracy    <       0.00000139 Ry

     iteration # 19     ecut=    50.00 Ry     beta=0.70
     Davidson diagonalization with overlap
     ethr =  4.94E-10,  avg # of iterations =  4.0

     negative rho (up, down):  7.008E-04 0.000E+00

     total cpu time spent up to now is    72549.7 secs

     total energy              =   -2479.01854776 Ry
     Harris-Foulkes estimate   =   -2479.01854783 Ry
     estimated scf accuracy    <       0.00000022 Ry

     iteration # 20     ecut=    50.00 Ry     beta=0.70
     Davidson diagonalization with overlap
     ethr =  7.83E-11,  avg # of iterations =  4.0

     negative rho (up, down):  7.007E-04 0.000E+00

     total cpu time spent up to now is    74304.7 secs

     total energy              =   -2479.01854779 Ry
     Harris-Foulkes estimate   =   -2479.01854782 Ry
     estimated scf accuracy    <       0.00000013 Ry

     iteration # 21     ecut=    50.00 Ry     beta=0.70
     Davidson diagonalization with overlap
     ethr =  4.62E-11,  avg # of iterations =  3.0

     negative rho (up, down):  7.007E-04 0.000E+00

     total cpu time spent up to now is    76015.9 secs

     total energy              =   -2479.01854780 Ry
     Harris-Foulkes estimate   =   -2479.01854781 Ry
     estimated scf accuracy    <       0.00000004 Ry

     iteration # 22     ecut=    50.00 Ry     beta=0.70
     Davidson diagonalization with overlap
     ethr =  1.38E-11,  avg # of iterations =  4.0

     negative rho (up, down):  7.007E-04 0.000E+00

     total cpu time spent up to now is    77631.9 secs

     End of self-consistent calculation

          k = 0.0000 0.0000 0.0000 ( 85851 PWs)   bands (ev):

   -68.7164 -35.4818 -35.1277 -34.8812 -13.1972 -11.9659 -11.6735 -11.2155
   -11.0729 -10.6168 -10.3692 -10.1824 -10.1252  -9.9330  -9.8738  -9.7569
    -9.4416  -9.3827  -9.1867  -9.0342  -8.7594  -8.7505  -8.7027  -8.6073
    -8.5487  -8.4967  -8.4342  -8.4178  -8.3647  -8.3249  -8.2957  -8.2887
    -8.2737  -8.2390  -8.2273  -8.1923  -8.1540  -8.1440  -8.1410  -8.1357
    -8.1214  -8.1149  -8.0808  -8.0568  -8.0382  -8.0132  -7.9790  -7.9651
    -7.9005  -7.8586  -7.8552  -7.8243  -7.8113  -7.8028  -7.7455  -7.7061
    -7.6375  -7.5970  -7.5269  -7.5163  -7.4987  -7.4856  -7.4339  -7.4165
    -7.4106  -7.3543  -7.2887  -7.2790  -7.1753  -7.1372  -7.0772  -7.0134
    -6.9288  -6.8725  -6.8333  -6.7447  -6.6813  -6.6746  -6.6471  -6.6125
    -6.5917  -6.5714  -6.5323  -6.4886  -6.4511  -6.3014  -6.2011  -6.0456
    -5.9620  -5.9208  -5.8614  -5.7211  -5.6904  -5.6626  -5.6478  -5.4303
    -5.3381  -5.2736  -5.1745  -5.0995  -5.0643  -5.0078  -4.9381  -4.8461
    -4.7217  -4.6053  -4.5210  -4.4857  -4.4472  -4.2447  -4.1425  -4.1342
    -4.0357  -4.0041  -3.9303  -3.8830  -3.7812  -3.6907  -3.5827  -3.5669
    -3.4680  -3.4276  -3.3365  -3.2323  -3.1972  -3.0415  -3.0092  -2.9941
    -2.7670  -2.7097  -2.6388  -2.5448  -2.3624  -2.1074  -1.9649  -1.7802
    -1.5210  -1.4446  -1.1591  -1.0159  -0.7304  -0.5192  -0.2243  -0.1490
     0.1055   0.1895   0.3704   0.5949   0.6573   0.7158   0.8273   0.8487
     0.9233   1.1040   1.1855   1.2257   1.2947   1.4928   1.6070   1.6879
     1.6926   1.8572   1.8706   1.9554   2.0031   2.0590   2.1033   2.1645
     2.2523

          k = 0.0005-0.0089 0.2467 ( 85811 PWs)   bands (ev):

   -68.7164 -35.4818 -35.1277 -34.8812 -13.1972 -11.9659 -11.6735 -11.2156
   -11.0729 -10.6167 -10.3695 -10.1831 -10.1241  -9.9332  -9.8738  -9.7569
    -9.4417  -9.3827  -9.1867  -9.0342  -8.7581  -8.7503  -8.7033  -8.6073
    -8.5485  -8.4966  -8.4344  -8.4174  -8.3647  -8.3248  -8.2952  -8.2884
    -8.2739  -8.2392  -8.2272  -8.1922  -8.1543  -8.1446  -8.1406  -8.1355
    -8.1214  -8.1148  -8.0808  -8.0568  -8.0391  -8.0129  -7.9792  -7.9654
    -7.9006  -7.8584  -7.8554  -7.8240  -7.8114  -7.8027  -7.7457  -7.7062
    -7.6375  -7.5972  -7.5266  -7.5176  -7.5023  -7.4863  -7.4338  -7.4166
    -7.4077  -7.3539  -7.3029  -7.2672  -7.1723  -7.1363  -7.0762  -7.0113
    -6.9297  -6.8711  -6.8339  -6.7425  -6.6852  -6.6746  -6.6451  -6.6119
    -6.5939  -6.5725  -6.5329  -6.4877  -6.4482  -6.3040  -6.2020  -6.0453
    -5.9640  -5.9194  -5.8619  -5.7210  -5.6898  -5.6606  -5.6483  -5.4307
    -5.3377  -5.2739  -5.1765  -5.0991  -5.0619  -5.0097  -4.9380  -4.8468
    -4.7237  -4.6062  -4.5208  -4.4833  -4.4477  -4.2421  -4.1434  -4.1361
    -4.0333  -4.0023  -3.9323  -3.8824  -3.7783  -3.6911  -3.5808  -3.5677
    -3.4759  -3.4277  -3.3343  -3.2292  -3.1951  -3.0405  -3.0101  -2.9916
    -2.7675  -2.7108  -2.6377  -2.5502  -2.3621  -2.1089  -1.9631  -1.7800
    -1.5191  -1.4474  -1.1618  -1.0130  -0.7324  -0.5296  -0.2195  -0.1496
     0.1176   0.1837   0.3762   0.6027   0.6770   0.7265   0.8330   0.8560
     0.9114   1.0446   1.1774   1.2424   1.2897   1.4976   1.5988   1.6788
     1.7165   1.8428   1.8715   1.9532   2.0135   2.0732   2.0980   2.1395
     2.2672

          k =-0.0010 0.0178-0.4934 ( 85830 PWs)   bands (ev):

   -68.7164 -35.4818 -35.1277 -34.8812 -13.1972 -11.9659 -11.6736 -11.2156
   -11.0728 -10.6166 -10.3698 -10.1837 -10.1231  -9.9334  -9.8738  -9.7569
    -9.4418  -9.3827  -9.1867  -9.0341  -8.7567  -8.7501  -8.7039  -8.6074
    -8.5483  -8.4966  -8.4346  -8.4170  -8.3647  -8.3248  -8.2947  -8.2880
    -8.2742  -8.2394  -8.2271  -8.1921  -8.1545  -8.1452  -8.1404  -8.1354
    -8.1214  -8.1146  -8.0808  -8.0568  -8.0400  -8.0126  -7.9793  -7.9656
    -7.9008  -7.8583  -7.8557  -7.8236  -7.8116  -7.8027  -7.7459  -7.7063
    -7.6376  -7.5974  -7.5262  -7.5191  -7.5055  -7.4871  -7.4343  -7.4156
    -7.4054  -7.3537  -7.3107  -7.2612  -7.1703  -7.1353  -7.0746  -7.0092
    -6.9307  -6.8697  -6.8345  -6.7399  -6.6896  -6.6739  -6.6435  -6.6114
    -6.5963  -6.5735  -6.5335  -6.4869  -6.4453  -6.3066  -6.2029  -6.0452
    -5.9659  -5.9179  -5.8624  -5.7207  -5.6893  -5.6588  -5.6487  -5.4311
    -5.3374  -5.2744  -5.1783  -5.0988  -5.0594  -5.0117  -4.9379  -4.8475
    -4.7257  -4.6071  -4.5206  -4.4810  -4.4482  -4.2395  -4.1444  -4.1380
    -4.0305  -4.0010  -3.9342  -3.8818  -3.7755  -3.6915  -3.5790  -3.5681
    -3.4835  -3.4284  -3.3320  -3.2267  -3.1926  -3.0395  -3.0107  -2.9894
    -2.7680  -2.7119  -2.6363  -2.5558  -2.3619  -2.1104  -1.9614  -1.7798
    -1.5169  -1.4504  -1.1644  -1.0101  -0.7345  -0.5394  -0.2151  -0.1503
     0.1297   0.1784   0.3813   0.6112   0.6872   0.7616   0.8412   0.8507
     0.9136   0.9722   1.1697   1.2563   1.2785   1.5032   1.6022   1.6620
     1.7410   1.8308   1.8724   1.9610   2.0031   2.0643   2.1068   2.1382
     2.2756

          k = 0.0061 0.2486-0.0093 ( 85806 PWs)   bands (ev):

   -68.7164 -35.4818 -35.1277 -34.8812 -13.1972 -11.9659 -11.6735 -11.2155
   -11.0730 -10.6175 -10.3644 -10.1896 -10.1256  -9.9335  -9.8720  -9.7562
    -9.4382  -9.3809  -9.1872  -9.0339  -8.7588  -8.7510  -8.7017  -8.6135
    -8.5370  -8.4935  -8.4393  -8.4244  -8.3653  -8.3252  -8.2948  -8.2891
    -8.2689  -8.2400  -8.2267  -8.1982  -8.1578  -8.1499  -8.1414  -8.1354
    -8.1214  -8.1174  -8.0813  -8.0569  -8.0421  -8.0120  -7.9789  -7.9578
    -7.8999  -7.8580  -7.8527  -7.8219  -7.8114  -7.8016  -7.7451  -7.7067
    -7.6371  -7.5970  -7.5255  -7.5157  -7.4940  -7.4792  -7.4311  -7.4180
    -7.4052  -7.3610  -7.2896  -7.2798  -7.2031  -7.1310  -7.0677  -7.0159
    -6.9275  -6.8697  -6.8343  -6.7453  -6.6782  -6.6735  -6.6450  -6.6140
    -6.5922  -6.5715  -6.5307  -6.4941  -6.4516  -6.2978  -6.2068  -6.0528
    -5.9657  -5.9204  -5.8410  -5.7220  -5.6877  -5.6724  -5.6450  -5.4241
    -5.3405  -5.2678  -5.1765  -5.0994  -5.0675  -5.0153  -4.9345  -4.8518
    -4.7179  -4.6067  -4.5167  -4.4916  -4.4469  -4.2490  -4.1460  -4.1353
    -4.0398  -3.9994  -3.9242  -3.8694  -3.7711  -3.6859  -3.5819  -3.5738
    -3.4483  -3.4225  -3.3339  -3.2520  -3.1970  -3.0479  -3.0254  -3.0010
    -2.7734  -2.7130  -2.6366  -2.5475  -2.3566  -2.1078  -1.9654  -1.7737
    -1.5240  -1.4365  -1.1601  -1.0182  -0.7300  -0.5151  -0.2500  -0.1643
     0.1266   0.1959   0.3674   0.5954   0.6404   0.7466   0.8463   0.8697
     0.9400   1.0724   1.1815   1.2347   1.2939   1.5049   1.5688   1.6932
     1.7445   1.8305   1.8712   1.9475   1.9792   2.0853   2.1139   2.1616
     2.2452

          k = 0.0065 0.2397 0.2374 ( 85804 PWs)   bands (ev):

   -68.7164 -35.4818 -35.1277 -34.8812 -13.1972 -11.9659 -11.6735 -11.2155
   -11.0729 -10.6175 -10.3648 -10.1902 -10.1246  -9.9337  -9.8720  -9.7562
    -9.4383  -9.3809  -9.1873  -9.0338  -8.7579  -8.7505  -8.7021  -8.6134
    -8.5369  -8.4933  -8.4390  -8.4249  -8.3654  -8.3251  -8.2938  -8.2888
    -8.2693  -8.2401  -8.2266  -8.1983  -8.1584  -8.1502  -8.1411  -8.1353
    -8.1215  -8.1172  -8.0815  -8.0568  -8.0428  -8.0119  -7.9791  -7.9577
    -7.9001  -7.8579  -7.8528  -7.8216  -7.8114  -7.8017  -7.7453  -7.7068
    -7.6371  -7.5972  -7.5244  -7.5179  -7.4978  -7.4790  -7.4322  -7.4153
    -7.4050  -7.3603  -7.3043  -7.2673  -7.2020  -7.1252  -7.0692  -7.0165
    -6.9292  -6.8664  -6.8346  -6.7426  -6.6798  -6.6733  -6.6453  -6.6139
    -6.5944  -6.5726  -6.5314  -6.4930  -6.4489  -6.3008  -6.2078  -6.0521
    -5.9673  -5.9188  -5.8416  -5.7224  -5.6867  -5.6703  -5.6457  -5.4242
    -5.3399  -5.2686  -5.1786  -5.0988  -5.0656  -5.0171  -4.9342  -4.8525
    -4.7203  -4.6077  -4.5173  -4.4888  -4.4461  -4.2462  -4.1483  -4.1367
    -4.0397  -3.9952  -3.9266  -3.8694  -3.7686  -3.6861  -3.5826  -3.5733
    -3.4550  -3.4199  -3.3322  -3.2496  -3.1952  -3.0457  -3.0261  -2.9990
    -2.7747  -2.7102  -2.6354  -2.5571  -2.3566  -2.1093  -1.9638  -1.7736
    -1.5213  -1.4404  -1.1624  -1.0150  -0.7313  -0.5289  -0.2494  -0.1456
     0.1257   0.1898   0.3734   0.5955   0.6564   0.7535   0.8467   0.8640
     0.9239   1.0691   1.1685   1.2454   1.2993   1.4839   1.5989   1.6928
     1.7241   1.8253   1.8875   1.9395   2.0028   2.0867   2.1414   2.1696
     2.2589

          k = 0.0051 0.2664-0.5027 ( 85806 PWs)   bands (ev):

   -68.7164 -35.4818 -35.1277 -34.8812 -13.1972 -11.9659 -11.6735 -11.2156
   -11.0729 -10.6174 -10.3651 -10.1907 -10.1236  -9.9339  -9.8721  -9.7562
    -9.4385  -9.3809  -9.1873  -9.0338  -8.7566  -8.7503  -8.7028  -8.6133
    -8.5368  -8.4934  -8.4391  -8.4245  -8.3655  -8.3251  -8.2934  -8.2886
    -8.2693  -8.2403  -8.2265  -8.1983  -8.1591  -8.1506  -8.1408  -8.1352
    -8.1214  -8.1164  -8.0816  -8.0569  -8.0435  -8.0119  -7.9793  -7.9581
    -7.9002  -7.8577  -7.8529  -7.8213  -7.8117  -7.8017  -7.7455  -7.7069
    -7.6371  -7.5974  -7.5241  -7.5200  -7.5028  -7.4769  -7.4320  -7.4169
    -7.4011  -7.3607  -7.3114  -7.2630  -7.1981  -7.1241  -7.0689  -7.0138
    -6.9299  -6.8649  -6.8355  -6.7404  -6.6838  -6.6736  -6.6441  -6.6129
    -6.5962  -6.5736  -6.5321  -6.4919  -6.4462  -6.3022  -6.2094  -6.0531
    -5.9690  -5.9165  -5.8421  -5.7214  -5.6866  -5.6699  -5.6447  -5.4248
    -5.3393  -5.2698  -5.1800  -5.0988  -5.0628  -5.0194  -4.9344  -4.8531
    -4.7227  -4.6080  -4.5159  -4.4876  -4.4470  -4.2436  -4.1491  -4.1384
    -4.0377  -3.9930  -3.9289  -3.8689  -3.7654  -3.6874  -3.5812  -3.5720
    -3.4611  -3.4245  -3.3292  -3.2452  -3.1926  -3.0458  -3.0251  -2.9974
    -2.7756  -2.7112  -2.6345  -2.5626  -2.3561  -2.1107  -1.9621  -1.7734
    -1.5198  -1.4428  -1.1656  -1.0119  -0.7324  -0.5384  -0.2477  -0.1434
     0.1374   0.1826   0.3795   0.6089   0.6779   0.7678   0.8349   0.8744
     0.9249   1.0033   1.1422   1.2663   1.3003   1.4966   1.6063   1.6684
     1.7450   1.8331   1.8677   1.9367   2.0424   2.0850   2.1040   2.1561
     2.2448

          k = 0.0056 0.2575-0.2560 ( 85811 PWs)   bands (ev):

   -68.7164 -35.4818 -35.1277 -34.8812 -13.1972 -11.9659 -11.6735 -11.2155
   -11.0730 -10.6175 -10.3648 -10.1902 -10.1246  -9.9337  -9.8721  -9.7562
    -9.4383  -9.3809  -9.1872  -9.0338  -8.7575  -8.7507  -8.7023  -8.6134
    -8.5369  -8.4936  -8.4395  -8.4240  -8.3654  -8.3252  -8.2943  -8.2890
    -8.2689  -8.2402  -8.2266  -8.1982  -8.1586  -8.1503  -8.1411  -8.1353
    -8.1214  -8.1166  -8.0814  -8.0569  -8.0427  -8.0121  -7.9791  -7.9581
    -7.9000  -7.8578  -7.8529  -7.8217  -7.8116  -7.8016  -7.7453  -7.7068
    -7.6371  -7.5972  -7.5256  -7.5170  -7.5001  -7.4766  -7.4304  -7.4198
    -7.4016  -7.3613  -7.3023  -7.2704  -7.1983  -7.1300  -7.0679  -7.0132
    -6.9282  -6.8682  -6.8352  -6.7434  -6.6811  -6.6748  -6.6436  -6.6130
    -6.5940  -6.5726  -6.5314  -6.4928  -6.4490  -6.2993  -6.2084  -6.0537
    -5.9673  -5.9183  -5.8414  -5.7210  -5.6874  -5.6721  -5.6441  -5.4247
    -5.3398  -5.2689  -5.1781  -5.0992  -5.0650  -5.0173  -4.9347  -4.8525
    -4.7203  -4.6069  -4.5150  -4.4904  -4.4478  -4.2464  -4.1467  -4.1371
    -4.0378  -3.9974  -3.9263  -3.8689  -3.7678  -3.6873  -3.5803  -3.5730
    -3.4549  -3.4267  -3.3310  -3.2470  -3.1947  -3.0479  -3.0246  -2.9994
    -2.7742  -2.7140  -2.6360  -2.5526  -2.3561  -2.1093  -1.9636  -1.7735
    -1.5226  -1.4387  -1.1634  -1.0149  -0.7312  -0.5255  -0.2481  -0.1610
     0.1375   0.1883   0.3744   0.6102   0.6554   0.7580   0.8426   0.8911
     0.9370   0.9973   1.1493   1.2741   1.2834   1.5184   1.5723   1.6800
     1.7739   1.8130   1.8607   1.9461   2.0073   2.0784   2.1036   2.1436
     2.2376

          k =-0.0121-0.4972 0.0185 ( 85770 PWs)   bands (ev):

   -68.7164 -35.4818 -35.1277 -34.8812 -13.1972 -11.9658 -11.6735 -11.2155
   -11.0731 -10.6183 -10.3593 -10.1972 -10.1258  -9.9339  -9.8705  -9.7555
    -9.4350  -9.3789  -9.1878  -9.0335  -8.7581  -8.7516  -8.7005  -8.6187
    -8.5259  -8.4843  -8.4547  -8.4278  -8.3659  -8.3254  -8.2934  -8.2892
    -8.2630  -8.2415  -8.2259  -8.2071  -8.1641  -8.1513  -8.1418  -8.1352
    -8.1213  -8.1192  -8.0817  -8.0569  -8.0443  -8.0110  -7.9788  -7.9526
    -7.8995  -7.8578  -7.8507  -7.8199  -7.8116  -7.7993  -7.7449  -7.7073
    -7.6367  -7.5971  -7.5243  -7.5150  -7.4909  -7.4699  -7.4256  -7.4200
    -7.3924  -7.3774  -7.2910  -7.2811  -7.2252  -7.1271  -7.0610  -7.0187
    -6.9264  -6.8669  -6.8353  -6.7459  -6.6763  -6.6708  -6.6422  -6.6167
    -6.5928  -6.5715  -6.5290  -6.4996  -6.4522  -6.2939  -6.2129  -6.0589
    -5.9684  -5.9198  -5.8129  -5.7415  -5.6839  -5.6808  -5.6350  -5.4181
    -5.3428  -5.2630  -5.1783  -5.0992  -5.0708  -5.0223  -4.9315  -4.8572
    -4.7144  -4.6075  -4.5124  -4.4973  -4.4466  -4.2536  -4.1484  -4.1366
    -4.0440  -3.9956  -3.9186  -3.8557  -3.7597  -3.6813  -3.5894  -3.5729
    -3.4418  -3.3905  -3.3293  -3.2879  -3.1977  -3.0654  -3.0337  -3.0034
    -2.7795  -2.7166  -2.6348  -2.5499  -2.3510  -2.1082  -1.9658  -1.7674
    -1.5268  -1.4284  -1.1612  -1.0204  -0.7297  -0.5103  -0.2786  -0.1724
     0.1424   0.2023   0.3636   0.5976   0.6279   0.7789   0.8612   0.8884
     0.9668   1.0343   1.1802   1.2489   1.2928   1.5035   1.5457   1.7163
     1.7558   1.7997   1.8894   1.9185   1.9789   2.0567   2.1589   2.1738
     2.2321

          k =-0.0116-0.5061 0.2653 ( 85790 PWs)   bands (ev):

   -68.7164 -35.4818 -35.1277 -34.8812 -13.1972 -11.9658 -11.6735 -11.2155
   -11.0730 -10.6182 -10.3596 -10.1977 -10.1249  -9.9341  -9.8705  -9.7555
    -9.4352  -9.3789  -9.1878  -9.0335  -8.7572  -8.7511  -8.7010  -8.6185
    -8.5259  -8.4842  -8.4545  -8.4281  -8.3660  -8.3254  -8.2924  -8.2892
    -8.2633  -8.2417  -8.2258  -8.2074  -8.1647  -8.1515  -8.1415  -8.1351
    -8.1212  -8.1185  -8.0819  -8.0569  -8.0448  -8.0111  -7.9790  -7.9527
    -7.8996  -7.8577  -7.8507  -7.8197  -7.8118  -7.7995  -7.7451  -7.7074
    -7.6367  -7.5973  -7.5238  -7.5173  -7.4956  -7.4671  -7.4263  -7.4196
    -7.3915  -7.3770  -7.3046  -7.2707  -7.2214  -7.1228  -7.0626  -7.0187
    -6.9279  -6.8636  -6.8358  -6.7435  -6.6757  -6.6728  -6.6440  -6.6157
    -6.5943  -6.5727  -6.5299  -6.4982  -6.4496  -6.2956  -6.2146  -6.0592
    -5.9699  -5.9176  -5.8135  -5.7405  -5.6821  -5.6809  -5.6349  -5.4184
    -5.3419  -5.2646  -5.1799  -5.0989  -5.0687  -5.0242  -4.9315  -4.8579
    -4.7172  -4.6079  -4.5116  -4.4958  -4.4463  -4.2509  -4.1505  -4.1377
    -4.0435  -3.9920  -3.9211  -3.8557  -3.7568  -3.6827  -3.5888  -3.5722
    -3.4446  -3.3957  -3.3263  -3.2822  -3.1959  -3.0647  -3.0330  -3.0019
    -2.7810  -2.7139  -2.6342  -2.5590  -2.3508  -2.1096  -1.9644  -1.7672
    -1.5246  -1.4319  -1.1641  -1.0170  -0.7301  -0.5243  -0.2765  -0.1563
     0.1428   0.1941   0.3713   0.6016   0.6441   0.7782   0.8645   0.8959
     0.9310   1.0357   1.1453   1.2658   1.3099   1.4960   1.5689   1.7064
     1.7602   1.8022   1.8843   1.9019   2.0148   2.0621   2.1582   2.1864
     2.2386

          k =-0.0131-0.4794-0.4749 ( 85790 PWs)   bands (ev):

   -68.7164 -35.4818 -35.1277 -34.8812 -13.1972 -11.9658 -11.6735 -11.2156
   -11.0730 -10.6181 -10.3600 -10.1981 -10.1240  -9.9344  -9.8705  -9.7555
    -9.4353  -9.3789  -9.1879  -9.0334  -8.7563  -8.7504  -8.7015  -8.6184
    -8.5259  -8.4840  -8.4542  -8.4284  -8.3661  -8.3253  -8.2914  -8.2891
    -8.2635  -8.2418  -8.2257  -8.2078  -8.1654  -8.1517  -8.1412  -8.1350
    -8.1212  -8.1179  -8.0821  -8.0569  -8.0453  -8.0112  -7.9792  -7.9528
    -7.8997  -7.8576  -7.8507  -7.8194  -7.8119  -7.7997  -7.7452  -7.7074
    -7.6367  -7.5975  -7.5227  -7.5205  -7.4992  -7.4651  -7.4257  -7.4207
    -7.3900  -7.3770  -7.3129  -7.2649  -7.2185  -7.1182  -7.0640  -7.0189
    -6.9293  -6.8605  -6.8363  -6.7408  -6.6765  -6.6734  -6.6461  -6.6148
    -6.5960  -6.5738  -6.5308  -6.4969  -6.4470  -6.2973  -6.2163  -6.0597
    -5.9715  -5.9154  -5.8142  -5.7395  -5.6819  -5.6796  -5.6347  -5.4187
    -5.3411  -5.2662  -5.1812  -5.0988  -5.0662  -5.0265  -4.9315  -4.8585
    -4.7199  -4.6084  -4.5110  -4.4942  -4.4460  -4.2483  -4.1525  -4.1387
    -4.0430  -3.9881  -3.9241  -3.8558  -3.7540  -3.6839  -3.5882  -3.5714
    -3.4473  -3.4003  -3.3234  -3.2774  -3.1938  -3.0640  -3.0324  -3.0004
    -2.7825  -2.7111  -2.6332  -2.5689  -2.3506  -2.1111  -1.9629  -1.7670
    -1.5221  -1.4357  -1.1669  -1.0136  -0.7304  -0.5371  -0.2749  -0.1410
     0.1434   0.1867   0.3781   0.6043   0.6717   0.7642   0.8558   0.9004
     0.9198   1.0278   1.1294   1.2682   1.3327   1.4817   1.5980   1.6924
     1.7513   1.8023   1.8745   1.9075   2.0626   2.0779   2.1312   2.2113
     2.2375

          k = 0.2502 0.0060 0.0005 ( 85870 PWs)   bands (ev):

   -68.7164 -35.4818 -35.1277 -34.8812 -13.1972 -11.9652 -11.6750 -11.2147
   -11.0729 -10.6168 -10.3702 -10.1830 -10.1303  -9.9298  -9.8647  -9.7565
    -9.4447  -9.3804  -9.1908  -9.0346  -8.7599  -8.7513  -8.7014  -8.6082
    -8.5484  -8.4955  -8.4356  -8.4182  -8.3668  -8.3226  -8.3016  -8.2849
    -8.2713  -8.2399  -8.2286  -8.1941  -8.1581  -8.1438  -8.1397  -8.1358
    -8.1213  -8.1140  -8.0811  -8.0553  -8.0372  -8.0129  -7.9804  -7.9713
    -7.8989  -7.8581  -7.8550  -7.8225  -7.8114  -7.8026  -7.7488  -7.7046
    -7.6376  -7.5981  -7.5333  -7.5196  -7.4878  -7.4751  -7.4325  -7.4166
    -7.4096  -7.3647  -7.2834  -7.2752  -7.1730  -7.1386  -7.0769  -7.0135
    -6.9276  -6.8717  -6.8317  -6.7431  -6.6802  -6.6741  -6.6491  -6.6139
    -6.5921  -6.5718  -6.5325  -6.4890  -6.4560  -6.2924  -6.2032  -6.0539
    -5.9717  -5.9275  -5.8480  -5.7288  -5.6927  -5.6609  -5.6450  -5.4279
    -5.3347  -5.2694  -5.1712  -5.0961  -5.0700  -5.0143  -4.9335  -4.8238
    -4.7355  -4.6140  -4.5232  -4.4987  -4.4406  -4.2282  -4.1459  -4.1237
    -4.0400  -4.0069  -3.9305  -3.8851  -3.7804  -3.7006  -3.5850  -3.5648
    -3.4672  -3.4279  -3.3337  -3.2350  -3.1982  -3.0376  -3.0109  -2.9970
    -2.7672  -2.7089  -2.6345  -2.5449  -2.3652  -2.1056  -1.9644  -1.7797
    -1.5210  -1.4446  -1.1582  -1.0154  -0.7307  -0.5138  -0.2309  -0.1441
     0.1051   0.1954   0.3691   0.5925   0.6467   0.7184   0.8303   0.8588
     0.9351   1.0834   1.1621   1.2248   1.2965   1.5154   1.6006   1.6661
     1.6997   1.7976   1.8807   1.9570   2.0119   2.0374   2.1245   2.1728
     2.2434

          k = 0.2507-0.0029 0.2472 ( 85827 PWs)   bands (ev):

   -68.7164 -35.4818 -35.1277 -34.8812 -13.1972 -11.9652 -11.6751 -11.2148
   -11.0728 -10.6167 -10.3706 -10.1838 -10.1290  -9.9300  -9.8648  -9.7566
    -9.4448  -9.3804  -9.1908  -9.0346  -8.7587  -8.7510  -8.7020  -8.6081
    -8.5482  -8.4955  -8.4355  -8.4178  -8.3669  -8.3224  -8.3011  -8.2854
    -8.2712  -8.2400  -8.2284  -8.1937  -8.1584  -8.1440  -8.1398  -8.1358
    -8.1214  -8.1139  -8.0808  -8.0552  -8.0384  -8.0125  -7.9807  -7.9714
    -7.8990  -7.8580  -7.8552  -7.8224  -7.8115  -7.8026  -7.7491  -7.7047
    -7.6376  -7.5983  -7.5352  -7.5193  -7.4940  -7.4722  -7.4332  -7.4135
    -7.4082  -7.3652  -7.2994  -7.2615  -7.1709  -7.1380  -7.0753  -7.0109
    -6.9287  -6.8703  -6.8319  -6.7447  -6.6810  -6.6748  -6.6464  -6.6140
    -6.5922  -6.5725  -6.5336  -6.4890  -6.4530  -6.2947  -6.2064  -6.0541
    -5.9707  -5.9268  -5.8484  -5.7295  -5.6911  -5.6586  -5.6462  -5.4280
    -5.3344  -5.2700  -5.1734  -5.0959  -5.0676  -5.0176  -4.9334  -4.8249
    -4.7357  -4.6144  -4.5243  -4.4954  -4.4419  -4.2267  -4.1460  -4.1254
    -4.0371  -4.0048  -3.9324  -3.8845  -3.7767  -3.7017  -3.5820  -3.5657
    -3.4764  -3.4285  -3.3313  -3.2310  -3.1964  -3.0366  -3.0120  -2.9944
    -2.7676  -2.7101  -2.6331  -2.5507  -2.3648  -2.1066  -1.9630  -1.7795
    -1.5193  -1.4473  -1.1614  -1.0120  -0.7320  -0.5248  -0.2249  -0.1454
     0.1151   0.1932   0.3729   0.6027   0.6625   0.7339   0.8375   0.8651
     0.9241   1.0188   1.1554   1.2418   1.2943   1.5008   1.6118   1.6656
     1.6961   1.7919   1.8953   1.9436   1.9962   2.0617   2.1223   2.1657
     2.2452

          k = 0.2492 0.0238-0.4929 ( 85821 PWs)   bands (ev):

   -68.7164 -35.4818 -35.1277 -34.8812 -13.1972 -11.9652 -11.6751 -11.2148
   -11.0728 -10.6166 -10.3709 -10.1845 -10.1279  -9.9301  -9.8649  -9.7566
    -9.4448  -9.3804  -9.1909  -9.0345  -8.7575  -8.7508  -8.7025  -8.6082
    -8.5480  -8.4955  -8.4358  -8.4174  -8.3669  -8.3225  -8.3004  -8.2850
    -8.2715  -8.2403  -8.2284  -8.1936  -8.1585  -8.1449  -8.1395  -8.1356
    -8.1214  -8.1136  -8.0806  -8.0553  -8.0393  -8.0123  -7.9808  -7.9716
    -7.8990  -7.8581  -7.8551  -7.8219  -7.8119  -7.8026  -7.7493  -7.7048
    -7.6377  -7.5984  -7.5355  -7.5209  -7.4968  -7.4726  -7.4334  -7.4142
    -7.4044  -7.3651  -7.3064  -7.2560  -7.1685  -7.1391  -7.0728  -7.0088
    -6.9284  -6.8700  -6.8329  -6.7422  -6.6845  -6.6739  -6.6445  -6.6135
    -6.5945  -6.5737  -6.5341  -6.4887  -6.4507  -6.2981  -6.2067  -6.0542
    -5.9700  -5.9278  -5.8485  -5.7286  -5.6902  -5.6578  -5.6465  -5.4284
    -5.3336  -5.2717  -5.1747  -5.0958  -5.0650  -5.0187  -4.9330  -4.8255
    -4.7387  -4.6159  -4.5244  -4.4923  -4.4423  -4.2240  -4.1466  -4.1271
    -4.0343  -4.0035  -3.9333  -3.8847  -3.7755  -3.7007  -3.5803  -3.5666
    -3.4836  -3.4292  -3.3287  -3.2295  -3.1933  -3.0368  -3.0117  -2.9923
    -2.7682  -2.7112  -2.6323  -2.5555  -2.3649  -2.1079  -1.9612  -1.7794
    -1.5172  -1.4505  -1.1638  -1.0089  -0.7337  -0.5352  -0.2219  -0.1445
     0.1283   0.1864   0.3793   0.6098   0.6716   0.7740   0.8467   0.8498
     0.9078   0.9747   1.1554   1.2536   1.2778   1.5054   1.6001   1.6561
     1.7275   1.7813   1.8970   1.9386   1.9879   2.0935   2.1084   2.1496
     2.2535

          k = 0.2497 0.0149-0.2462 ( 85838 PWs)   bands (ev):

   -68.7164 -35.4818 -35.1277 -34.8812 -13.1972 -11.9652 -11.6750 -11.2148
   -11.0728 -10.6167 -10.3705 -10.1837 -10.1292  -9.9300  -9.8647  -9.7565
    -9.4447  -9.3804  -9.1909  -9.0346  -8.7587  -8.7512  -8.7019  -8.6082
    -8.5482  -8.4954  -8.4358  -8.4177  -8.3668  -8.3227  -8.3009  -8.2845
    -8.2716  -8.2402  -8.2286  -8.1939  -8.1583  -8.1446  -8.1394  -8.1356
    -8.1213  -8.1137  -8.0810  -8.0553  -8.0381  -8.0127  -7.9804  -7.9716
    -7.8988  -7.8582  -7.8550  -7.8220  -7.8118  -7.8026  -7.7490  -7.7047
    -7.6377  -7.5983  -7.5334  -7.5213  -7.4914  -7.4751  -7.4324  -7.4173
    -7.4062  -7.3646  -7.2972  -7.2632  -7.1697  -7.1398  -7.0749  -7.0114
    -6.9272  -6.8714  -6.8326  -6.7405  -6.6834  -6.6739  -6.6469  -6.6133
    -6.5944  -6.5730  -6.5331  -6.4887  -6.4536  -6.2959  -6.2034  -6.0541
    -5.9710  -5.9285  -5.8482  -5.7281  -5.6917  -5.6600  -5.6454  -5.4283
    -5.3339  -5.2709  -5.1728  -5.0958  -5.0676  -5.0152  -4.9331  -4.8243
    -4.7386  -4.6155  -4.5236  -4.4954  -4.4409  -4.2254  -4.1465  -4.1253
    -4.0376  -4.0052  -3.9314  -3.8853  -3.7791  -3.6998  -3.5833  -3.5659
    -3.4748  -3.4281  -3.3312  -3.2327  -3.1955  -3.0376  -3.0111  -2.9945
    -2.7678  -2.7099  -2.6339  -2.5495  -2.3652  -2.1070  -1.9625  -1.7796
    -1.5190  -1.4475  -1.1607  -1.0123  -0.7325  -0.5248  -0.2276  -0.1431
     0.1184   0.1882   0.3763   0.5968   0.6683   0.7272   0.8385   0.8594
     0.9164   1.0447   1.1586   1.2393   1.2884   1.5217   1.5791   1.6599
     1.7293   1.7862   1.8865   1.9488   1.9987   2.0705   2.1193   2.1474
     2.2563

          k = 0.2563 0.2546-0.0088 ( 85831 PWs)   bands (ev):

   -68.7164 -35.4818 -35.1277 -34.8812 -13.1972 -11.9652 -11.6750 -11.2147
   -11.0730 -10.6176 -10.3652 -10.1903 -10.1310  -9.9301  -9.8631  -9.7558
    -9.4410  -9.3789  -9.1912  -9.0343  -8.7597  -8.7514  -8.7001  -8.6145
    -8.5367  -8.4931  -8.4406  -8.4240  -8.3670  -8.3235  -8.3007  -8.2830
    -8.2704  -8.2423  -8.2275  -8.1976  -8.1590  -8.1518  -8.1407  -8.1359
    -8.1214  -8.1145  -8.0838  -8.0552  -8.0399  -8.0124  -7.9784  -7.9648
    -7.8989  -7.8574  -7.8524  -7.8204  -7.8115  -7.8014  -7.7463  -7.7052
    -7.6371  -7.5979  -7.5254  -7.5183  -7.4888  -7.4793  -7.4383  -7.4182
    -7.3994  -7.3618  -7.2851  -7.2758  -7.1988  -7.1317  -7.0684  -7.0162
    -6.9254  -6.8688  -6.8337  -6.7435  -6.6781  -6.6687  -6.6511  -6.6151
    -6.5932  -6.5714  -6.5307  -6.4944  -6.4563  -6.2890  -6.2091  -6.0608
    -5.9763  -5.9245  -5.8314  -5.7216  -5.6976  -5.6709  -5.6411  -5.4228
    -5.3370  -5.2617  -5.1746  -5.0963  -5.0721  -5.0217  -4.9301  -4.8258
    -4.7349  -4.6146  -4.5236  -4.5008  -4.4423  -4.2315  -4.1470  -4.1291
    -4.0432  -4.0007  -3.9224  -3.8742  -3.7704  -3.6919  -3.5865  -3.5708
    -3.4476  -3.4233  -3.3313  -3.2546  -3.1992  -3.0481  -3.0260  -3.0010
    -2.7734  -2.7121  -2.6320  -2.5476  -2.3591  -2.1064  -1.9649  -1.7729
    -1.5242  -1.4366  -1.1597  -1.0175  -0.7302  -0.5091  -0.2576  -0.1589
     0.1251   0.2022   0.3658   0.5879   0.6504   0.7482   0.8361   0.8721
     0.9520   1.0692   1.1562   1.2194   1.2978   1.5165   1.5883   1.6880
     1.7522   1.7867   1.8618   1.9341   1.9671   2.0733   2.1162   2.1770
     2.2255

          k = 0.2568 0.2457 0.2379 ( 85834 PWs)   bands (ev):

   -68.7164 -35.4818 -35.1277 -34.8812 -13.1972 -11.9652 -11.6750 -11.2148
   -11.0729 -10.6175 -10.3656 -10.1909 -10.1297  -9.9303  -9.8632  -9.7558
    -9.4412  -9.3789  -9.1913  -9.0343  -8.7588  -8.7508  -8.7005  -8.6145
    -8.5366  -8.4930  -8.4400  -8.4245  -8.3672  -8.3232  -8.3000  -8.2829
    -8.2708  -8.2426  -8.2273  -8.1974  -8.1593  -8.1523  -8.1405  -8.1358
    -8.1214  -8.1143  -8.0840  -8.0552  -8.0406  -8.0121  -7.9788  -7.9646
    -7.8990  -7.8573  -7.8525  -7.8203  -7.8115  -7.8017  -7.7465  -7.7053
    -7.6372  -7.5981  -7.5267  -7.5188  -7.4947  -7.4776  -7.4364  -7.4171
    -7.3984  -7.3610  -7.3020  -7.2612  -7.1990  -7.1245  -7.0712  -7.0157
    -6.9273  -6.8655  -6.8336  -6.7450  -6.6767  -6.6704  -6.6492  -6.6151
    -6.5938  -6.5722  -6.5320  -6.4942  -6.4535  -6.2919  -6.2122  -6.0598
    -5.9750  -5.9242  -5.8322  -5.7219  -5.6961  -5.6689  -5.6420  -5.4226
    -5.3364  -5.2630  -5.1768  -5.0959  -5.0703  -5.0246  -4.9299  -4.8269
    -4.7352  -4.6154  -4.5260  -4.4966  -4.4426  -4.2300  -4.1478  -4.1308
    -4.0422  -3.9965  -3.9249  -3.8739  -3.7671  -3.6926  -3.5860  -3.5707
    -3.4552  -3.4214  -3.3294  -3.2512  -3.1979  -3.0458  -3.0266  -2.9993
    -2.7747  -2.7095  -2.6304  -2.5578  -2.3590  -2.1074  -1.9637  -1.7727
    -1.5220  -1.4403  -1.1625  -1.0139  -0.7308  -0.5229  -0.2577  -0.1398
     0.1238   0.1992   0.3715   0.5930   0.6582   0.7559   0.8451   0.8678
     0.9366   1.0460   1.1470   1.2275   1.3034   1.4916   1.6171   1.7054
     1.7201   1.7946   1.8668   1.9228   1.9992   2.0604   2.1452   2.1722
     2.2423

          k = 0.2553 0.2724-0.5022 ( 85817 PWs)   bands (ev):

   -68.7164 -35.4818 -35.1277 -34.8812 -13.1972 -11.9652 -11.6750 -11.2148
   -11.0729 -10.6175 -10.3659 -10.1915 -10.1287  -9.9304  -9.8633  -9.7558
    -9.4412  -9.3789  -9.1914  -9.0342  -8.7576  -8.7506  -8.7011  -8.6143
    -8.5365  -8.4931  -8.4401  -8.4241  -8.3672  -8.3234  -8.2994  -8.2826
    -8.2710  -8.2428  -8.2274  -8.1973  -8.1596  -8.1531  -8.1403  -8.1357
    -8.1214  -8.1136  -8.0835  -8.0552  -8.0416  -8.0123  -7.9789  -7.9650
    -7.8989  -7.8574  -7.8524  -7.8199  -7.8119  -7.8016  -7.7467  -7.7054
    -7.6372  -7.5983  -7.5270  -7.5203  -7.4977  -7.4787  -7.4337  -7.4190
    -7.3961  -7.3609  -7.3080  -7.2571  -7.1964  -7.1240  -7.0695  -7.0137
    -6.9272  -6.8648  -6.8348  -6.7422  -6.6778  -6.6709  -6.6496  -6.6136
    -6.5961  -6.5737  -6.5325  -6.4938  -6.4510  -6.2939  -6.2137  -6.0601
    -5.9747  -5.9243  -5.8327  -5.7198  -5.6959  -5.6686  -5.6415  -5.4228
    -5.3355  -5.2657  -5.1775  -5.0959  -5.0672  -5.0268  -4.9296  -4.8273
    -4.7387  -4.6163  -4.5249  -4.4943  -4.4436  -4.2275  -4.1481  -4.1323
    -4.0405  -3.9940  -3.9263  -3.8739  -3.7658  -3.6924  -3.5850  -3.5690
    -3.4618  -3.4260  -3.3260  -3.2472  -3.1948  -3.0474  -3.0249  -2.9974
    -2.7758  -2.7106  -2.6303  -2.5622  -2.3587  -2.1087  -1.9619  -1.7726
    -1.5204  -1.4430  -1.1652  -1.0109  -0.7318  -0.5332  -0.2535  -0.1390
     0.1360   0.1899   0.3777   0.6082   0.6715   0.7744   0.8417   0.8740
     0.9259   0.9967   1.1263   1.2506   1.3052   1.4918   1.6112   1.6898
     1.7229   1.8046   1.8702   1.9231   1.9994   2.0655   2.1187   2.1709
     2.2419

          k = 0.2558 0.2635-0.2555 ( 85806 PWs)   bands (ev):

   -68.7164 -35.4818 -35.1277 -34.8812 -13.1972 -11.9652 -11.6750 -11.2148
   -11.0729 -10.6176 -10.3655 -10.1909 -10.1299  -9.9303  -9.8631  -9.7558
    -9.4411  -9.3789  -9.1913  -9.0343  -8.7584  -8.7513  -8.7006  -8.6144
    -8.5366  -8.4931  -8.4407  -8.4237  -8.3670  -8.3236  -8.3001  -8.2826
    -8.2706  -8.2426  -8.2276  -8.1974  -8.1593  -8.1527  -8.1404  -8.1358
    -8.1214  -8.1138  -8.0833  -8.0552  -8.0408  -8.0125  -7.9785  -7.9652
    -7.8988  -7.8574  -7.8523  -7.8201  -7.8119  -7.8014  -7.7465  -7.7053
    -7.6372  -7.5980  -7.5255  -7.5200  -7.4928  -7.4799  -7.4351  -7.4203
    -7.3970  -7.3617  -7.2973  -7.2658  -7.1957  -7.1309  -7.0676  -7.0140
    -6.9252  -6.8681  -6.8349  -6.7407  -6.6789  -6.6697  -6.6515  -6.6136
    -6.5954  -6.5729  -6.5312  -6.4940  -6.4538  -6.2911  -6.2104  -6.0611
    -5.9759  -5.9247  -5.8320  -5.7195  -5.6972  -5.6706  -5.6407  -5.4230
    -5.3361  -5.2643  -5.1756  -5.0961  -5.0694  -5.0235  -4.9299  -4.8262
    -4.7384  -4.6155  -4.5224  -4.4986  -4.4433  -4.2290  -4.1474  -4.1307
    -4.0415  -3.9983  -3.9236  -3.8742  -3.7690  -3.6918  -3.5853  -3.5694
    -3.4546  -3.4275  -3.3279  -3.2499  -3.1965  -3.0495  -3.0247  -2.9990
    -2.7744  -2.7132  -2.6322  -2.5517  -2.3588  -2.1077  -1.9630  -1.7727
    -1.5229  -1.4391  -1.1624  -1.0144  -0.7312  -0.5202  -0.2528  -0.1572
     0.1366   0.1925   0.3727   0.6040   0.6586   0.7642   0.8459   0.8827
     0.9259   1.0181   1.1317   1.2617   1.2908   1.5136   1.5906   1.6765
     1.7403   1.7987   1.8674   1.9293   1.9926   2.0345   2.1343   2.1527
     2.2265

          k = 0.2381-0.4912 0.0190 ( 85768 PWs)   bands (ev):

   -68.7164 -35.4818 -35.1277 -34.8812 -13.1972 -11.9651 -11.6750 -11.2147
   -11.0731 -10.6184 -10.3600 -10.1978 -10.1313  -9.9303  -9.8616  -9.7552
    -9.4378  -9.3768  -9.1918  -9.0340  -8.7588  -8.7521  -8.6991  -8.6192
    -8.5264  -8.4840  -8.4548  -8.4276  -8.3679  -8.3237  -8.2999  -8.2836
    -8.2633  -8.2450  -8.2270  -8.2044  -8.1644  -8.1556  -8.1410  -8.1356
    -8.1213  -8.1159  -8.0872  -8.0553  -8.0385  -8.0115  -7.9781  -7.9598
    -7.8985  -7.8575  -7.8503  -7.8188  -7.8118  -7.7989  -7.7456  -7.7061
    -7.6367  -7.5978  -7.5246  -7.5170  -7.4879  -7.4694  -7.4375  -7.4177
    -7.3861  -7.3761  -7.2849  -7.2773  -7.2210  -7.1276  -7.0638  -7.0170
    -6.9243  -6.8660  -6.8345  -6.7447  -6.6804  -6.6702  -6.6391  -6.6178
    -6.5938  -6.5715  -6.5283  -6.5011  -6.4575  -6.2875  -6.2144  -6.0646
    -5.9790  -5.9240  -5.8037  -5.7373  -5.6930  -5.6779  -5.6366  -5.4164
    -5.3398  -5.2583  -5.1764  -5.0964  -5.0750  -5.0269  -4.9291  -4.8322
    -4.7279  -4.6158  -4.5192  -4.5089  -4.4413  -4.2383  -4.1492  -4.1281
    -4.0454  -3.9962  -3.9164  -3.8634  -3.7584  -3.6865  -3.5908  -3.5739
    -3.4414  -3.3925  -3.3252  -3.2924  -3.1995  -3.0677  -3.0310  -3.0035
    -2.7794  -2.7152  -2.6304  -2.5506  -2.3527  -2.1075  -1.9652  -1.7667
    -1.5266  -1.4287  -1.1610  -1.0194  -0.7302  -0.5052  -0.2814  -0.1678
     0.1356   0.2070   0.3616   0.5989   0.6391   0.7740   0.8534   0.8850
     0.9725   1.0459   1.1646   1.2292   1.3038   1.4880   1.5568   1.6752
     1.7575   1.8125   1.8694   1.9125   1.9874   2.0741   2.1352   2.1918
     2.2177

          k = 0.2386-0.5001 0.2657 ( 85764 PWs)   bands (ev):

   -68.7164 -35.4818 -35.1277 -34.8812 -13.1972 -11.9651 -11.6750 -11.2147
   -11.0730 -10.6183 -10.3605 -10.1984 -10.1302  -9.9304  -9.8618  -9.7552
    -9.4380  -9.3768  -9.1918  -9.0339  -8.7582  -8.7513  -8.6995  -8.6191
    -8.5264  -8.4840  -8.4544  -8.4278  -8.3681  -8.3234  -8.2994  -8.2835
    -8.2636  -8.2454  -8.2268  -8.2042  -8.1651  -8.1559  -8.1408  -8.1355
    -8.1212  -8.1152  -8.0875  -8.0553  -8.0390  -8.0115  -7.9785  -7.9597
    -7.8985  -7.8574  -7.8503  -7.8187  -7.8118  -7.7993  -7.7456  -7.7061
    -7.6367  -7.5981  -7.5252  -7.5184  -7.4931  -7.4692  -7.4329  -7.4184
    -7.3867  -7.3743  -7.3011  -7.2640  -7.2180  -7.1226  -7.0668  -7.0157
    -6.9258  -6.8629  -6.8349  -6.7465  -6.6805  -6.6711  -6.6369  -6.6169
    -6.5945  -6.5724  -6.5299  -6.5001  -6.4550  -6.2891  -6.2184  -6.0641
    -5.9780  -5.9236  -5.8040  -5.7361  -5.6922  -5.6772  -5.6363  -5.4165
    -5.3390  -5.2607  -5.1778  -5.0962  -5.0734  -5.0296  -4.9292  -4.8332
    -4.7288  -4.6160  -4.5217  -4.5046  -4.4420  -4.2367  -4.1499  -4.1293
    -4.0440  -3.9930  -3.9190  -3.8632  -3.7553  -3.6875  -3.5907  -3.5723
    -3.4449  -3.3988  -3.3221  -3.2860  -3.1978  -3.0666  -3.0302  -3.0024
    -2.7811  -2.7126  -2.6289  -2.5607  -2.3524  -2.1086  -1.9641  -1.7665
    -1.5247  -1.4320  -1.1641  -1.0158  -0.7303  -0.5186  -0.2829  -0.1492
     0.1352   0.2032   0.3696   0.6067   0.6488   0.7747   0.8623   0.8907
     0.9375   1.0308   1.1443   1.2277   1.3171   1.4930   1.5693   1.6796
     1.7775   1.8172   1.8550   1.8869   2.0269   2.0709   2.1606   2.1821
     2.2409

          k = 0.2371-0.4734-0.4744 ( 85791 PWs)   bands (ev):

   -68.7164 -35.4818 -35.1277 -34.8812 -13.1972 -11.9651 -11.6750 -11.2148
   -11.0729 -10.6182 -10.3609 -10.1989 -10.1293  -9.9306  -9.8619  -9.7552
    -9.4381  -9.3769  -9.1919  -9.0339  -8.7574  -8.7508  -8.6999  -8.6189
    -8.5264  -8.4838  -8.4541  -8.4282  -8.3681  -8.3235  -8.2985  -8.2831
    -8.2638  -8.2457  -8.2269  -8.2043  -8.1657  -8.1562  -8.1406  -8.1353
    -8.1212  -8.1147  -8.0872  -8.0553  -8.0397  -8.0116  -7.9786  -7.9599
    -7.8985  -7.8575  -7.8501  -7.8182  -7.8122  -7.7995  -7.7458  -7.7062
    -7.6367  -7.5983  -7.5252  -7.5210  -7.4959  -7.4689  -7.4306  -7.4196
    -7.3864  -7.3725  -7.3094  -7.2589  -7.2165  -7.1168  -7.0685  -7.0161
    -6.9265  -6.8606  -6.8352  -6.7437  -6.6829  -6.6693  -6.6387  -6.6159
    -6.5959  -6.5739  -6.5309  -6.4993  -6.4530  -6.2913  -6.2198  -6.0648
    -5.9774  -5.9231  -5.8045  -5.7350  -5.6909  -5.6766  -5.6367  -5.4168
    -5.3377  -5.2633  -5.1789  -5.0963  -5.0705  -5.0317  -4.9287  -4.8337
    -4.7328  -4.6167  -4.5206  -4.5028  -4.4417  -4.2345  -4.1507  -4.1307
    -4.0435  -3.9889  -3.9213  -3.8634  -3.7543  -3.6878  -3.5899  -3.5718
    -3.4476  -3.4029  -3.3190  -3.2821  -3.1955  -3.0664  -3.0299  -3.0002
    -2.7828  -2.7098  -2.6285  -2.5697  -2.3524  -2.1099  -1.9625  -1.7663
    -1.5224  -1.4359  -1.1665  -1.0124  -0.7305  -0.5321  -0.2806  -0.1339
     0.1366   0.1941   0.3771   0.6135   0.6666   0.7655   0.8623   0.8980
     0.9140   1.0277   1.1299   1.2443   1.3222   1.4761   1.5833   1.6902
     1.7528   1.7918   1.8568   1.9178   2.0371   2.0974   2.1397   2.2157
     2.2409

          k = 0.2376-0.4823-0.2277 ( 85828 PWs)   bands (ev):

   -68.7164 -35.4818 -35.1277 -34.8812 -13.1972 -11.9651 -11.6750 -11.2147
   -11.0730 -10.6183 -10.3604 -10.1983 -10.1304  -9.9305  -9.8617  -9.7552
    -9.4379  -9.3769  -9.1919  -9.0340  -8.7580  -8.7516  -8.6994  -8.6191
    -8.5264  -8.4838  -8.4545  -8.4279  -8.3680  -8.3238  -8.2990  -8.2832
    -8.2636  -8.2453  -8.2271  -8.2045  -8.1650  -8.1560  -8.1408  -8.1355
    -8.1213  -8.1155  -8.0870  -8.0553  -8.0392  -8.0116  -7.9782  -7.9600
    -7.8984  -7.8576  -7.8501  -7.8184  -7.8121  -7.7991  -7.7458  -7.7062
    -7.6367  -7.5980  -7.5245  -7.5193  -7.4916  -7.4685  -7.4359  -7.4183
    -7.3852  -7.3748  -7.2998  -7.2660  -7.2189  -7.1219  -7.0656  -7.0172
    -6.9250  -6.8635  -6.8350  -6.7418  -6.6825  -6.6688  -6.6411  -6.6167
    -6.5950  -6.5730  -6.5293  -6.5002  -6.4555  -6.2899  -6.2155  -6.0652
    -5.9783  -5.9237  -5.8042  -5.7362  -5.6914  -5.6775  -5.6370  -5.4168
    -5.3385  -5.2608  -5.1777  -5.0964  -5.0725  -5.0287  -4.9286  -4.8326
    -4.7322  -4.6164  -4.5178  -4.5074  -4.4411  -4.2360  -4.1501  -4.1296
    -4.0448  -3.9925  -3.9184  -3.8635  -3.7573  -3.6868  -3.5900  -3.5735
    -3.4441  -3.3973  -3.3220  -3.2875  -3.1974  -3.0675  -3.0307  -3.0014
    -2.7811  -2.7125  -2.6307  -2.5588  -2.3527  -2.1089  -1.9636  -1.7666
    -1.5245  -1.4323  -1.1635  -1.0160  -0.7304  -0.5200  -0.2787  -0.1517
     0.1371   0.1970   0.3696   0.6119   0.6421   0.7771   0.8670   0.8900
     0.9295   1.0441   1.1433   1.2587   1.3010   1.4801   1.5680   1.6904
     1.7446   1.7814   1.8663   1.9236   2.0312   2.0517   2.1602   2.1929
     2.2409

          k = 0.2442-0.2426 0.0097 ( 85818 PWs)   bands (ev):

   -68.7164 -35.4818 -35.1277 -34.8812 -13.1972 -11.9652 -11.6750 -11.2147
   -11.0730 -10.6176 -10.3655 -10.1901 -10.1309  -9.9301  -9.8631  -9.7559
    -9.4413  -9.3786  -9.1913  -9.0343  -8.7592  -8.7518  -8.7005  -8.6137
    -8.5377  -8.4919  -8.4407  -8.4243  -8.3678  -8.3230  -8.3011  -8.2852
    -8.2658  -8.2413  -8.2282  -8.1991  -8.1603  -8.1520  -8.1406  -8.1356
    -8.1213  -8.1158  -8.0858  -8.0554  -8.0364  -8.0122  -7.9792  -7.9651
    -7.8984  -7.8579  -7.8522  -7.8203  -7.8115  -7.8010  -7.7481  -7.7054
    -7.6371  -7.5980  -7.5321  -7.5186  -7.4869  -7.4667  -7.4290  -7.4160
    -7.4050  -7.3733  -7.2820  -7.2768  -7.2006  -7.1322  -7.0693  -7.0143
    -6.9264  -6.8690  -6.8327  -6.7442  -6.6830  -6.6734  -6.6402  -6.6153
    -6.5925  -6.5719  -6.5304  -6.4954  -6.4571  -6.2913  -6.2079  -6.0587
    -5.9757  -5.9273  -5.8270  -5.7247  -5.6913  -5.6717  -5.6454  -5.4213
    -5.3379  -5.2650  -5.1729  -5.0963  -5.0731  -5.0197  -4.9321  -4.8303
    -4.7283  -4.6156  -4.5176  -4.5079  -4.4396  -4.2347  -4.1486  -4.1236
    -4.0418  -4.0012  -3.9240  -3.8748  -3.7698  -3.6953  -3.5841  -3.5725
    -3.4485  -3.4237  -3.3308  -3.2551  -3.1976  -3.0465  -3.0254  -3.0020
    -2.7735  -2.7116  -2.6324  -2.5482  -2.3586  -2.1068  -1.9648  -1.7733
    -1.5235  -1.4366  -1.1594  -1.0174  -0.7308  -0.5107  -0.2517  -0.1596
     0.1203   0.2005   0.3644   0.6060   0.6337   0.7411   0.8471   0.8754
     0.9498   1.0621   1.1699   1.2297   1.2992   1.5160   1.5420   1.6661
     1.7272   1.7922   1.8893   1.9589   2.0046   2.0789   2.1308   2.1706
     2.2388

          k = 0.2447-0.2515 0.2565 ( 85770 PWs)   bands (ev):

   -68.7164 -35.4818 -35.1277 -34.8812 -13.1972 -11.9652 -11.6750 -11.2147
   -11.0729 -10.6175 -10.3659 -10.1908 -10.1296  -9.9302  -9.8633  -9.7559
    -9.4414  -9.3785  -9.1913  -9.0342  -8.7581  -8.7514  -8.7011  -8.6136
    -8.5376  -8.4920  -8.4407  -8.4239  -8.3678  -8.3228  -8.3008  -8.2855
    -8.2658  -8.2415  -8.2280  -8.1987  -8.1608  -8.1525  -8.1404  -8.1355
    -8.1213  -8.1150  -8.0856  -8.0553  -8.0372  -8.0122  -7.9797  -7.9651
    -7.8984  -7.8578  -7.8522  -7.8203  -7.8118  -7.8012  -7.7483  -7.7055
    -7.6372  -7.5983  -7.5337  -7.5189  -7.4930  -7.4646  -7.4265  -7.4166
    -7.4021  -7.3745  -7.2973  -7.2645  -7.1957  -7.1322  -7.0690  -7.0110
    -6.9270  -6.8676  -6.8334  -6.7463  -6.6847  -6.6735  -6.6375  -6.6147
    -6.5926  -6.5727  -6.5317  -6.4947  -6.4546  -6.2924  -6.2120  -6.0593
    -5.9749  -5.9262  -5.8274  -5.7245  -5.6891  -5.6720  -5.6448  -5.4216
    -5.3373  -5.2667  -5.1745  -5.0963  -5.0708  -5.0227  -4.9324  -4.8314
    -4.7290  -4.6154  -4.5184  -4.5048  -4.4413  -4.2331  -4.1485  -4.1250
    -4.0390  -3.9995  -3.9259  -3.8744  -3.7662  -3.6964  -3.5824  -3.5712
    -3.4566  -3.4279  -3.3274  -3.2499  -3.1953  -3.0467  -3.0241  -3.0008
    -2.7746  -2.7126  -2.6312  -2.5541  -2.3580  -2.1078  -1.9635  -1.7731
    -1.5223  -1.4389  -1.1628  -1.0139  -0.7314  -0.5210  -0.2521  -0.1549
     0.1292   0.1978   0.3715   0.6193   0.6477   0.7562   0.8450   0.8906
     0.9397   0.9910   1.1524   1.2437   1.2979   1.5160   1.5510   1.6645
     1.7468   1.8098   1.8792   1.9328   2.0066   2.1028   2.1324   2.1480
     2.2419

          k = 0.2432-0.2248-0.4837 ( 85795 PWs)   bands (ev):

   -68.7164 -35.4818 -35.1277 -34.8812 -13.1972 -11.9651 -11.6751 -11.2148
   -11.0729 -10.6174 -10.3662 -10.1914 -10.1286  -9.9303  -9.8633  -9.7559
    -9.4415  -9.3786  -9.1915  -9.0342  -8.7573  -8.7509  -8.7014  -8.6136
    -8.5375  -8.4917  -8.4404  -8.4242  -8.3679  -8.3228  -8.2997  -8.2851
    -8.2661  -8.2418  -8.2281  -8.1988  -8.1612  -8.1531  -8.1402  -8.1353
    -8.1213  -8.1149  -8.0856  -8.0553  -8.0379  -8.0120  -7.9797  -7.9652
    -7.8984  -7.8579  -7.8521  -7.8197  -7.8121  -7.8014  -7.7484  -7.7056
    -7.6372  -7.5984  -7.5335  -7.5218  -7.4953  -7.4630  -7.4303  -7.4140
    -7.3987  -7.3750  -7.3062  -7.2577  -7.1967  -7.1254  -7.0703  -7.0115
    -6.9276  -6.8653  -6.8336  -6.7437  -6.6879  -6.6721  -6.6363  -6.6150
    -6.5941  -6.5738  -6.5326  -6.4941  -6.4528  -6.2960  -6.2120  -6.0598
    -5.9741  -5.9261  -5.8273  -5.7248  -5.6878  -5.6700  -5.6460  -5.4222
    -5.3361  -5.2683  -5.1762  -5.0962  -5.0684  -5.0238  -4.9317  -4.8320
    -4.7327  -4.6167  -4.5196  -4.5013  -4.4405  -4.2305  -4.1496  -4.1267
    -4.0386  -3.9952  -3.9278  -3.8747  -3.7652  -3.6956  -3.5815  -3.5726
    -3.4618  -3.4257  -3.3254  -3.2492  -3.1929  -3.0452  -3.0247  -2.9984
    -2.7760  -2.7097  -2.6302  -2.5635  -2.3584  -2.1091  -1.9617  -1.7730
    -1.5196  -1.4430  -1.1651  -1.0104  -0.7323  -0.5344  -0.2542  -0.1351
     0.1305   0.1909   0.3787   0.6142   0.6678   0.7737   0.8405   0.8742
     0.9097   1.0073   1.1583   1.2320   1.2992   1.5140   1.5475   1.6659
     1.7497   1.8191   1.8597   1.9577   2.0107   2.1067   2.1482   2.1629
     2.2379

          k = 0.2437-0.2337-0.2370 ( 85830 PWs)   bands (ev):

   -68.7164 -35.4818 -35.1277 -34.8812 -13.1972 -11.9652 -11.6750 -11.2147
   -11.0729 -10.6175 -10.3658 -10.1908 -10.1298  -9.9302  -9.8632  -9.7559
    -9.4413  -9.3786  -9.1914  -9.0342  -8.7584  -8.7514  -8.7008  -8.6137
    -8.5376  -8.4916  -8.4404  -8.4247  -8.3678  -8.3230  -8.3001  -8.2848
    -8.2662  -8.2416  -8.2282  -8.1991  -8.1607  -8.1527  -8.1404  -8.1354
    -8.1213  -8.1156  -8.0858  -8.0554  -8.0371  -8.0120  -7.9792  -7.9652
    -7.8984  -7.8580  -7.8520  -7.8198  -7.8118  -7.8012  -7.7483  -7.7055
    -7.6372  -7.5982  -7.5317  -7.5215  -7.4902  -7.4644  -7.4326  -7.4137
    -7.4018  -7.3736  -7.2982  -7.2631  -7.2006  -7.1254  -7.0712  -7.0147
    -6.9268  -6.8666  -6.8329  -6.7416  -6.6863  -6.6721  -6.6389  -6.6155
    -6.5938  -6.5731  -6.5313  -6.4947  -6.4554  -6.2951  -6.2079  -6.0593
    -5.9747  -5.9273  -5.8270  -5.7252  -5.6897  -5.6700  -5.6467  -5.4219
    -5.3366  -5.2664  -5.1749  -5.0961  -5.0709  -5.0206  -4.9314  -4.8309
    -4.7321  -4.6168  -4.5192  -4.5038  -4.4388  -4.2321  -4.1497  -4.1253
    -4.0413  -3.9972  -3.9257  -3.8751  -3.7687  -3.6946  -3.5832  -3.5740
    -3.4544  -3.4208  -3.3288  -3.2538  -3.1955  -3.0450  -3.0261  -2.9997
    -2.7749  -2.7087  -2.6319  -2.5572  -2.3589  -2.1081  -1.9631  -1.7733
    -1.5210  -1.4406  -1.1617  -1.0139  -0.7317  -0.5249  -0.2539  -0.1388
     0.1212   0.1930   0.3722   0.6032   0.6501   0.7472   0.8527   0.8701
     0.9241   1.0624   1.1846   1.2162   1.2977   1.4990   1.5546   1.6716
     1.7261   1.7935   1.8791   1.9662   2.0279   2.0851   2.1575   2.1664
     2.2511

          k =-0.5004-0.0119-0.0010 ( 85816 PWs)   bands (ev):

   -68.7164 -35.4818 -35.1277 -34.8812 -13.1972 -11.9645 -11.6765 -11.2139
   -11.0728 -10.6168 -10.3712 -10.1838 -10.1350  -9.9271  -9.8555  -9.7562
    -9.4476  -9.3783  -9.1950  -9.0350  -8.7604  -8.7521  -8.7002  -8.6090
    -8.5480  -8.4942  -8.4371  -8.4184  -8.3688  -8.3204  -8.3056  -8.2820
    -8.2701  -8.2409  -8.2297  -8.1959  -8.1618  -8.1415  -8.1400  -8.1365
    -8.1212  -8.1137  -8.0805  -8.0541  -8.0366  -8.0119  -7.9831  -7.9760
    -7.8972  -7.8577  -7.8548  -7.8203  -7.8118  -7.8024  -7.7522  -7.7033
    -7.6377  -7.5991  -7.5367  -7.5216  -7.4829  -7.4645  -7.4304  -7.4172
    -7.4070  -7.3736  -7.2805  -7.2706  -7.1726  -7.1389  -7.0755  -7.0143
    -6.9265  -6.8709  -6.8301  -6.7414  -6.6793  -6.6735  -6.6503  -6.6151
    -6.5933  -6.5722  -6.5326  -6.4893  -6.4612  -6.2824  -6.2062  -6.0622
    -5.9816  -5.9319  -5.8373  -5.7335  -5.6980  -5.6591  -5.6418  -5.4255
    -5.3323  -5.2648  -5.1672  -5.0898  -5.0788  -5.0205  -4.9294  -4.7857
    -4.7641  -4.6213  -4.5287  -4.5077  -4.4367  -4.2105  -4.1492  -4.1113
    -4.0453  -4.0107  -3.9350  -3.8844  -3.7796  -3.7096  -3.5869  -3.5638
    -3.4666  -3.4282  -3.3310  -3.2373  -3.1994  -3.0337  -3.0128  -2.9997
    -2.7674  -2.7081  -2.6300  -2.5451  -2.3680  -2.1039  -1.9639  -1.7791
    -1.5210  -1.4445  -1.1573  -1.0150  -0.7311  -0.5085  -0.2372  -0.1392
     0.1046   0.2019   0.3677   0.5853   0.6428   0.7204   0.8370   0.8605
     0.9539   1.0616   1.1363   1.2216   1.3013   1.5449   1.5770   1.6722
     1.6962   1.7679   1.8496   1.9790   2.0069   2.0170   2.1546   2.1697
     2.2448

          k =-0.5000-0.0209 0.2458 ( 85811 PWs)   bands (ev):

   -68.7164 -35.4818 -35.1277 -34.8812 -13.1972 -11.9645 -11.6766 -11.2140
   -11.0728 -10.6167 -10.3716 -10.1846 -10.1336  -9.9271  -9.8557  -9.7562
    -9.4476  -9.3783  -9.1951  -9.0350  -8.7593  -8.7518  -8.7006  -8.6090
    -8.5479  -8.4942  -8.4372  -8.4180  -8.3689  -8.3204  -8.3049  -8.2822
    -8.2703  -8.2411  -8.2297  -8.1955  -8.1620  -8.1421  -8.1400  -8.1364
    -8.1213  -8.1135  -8.0801  -8.0540  -8.0378  -8.0116  -7.9832  -7.9763
    -7.8972  -7.8578  -7.8548  -7.8201  -7.8122  -7.8024  -7.7525  -7.7034
    -7.6377  -7.5993  -7.5386  -7.5216  -7.4874  -7.4635  -7.4305  -7.4148
    -7.4046  -7.3745  -7.2955  -7.2573  -7.1698  -7.1409  -7.0726  -7.0118
    -6.9262  -6.8706  -6.8307  -6.7428  -6.6798  -6.6738  -6.6474  -6.6151
    -6.5933  -6.5731  -6.5336  -6.4900  -6.4588  -6.2855  -6.2087  -6.0625
    -5.9783  -5.9334  -5.8372  -5.7339  -5.6957  -5.6576  -5.6430  -5.4255
    -5.3316  -5.2665  -5.1690  -5.0902  -5.0760  -5.0228  -4.9290  -4.7864
    -4.7658  -4.6224  -4.5300  -4.5037  -4.4379  -4.2091  -4.1489  -4.1127
    -4.0423  -4.0087  -3.9356  -3.8849  -3.7775  -3.7093  -3.5842  -3.5649
    -3.4753  -3.4289  -3.3282  -3.2342  -3.1970  -3.0340  -3.0130  -2.9971
    -2.7679  -2.7093  -2.6292  -2.5500  -2.3679  -2.1047  -1.9624  -1.7790
    -1.5193  -1.4475  -1.1603  -1.0113  -0.7320  -0.5200  -0.2326  -0.1391
     0.1160   0.1979   0.3729   0.5918   0.6618   0.7335   0.8435   0.8629
     0.9304   1.0218   1.1354   1.2333   1.2995   1.5184   1.5919   1.6711
     1.6876   1.7587   1.8759   1.9606   1.9894   2.0558   2.1400   2.1644
     2.2392

          k =-0.5014 0.0059-0.4944 ( 85786 PWs)   bands (ev):

   -68.7164 -35.4818 -35.1277 -34.8812 -13.1972 -11.9644 -11.6766 -11.2140
   -11.0727 -10.6166 -10.3721 -10.1854 -10.1322  -9.9272  -9.8559  -9.7562
    -9.4477  -9.3783  -9.1952  -9.0349  -8.7582  -8.7514  -8.7010  -8.6090
    -8.5477  -8.4943  -8.4372  -8.4176  -8.3689  -8.3203  -8.3043  -8.2824
    -8.2706  -8.2412  -8.2296  -8.1951  -8.1622  -8.1427  -8.1399  -8.1362
    -8.1213  -8.1133  -8.0796  -8.0539  -8.0390  -8.0113  -7.9834  -7.9765
    -7.8972  -7.8579  -7.8547  -7.8197  -7.8126  -7.8025  -7.7528  -7.7035
    -7.6378  -7.5995  -7.5405  -7.5217  -7.4911  -7.4629  -7.4306  -7.4131
    -7.4013  -7.3757  -7.3039  -7.2504  -7.1676  -7.1430  -7.0694  -7.0093
    -6.9260  -6.8703  -6.8312  -6.7441  -6.6803  -6.6739  -6.6445  -6.6150
    -6.5934  -6.5740  -6.5345  -6.4906  -6.4563  -6.2884  -6.2115  -6.0626
    -5.9751  -5.9349  -5.8372  -5.7342  -5.6937  -5.6560  -5.6443  -5.4256
    -5.3308  -5.2684  -5.1704  -5.0906  -5.0731  -5.0254  -4.9287  -4.7870
    -4.7676  -4.6235  -4.5309  -4.5000  -4.4392  -4.2078  -4.1486  -4.1140
    -4.0390  -4.0071  -3.9360  -3.8854  -3.7754  -3.7090  -3.5813  -3.5660
    -3.4837  -3.4300  -3.3254  -3.2320  -3.1941  -3.0343  -3.0128  -2.9949
    -2.7685  -2.7105  -2.6282  -2.5552  -2.3679  -2.1055  -1.9610  -1.7789
    -1.5174  -1.4506  -1.1632  -1.0077  -0.7329  -0.5309  -0.2280  -0.1393
     0.1277   0.1941   0.3771   0.6027   0.6662   0.7833   0.8492   0.8534
     0.8930   0.9848   1.1378   1.2448   1.2865   1.5044   1.5983   1.6642
     1.7075   1.7354   1.8944   1.9372   1.9989   2.0926   2.1174   2.1476
     2.2420

          k =-0.4944 0.2367-0.0102 ( 85806 PWs)   bands (ev):

   -68.7164 -35.4818 -35.1277 -34.8812 -13.1972 -11.9644 -11.6765 -11.2139
   -11.0729 -10.6177 -10.3662 -10.1909 -10.1358  -9.9271  -9.8540  -9.7555
    -9.4440  -9.3767  -9.1955  -9.0347  -8.7600  -8.7523  -8.6990  -8.6147
    -8.5374  -8.4913  -8.4420  -8.4239  -8.3694  -8.3214  -8.3044  -8.2816
    -8.2675  -8.2438  -8.2289  -8.1986  -8.1622  -8.1516  -8.1406  -8.1363
    -8.1213  -8.1135  -8.0870  -8.0545  -8.0342  -8.0123  -7.9768  -7.9739
    -7.8973  -7.8574  -7.8519  -7.8186  -7.8119  -7.8009  -7.7494  -7.7040
    -7.6372  -7.5989  -7.5321  -7.5203  -7.4842  -7.4668  -7.4373  -7.4139
    -7.3982  -7.3738  -7.2794  -7.2716  -7.1969  -7.1325  -7.0694  -7.0152
    -6.9242  -6.8680  -6.8320  -6.7424  -6.6821  -6.6716  -6.6436  -6.6162
    -6.5943  -6.5720  -6.5303  -6.4956  -6.4623  -6.2818  -6.2105  -6.0665
    -5.9866  -5.9302  -5.8188  -5.7235  -5.7018  -5.6702  -5.6413  -5.4199
    -5.3352  -5.2586  -5.1706  -5.0902  -5.0808  -5.0260  -4.9279  -4.7908
    -4.7580  -4.6223  -4.5301  -4.5112  -4.4372  -4.2165  -4.1510  -4.1142
    -4.0454  -4.0031  -3.9274  -3.8761  -3.7691  -3.7005  -3.5880  -3.5706
    -3.4479  -3.4245  -3.3282  -3.2575  -3.1999  -3.0477  -3.0248  -3.0022
    -2.7736  -2.7107  -2.6278  -2.5485  -2.3611  -2.1054  -1.9643  -1.7725
    -1.5238  -1.4367  -1.1590  -1.0168  -0.7309  -0.5046  -0.2593  -0.1542
     0.1191   0.2069   0.3627   0.5910   0.6508   0.7446   0.8365   0.8753
     0.9642   1.0572   1.1438   1.2140   1.3044   1.5232   1.5651   1.6591
     1.7314   1.7702   1.8711   1.9513   1.9878   2.0586   2.1342   2.1840
     2.2179

          k =-0.4939 0.2277 0.2365 ( 85804 PWs)   bands (ev):

   -68.7164 -35.4818 -35.1277 -34.8812 -13.1972 -11.9644 -11.6765 -11.2140
   -11.0729 -10.6176 -10.3666 -10.1916 -10.1345  -9.9272  -9.8542  -9.7555
    -9.4440  -9.3768  -9.1956  -9.0347  -8.7593  -8.7517  -8.6993  -8.6147
    -8.5373  -8.4912  -8.4416  -8.4242  -8.3695  -8.3212  -8.3036  -8.2815
    -8.2679  -8.2442  -8.2288  -8.1983  -8.1625  -8.1524  -8.1404  -8.1361
    -8.1213  -8.1133  -8.0870  -8.0545  -8.0349  -8.0121  -7.9771  -7.9739
    -7.8973  -7.8576  -7.8518  -7.8182  -7.8121  -7.8012  -7.7496  -7.7041
    -7.6373  -7.5991  -7.5336  -7.5212  -7.4883  -7.4659  -7.4362  -7.4132
    -7.3949  -7.3742  -7.2969  -7.2563  -7.1985  -7.1245  -7.0722  -7.0146
    -6.9249  -6.8657  -6.8318  -6.7442  -6.6831  -6.6712  -6.6401  -6.6165
    -6.5938  -6.5729  -6.5318  -6.4958  -6.4604  -6.2857  -6.2126  -6.0666
    -5.9830  -5.9313  -5.8187  -5.7243  -5.6995  -5.6685  -5.6428  -5.4202
    -5.3340  -5.2604  -5.1727  -5.0905  -5.0785  -5.0280  -4.9273  -4.7911
    -4.7604  -4.6235  -4.5323  -4.5069  -4.4374  -4.2153  -4.1511  -4.1158
    -4.0441  -3.9990  -3.9287  -3.8767  -3.7672  -3.7004  -3.5869  -3.5718
    -3.4547  -3.4224  -3.3261  -3.2552  -3.1982  -3.0461  -3.0254  -3.0000
    -2.7749  -2.7079  -2.6268  -2.5579  -2.3613  -2.1063  -1.9629  -1.7724
    -1.5216  -1.4405  -1.1618  -1.0128  -0.7312  -0.5189  -0.2619  -0.1331
     0.1196   0.2023   0.3703   0.5980   0.6523   0.7536   0.8504   0.8725
     0.9368   1.0390   1.1576   1.2030   1.3029   1.4979   1.5833   1.6833
     1.7037   1.7915   1.8598   1.9450   2.0148   2.0571   2.1682   2.1783
     2.2382

          k =-0.4954 0.2545-0.5037 ( 85798 PWs)   bands (ev):

   -68.7164 -35.4818 -35.1277 -34.8812 -13.1972 -11.9644 -11.6766 -11.2140
   -11.0728 -10.6175 -10.3671 -10.1923 -10.1332  -9.9273  -9.8544  -9.7555
    -9.4441  -9.3768  -9.1957  -9.0346  -8.7583  -8.7513  -8.6997  -8.6146
    -8.5372  -8.4914  -8.4415  -8.4238  -8.3695  -8.3212  -8.3031  -8.2817
    -8.2681  -8.2444  -8.2287  -8.1978  -8.1628  -8.1532  -8.1402  -8.1360
    -8.1213  -8.1128  -8.0863  -8.0544  -8.0359  -8.0121  -7.9777  -7.9738
    -7.8972  -7.8576  -7.8516  -7.8179  -7.8127  -7.8014  -7.7498  -7.7042
    -7.6373  -7.5993  -7.5356  -7.5213  -7.4919  -7.4675  -7.4315  -7.4148
    -7.3927  -7.3745  -7.3038  -7.2511  -7.1959  -7.1255  -7.0697  -7.0121
    -6.9247  -6.8653  -6.8329  -6.7453  -6.6837  -6.6707  -6.6384  -6.6153
    -6.5945  -6.5740  -6.5328  -6.4961  -6.4579  -6.2871  -6.2170  -6.0661
    -5.9808  -5.9321  -5.8193  -5.7233  -5.6976  -5.6681  -5.6428  -5.4200
    -5.3331  -5.2638  -5.1734  -5.0911  -5.0752  -5.0312  -4.9271  -4.7919
    -4.7623  -4.6240  -4.5321  -4.5041  -4.4392  -4.2141  -4.1505  -4.1168
    -4.0416  -3.9967  -3.9296  -3.8772  -3.7657  -3.6998  -3.5856  -3.5697
    -3.4626  -3.4271  -3.3223  -3.2510  -3.1952  -3.0475  -3.0238  -2.9983
    -2.7762  -2.7091  -2.6260  -2.5631  -2.3610  -2.1072  -1.9615  -1.7722
    -1.5202  -1.4432  -1.1646  -1.0095  -0.7317  -0.5291  -0.2598  -0.1308
     0.1301   0.1977   0.3767   0.6105   0.6650   0.7800   0.8491   0.8753
     0.9042   1.0035   1.1346   1.2311   1.2979   1.4916   1.5768   1.6770
     1.7218   1.7864   1.8832   1.9406   1.9892   2.0838   2.1377   2.1734
     2.2365

          k =-0.4949 0.2456-0.2569 ( 85824 PWs)   bands (ev):

   -68.7164 -35.4818 -35.1277 -34.8812 -13.1972 -11.9644 -11.6765 -11.2140
   -11.0729 -10.6176 -10.3666 -10.1916 -10.1345  -9.9272  -9.8542  -9.7555
    -9.4440  -9.3768  -9.1956  -9.0347  -8.7590  -8.7519  -8.6994  -8.6146
    -8.5374  -8.4915  -8.4420  -8.4235  -8.3694  -8.3214  -8.3039  -8.2818
    -8.2677  -8.2440  -8.2288  -8.1982  -8.1625  -8.1525  -8.1404  -8.1362
    -8.1213  -8.1130  -8.0863  -8.0544  -8.0352  -8.0123  -7.9775  -7.9738
    -7.8972  -7.8575  -7.8518  -7.8184  -7.8124  -7.8011  -7.7495  -7.7041
    -7.6373  -7.5991  -7.5341  -7.5203  -7.4884  -7.4682  -7.4323  -7.4158
    -7.3957  -7.3742  -7.2933  -7.2595  -7.1937  -7.1330  -7.0678  -7.0125
    -6.9239  -6.8675  -6.8331  -6.7436  -6.6827  -6.6712  -6.6420  -6.6150
    -6.5947  -6.5731  -6.5314  -6.4958  -6.4598  -6.2834  -6.2147  -6.0661
    -5.9842  -5.9310  -5.8194  -5.7227  -5.6996  -5.6699  -5.6413  -5.4198
    -5.3344  -5.2617  -5.1716  -5.0908  -5.0776  -5.0288  -4.9277  -4.7916
    -4.7600  -4.6228  -4.5301  -4.5082  -4.4390  -4.2153  -4.1505  -4.1153
    -4.0429  -4.0009  -3.9282  -3.8766  -3.7675  -3.7000  -3.5866  -3.5688
    -3.4565  -3.4288  -3.3244  -3.2526  -3.1973  -3.0491  -3.0233  -3.0004
    -2.7748  -2.7118  -2.6274  -2.5532  -2.3608  -2.1062  -1.9629  -1.7723
    -1.5225  -1.4392  -1.1618  -1.0133  -0.7314  -0.5157  -0.2568  -0.1511
     0.1289   0.2018   0.3698   0.6044   0.6612   0.7618   0.8444   0.8839
     0.9270   1.0145   1.1281   1.2483   1.2951   1.5033   1.5782   1.6553
     1.7310   1.7773   1.8773   1.9502   1.9982   2.0416   2.1409   2.1594
     2.2210

          k =-0.5126-0.5091 0.0176 ( 85802 PWs)   bands (ev):

   -68.7164 -35.4818 -35.1277 -34.8812 -13.1972 -11.9644 -11.6765 -11.2139
   -11.0730 -10.6185 -10.3608 -10.1985 -10.1364  -9.9272  -9.8526  -9.7549
    -9.4405  -9.3750  -9.1959  -9.0345  -8.7596  -8.7526  -8.6976  -8.6198
    -8.5270  -8.4837  -8.4549  -8.4274  -8.3699  -8.3222  -8.3032  -8.2812
    -8.2637  -8.2480  -8.2281  -8.2024  -8.1641  -8.1590  -8.1408  -8.1361
    -8.1213  -8.1133  -8.0911  -8.0547  -8.0330  -8.0120  -7.9755  -7.9689
    -7.8974  -7.8573  -7.8498  -7.8176  -7.8121  -7.7985  -7.7462  -7.7049
    -7.6368  -7.5987  -7.5257  -7.5192  -7.4851  -7.4713  -7.4412  -7.4146
    -7.3824  -7.3779  -7.2783  -7.2740  -7.2164  -7.1279  -7.0665  -7.0157
    -6.9222  -6.8649  -6.8337  -6.7434  -6.6839  -6.6704  -6.6350  -6.6191
    -6.5954  -6.5717  -6.5274  -6.5025  -6.4634  -6.2807  -6.2159  -6.0699
    -5.9899  -5.9279  -5.7949  -5.7321  -5.7020  -5.6763  -5.6382  -5.4146
    -5.3377  -5.2531  -5.1744  -5.0907  -5.0823  -5.0314  -4.9267  -4.7942
    -4.7537  -4.6229  -4.5326  -4.5139  -4.4378  -4.2229  -4.1518  -4.1162
    -4.0464  -3.9971  -3.9200  -3.8676  -3.7573  -3.6909  -3.5926  -3.5751
    -3.4410  -3.3946  -3.3211  -3.2968  -3.2013  -3.0699  -3.0279  -3.0039
    -2.7794  -2.7137  -2.6259  -2.5514  -2.3544  -2.1069  -1.9646  -1.7661
    -1.5264  -1.4290  -1.1608  -1.0185  -0.7307  -0.4999  -0.2844  -0.1630
     0.1295   0.2113   0.3595   0.5962   0.6556   0.7697   0.8433   0.8823
     0.9791   1.0541   1.1539   1.2080   1.3149   1.4658   1.5763   1.6429
     1.7583   1.8141   1.8644   1.8998   1.9977   2.0888   2.1317   2.1882
     2.2117

          k =-0.5121-0.5181 0.2643 ( 85822 PWs)   bands (ev):

   -68.7164 -35.4818 -35.1277 -34.8812 -13.1972 -11.9644 -11.6765 -11.2140
   -11.0730 -10.6184 -10.3612 -10.1991 -10.1352  -9.9272  -9.8528  -9.7549
    -9.4406  -9.3751  -9.1960  -9.0344  -8.7590  -8.7519  -8.6980  -8.6197
    -8.5270  -8.4837  -8.4544  -8.4277  -8.3700  -8.3221  -8.3024  -8.2812
    -8.2639  -8.2485  -8.2281  -8.2021  -8.1647  -8.1595  -8.1406  -8.1360
    -8.1212  -8.1128  -8.0909  -8.0547  -8.0336  -8.0120  -7.9760  -7.9688
    -7.8973  -7.8574  -7.8496  -7.8172  -7.8124  -7.7990  -7.7464  -7.7049
    -7.6368  -7.5989  -7.5273  -7.5199  -7.4892  -7.4727  -7.4366  -7.4153
    -7.3835  -7.3746  -7.2961  -7.2588  -7.2157  -7.1214  -7.0695  -7.0148
    -6.9229  -6.8627  -6.8339  -6.7451  -6.6850  -6.6696  -6.6325  -6.6182
    -6.5957  -6.5729  -6.5291  -6.5021  -6.4615  -6.2829  -6.2196  -6.0694
    -5.9872  -5.9287  -5.7951  -5.7308  -5.7009  -5.6754  -5.6385  -5.4147
    -5.3364  -5.2564  -5.1756  -5.0911  -5.0797  -5.0339  -4.9263  -4.7947
    -4.7563  -4.6234  -4.5333  -4.5107  -4.4386  -4.2218  -4.1516  -4.1172
    -4.0450  -3.9936  -3.9214  -3.8681  -3.7559  -3.6910  -3.5924  -3.5735
    -3.4444  -3.4005  -3.3178  -3.2912  -3.1994  -3.0693  -3.0276  -3.0020
    -2.7812  -2.7111  -2.6253  -2.5605  -2.3543  -2.1079  -1.9633  -1.7659
    -1.5246  -1.4325  -1.1635  -1.0148  -0.7306  -0.5141  -0.2852  -0.1445
     0.1303   0.2056   0.3678   0.6118   0.6517   0.7758   0.8625   0.8854
     0.9354   1.0369   1.1459   1.2172   1.3118   1.4654   1.5854   1.6632
     1.7376   1.8081   1.8654   1.8964   2.0323   2.0685   2.1711   2.1932
     2.2247

          k =-0.5135-0.4913-0.4758 ( 85814 PWs)   bands (ev):

   -68.7164 -35.4818 -35.1277 -34.8812 -13.1972 -11.9644 -11.6765 -11.2140
   -11.0729 -10.6183 -10.3617 -10.1997 -10.1340  -9.9273  -9.8531  -9.7549
    -9.4406  -9.3751  -9.1961  -9.0344  -8.7584  -8.7511  -8.6983  -8.6195
    -8.5269  -8.4836  -8.4539  -8.4280  -8.3700  -8.3220  -8.3017  -8.2811
    -8.2642  -8.2490  -8.2280  -8.2017  -8.1653  -8.1600  -8.1404  -8.1359
    -8.1212  -8.1123  -8.0906  -8.0546  -8.0342  -8.0121  -7.9765  -7.9687
    -7.8972  -7.8575  -7.8495  -7.8168  -7.8127  -7.7994  -7.7465  -7.7050
    -7.6368  -7.5991  -7.5290  -7.5206  -7.4926  -7.4739  -7.4319  -7.4163
    -7.3851  -7.3708  -7.3053  -7.2520  -7.2152  -7.1148  -7.0725  -7.0141
    -6.9236  -6.8607  -6.8341  -6.7466  -6.6861  -6.6688  -6.6295  -6.6174
    -6.5962  -6.5741  -6.5308  -6.5018  -6.4596  -6.2849  -6.2237  -6.0689
    -5.9846  -5.9296  -5.7953  -5.7296  -5.6999  -5.6744  -5.6389  -5.4148
    -5.3351  -5.2599  -5.1766  -5.0916  -5.0767  -5.0369  -4.9259  -4.7951
    -4.7588  -4.6241  -4.5339  -4.5076  -4.4393  -4.2207  -4.1514  -4.1183
    -4.0437  -3.9897  -3.9232  -3.8687  -3.7547  -3.6909  -3.5920  -3.5720
    -3.4480  -3.4055  -3.3146  -3.2866  -3.1973  -3.0687  -3.0273  -3.0001
    -2.7830  -2.7085  -2.6238  -2.5705  -2.3543  -2.1089  -1.9620  -1.7657
    -1.5227  -1.4362  -1.1661  -1.0112  -0.7305  -0.5270  -0.2863  -0.1267
     0.1310   0.2006   0.3758   0.6220   0.6610   0.7690   0.8699   0.8963
     0.9068   1.0236   1.1338   1.2223   1.3121   1.4564   1.5865   1.6903
     1.7240   1.8057   1.8635   1.9050   2.0240   2.1063   2.1549   2.2237
     2.2343

     the Fermi energy is    -0.6271 ev

!    total energy              =   -2479.01854781 Ry
     Harris-Foulkes estimate   =   -2479.01854781 Ry
     estimated scf accuracy    <          3.9E-09 Ry

     The total energy is the sum of the following terms:

     one-electron contribution =   -2000.79364278 Ry
     hartree contribution      =    1128.99276969 Ry
     xc contribution           =    -565.04885071 Ry
     ewald contribution        =    -158.56478551 Ry
     one-center paw contrib.   =    -883.60463107 Ry
     smearing contrib. (-TS)   =       0.00059257 Ry

     convergence has been achieved in  22 iterations

     Writing output data file 03_Li8TaZn8B23H96_Restored.save

     init_run     :   5977.67s CPU   1378.91s WALL (       1 calls)
     electrons    : 221921.03s CPU  76252.46s WALL (       1 calls)

     Called by init_run:
     wfcinit      :   5439.44s CPU    863.21s WALL (       1 calls)
     potinit      :    184.34s CPU    179.47s WALL (       1 calls)

     Called by electrons:
     c_bands      : 192677.66s CPU  31827.24s WALL (      22 calls)
     sum_band     :  27850.48s CPU  43695.89s WALL (      22 calls)
     v_of_rho     :    120.62s CPU     70.14s WALL (      23 calls)
     newd         :   1215.78s CPU    605.21s WALL (      23 calls)
     PAW_pot      :     86.28s CPU     32.88s WALL (      23 calls)
     mix_rho      :     17.58s CPU     29.70s WALL (      22 calls)

     Called by c_bands:
     init_us_2    :    481.62s CPU    545.31s WALL (    1620 calls)
     cegterg      : 191599.53s CPU  29990.11s WALL (     792 calls)

     Called by sum_band:
     sum_band:bec :     20.19s CPU     12.63s WALL (     792 calls)
     addusdens    :   2076.83s CPU    767.60s WALL (      22 calls)

     Called by *egterg:
     h_psi        : 119170.61s CPU  19153.33s WALL (    4278 calls)
     s_psi        :  29504.23s CPU   3252.23s WALL (    4278 calls)
     g_psi        :     69.31s CPU     68.56s WALL (    3450 calls)
     cdiaghg      :   1734.31s CPU   1481.61s WALL (    4242 calls)

     Called by h_psi:
     h_psi:pot    : 119036.47s CPU  19017.87s WALL (    4278 calls)
     h_psi:calbec :  27812.00s CPU   3102.52s WALL (    4278 calls)
     vloc_psi     :  61867.92s CPU  12680.28s WALL (    4278 calls)
     add_vuspsi   :  29356.11s CPU   3234.57s WALL (    4278 calls)

     General routines
     calbec       :  39851.45s CPU   4180.28s WALL (    5070 calls)
     fft          :    108.50s CPU     27.04s WALL (     364 calls)
     ffts         :      3.31s CPU      1.21s WALL (      45 calls)
     fftw         :  53921.62s CPU  10693.55s WALL (  786370 calls)
     interpolate  :     18.02s CPU      7.17s WALL (      45 calls)
     davcio       :      0.20s CPU     86.17s WALL (      36 calls)

     Parallel routines
     fft_scatter  :   2344.36s CPU   2594.08s WALL (  786779 calls)

     PWSCF        :     2d   15h18m CPU        0d   21h36m WALL


   This run was terminated on:  21: 9:25  11Dec2025            

=------------------------------------------------------------------------------=
   JOB DONE.
=------------------------------------------------------------------------------=
