
     Program PWSCF v.6.1 starts on 11Dec2025 at 21: 9:26 

     This program is part of the open-source Quantum ESPRESSO suite
     for quantum simulation of materials; please cite
         "P. Giannozzi et al., J. Phys.:Condens. Matter 21 395502 (2009);
          URL http://www.quantum-espresso.org", 
     in publications or presentations arising from this work. More details at
     http://www.quantum-espresso.org/quote

     Parallel version (MPI & OpenMP), running on      12 processor cores
     Number of MPI processes:                 1
     Threads/MPI process:                    12
     Waiting for input...
     Reading input from standard input

     Current dimensions of program PWSCF are:
     Max number of different atomic species (ntypx) = 10
     Max number of k-points (npk) =  40000
     Max angular momentum in pseudopotentials (lmaxx) =  3

     Atomic positions and unit cell read from directory:
     ./tmp/03_Li8TaZn8B23H96_Restored.save/

               file H.UPF: wavefunction(s)  1S renormalized
               file Zn.UPF: wavefunction(s)  4S 3D renormalized

     Subspace diagonalization in iterative solution of the eigenvalue problem:
     a serial algorithm will be used


     G-vector sticks info
     --------------------
     sticks:   dense  smooth     PW     G-vecs:    dense   smooth      PW
     Sum       18697    9349   2487              1941397   686459   94131



     bravais-lattice index     =            0
     lattice parameter (alat)  =      24.1522  a.u.
     unit-cell volume          =   14371.9700 (a.u.)^3
     number of atoms/cell      =          136
     number of atomic types    =            5
     number of electrons       =       282.00
     number of Kohn-Sham states=          169
     kinetic-energy cutoff     =      50.0000  Ry
     charge density cutoff     =     400.0000  Ry
     Exchange-correlation      =  SLA  PW   PBX  PBC ( 1  4  3  4 0 0)

     celldm(1)=  24.152220  celldm(2)=   0.000000  celldm(3)=   0.000000
     celldm(4)=   0.000000  celldm(5)=   0.000000  celldm(6)=   0.000000

     crystal axes: (cart. coord. in units of alat)
               a(1) = (   0.999697  -0.024452  -0.002871 )  
               a(2) = (  -0.024112   1.007582   0.036452 )  
               a(3) = (  -0.002851   0.037904   1.014705 )  

     reciprocal axes: (cart. coord. in units 2 pi/alat)
               b(1) = (  1.000893  0.023882  0.001920 )  
               b(2) = (  0.024216  0.994396 -0.037077 )  
               b(3) = (  0.001962 -0.035655  0.986846 )  


     PseudoPot. # 1 for  B read from file:
     C:/Users/Acer/Desktop/Quantum_Espresso/pseudo/B.UPF
     MD5 check sum: 07a2b2e539a360f5bda43965cc3a01bd
     Pseudo is Projector augmented-wave + core cor, Zval =  3.0
     Generated using "atomic" code by A. Dal Corso  v.5.1.2
     Shape of augmentation charge: PSQ
     Using radial grid of 1059 points,  4 beta functions with: 
                l(1) =   0
                l(2) =   0
                l(3) =   1
                l(4) =   1
     Q(r) pseudized with 0 coefficients 


     PseudoPot. # 2 for  H read from file:
     C:/Users/Acer/Desktop/Quantum_Espresso/pseudo/H.UPF
     MD5 check sum: f872269930354f4c44a8fadb7eac41ed
     Pseudo is Projector augmented-wave, Zval =  1.0
     Generated using "atomic" code by A. Dal Corso  v.5.1.2
     Shape of augmentation charge: PSQ
     Using radial grid of  929 points,  2 beta functions with: 
                l(1) =   0
                l(2) =   0
     Q(r) pseudized with 0 coefficients 


     PseudoPot. # 3 for Li read from file:
     C:/Users/Acer/Desktop/Quantum_Espresso/pseudo/Li.UPF
     MD5 check sum: a33e1da9cc385e08515ef569b3dd683e
     Pseudo is Ultrasoft + core correction, Zval =  1.0
     Generated by new atomic code, or converted to UPF format
     Using radial grid of  751 points,  2 beta functions with: 
                l(1) =   1
                l(2) =   1
     Q(r) pseudized with  8 coefficients,  rinner =    1.000   1.000   1.000


     PseudoPot. # 4 for Ta read from file:
     C:/Users/Acer/Desktop/Quantum_Espresso/pseudo/Ta.UPF
     MD5 check sum: f34f1fa3a0735d3d4a3c45a0affad432
     Pseudo is Ultrasoft + core correction, Zval = 13.0
     Generated by new atomic code, or converted to UPF format
     Using radial grid of  921 points,  6 beta functions with: 
                l(1) =   0
                l(2) =   0
                l(3) =   1
                l(4) =   1
                l(5) =   2
                l(6) =   2
     Q(r) pseudized with  6 coefficients,  rinner =    1.000   1.000   1.000
                                                       1.000   1.000

     PseudoPot. # 5 for Zn read from file:
     C:/Users/Acer/Desktop/Quantum_Espresso/pseudo/Zn.UPF
     MD5 check sum: 82f88799ac770278089be0da21c13bfe
     Pseudo is Projector augmented-wave + core cor, Zval = 12.0
     Generated using "atomic" code by A. Dal Corso  v.5.1.2
     Shape of augmentation charge: PSQ
     Using radial grid of 1201 points,  6 beta functions with: 
                l(1) =   0
                l(2) =   0
                l(3) =   1
                l(4) =   1
                l(5) =   2
                l(6) =   2
     Q(r) pseudized with 0 coefficients 


     atomic species   valence    mass     pseudopotential
        B              3.00     1.00000      B( 1.00)
        H              1.00     1.00000      H( 1.00)
        Li             1.00     1.00000     Li( 1.00)
        Ta            13.00     1.00000     Ta( 1.00)
        Zn            12.00     1.00000     Zn( 1.00)

     No symmetry found



   Cartesian axes

     site n.     atom                  positions (alat units)
         1           Li  tau(   1) = (   0.5954586   0.6682240   0.5068625  )
         2           Li  tau(   2) = (   0.1259420   0.4452779   0.2559346  )
         3           Li  tau(   3) = (   0.0814886   0.6989724   0.2373755  )
         4           Li  tau(   4) = (   0.3873637   0.0409919   0.8487737  )
         5           Li  tau(   5) = (   0.4786585   0.2818594   0.1822444  )
         6           Li  tau(   6) = (   0.1512370   0.1470142   0.7724373  )
         7           Li  tau(   7) = (   0.6648862   0.7599530   0.6791975  )
         8           Li  tau(   8) = (   0.6068976   0.0302023   0.6998370  )
         9           Ta  tau(   9) = (   0.6216135   0.0820637   0.1831191  )
        10           Zn  tau(  10) = (   0.4416858   0.4544221   0.4482331  )
        11           Zn  tau(  11) = (   0.9297905   0.4484162   0.8765520  )
        12           Zn  tau(  12) = (   0.2952451   0.8618096   0.8316941  )
        13           Zn  tau(  13) = (   0.5918352   0.8645168   0.1539121  )
        14           Zn  tau(  14) = (   0.3751438   0.5216503   0.6626774  )
        15           Zn  tau(  15) = (   0.1439847   0.8522750   0.4285278  )
        16           Zn  tau(  16) = (   0.5217293   0.6169408   0.2762267  )
        17           Zn  tau(  17) = (   0.2002276   0.3114248   0.4389450  )
        18           B   tau(  18) = (   0.2216050   0.5969781   0.5358575  )
        19           B   tau(  19) = (   0.1748841   0.2219414   0.3039269  )
        20           B   tau(  20) = (   0.6283227   0.8494004   0.5032046  )
        21           B   tau(  21) = (   0.7058672   0.6685565   0.8623315  )
        22           B   tau(  22) = (   0.6179627   0.3816716   0.3994084  )
        23           B   tau(  23) = (   0.5513589   0.8690126   0.5988254  )
        24           B   tau(  24) = (   0.7823936   0.4052781   0.4178282  )
        25           B   tau(  25) = (   0.4338976   0.2862128   0.6603912  )
        26           B   tau(  26) = (   0.8087120   0.6812318   0.7954906  )
        27           B   tau(  27) = (   0.8338223   0.5491830   0.7930096  )
        28           B   tau(  28) = (   0.5237120   0.4616282   0.1845291  )
        29           B   tau(  29) = (   0.1909786   0.5293462   0.8670010  )
        30           B   tau(  30) = (   0.1826466   0.6534112   0.8372087  )
        31           B   tau(  31) = (   0.4369905   0.8150989   0.5796654  )
        32           B   tau(  32) = (   0.7631922   0.7958678   0.5234467  )
        33           B   tau(  33) = (   0.4431130   0.2269709   0.7725766  )
        34           B   tau(  34) = (   0.6888565   0.7886499   0.4034120  )
        35           B   tau(  35) = (   0.7976814   0.6764817   0.5408752  )
        36           B   tau(  36) = (   0.7892179   0.8051645   0.8053179  )
        37           B   tau(  37) = (   0.1975071   0.7564454   0.7803813  )
        38           B   tau(  38) = (   0.6007439   0.4340752   0.2802719  )
        39           B   tau(  39) = (   0.7390599   0.4644739   0.2467756  )
        40           B   tau(  40) = (   0.0920200   0.4581895   0.8949194  )
        41           H   tau(  41) = (   0.1792438   0.8870506   0.5378433  )
        42           H   tau(  42) = (   0.6868065   0.1335824   0.4679338  )
        43           H   tau(  43) = (   0.3945432   0.2567069   0.8484216  )
        44           H   tau(  44) = (   0.8019918   0.1102317   0.1361675  )
        45           H   tau(  45) = (   0.3519325   0.3711621   0.4790012  )
        46           H   tau(  46) = (   0.7750968   0.6773056   0.2232301  )
        47           H   tau(  47) = (   0.7982698   0.8561378   0.5839280  )
        48           H   tau(  48) = (   0.2554080   0.5653431   0.4479859  )
        49           H   tau(  49) = (   0.9404275   0.3236181   0.2301436  )
        50           H   tau(  50) = (   0.3417273   0.3482418   0.3030287  )
        51           H   tau(  51) = (   0.9463951   0.3779152   0.2550246  )
        52           H   tau(  52) = (   0.4320276   0.6815471   0.0716739  )
        53           H   tau(  53) = (   0.5688734   0.1959149   0.1186029  )
        54           H   tau(  54) = (   0.8095328   0.9059250   0.9768885  )
        55           H   tau(  55) = (   0.8007329   0.2153910   0.8908571  )
        56           H   tau(  56) = (   0.5545034   0.6632540   0.6500280  )
        57           H   tau(  57) = (   0.1508450   0.5479327   0.5716925  )
        58           H   tau(  58) = (   0.7299807   0.0870540   0.2579087  )
        59           H   tau(  59) = (   0.5536702   0.5025897   0.1013317  )
        60           H   tau(  60) = (   0.5892329   0.6167507   0.6634019  )
        61           H   tau(  61) = (   0.6497040   0.7012430   0.3833061  )
        62           H   tau(  62) = (   0.7860249   0.4953593   0.1733169  )
        63           H   tau(  63) = (   0.6234780   0.6528955   0.9107925  )
        64           H   tau(  64) = (   0.3480133   0.8428898   0.6049220  )
        65           H   tau(  65) = (   0.2190574   0.9796895   0.8212848  )
        66           H   tau(  66) = (   0.2580659   0.6733152   0.7623503  )
        67           H   tau(  67) = (   0.4284073   0.7217809   0.7826738  )
        68           H   tau(  68) = (   0.4413830   0.6642274   0.7855773  )
        69           H   tau(  69) = (   0.7633659   0.2536241   0.2883520  )
        70           H   tau(  70) = (   0.8134277   0.9191378   0.9184946  )
        71           H   tau(  71) = (   0.3353568   0.1233084   0.5204273  )
        72           H   tau(  72) = (   0.6258448   0.2895812   0.3997651  )
        73           H   tau(  73) = (   0.8135075   0.5103356   0.7093075  )
        74           H   tau(  74) = (   0.2186490   0.6633205   0.1975478  )
        75           H   tau(  75) = (   0.4023135   0.2283166   0.5899089  )
        76           H   tau(  76) = (   0.3893511   0.3812827   0.2803783  )
        77           H   tau(  77) = (   0.8007626   0.6715696   0.2777548  )
        78           H   tau(  78) = (   0.8128870   0.3149458   0.4094781  )
        79           H   tau(  79) = (   0.6185738   0.4813641   0.6967472  )
        80           H   tau(  80) = (   0.2728545   0.5445941   0.1215503  )
        81           H   tau(  81) = (   0.2008942   0.6944289   0.5396945  )
        82           H   tau(  82) = (   0.2306592   0.7187357   0.1802860  )
        83           H   tau(  83) = (   0.5014098   0.1344743   0.2479946  )
        84           H   tau(  84) = (   0.1557414   0.2942835   0.6874481  )
        85           H   tau(  85) = (   0.2773441   0.4887775   0.8446738  )
        86           H   tau(  86) = (   0.3190136   0.0940160   0.4719875  )
        87           H   tau(  87) = (   0.9229912   0.5879145   0.7870232  )
        88           H   tau(  88) = (   0.8180706   0.7130756   0.6944665  )
        89           H   tau(  89) = (   0.6818663   0.3319040   0.7885411  )
        90           H   tau(  90) = (   0.7659596   0.2295036   0.2344000  )
        91           H   tau(  91) = (   0.7000099   0.3808235   0.2258762  )
        92           H   tau(  92) = (   0.1440457   0.3064150   0.7443796  )
        93           H   tau(  93) = (   0.1565739   0.2967388   0.2419621  )
        94           H   tau(  94) = (   0.4378465   0.4261273   0.1697264  )
        95           H   tau(  95) = (   0.7330306   0.6065698   0.5572349  )
        96           H   tau(  96) = (   0.1543252   0.7797553   0.7020536  )
        97           H   tau(  97) = (   0.6749341   0.5294565   0.2760546  )
        98           H   tau(  98) = (   0.1017745   0.5737221   0.2544410  )
        99           H   tau(  99) = (   0.4371595   0.8181160   0.3446786  )
       100           H   tau( 100) = (   0.6470430   0.1428768   0.4260999  )
       101           H   tau( 101) = (   0.6721463   0.1299144   0.0554136  )
       102           H   tau( 102) = (   0.2610524   0.1900546   0.2886102  )
       103           H   tau( 103) = (   0.6896170   0.4302437   0.4563633  )
       104           H   tau( 104) = (   0.0996150   0.1622738   0.3196012  )
       105           H   tau( 105) = (   0.2786593   0.9126437   0.2226894  )
       106           H   tau( 106) = (   0.2218335   0.4255515   0.6355586  )
       107           H   tau( 107) = (   0.7746633   0.2330096   0.5829406  )
       108           H   tau( 108) = (   0.5311325   0.0935035   0.5651366  )
       109           H   tau( 109) = (   0.5269254   0.3217935   0.6493903  )
       110           H   tau( 110) = (   0.7155575   0.8264456   0.3245469  )
       111           H   tau( 111) = (   0.1345447   0.8390489   0.3117120  )
       112           H   tau( 112) = (   0.2916945   0.6022751   0.6054721  )
       113           H   tau( 113) = (   0.3095541   0.5012885   0.1361174  )
       114           H   tau( 114) = (   0.4998809   0.1511368   0.7937059  )
       115           H   tau( 115) = (   0.8003925   0.4706167   0.3291952  )
       116           H   tau( 116) = (   0.8857580   0.6326589   0.5510710  )
       117           H   tau( 117) = (   0.4669237   0.5279057   0.7353927  )
       118           H   tau( 118) = (   0.6399887   0.3089117   0.7539745  )
       119           H   tau( 119) = (   0.4616642   0.5771343   0.4627142  )
       120           H   tau( 120) = (   0.4832607   0.0844078   0.5985148  )
       121           H   tau( 121) = (   0.5297210   0.7299752   0.2404270  )
       122           H   tau( 122) = (   0.7578639   0.2677382   0.6272782  )
       123           H   tau( 123) = (   0.5635655   0.3985000   0.4850211  )
       124           H   tau( 124) = (   0.6742267   0.4953186   0.7069954  )
       125           H   tau( 125) = (   0.6716901   0.7165997   0.1264443  )
       126           H   tau( 126) = (   0.5683805   0.9146983   0.6818890  )
       127           H   tau( 127) = (   0.7837347   0.2382409   0.8386530  )
       128           H   tau( 128) = (   0.1432727   0.5435041   0.7729881  )
       129           H   tau( 129) = (   0.4301592   0.9279533   0.8293977  )
       130           H   tau( 130) = (   0.4203601   0.7299149   0.5420050  )
       131           H   tau( 131) = (   0.3983756   0.8418422   0.3808814  )
       132           H   tau( 132) = (   0.2315371   0.4319141   0.6941848  )
       133           H   tau( 133) = (   0.3313446   0.9195204   0.1940879  )
       134           H   tau( 134) = (   0.3825456   0.7125264   0.0734789  )
       135           H   tau( 135) = (   0.8314555   0.4604460   0.4794362  )
       136           H   tau( 136) = (   0.3826692   0.3653041   0.6731744  )

     number of k points=   260 (tetrahedron method)

     Number of k-points >= 100: set verbosity='high' to print them.

     Dense  grid:  1941397 G-vectors     FFT dimensions: ( 160, 160, 160)

     Smooth grid:   686459 G-vectors     FFT dimensions: ( 120, 120, 120)

     Estimated max dynamical RAM per process >    3407.11MB

     The potential is recalculated from file :
     ./tmp/03_Li8TaZn8B23H96_Restored.save/charge-density.dat


     negative rho (up, down):  7.007E-04 0.000E+00
     Starting wfc are  305 randomized atomic wfcs
     Checking if some PAW data can be deallocated... 

     Band Structure Calculation
     Davidson diagonalization with overlap
     c_bands:  1 eigenvalues not converged
     c_bands:  1 eigenvalues not converged
     c_bands:  1 eigenvalues not converged
     c_bands:  1 eigenvalues not converged
     c_bands:  1 eigenvalues not converged
     c_bands:  1 eigenvalues not converged
     c_bands:  1 eigenvalues not converged
     c_bands:  1 eigenvalues not converged
     c_bands:  1 eigenvalues not converged
     c_bands:  1 eigenvalues not converged

 %%%%%%%%%%%%%%%%%%%%%%%%%%%%%%%%%%%%%%%%%%%%%%%%%%%%%%%%%%%%%%%%%%%%%%%%%%%%%%
     Error in routine davcio (10):
     error while writing from file "./tmp/03_Li8TaZn8B23H96_Restored.wfc1"
 %%%%%%%%%%%%%%%%%%%%%%%%%%%%%%%%%%%%%%%%%%%%%%%%%%%%%%%%%%%%%%%%%%%%%%%%%%%%%%

     stopping ...

job aborted:
[ranks] message

[0] application aborted
aborting MPI_COMM_WORLD (comm=0x44000000), error 1, comm rank 0
