
     Program PWSCF v.6.7MaX starts on  8Feb2026 at  9:57:25 

     This program is part of the open-source Quantum ESPRESSO suite
     for quantum simulation of materials; please cite
         "P. Giannozzi et al., J. Phys.:Condens. Matter 21 395502 (2009);
         "P. Giannozzi et al., J. Phys.:Condens. Matter 29 465901 (2017);
          URL http://www.quantum-espresso.org", 
     in publications or presentations arising from this work. More details at
     http://www.quantum-espresso.org/quote

     Parallel version (MPI), running on     2 processors

     MPI processes distributed on     1 nodes
     R & G space division:  proc/nbgrp/npool/nimage =       2
     Waiting for input...
     Reading input from standard input

     Current dimensions of program PWSCF are:
     Max number of different atomic species (ntypx) = 10
     Max number of k-points (npk) =  40000
     Max angular momentum in pseudopotentials (lmaxx) =  3
     file Al.UPF: wavefunction(s)  3S 3P renormalized
     file H.UPF: wavefunction(s)  1S renormalized

     Subspace diagonalization in iterative solution of the eigenvalue problem:
     a serial algorithm will be used

     Message from routine setup:
     using ibrav=0 with symmetry is DISCOURAGED, use correct ibrav instead

     Parallelization info
     --------------------
     sticks:   dense  smooth     PW     G-vecs:    dense   smooth      PW
     Min        3474    1741    478               142254    50269    7240
     Max        3475    1742    479               142255    50270    7241
     Sum        6949    3483    957               284509   100539   14481



     bravais-lattice index     =            0
     lattice parameter (alat)  =      20.2023  a.u.
     unit-cell volume          =    2106.6154 (a.u.)^3
     number of atoms/cell      =           20
     number of atomic types    =            5
     number of electrons       =        31.00
     number of Kohn-Sham states=           20
     kinetic-energy cutoff     =      50.0000  Ry
     charge density cutoff     =     400.0000  Ry
     scf convergence threshold =      1.0E-06
     mixing beta               =       0.7000
     number of iterations used =            8  plain     mixing
     energy convergence thresh.=      1.0E-04
     force convergence thresh. =      1.0E-03
     press convergence thresh. =      5.0E-01
     Exchange-correlation= SLA  PW   PBE  PBE
                           (   1   4   3   4   0   0   0)
     nstep                     =           50


     celldm(1)=  20.202335  celldm(2)=   0.000000  celldm(3)=   0.000000
     celldm(4)=   0.000000  celldm(5)=   0.000000  celldm(6)=   0.000000

     crystal axes: (cart. coord. in units of alat)
               a(1) = (   0.545563   0.006917   0.838041 )  
               a(2) = (   0.253905   0.482928   0.838042 )  
               a(3) = (   0.011289   0.006917   0.999913 )  

     reciprocal axes: (cart. coord. in units 2 pi/alat)
               b(1) = (  1.867319 -0.956662 -0.014465 )  
               b(2) = ( -0.004382  2.098109 -0.014465 )  
               b(3) = ( -1.561355 -0.956663  1.024334 )  


     PseudoPot. # 1 for Al read from file:
     /home/marco/ZOS_Cloud_Compute/pseudo/Al.UPF
     MD5 check sum: da22aad9e98c60ce88de1cf925d56fcc
     Pseudo is Projector augmented-wave + core cor, Zval =  3.0
     Generated using "atomic" code by A. Dal Corso  v.5.1.2
     Shape of augmentation charge: PSQ
     Using radial grid of 1135 points,  6 beta functions with: 
                l(1) =   0
                l(2) =   0
                l(3) =   1
                l(4) =   1
                l(5) =   2
                l(6) =   2
     Q(r) pseudized with 0 coefficients 


     PseudoPot. # 2 for H  read from file:
     /home/marco/ZOS_Cloud_Compute/pseudo/H.UPF
     MD5 check sum: 850d63dcbcc06c5de8b44e0ab9f952da
     Pseudo is Projector augmented-wave, Zval =  1.0
     Generated using "atomic" code by A. Dal Corso  v.5.1.2
     Shape of augmentation charge: PSQ
     Using radial grid of  929 points,  2 beta functions with: 
                l(1) =   0
                l(2) =   0
     Q(r) pseudized with 0 coefficients 


     PseudoPot. # 3 for K  read from file:
     /home/marco/ZOS_Cloud_Compute/pseudo/K.UPF
     MD5 check sum: 0975f8d1feef6b2899f42b1061589f29
     Pseudo is Norm-conserving + core correction, Zval =  1.0
     Generated by new atomic code, or converted to UPF format
     Using radial grid of 1165 points,  2 beta functions with: 
                l(1) =   0
                l(2) =   1

     PseudoPot. # 4 for Li read from file:
     /home/marco/ZOS_Cloud_Compute/pseudo/Li.UPF
     MD5 check sum: 057edeeab9105e5446fd9e29ea3f9c2f
     Pseudo is Ultrasoft + core correction, Zval =  1.0
     Generated by new atomic code, or converted to UPF format
     Using radial grid of  751 points,  2 beta functions with: 
                l(1) =   1
                l(2) =   1
     Q(r) pseudized with  8 coefficients,  rinner =    1.000   1.000   1.000


     PseudoPot. # 5 for Sr read from file:
     /home/marco/ZOS_Cloud_Compute/pseudo/Sr.UPF
     MD5 check sum: 71c4688e601547c0814ef38edf55aea6
     Pseudo is Ultrasoft + core correction, Zval = 10.0
     Generated by new atomic code, or converted to UPF format
     Using radial grid of  883 points,  6 beta functions with: 
                l(1) =   0
                l(2) =   0
                l(3) =   1
                l(4) =   1
                l(5) =   2
                l(6) =   2
     Q(r) pseudized with  8 coefficients,  rinner =    1.200   1.200   1.200
                                                       1.200   1.200

     atomic species   valence    mass     pseudopotential
        Al             3.00     1.00000     Al( 1.00)
        H              1.00     1.00000     H ( 1.00)
        K              1.00     1.00000     K ( 1.00)
        Li             1.00     1.00000     Li( 1.00)
        Sr            10.00     1.00000     Sr( 1.00)

      2 Sym. Ops., with inversion, found



   Cartesian axes

     site n.     atom                  positions (alat units)
         1           K   tau(   1) = (   0.1035168   0.0634262   0.3416689  )
         2           K   tau(   2) = (   0.7072400   0.4333360   2.3343266  )
         3           K   tau(   3) = (   0.2344010   0.1436208   0.7736672  )
         4           K   tau(   4) = (   0.5763558   0.3531414   1.9023284  )
         5           Li  tau(   5) = (   0.3351676   0.2053620   1.1062590  )
         6           Li  tau(   6) = (   0.4755892   0.2914002   1.5697365  )
         7           Sr  tau(   7) = (   0.0000001   0.0000000  -0.0000001  )
         8           Al  tau(   8) = (   0.4053783   0.2483811   1.3379979  )
         9           H   tau(   9) = (   0.1865859   0.1143239   1.0691978  )
        10           H   tau(  10) = (   0.3008429   0.3384958   0.9929664  )
        11           H   tau(  11) = (   0.4381960   0.1143238   0.9929664  )
        12           H   tau(  12) = (   0.3725607   0.3824384   1.6830291  )
        13           H   tau(  13) = (   0.6241709   0.3824383   1.6067978  )
        14           H   tau(  14) = (   0.5099140   0.1582664   1.6830291  )
        15           H   tau(  15) = (   0.3259623   0.1997218   1.4737081  )
        16           H   tau(  16) = (   0.4262273   0.3964414   1.4068121  )
        17           H   tau(  17) = (   0.3845295   0.1003208   1.2691834  )
        18           H   tau(  18) = (   0.4847945   0.2970404   1.2022874  )
        19           H   tau(  19) = (   0.2639966   0.2970405   1.2691835  )
        20           H   tau(  20) = (   0.5467601   0.1997217   1.4068120  )

     number of k points=     8  Methfessel-Paxton smearing, width (Ry)=  0.0200
                       cart. coord. in units 2pi/alat
        k(    1) = (   0.0000000   0.0000000   0.0000000), wk =   0.2500000
        k(    2) = (   0.7806774   0.4783316  -0.5121670), wk =   0.2500000
        k(    3) = (   0.0021911  -1.0490543   0.0072325), wk =   0.2500000
        k(    4) = (   0.7828684  -0.5707228  -0.5049345), wk =   0.2500000
        k(    5) = (  -0.9336594   0.4783312   0.0072324), wk =   0.2500000
        k(    6) = (  -0.1529820   0.9566628  -0.5049346), wk =   0.2500000
        k(    7) = (  -0.9314683  -0.5707231   0.0144649), wk =   0.2500000
        k(    8) = (  -0.1507909  -0.0923915  -0.4977021), wk =   0.2500000

     Dense  grid:   284509 G-vectors     FFT dimensions: ( 135, 135, 135)

     Smooth grid:   100539 G-vectors     FFT dimensions: (  96,  96,  96)

     Estimated max dynamical RAM per process >     681.35 MB

     Estimated total dynamical RAM >       1.33 GB

     Initial potential from superposition of free atoms

     starting charge   30.87928, renormalised to   31.00000
     Starting wfcs are   53 randomized atomic wfcs
     Checking if some PAW data can be deallocated... 

     total cpu time spent up to now is       38.6 secs

     Self-consistent Calculation

     iteration #  1     ecut=    50.00 Ry     beta= 0.70
     Davidson diagonalization with overlap
     ethr =  1.00E-02,  avg # of iterations =  3.1

     total cpu time spent up to now is       52.6 secs

     total energy              =    -133.69014050 Ry
     estimated scf accuracy    <       1.08682356 Ry

     iteration #  2     ecut=    50.00 Ry     beta= 0.70
     Davidson diagonalization with overlap
     ethr =  3.51E-03,  avg # of iterations =  2.0

     total cpu time spent up to now is       65.9 secs

     total energy              =    -133.82675581 Ry
     estimated scf accuracy    <       0.07809839 Ry

     iteration #  3     ecut=    50.00 Ry     beta= 0.70
     Davidson diagonalization with overlap
     ethr =  2.52E-04,  avg # of iterations =  5.4

     total cpu time spent up to now is       81.5 secs

     total energy              =    -133.84540834 Ry
     estimated scf accuracy    <       0.16613381 Ry

     iteration #  4     ecut=    50.00 Ry     beta= 0.70
     Davidson diagonalization with overlap
     ethr =  2.52E-04,  avg # of iterations =  2.8

     total cpu time spent up to now is       94.5 secs

     total energy              =    -133.86775572 Ry
     estimated scf accuracy    <       0.00096993 Ry

     iteration #  5     ecut=    50.00 Ry     beta= 0.70
     Davidson diagonalization with overlap
     ethr =  3.13E-06,  avg # of iterations = 11.6

     total cpu time spent up to now is      115.3 secs

     total energy              =    -133.86828440 Ry
     estimated scf accuracy    <       0.00043113 Ry

     iteration #  6     ecut=    50.00 Ry     beta= 0.70
     Davidson diagonalization with overlap
     ethr =  1.39E-06,  avg # of iterations =  2.0

     total cpu time spent up to now is      128.4 secs

     total energy              =    -133.86837307 Ry
     estimated scf accuracy    <       0.00039905 Ry

     iteration #  7     ecut=    50.00 Ry     beta= 0.70
     Davidson diagonalization with overlap
     ethr =  1.29E-06,  avg # of iterations =  1.0

     total cpu time spent up to now is      140.4 secs

     total energy              =    -133.86842569 Ry
     estimated scf accuracy    <       0.00000288 Ry

     iteration #  8     ecut=    50.00 Ry     beta= 0.70
     Davidson diagonalization with overlap
     ethr =  9.30E-09,  avg # of iterations =  4.2

     total cpu time spent up to now is      156.2 secs

     End of self-consistent calculation

          k = 0.0000 0.0000 0.0000 ( 12565 PWs)   bands (ev):

   -33.5751 -15.7377 -15.7376 -15.6469  -6.4477  -3.4725  -3.2636  -2.6051
    -2.6046  -1.7482  -1.2947  -1.2944  -0.4324  -0.4320  -0.4115  -0.4112
     2.7977   3.7932   4.0433   4.0434

          k = 0.7807 0.4783-0.5122 ( 12556 PWs)   bands (ev):

   -33.5750 -15.7424 -15.7380 -15.6451  -6.2338  -3.2557  -3.2088  -2.6459
    -2.1502  -2.0145  -1.6545  -1.4817  -0.9956  -0.9272  -0.5141  -0.0337
     3.0053   4.2059   4.2677   4.7375

          k = 0.0022-1.0491 0.0072 ( 12556 PWs)   bands (ev):

   -33.5750 -15.7425 -15.7380 -15.6451  -6.2338  -3.2560  -3.2088  -2.6455
    -2.1502  -2.0146  -1.6549  -1.4819  -0.9953  -0.9270  -0.5144  -0.0334
     3.0054   4.2061   4.2676   4.7375

          k = 0.7829-0.5707-0.5049 ( 12574 PWs)   bands (ev):

   -33.5750 -15.7425 -15.7380 -15.6451  -6.2343  -3.2264  -3.1584  -2.6359
    -2.4363  -1.9456  -1.7697  -1.2584  -0.9323  -0.7985  -0.4667  -0.2470
     3.0027   3.8653   4.4430   4.7597

          k =-0.9337 0.4783 0.0072 ( 12556 PWs)   bands (ev):

   -33.5750 -15.7425 -15.7380 -15.6451  -6.2338  -3.2559  -3.2088  -2.6457
    -2.1502  -2.0146  -1.6547  -1.4818  -0.9954  -0.9271  -0.5143  -0.0335
     3.0054   4.2060   4.2676   4.7375

          k =-0.1530 0.9567-0.5049 ( 12574 PWs)   bands (ev):

   -33.5750 -15.7425 -15.7380 -15.6451  -6.2343  -3.2263  -3.1586  -2.6358
    -2.4362  -1.9458  -1.7697  -1.2583  -0.9325  -0.7986  -0.4666  -0.2468
     3.0027   3.8653   4.4431   4.7587

          k =-0.9315-0.5707 0.0145 ( 12574 PWs)   bands (ev):

   -33.5750 -15.7424 -15.7380 -15.6451  -6.2343  -3.2266  -3.1581  -2.6361
    -2.4364  -1.9454  -1.7696  -1.2586  -0.9321  -0.7984  -0.4669  -0.2472
     3.0026   3.8653   4.4430   4.7591

          k =-0.1508-0.0924-0.4977 ( 12584 PWs)   bands (ev):

   -33.5751 -15.7377 -15.7376 -15.6469  -6.4421  -3.7664  -2.7424  -2.6137
    -2.6133  -2.0186  -1.0394  -1.0391  -0.9685  -0.9682  -0.1170  -0.1166
     2.9568   3.4634   4.0141   4.0142

     the Fermi energy is    -0.1485 ev

!    total energy              =    -133.86842758 Ry
     estimated scf accuracy    <       0.00000030 Ry
     smearing contrib. (-TS)   =      -0.00088334 Ry
     internal energy E=F+TS    =    -133.86754423 Ry

     The total energy is F=E-TS. E is the sum of the following terms:
     one-electron contribution =     -49.23364693 Ry
     hartree contribution      =      31.22347679 Ry
     xc contribution           =     -39.34204628 Ry
     ewald contribution        =     -41.83568183 Ry
     one-center paw contrib.   =     -34.67964599 Ry

     convergence has been achieved in   8 iterations

     Forces acting on atoms (cartesian axes, Ry/au):

     atom    1 type  3   force =     0.00027057    0.00016453    0.00089955
     atom    2 type  3   force =    -0.00027057   -0.00016453   -0.00089955
     atom    3 type  3   force =    -0.00160883   -0.00098567   -0.00530927
     atom    4 type  3   force =     0.00160883    0.00098567    0.00530927
     atom    5 type  4   force =    -0.00278680   -0.00170591   -0.00920265
     atom    6 type  4   force =     0.00278680    0.00170591    0.00920265
     atom    7 type  5   force =     0.00000000    0.00000000    0.00000000
     atom    8 type  1   force =     0.00000000    0.00000000    0.00000000
     atom    9 type  2   force =     0.00395131    0.00242227    0.00528673
     atom   10 type  2   force =     0.00199565   -0.00140780    0.00658628
     atom   11 type  2   force =    -0.00035167    0.00241945    0.00658708
     atom   12 type  2   force =     0.00035167   -0.00241945   -0.00658708
     atom   13 type  2   force =    -0.00395131   -0.00242227   -0.00528673
     atom   14 type  2   force =    -0.00199565    0.00140780   -0.00658628
     atom   15 type  2   force =    -0.00049199   -0.00029999    0.00269528
     atom   16 type  2   force =     0.00059680    0.00183361    0.00196661
     atom   17 type  2   force =    -0.00059680   -0.00183361   -0.00196661
     atom   18 type  2   force =     0.00049199    0.00029999   -0.00269528
     atom   19 type  2   force =    -0.00190779    0.00030029   -0.00196715
     atom   20 type  2   force =     0.00190779   -0.00030029    0.00196715

     Total force =     0.024452     Total SCF correction =     0.000108


     Computing stress (Cartesian axis) and pressure

          total   stress  (Ry/bohr**3)                   (kbar)     P=        5.89
   0.00004811  -0.00000154  -0.00000858            7.08       -0.23       -1.26
  -0.00000154   0.00004965  -0.00000525           -0.23        7.30       -0.77
  -0.00000858  -0.00000525   0.00002239           -1.26       -0.77        3.29


     BFGS Geometry Optimization
     Energy error            =      0.0E+00
     Gradient error          =      9.2E-03
     Cell gradient error     =      5.0E-05


     number of scf cycles    =   1
     number of bfgs steps    =   0

     enthalpy new            =    -133.8684275761 Ry

     new trust radius        =       0.0114619255 bohr
     new conv_thr            =       0.0000010000 Ry

     new unit-cell volume =   2112.94894 a.u.^3 (   313.10673 Ang^3 )
     density =      0.10607 g/cm^3

CELL_PARAMETERS (angstrom)
   5.837492088   0.072641054   8.962932992
   2.715541551   5.167923044   8.962935318
   0.118540463   0.072635050  10.695627724

ATOMIC_POSITIONS (angstrom)
K             1.1073228268        0.6784719607        3.6548454270
K             7.5642512756        4.6347271870       24.9666506069
K             2.5062203041        1.5355974313        8.2720587453
K             6.1653537981        3.7776017163       20.3494382891
Li            3.5833613789        2.1955784784       11.8272810271
Li            5.0882127235        3.1176206694       16.7942150068
Sr            0.0000010014        0.0000000001       -0.0000010008
Al            4.3357865503        2.6565995737       14.3107495179
H             1.9967113855        1.2234167916       11.4389913103
H             3.2187049670        3.6209567002       10.6236863860
H             4.6877088251        1.2234175948       10.6236861825
H             3.9838642760        4.0897815530       17.9978098516
H             6.6748627167        4.0897823560       17.1825057241
H             5.4528701366        1.6922414463       17.9978096478
H             3.4852071856        2.1354392227       15.7640650760
H             4.5590398318        4.2422863847       15.0476129440
H             4.1125342706        1.0709127631       13.5738830899
H             5.1863679179        3.1777599250       12.8574309577
H             2.8216376662        3.1777581885       13.5738843554
H             5.8499354349        2.1354409593       15.0476116787



     Writing output data file ./tmp/K4SrLi2AlH12.save/
