
     Program PWSCF v.6.7MaX starts on 18Feb2026 at  2:13:26 

     This program is part of the open-source Quantum ESPRESSO suite
     for quantum simulation of materials; please cite
         "P. Giannozzi et al., J. Phys.:Condens. Matter 21 395502 (2009);
         "P. Giannozzi et al., J. Phys.:Condens. Matter 29 465901 (2017);
          URL http://www.quantum-espresso.org", 
     in publications or presentations arising from this work. More details at
     http://www.quantum-espresso.org/quote

     Parallel version (MPI), running on     2 processors

     MPI processes distributed on     1 nodes
     R & G space division:  proc/nbgrp/npool/nimage =       2
     Waiting for input...
     Reading input from standard input

     Current dimensions of program PWSCF are:
     Max number of different atomic species (ntypx) = 10
     Max number of k-points (npk) =  40000
     Max angular momentum in pseudopotentials (lmaxx) =  3
     file H.UPF: wavefunction(s)  1S renormalized
     file Pt.UPF: wavefunction(s)  6S 5D renormalized

     Subspace diagonalization in iterative solution of the eigenvalue problem:
     a serial algorithm will be used

     Message from routine setup:
     using ibrav=0 with symmetry is DISCOURAGED, use correct ibrav instead

     Parallelization info
     --------------------
     sticks:   dense  smooth     PW     G-vecs:    dense   smooth      PW
     Min        1203     600    189                27961     9870    1749
     Max        1204     601    190                27964     9871    1750
     Sum        2407    1201    379                55925    19741    3499



     bravais-lattice index     =            0
     lattice parameter (alat)  =       9.3514  a.u.
     unit-cell volume          =     413.2881 (a.u.)^3
     number of atoms/cell      =            8
     number of atomic types    =            3
     number of electrons       =        28.00
     number of Kohn-Sham states=           18
     kinetic-energy cutoff     =      50.0000  Ry
     charge density cutoff     =     400.0000  Ry
     scf convergence threshold =      1.0E-06
     mixing beta               =       0.7000
     number of iterations used =            8  plain     mixing
     energy convergence thresh.=      1.0E-04
     force convergence thresh. =      1.0E-03
     press convergence thresh. =      5.0E-01
     Exchange-correlation=  SLA  PW   PBE  PBE
                           (   1   4   3   4   0   0   0)
     nstep                     =           50


     celldm(1)=   9.351379  celldm(2)=   0.000000  celldm(3)=   0.000000
     celldm(4)=   0.000000  celldm(5)=   0.000000  celldm(6)=   0.000000

     crystal axes: (cart. coord. in units of alat)
               a(1) = (   0.500006  -0.866022   0.000000 )  
               a(2) = (   0.500005   0.866021  -0.000000 )  
               a(3) = (   0.000000  -0.000000   0.583569 )  

     reciprocal axes: (cart. coord. in units 2 pi/alat)
               b(1) = (  0.999988 -0.577352 -0.000000 )  
               b(2) = (  0.999989  0.577354  0.000000 )  
               b(3) = (  0.000000  0.000000  1.713593 )  


     PseudoPot. # 1 for H  read from file:
     /home/marco/ZOS_Cloud_Compute/pseudo/H.UPF
     MD5 check sum: 850d63dcbcc06c5de8b44e0ab9f952da
     Pseudo is Projector augmented-wave, Zval =  1.0
     Generated using "atomic" code by A. Dal Corso  v.5.1.2
     Shape of augmentation charge: PSQ
     Using radial grid of  929 points,  2 beta functions with: 
                l(1) =   0
                l(2) =   0
     Q(r) pseudized with 0 coefficients 


     PseudoPot. # 2 for Pt read from file:
     /home/marco/ZOS_Cloud_Compute/pseudo/Pt.UPF
     MD5 check sum: 2c88029be45ba2aaa78ebf6465986627
     Pseudo is Projector augmented-wave + core cor, Zval = 10.0
     Generated using "atomic" code by A. Dal Corso  v.5.1.2
     Shape of augmentation charge: PSQ
     Using radial grid of 1277 points,  6 beta functions with: 
                l(1) =   0
                l(2) =   0
                l(3) =   1
                l(4) =   1
                l(5) =   2
                l(6) =   2
     Q(r) pseudized with 0 coefficients 


     PseudoPot. # 3 for Zr read from file:
     /home/marco/ZOS_Cloud_Compute/pseudo/Zr.UPF
     MD5 check sum: 56bebf6edcd38415d7dd1a973c3f3403
     Pseudo is Ultrasoft + core correction, Zval = 12.0
     Generated by new atomic code, or converted to UPF format
     Using radial grid of  887 points,  6 beta functions with: 
                l(1) =   0
                l(2) =   0
                l(3) =   1
                l(4) =   1
                l(5) =   2
                l(6) =   2
     Q(r) pseudized with  6 coefficients,  rinner =    1.200   1.200   1.200
                                                       1.200   1.200

     atomic species   valence    mass     pseudopotential
        H              1.00     1.00000     H ( 1.00)
        Pt            10.00     1.00000     Pt( 1.00)
        Zr            12.00     1.00000     Zr( 1.00)

      2 Sym. Ops. (no inversion) found ( 1 have fractional translation)



   Cartesian axes

     site n.     atom                  positions (alat units)
         1           H   tau(   1) = (   0.2792296   0.1612107   0.1458922  )
         2           H   tau(   2) = (   0.7207814   0.1612101   0.1458922  )
         3           H   tau(   3) = (   0.5000052   0.5436023   0.1458922  )
         4           H   tau(   4) = (   0.7277552  -0.1571883   0.4376769  )
         5           H   tau(   5) = (   0.2722567  -0.1571881   0.4376769  )
         6           H   tau(   6) = (   0.5000062  -0.5516520   0.4376769  )
         7           Pt  tau(   7) = (   0.5000058   0.2886754   0.4376769  )
         8           Zr  tau(   8) = (   0.5000060  -0.2886732   0.1458922  )

     number of k points=     8  Methfessel-Paxton smearing, width (Ry)=  0.0200
                       cart. coord. in units 2pi/alat
        k(    1) = (   0.0000000   0.0000000   0.0000000), wk =   0.2500000
        k(    2) = (   0.0000000   0.0000000  -0.8567966), wk =   0.2500000
        k(    3) = (  -0.4999944  -0.2886768   0.0000000), wk =   0.2500000
        k(    4) = (  -0.4999944  -0.2886768  -0.8567966), wk =   0.2500000
        k(    5) = (  -0.4999940   0.2886761   0.0000000), wk =   0.2500000
        k(    6) = (  -0.4999940   0.2886761  -0.8567966), wk =   0.2500000
        k(    7) = (  -0.9999884  -0.0000007   0.0000000), wk =   0.2500000
        k(    8) = (  -0.9999884  -0.0000007  -0.8567966), wk =   0.2500000

     Dense  grid:    55925 G-vectors     FFT dimensions: (  60,  60,  36)

     Smooth grid:    19741 G-vectors     FFT dimensions: (  45,  45,  30)

     Estimated max dynamical RAM per process >     117.66 MB

     Estimated total dynamical RAM >     235.32 MB

     Initial potential from superposition of free atoms

     starting charge   27.99762, renormalised to   28.00000

     negative rho (up, down):  6.022E-02 0.000E+00
     Starting wfcs are   28 randomized atomic wfcs
     Checking if some PAW data can be deallocated... 

     total cpu time spent up to now is        6.3 secs

     Self-consistent Calculation

     iteration #  1     ecut=    50.00 Ry     beta= 0.70
     Davidson diagonalization with overlap
     ethr =  1.00E-02,  avg # of iterations =  2.4

     negative rho (up, down):  6.069E-02 0.000E+00

     total cpu time spent up to now is        8.4 secs

     total energy              =    -852.73668825 Ry
     estimated scf accuracy    <       1.04871402 Ry

     iteration #  2     ecut=    50.00 Ry     beta= 0.70
     Davidson diagonalization with overlap
     ethr =  3.75E-03,  avg # of iterations =  4.2

     negative rho (up, down):  6.099E-02 0.000E+00

     total cpu time spent up to now is       10.8 secs

     total energy              =    -852.95541689 Ry
     estimated scf accuracy    <       3.23318644 Ry

     iteration #  3     ecut=    50.00 Ry     beta= 0.70
     Davidson diagonalization with overlap
     ethr =  3.75E-03,  avg # of iterations =  2.6

     negative rho (up, down):  6.193E-02 0.000E+00

     total cpu time spent up to now is       12.8 secs

     total energy              =    -853.32939112 Ry
     estimated scf accuracy    <       0.12955974 Ry

     iteration #  4     ecut=    50.00 Ry     beta= 0.70
     Davidson diagonalization with overlap
     ethr =  4.63E-04,  avg # of iterations =  4.0

     negative rho (up, down):  6.227E-02 0.000E+00

     total cpu time spent up to now is       15.0 secs

     total energy              =    -853.37217680 Ry
     estimated scf accuracy    <       0.01098761 Ry

     iteration #  5     ecut=    50.00 Ry     beta= 0.70
     Davidson diagonalization with overlap
     ethr =  3.92E-05,  avg # of iterations =  3.5

     negative rho (up, down):  6.216E-02 0.000E+00

     total cpu time spent up to now is       17.1 secs

     total energy              =    -853.37433605 Ry
     estimated scf accuracy    <       0.00070189 Ry

     iteration #  6     ecut=    50.00 Ry     beta= 0.70
     Davidson diagonalization with overlap
     ethr =  2.51E-06,  avg # of iterations =  4.9

     negative rho (up, down):  6.214E-02 0.000E+00

     total cpu time spent up to now is       19.4 secs

     total energy              =    -853.37433210 Ry
     estimated scf accuracy    <       0.00210952 Ry

     iteration #  7     ecut=    50.00 Ry     beta= 0.70
     Davidson diagonalization with overlap
     ethr =  2.51E-06,  avg # of iterations =  2.6

     negative rho (up, down):  6.213E-02 0.000E+00

     total cpu time spent up to now is       21.5 secs

     total energy              =    -853.37473187 Ry
     estimated scf accuracy    <       0.00011996 Ry

     iteration #  8     ecut=    50.00 Ry     beta= 0.70
     Davidson diagonalization with overlap
     ethr =  4.28E-07,  avg # of iterations =  1.9

     negative rho (up, down):  6.211E-02 0.000E+00

     total cpu time spent up to now is       23.5 secs

     total energy              =    -853.37474920 Ry
     estimated scf accuracy    <       0.00000280 Ry

     iteration #  9     ecut=    50.00 Ry     beta= 0.70
     Davidson diagonalization with overlap
     ethr =  9.98E-09,  avg # of iterations =  5.4

     negative rho (up, down):  6.210E-02 0.000E+00

     total cpu time spent up to now is       26.0 secs

     End of self-consistent calculation

          k = 0.0000 0.0000 0.0000 (  2461 PWs)   bands (ev):

   -38.6012 -16.7992 -16.7991 -15.9101  -0.6718   3.5017   4.2509   4.2510
     7.1582   7.1583   7.6609   7.6610   7.7267   9.5660   9.5661  12.3724
    13.8609  13.8610

          k = 0.0000 0.0000-0.8568 (  2472 PWs)   bands (ev):

   -38.4388 -17.2962 -16.5932 -16.5931   3.2046   3.2048   3.4686   4.6362
     4.6365   4.6424   8.8992   8.8993   9.8031  11.5086  11.5088  13.9814
    13.9815  14.8388

          k =-0.5000-0.2887 0.0000 (  2456 PWs)   bands (ev):

   -38.6007 -16.8166 -16.8022 -15.9102   0.3594   2.5617   3.7757   4.9862
     6.0918   7.0097   7.6304   7.6633   8.2812   8.5475   9.6619  13.1902
    13.6197  13.9362

          k =-0.5000-0.2887-0.8568 (  2480 PWs)   bands (ev):

   -38.4386 -17.2929 -16.6035 -16.5971   2.9486   3.3959   4.0558   4.3655
     5.2244   6.3924   7.3497   7.4714   9.5091  10.1961  11.5370  12.7854
    12.8488  13.7692

          k =-0.5000 0.2887 0.0000 (  2456 PWs)   bands (ev):

   -38.6007 -16.8165 -16.8022 -15.9102   0.3594   2.5617   3.7758   4.9863
     6.0918   7.0097   7.6305   7.6633   8.2812   8.5475   9.6619  13.1901
    13.6197  13.9362

          k =-0.5000 0.2887-0.8568 (  2480 PWs)   bands (ev):

   -38.4386 -17.2929 -16.6035 -16.5971   2.9485   3.3960   4.0559   4.3655
     5.2244   6.3923   7.3496   7.4714   9.5092  10.1961  11.5370  12.7854
    12.8488  13.7693

          k =-1.0000-0.0000 0.0000 (  2456 PWs)   bands (ev):

   -38.6007 -16.8165 -16.8023 -15.9102   0.3595   2.5616   3.7759   4.9862
     6.0918   7.0096   7.6305   7.6632   8.2812   8.5475   9.6619  13.1902
    13.6197  13.9362

          k =-1.0000-0.0000-0.8568 (  2480 PWs)   bands (ev):

   -38.4386 -17.2929 -16.6034 -16.5972   2.9484   3.3961   4.0561   4.3656
     5.2242   6.3923   7.3495   7.4714   9.5092  10.1962  11.5370  12.7855
    12.8488  13.7692

     the Fermi energy is     9.9305 ev

!    total energy              =    -853.37475255 Ry
     estimated scf accuracy    <       0.00000042 Ry
     smearing contrib. (-TS)   =       0.00251586 Ry
     internal energy E=F+TS    =    -853.37726840 Ry

     The total energy is F=E-TS. E is the sum of the following terms:
     one-electron contribution =     -26.48533591 Ry
     hartree contribution      =      30.53868990 Ry
     xc contribution           =     -46.04177420 Ry
     ewald contribution        =    -126.64554856 Ry
     one-center paw contrib.   =    -684.74329963 Ry

     convergence has been achieved in   9 iterations

     negative rho (up, down):  6.210E-02 0.000E+00

     Forces acting on atoms (cartesian axes, Ry/au):

     atom    1 type  1   force =     0.04379375    0.02531984    0.00000000
     atom    2 type  1   force =    -0.04383203    0.02532034    0.00000000
     atom    3 type  1   force =    -0.00001887   -0.05056501    0.00000000
     atom    4 type  1   force =     0.01736210    0.01006022    0.00000000
     atom    5 type  1   force =    -0.01739863    0.01005944    0.00000000
     atom    6 type  1   force =    -0.00001848   -0.02004736    0.00000000
     atom    7 type  2   force =     0.00006799   -0.00011333    0.00000000
     atom    8 type  3   force =     0.00004416   -0.00003413    0.00000000

     Total force =     0.094269     Total SCF correction =     0.000402


     Computing stress (Cartesian axis) and pressure


     negative rho (up, down):  6.210E-02 0.000E+00
          total   stress  (Ry/bohr**3)                   (kbar)     P=       82.40
   0.00074928   0.00000002   0.00000000          110.22        0.00        0.00
   0.00000002   0.00074954   0.00000000            0.00      110.26        0.00
   0.00000000   0.00000000   0.00018156            0.00        0.00       26.71


     BFGS Geometry Optimization
     Energy error            =      0.0E+00
     Gradient error          =      5.1E-02
     Cell gradient error     =      7.5E-04


     number of scf cycles    =   1
     number of bfgs steps    =   0

     enthalpy new            =    -853.3747525475 Ry

     new trust radius        =       0.0761885163 bohr
     new conv_thr            =       0.0000010000 Ry

     new unit-cell volume =    430.86610 a.u.^3 (    63.84777 Ang^3 )
     density =      0.20806 g/cm^3

CELL_PARAMETERS (angstrom)
   2.520646273  -4.365842852   0.000000000
   2.520645068   4.365842629  -0.000000000
   0.000000000  -0.000000000   2.900920573

ATOMIC_POSITIONS (angstrom)
H             1.4312707723        0.8263562640        0.7252298922
H             3.6099978055        0.8263547038        0.7252298922
H             2.5206339665        2.7131852007        0.7252298922
H             3.6781424750       -0.7870022564        2.1756906811
H             1.3631293105       -0.7870029631        2.1756906811
H             2.5206361750       -2.7918294434        2.1756906811
Pt            2.5206831429        1.4552295543        2.1756906811
Zr            2.5206696779       -1.4552950088        0.7252298922



     Writing output data file ./tmp/ZrH6Pt.save/
     NEW-OLD atomic charge density approx. for the potential
