
     Program PWSCF v.6.7MaX starts on 27Mar2026 at  2:31:34 

     This program is part of the open-source Quantum ESPRESSO suite
     for quantum simulation of materials; please cite
         "P. Giannozzi et al., J. Phys.:Condens. Matter 21 395502 (2009);
         "P. Giannozzi et al., J. Phys.:Condens. Matter 29 465901 (2017);
          URL http://www.quantum-espresso.org", 
     in publications or presentations arising from this work. More details at
     http://www.quantum-espresso.org/quote

     Parallel version (MPI), running on     1 processors

     MPI processes distributed on     1 nodes
     Waiting for input...
     Reading input from standard input

     Current dimensions of program PWSCF are:
     Max number of different atomic species (ntypx) = 10
     Max number of k-points (npk) =  40000
     Max angular momentum in pseudopotentials (lmaxx) =  3
     file H.UPF: wavefunction(s)  1S renormalized

     Subspace diagonalization in iterative solution of the eigenvalue problem:
     a serial algorithm will be used


     G-vector sticks info
     --------------------
     sticks:   dense  smooth     PW     G-vecs:    dense   smooth      PW
     Sum       14679    7347   1951              1439643   508969   70389



     bravais-lattice index     =            0
     lattice parameter (alat)  =      21.4771  a.u.
     unit-cell volume          =   10655.4746 (a.u.)^3
     number of atoms/cell      =          128
     number of atomic types    =            5
     number of electrons       =       271.00
     number of Kohn-Sham states=          163
     kinetic-energy cutoff     =      50.0000  Ry
     charge density cutoff     =     400.0000  Ry
     scf convergence threshold =      1.0E-06
     mixing beta               =       0.4000
     number of iterations used =            4  plain     mixing
     energy convergence thresh.=      1.0E-04
     force convergence thresh. =      1.0E-03
     press convergence thresh. =      5.0E-01
     Exchange-correlation=  SLA  PW   PBE  PBE
                           (   1   4   3   4   0   0   0)
     nstep                     =          100


     celldm(1)=  21.477080  celldm(2)=   0.000000  celldm(3)=   0.000000
     celldm(4)=   0.000000  celldm(5)=   0.000000  celldm(6)=   0.000000

     crystal axes: (cart. coord. in units of alat)
               a(1) = (   0.999993   0.000930   0.003515 )  
               a(2) = (   0.000930   0.999608   0.006922 )  
               a(3) = (   0.003515   0.006922   1.076081 )  

     reciprocal axes: (cart. coord. in units 2 pi/alat)
               b(1) = (  1.000019 -0.000908 -0.003260 )  
               b(2) = ( -0.000908  1.000437 -0.006433 )  
               b(3) = ( -0.003260 -0.006433  0.929350 )  


     PseudoPot. # 1 for B  read from file:
     /home/marco/ZOS_Cloud_Compute/pseudo/B.UPF
     MD5 check sum: d9c678ba5d3b2fd7b74e61139c9288d8
     Pseudo is Projector augmented-wave + core cor, Zval =  3.0
     Generated using "atomic" code by A. Dal Corso  v.5.1.2
     Shape of augmentation charge: PSQ
     Using radial grid of 1059 points,  4 beta functions with: 
                l(1) =   0
                l(2) =   0
                l(3) =   1
                l(4) =   1
     Q(r) pseudized with 0 coefficients 


     PseudoPot. # 2 for Ca read from file:
     /home/marco/ZOS_Cloud_Compute/pseudo/Ca.UPF
     MD5 check sum: 0c1c990b756df134246005b196012f4b
     Pseudo is Ultrasoft + core correction, Zval = 10.0
     Generated by new atomic code, or converted to UPF format
     Using radial grid of  845 points,  6 beta functions with: 
                l(1) =   0
                l(2) =   0
                l(3) =   1
                l(4) =   1
                l(5) =   2
                l(6) =   2
     Q(r) pseudized with  6 coefficients,  rinner =    1.200   1.200   1.200
                                                       1.200   1.200

     PseudoPot. # 3 for H  read from file:
     /home/marco/ZOS_Cloud_Compute/pseudo/H.UPF
     MD5 check sum: 850d63dcbcc06c5de8b44e0ab9f952da
     Pseudo is Projector augmented-wave, Zval =  1.0
     Generated using "atomic" code by A. Dal Corso  v.5.1.2
     Shape of augmentation charge: PSQ
     Using radial grid of  929 points,  2 beta functions with: 
                l(1) =   0
                l(2) =   0
     Q(r) pseudized with 0 coefficients 


     PseudoPot. # 4 for La read from file:
     /home/marco/ZOS_Cloud_Compute/pseudo/La.UPF
     MD5 check sum: b2f11743f52dde65f77d1302becd7929
     Pseudo is Ultrasoft + core correction, Zval = 11.0
     Generated by new atomic code, or converted to UPF format
     Using radial grid of  907 points,  6 beta functions with: 
                l(1) =   0
                l(2) =   0
                l(3) =   1
                l(4) =   1
                l(5) =   2
                l(6) =   2
     Q(r) pseudized with  6 coefficients,  rinner =    1.200   1.200   1.200
                                                       1.200   1.200

     PseudoPot. # 5 for Y  read from file:
     /home/marco/ZOS_Cloud_Compute/pseudo/Y.UPF
     MD5 check sum: e11e343c2e9fd2e6ee9cb5aa0e490caa
     Pseudo is Ultrasoft + core correction, Zval = 11.0
     Generated by new atomic code, or converted to UPF format
     Using radial grid of  885 points,  6 beta functions with: 
                l(1) =   0
                l(2) =   0
                l(3) =   1
                l(4) =   1
                l(5) =   2
                l(6) =   2
     Q(r) pseudized with  6 coefficients,  rinner =    1.200   1.200   1.200
                                                       1.200   1.200

     atomic species   valence    mass     pseudopotential
        B              3.00     1.00000     B ( 1.00)
        Ca            10.00     1.00000     Ca( 1.00)
        H              1.00     1.00000     H ( 1.00)
        La            11.00     1.00000     La( 1.00)
        Y             11.00     1.00000     Y ( 1.00)

     No symmetry found



   Cartesian axes

     site n.     atom                  positions (alat units)
         1           La  tau(   1) = (   0.7837309   0.7230425   0.3109445  )
         2           La  tau(   2) = (   0.7183861   0.2236887   0.3086494  )
         3           La  tau(   3) = (   0.2838296   0.7200466   0.2406615  )
         4           La  tau(   4) = (   0.2182859   0.2158225   0.2394072  )
         5           La  tau(   5) = (   0.2209458   0.2900810   0.7741014  )
         6           La  tau(   6) = (   0.2857174   0.7854824   0.7790950  )
         7           La  tau(   7) = (   0.7855129   0.7853098   0.8492190  )
         8           La  tau(   8) = (   0.7209920   0.2849504   0.8464325  )
         9           B   tau(   9) = (   0.2559090   0.0357653   0.7408928  )
        10           B   tau(  10) = (   0.2493383   0.9680188   0.2075147  )
        11           B   tau(  11) = (   0.2524034   0.4665399   0.2110595  )
        12           B   tau(  12) = (   0.4689366   0.3151439   0.8200012  )
        13           B   tau(  13) = (   0.8118343   0.7512934   0.5798373  )
        14           B   tau(  14) = (   0.0351187   0.8145178   0.8160463  )
        15           B   tau(  15) = (   0.7481987   0.9704485   0.3430239  )
        16           B   tau(  16) = (   0.0334599   0.6913906   0.2772471  )
        17           B   tau(  17) = (   0.7545491   0.4701989   0.3394278  )
        18           B   tau(  18) = (   0.9714796   0.3148314   0.8079193  )
        19           B   tau(  19) = (   0.2508666   0.5386024   0.7428483  )
        20           B   tau(  20) = (   0.5357107   0.8145687   0.8103141  )
        21           B   tau(  21) = (   0.6942686   0.2517692   0.5761991  )
        22           B   tau(  22) = (   0.9663619   0.1935086   0.2723106  )
        23           Ca  tau(  23) = (   0.1912521   0.2548816   0.5074578  )
        24           B   tau(  24) = (   0.7502027   0.5380312   0.8774180  )
        25           Y   tau(  25) = (   0.1973339   0.2544794   1.0450203  )
        26           B   tau(  26) = (   0.5335735   0.6922558   0.2712516  )
        27           B   tau(  27) = (   0.3118500   0.7535178   1.0480299  )
        28           B   tau(  28) = (   0.3102918   0.7557366   0.5103395  )
        29           B   tau(  29) = (   0.6928708   0.2540739   0.0383031  )
        30           B   tau(  30) = (   0.4679170   0.1925826   0.2803125  )
        31           B   tau(  31) = (   0.8099438   0.7544694   0.0419230  )
        32           B   tau(  32) = (   0.7560513   0.0389047   0.8736602  )
        33           H   tau(  33) = (   0.2735787   0.5379677   0.1296674  )
        34           H   tau(  34) = (   0.3400398   0.1019705   0.7502558  )
        35           H   tau(  35) = (   0.9204672   0.3299362   0.9033333  )
        36           H   tau(  36) = (   0.3276069   0.8501583   0.9999456  )
        37           H   tau(  37) = (   0.8238646   0.6573234   0.0901015  )
        38           H   tau(  38) = (   0.7523327   0.5218214   0.2434151  )
        39           H   tau(  39) = (   0.0805948   0.6768982   0.1811892  )
        40           H   tau(  40) = (   0.7319248   0.4695688   0.9593973  )
        41           H   tau(  41) = (   0.7300831   0.0394442   0.4178727  )
        42           H   tau(  42) = (   0.1664669   0.8985697   0.2124577  )
        43           H   tau(  43) = (   0.9171717   0.1791494   0.3676051  )
        44           H   tau(  44) = (   0.6976085   0.1689954   0.6473553  )
        45           H   tau(  45) = (   0.6767092   0.1575958   0.0863489  )
        46           H   tau(  46) = (   0.0827221   0.8290961   0.7200036  )
        47           H   tau(  47) = (   0.4216452   0.3279449   0.7200391  )
        48           H   tau(  48) = (   0.2498196   0.5299226   0.2999467  )
        49           H   tau(  49) = (   0.3313921   0.2418011   0.0713444  )
        50           H   tau(  50) = (   0.1053021   0.6970990   0.3584624  )
        51           H   tau(  51) = (   0.3474155   0.5849650   0.7290755  )
        52           H   tau(  52) = (   0.7902662   0.2579345   1.0607132  )
        53           H   tau(  53) = (   0.3378419   0.2721639   0.6258375  )
        54           H   tau(  54) = (   0.8948263   0.7328278   0.5132197  )
        55           H   tau(  55) = (   0.3929119   0.7292025   0.0387421  )
        56           H   tau(  56) = (   0.8050296   0.8360717   0.1136178  )
        57           H   tau(  57) = (   0.6074982   0.8102108   0.7298688  )
        58           H   tau(  58) = (   0.7507204   0.0219797   0.2400890  )
        59           H   tau(  59) = (   0.4812837   0.7878177   0.2754463  )
        60           H   tau(  60) = (   0.5194962   0.2880987   0.2753600  )
        61           H   tau(  61) = (   0.1589719   0.0818644   0.7202555  )
        62           H   tau(  62) = (   0.1677016   0.6076860   0.7494631  )
        63           H   tau(  63) = (   0.2525577   0.9772399   0.8405512  )
        64           H   tau(  64) = (   0.1563699   0.4236115   0.1818824  )
        65           H   tau(  65) = (   0.5361433   0.3988540   0.8360136  )
        66           H   tau(  66) = (   0.2061493   0.3648243   0.3570082  )
        67           H   tau(  67) = (   0.2554708   0.4856203   0.8375288  )
        68           H   tau(  68) = (   0.6961079   0.3362549   0.1094180  )
        69           H   tau(  69) = (   0.6594665   0.0857671   0.8894047  )
        70           H   tau(  70) = (   0.8386093   0.1088921   0.8702441  )
        71           H   tau(  71) = (   0.9684822   0.8985861   0.8384102  )
        72           H   tau(  72) = (   0.3254568   0.6599179   0.4614962  )
        73           H   tau(  73) = (   0.7730929   0.5389185   0.4211478  )
        74           H   tau(  74) = (   0.7527778   0.4866028   0.7819376  )
        75           H   tau(  75) = (   0.5211537   0.2199147   0.8143277  )
        76           H   tau(  76) = (   0.5801675   0.6781495   0.3685388  )
        77           H   tau(  77) = (   0.6664184   0.8994818   0.3388536  )
        78           H   tau(  78) = (   0.2520679   0.0214905   0.2971962  )
        79           H   tau(  79) = (   0.5355702   0.1090217   0.2967255  )
        80           H   tau(  80) = (   0.4683622   0.8984071   0.7935629  )
        81           H   tau(  81) = (   0.6118163   0.2784334   1.0476175  )
        82           H   tau(  82) = (   0.7181241   0.7577729   1.0649462  )
        83           H   tau(  83) = (   0.8891241   0.1990516   0.1949935  )
        84           H   tau(  84) = (   0.2313394   0.4699109   0.6604294  )
        85           H   tau(  85) = (   0.6679137   0.6089677   0.8744793  )
        86           H   tau(  86) = (   0.0274995   0.1058939   0.2497957  )
        87           H   tau(  87) = (   0.1071918   0.8100511   0.8972272  )
        88           H   tau(  88) = (   0.8455207   0.9235905   0.3564616  )
        89           H   tau(  89) = (   0.6102243   0.2325027   0.5095561  )
        90           H   tau(  90) = (   0.0802638   0.2178084   0.0920745  )
        91           H   tau(  91) = (   0.7748858   0.9698335   0.9626967  )
        92           H   tau(  92) = (   0.7164011   0.7530659   0.5268709  )
        93           H   tau(  93) = (   0.8470070   0.5850971   0.8918417  )
        94           H   tau(  94) = (   0.3954293   0.1990866   0.3612956  )
        95           H   tau(  95) = (   0.8065364   0.6689013   0.6514421  )
        96           H   tau(  96) = (   0.4211225   0.1752999   0.1844001  )
        97           H   tau(  97) = (   0.9663428   0.6093996   0.2988691  )
        98           H   tau(  98) = (   0.0167314   0.2883241   0.2773112  )
        99           H   tau(  99) = (   0.0197361   0.2171635   0.8168806  )
       100           H   tau( 100) = (   0.2014148   0.1446301   0.9133187  )
       101           H   tau( 101) = (   0.3946654   0.7748641   0.5766286  )
       102           H   tau( 102) = (   0.9823921   0.7885213   0.2785976  )
       103           H   tau( 103) = (   0.7544101   0.9862160   0.7852049  )
       104           H   tau( 104) = (   0.6579694   0.4231435   0.3538535  )
       105           H   tau( 105) = (   0.5820291   0.8299459   0.9074341  )
       106           H   tau( 106) = (   0.3086273   0.6713732   0.9768730  )
       107           H   tau( 107) = (   0.0800454   0.2896473   0.6495151  )
       108           H   tau( 108) = (   0.3070859   0.8381264   0.4387722  )
       109           H   tau( 109) = (   0.8258632   0.8476102   0.6285679  )
       110           H   tau( 110) = (   0.7882376   0.2534598   0.5229060  )
       111           H   tau( 111) = (   0.4665236   0.6086591   0.2539860  )
       112           H   tau( 112) = (   0.2146364   0.7494319   0.0257424  )
       113           H   tau( 113) = (   0.9839186   0.7197105   0.8165340  )
       114           H   tau( 114) = (   0.6057405   0.6970008   0.1911156  )
       115           H   tau( 115) = (   0.2292054   0.0402224   0.1189560  )
       116           H   tau( 116) = (   0.2162647   0.7539714   0.5634170  )
       117           H   tau( 117) = (   0.3459275   0.9218528   0.1923769  )
       118           H   tau( 118) = (   0.3929517   0.3080593   0.8996466  )
       119           H   tau( 119) = (   0.8903451   0.3087680   0.7341543  )
       120           H   tau( 120) = (   0.4829753   0.7193261   0.8134286  )
       121           H   tau( 121) = (   0.2758264   0.9660214   0.6672895  )
       122           H   tau( 122) = (   0.8370196   0.4000502   0.3344404  )
       123           H   tau( 123) = (   0.1804087   0.3940743   0.9482951  )
       124           H   tau( 124) = (   0.6788580   0.3476431   0.6247232  )
       125           H   tau( 125) = (   0.8967758   0.7784647   1.0512433  )
       126           H   tau( 126) = (   0.1844007   0.1094210   0.3944748  )
       127           H   tau( 127) = (   0.3400283   0.4027264   0.2129466  )
       128           H   tau( 128) = (   0.0314475   0.4027916   0.7919547  )

     number of k points=     8  Methfessel-Paxton smearing, width (Ry)=  0.0200
                       cart. coord. in units 2pi/alat
        k(    1) = (   0.0000000   0.0000000   0.0000000), wk =   0.2500000
        k(    2) = (   0.0016302   0.0032164  -0.4646751), wk =   0.2500000
        k(    3) = (   0.0004541  -0.5002187   0.0032164), wk =   0.2500000
        k(    4) = (   0.0020842  -0.4970024  -0.4614588), wk =   0.2500000
        k(    5) = (  -0.5000095   0.0004541   0.0016302), wk =   0.2500000
        k(    6) = (  -0.4983793   0.0036704  -0.4630449), wk =   0.2500000
        k(    7) = (  -0.4995554  -0.4997647   0.0048465), wk =   0.2500000
        k(    8) = (  -0.4979252  -0.4965483  -0.4598286), wk =   0.2500000

     Dense  grid:  1439643 G-vectors     FFT dimensions: ( 144, 144, 150)

     Smooth grid:   508969 G-vectors     FFT dimensions: ( 100, 100, 108)

     Estimated max dynamical RAM per process >      12.85 GB

 %%%%%%%%%%%%%%%%%%%%%%%%%%%%%%%%%%%%%%%%%%%%%%%%%%%%%%%%%%%%%%%%%%%%%%%%%%%%%%
     Error in routine aainit (14):
     mx dimension too small
 %%%%%%%%%%%%%%%%%%%%%%%%%%%%%%%%%%%%%%%%%%%%%%%%%%%%%%%%%%%%%%%%%%%%%%%%%%%%%%

     stopping ...
--------------------------------------------------------------------------
MPI_ABORT was invoked on rank 0 in communicator MPI_COMM_WORLD
with errorcode 14.

NOTE: invoking MPI_ABORT causes Open MPI to kill all MPI processes.
You may or may not see output from other processes, depending on
exactly when Open MPI kills them.
--------------------------------------------------------------------------
