
     Program PWSCF v.6.7MaX starts on 18Jan2026 at 11:48:53 

     This program is part of the open-source Quantum ESPRESSO suite
     for quantum simulation of materials; please cite
         "P. Giannozzi et al., J. Phys.:Condens. Matter 21 395502 (2009);
         "P. Giannozzi et al., J. Phys.:Condens. Matter 29 465901 (2017);
          URL http://www.quantum-espresso.org", 
     in publications or presentations arising from this work. More details at
     http://www.quantum-espresso.org/quote

     Parallel version (MPI), running on     2 processors

     MPI processes distributed on     1 nodes
     R & G space division:  proc/nbgrp/npool/nimage =       2
     Waiting for input...
     Reading input from standard input

     Current dimensions of program PWSCF are:
     Max number of different atomic species (ntypx) = 10
     Max number of k-points (npk) =  40000
     Max angular momentum in pseudopotentials (lmaxx) =  3

     File ./tmp/K3Sr4TaGaB11H48.update deleted, as requested

     File ./tmp/K3Sr4TaGaB11H48.bfgs deleted, as requested
     file Ga.UPF: wavefunction(s)  4S renormalized
     file H.UPF: wavefunction(s)  1S renormalized

     Subspace diagonalization in iterative solution of the eigenvalue problem:
     a serial algorithm will be used


     Parallelization info
     --------------------
     sticks:   dense  smooth     PW     G-vecs:    dense   smooth      PW
     Min        4060    2031    554               368518   130294   18525
     Max        4061    2032    555               368519   130295   18526
     Sum        8121    4063   1109               737037   260589   37051



     bravais-lattice index     =            0
     lattice parameter (alat)  =      16.3696  a.u.
     unit-cell volume          =    5456.0900 (a.u.)^3
     number of atoms/cell      =           68
     number of atomic types    =            6
     number of electrons       =       150.00
     number of Kohn-Sham states=           90
     kinetic-energy cutoff     =      50.0000  Ry
     charge density cutoff     =     400.0000  Ry
     scf convergence threshold =      1.0E-06
     mixing beta               =       0.7000
     number of iterations used =            4  plain     mixing
     energy convergence thresh.=      1.0E-04
     force convergence thresh. =      1.0E-03
     press convergence thresh. =      5.0E-01
     Exchange-correlation=  SLA  PW   PBE  PBE
                           (   1   4   3   4   0   0   0)
     nstep                     =           50


     celldm(1)=  16.369564  celldm(2)=   0.000000  celldm(3)=   0.000000
     celldm(4)=   0.000000  celldm(5)=   0.000000  celldm(6)=   0.000000

     crystal axes: (cart. coord. in units of alat)
               a(1) = (   0.039278  -0.047920  -0.998079 )  
               a(2) = (  -0.006158  -0.956168  -0.051589 )  
               a(3) = (  -1.309064  -0.008161   0.056042 )  

     reciprocal axes: (cart. coord. in units 2 pi/alat)
               b(1) = ( -0.043419  0.054571 -1.006254 )  
               b(2) = (  0.008707 -1.048632  0.050690 )  
               b(3) = ( -0.765248  0.006570 -0.030431 )  


     PseudoPot. # 1 for B  read from file:
     /home/marco/ZOS_Cloud_Compute/pseudo/B.UPF
     MD5 check sum: d9c678ba5d3b2fd7b74e61139c9288d8
     Pseudo is Projector augmented-wave + core cor, Zval =  3.0
     Generated using "atomic" code by A. Dal Corso  v.5.1.2
     Shape of augmentation charge: PSQ
     Using radial grid of 1059 points,  4 beta functions with: 
                l(1) =   0
                l(2) =   0
                l(3) =   1
                l(4) =   1
     Q(r) pseudized with 0 coefficients 


     PseudoPot. # 2 for Ga read from file:
     /home/marco/ZOS_Cloud_Compute/pseudo/Ga.UPF
     MD5 check sum: 79e63b61437c88080bf469cc04ca4be8
     Pseudo is Projector augmented-wave + core cor, Zval = 13.0
     Generated using "atomic" code by A. Dal Corso  v.5.1.2
     Shape of augmentation charge: PSQ
     Using radial grid of 1205 points,  6 beta functions with: 
                l(1) =   0
                l(2) =   0
                l(3) =   1
                l(4) =   1
                l(5) =   2
                l(6) =   2
     Q(r) pseudized with 0 coefficients 


     PseudoPot. # 3 for H  read from file:
     /home/marco/ZOS_Cloud_Compute/pseudo/H.UPF
     MD5 check sum: 850d63dcbcc06c5de8b44e0ab9f952da
     Pseudo is Projector augmented-wave, Zval =  1.0
     Generated using "atomic" code by A. Dal Corso  v.5.1.2
     Shape of augmentation charge: PSQ
     Using radial grid of  929 points,  2 beta functions with: 
                l(1) =   0
                l(2) =   0
     Q(r) pseudized with 0 coefficients 


     PseudoPot. # 4 for K  read from file:
     /home/marco/ZOS_Cloud_Compute/pseudo/K.UPF
     MD5 check sum: 0975f8d1feef6b2899f42b1061589f29
     Pseudo is Norm-conserving + core correction, Zval =  1.0
     Generated by new atomic code, or converted to UPF format
     Using radial grid of 1165 points,  2 beta functions with: 
                l(1) =   0
                l(2) =   1

     PseudoPot. # 5 for Sr read from file:
     /home/marco/ZOS_Cloud_Compute/pseudo/Sr.UPF
     MD5 check sum: 71c4688e601547c0814ef38edf55aea6
     Pseudo is Ultrasoft + core correction, Zval = 10.0
     Generated by new atomic code, or converted to UPF format
     Using radial grid of  883 points,  6 beta functions with: 
                l(1) =   0
                l(2) =   0
                l(3) =   1
                l(4) =   1
                l(5) =   2
                l(6) =   2
     Q(r) pseudized with  8 coefficients,  rinner =    1.200   1.200   1.200
                                                       1.200   1.200

     PseudoPot. # 6 for Ta read from file:
     /home/marco/ZOS_Cloud_Compute/pseudo/Ta.UPF
     MD5 check sum: 395be6f3d7fb4652d9fb26f9961305c8
     Pseudo is Ultrasoft + core correction, Zval = 13.0
     Generated by new atomic code, or converted to UPF format
     Using radial grid of  921 points,  6 beta functions with: 
                l(1) =   0
                l(2) =   0
                l(3) =   1
                l(4) =   1
                l(5) =   2
                l(6) =   2
     Q(r) pseudized with  6 coefficients,  rinner =    1.000   1.000   1.000
                                                       1.000   1.000

     atomic species   valence    mass     pseudopotential
        B              3.00     1.00000     B ( 1.00)
        Ga            13.00     1.00000     Ga( 1.00)
        H              1.00     1.00000     H ( 1.00)
        K              1.00     1.00000     K ( 1.00)
        Sr            10.00     1.00000     Sr( 1.00)
        Ta            13.00     1.00000     Ta( 1.00)

     No symmetry found



   Cartesian axes

     site n.     atom                  positions (alat units)
         1           K   tau(   1) = (  -0.9925256  -0.9376883  -0.5291844  )
         2           K   tau(   2) = (  -0.3331379  -0.0708494  -0.4605669  )
         3           Ga  tau(   3) = (  -0.2719420  -0.5047137  -1.0011326  )
         4           K   tau(   4) = (  -0.9490941  -0.5030943  -0.0400541  )
         5           Sr  tau(   5) = (  -0.6145405  -0.9725119  -0.9857438  )
         6           Sr  tau(   6) = (  -1.3024654  -0.0518007   0.0140840  )
         7           Sr  tau(   7) = (  -1.3075472  -0.4709736  -0.4669510  )
         8           Sr  tau(   8) = (  -0.6321485  -0.5206698  -0.4602639  )
         9           B   tau(   9) = (  -0.9889008  -0.4870946  -0.4037852  )
        10           B   tau(  10) = (  -0.3394309  -0.5220094  -0.5799385  )
        11           B   tau(  11) = (  -0.3552704  -0.9425855  -0.1068793  )
        12           B   tau(  12) = (  -0.9658119  -0.0659542  -0.8803304  )
        13           B   tau(  13) = (  -0.6044110  -0.3506363  -0.1654478  )
        14           Ta  tau(  14) = (  -1.3146746  -0.7084601  -0.8230037  )
        15           B   tau(  15) = (  -1.2603026  -0.8356334  -0.3218585  )
        16           B   tau(  16) = (  -0.5890604  -0.1821480  -0.6511536  )
        17           B   tau(  17) = (  -0.6785126  -0.7003177  -0.8039503  )
        18           B   tau(  18) = (  -0.0428183  -0.3147535  -0.2146920  )
        19           B   tau(  19) = (  -0.0199143  -0.1951127  -0.7010027  )
        20           B   tau(  20) = (  -0.6972406  -0.8002922  -0.3132900  )
        21           H   tau(  21) = (  -1.0909341  -0.5033328  -0.3043996  )
        22           H   tau(  22) = (  -0.4437005  -0.5095288  -0.6732142  )
        23           H   tau(  23) = (  -0.4598843  -0.9591573  -0.2002651  )
        24           H   tau(  24) = (  -1.0723976  -0.0543763  -0.7864721  )
        25           H   tau(  25) = (  -0.9899508  -0.6045080  -0.4839135  )
        26           H   tau(  26) = (  -0.3352876  -0.4069783  -0.4945824  )
        27           H   tau(  27) = (  -0.3072459  -0.1446634  -0.9642106  )
        28           H   tau(  28) = (  -1.0087046  -0.8657280  -0.0252233  )
        29           H   tau(  29) = (  -1.0126274  -0.3706437  -0.4816660  )
        30           H   tau(  30) = (  -0.3540890  -0.6399069  -0.5015976  )
        31           H   tau(  31) = (  -0.3337532  -0.8691128  -1.0325132  )
        32           H   tau(  32) = (  -1.0244096  -0.1392193   0.0429915  )
        33           H   tau(  33) = (  -0.8673360  -0.4790698  -0.3334328  )
        34           H   tau(  34) = (  -0.2201609  -0.5303733  -0.6528255  )
        35           H   tau(  35) = (  -0.2414929  -0.9350927  -0.1880482  )
        36           H   tau(  36) = (  -0.8499332  -0.0708462  -0.8034152  )
        37           H   tau(  37) = (  -0.6000015  -0.2687528  -0.0493547  )
        38           H   tau(  38) = (  -1.2092615  -0.7637597  -0.9883210  )
        39           H   tau(  39) = (  -1.2472144  -0.7557834  -0.4382070  )
        40           H   tau(  40) = (  -0.5774688  -0.2571588  -0.5318976  )
        41           H   tau(  41) = (  -0.4874322  -0.3365474  -0.2484466  )
        42           H   tau(  42) = (  -1.1302542  -0.6795940  -0.7251474  )
        43           H   tau(  43) = (  -1.1377941  -0.8318655  -0.2495670  )
        44           H   tau(  44) = (  -0.4679033  -0.1896480  -0.7253911  )
        45           H   tau(  45) = (  -0.6273371  -0.4877125  -0.1304119  )
        46           H   tau(  46) = (  -1.2438692  -0.5133690  -0.8402584  )
        47           H   tau(  47) = (  -1.2805220  -0.9723923  -0.3576102  )
        48           H   tau(  48) = (  -0.6108313  -0.0464705  -0.6147225  )
        49           H   tau(  49) = (  -0.7131061  -0.3036681  -0.2418199  )
        50           H   tau(  50) = (  -0.1070067  -0.7318317  -0.7031099  )
        51           H   tau(  51) = (  -0.0665612  -0.7842941  -0.3086080  )
        52           H   tau(  52) = (  -0.6972656  -0.2285025  -0.7293355  )
        53           H   tau(  53) = (  -0.6378339  -0.7717758  -0.6898065  )
        54           H   tau(  54) = (  -0.0104802  -0.2332178  -0.3266383  )
        55           H   tau(  55) = (   0.0240497  -0.2701666  -0.8124523  )
        56           H   tau(  56) = (  -0.6593572  -0.7210189  -0.2005602  )
        57           H   tau(  57) = (  -0.7942750  -0.7637882  -0.8596060  )
        58           H   tau(  58) = (  -0.1640363  -0.2614304  -0.1573528  )
        59           H   tau(  59) = (  -0.1359834  -0.2568176  -0.6434108  )
        60           H   tau(  60) = (  -0.8081285  -0.7413623  -0.3755097  )
        61           H   tau(  61) = (  -0.7136501  -0.5663750  -0.7719419  )
        62           H   tau(  62) = (  -0.0715134  -0.4475985  -0.2555142  )
        63           H   tau(  63) = (  -0.0578979  -0.0653494  -0.7413392  )
        64           H   tau(  64) = (  -0.7316334  -0.9338017  -0.2770103  )
        65           H   tau(  65) = (  -0.5704668  -0.7023805  -0.8978318  )
        66           H   tau(  66) = (  -1.2404997  -0.3184978  -0.0710073  )
        67           H   tau(  67) = (  -1.2203449  -0.2051869  -0.5524591  )
        68           H   tau(  68) = (  -0.5854356  -0.7994344  -0.4020285  )

     number of k points=     8  Methfessel-Paxton smearing, width (Ry)=  0.0200
                       cart. coord. in units 2pi/alat
        k(    1) = (   0.0000000   0.0000000   0.0000000), wk =   0.2500000
        k(    2) = (   0.3826241  -0.0032850   0.0152155), wk =   0.2500000
        k(    3) = (  -0.0043537   0.5243161  -0.0253451), wk =   0.2500000
        k(    4) = (   0.3782704   0.5210311  -0.0101296), wk =   0.2500000
        k(    5) = (   0.0217093  -0.0272854   0.5031269), wk =   0.2500000
        k(    6) = (   0.4043334  -0.0305704   0.5183424), wk =   0.2500000
        k(    7) = (   0.0173556   0.4970307   0.4777818), wk =   0.2500000
        k(    8) = (   0.3999797   0.4937457   0.4929973), wk =   0.2500000

     Dense  grid:   737037 G-vectors     FFT dimensions: ( 108, 100, 144)

     Smooth grid:   260589 G-vectors     FFT dimensions: (  75,  72, 100)

     Estimated max dynamical RAM per process >       2.30 GB

     Estimated total dynamical RAM >       4.61 GB

     Initial potential from superposition of free atoms

     starting charge  149.80128, renormalised to  150.00000
     Starting wfcs are  178 randomized atomic wfcs
     Checking if some PAW data can be deallocated... 

     total cpu time spent up to now is      124.3 secs

     Self-consistent Calculation

     iteration #  1     ecut=    50.00 Ry     beta= 0.70
     CG style diagonalization
     ethr =  1.00E-02,  avg # of iterations =  2.7

     total cpu time spent up to now is      299.8 secs

     total energy              =    -896.77064682 Ry
     estimated scf accuracy    <       7.81794987 Ry

     iteration #  2     ecut=    50.00 Ry     beta= 0.70
     CG style diagonalization
     ethr =  5.21E-03,  avg # of iterations =  3.6

     total cpu time spent up to now is      481.8 secs

     total energy              =    -898.02988545 Ry
     estimated scf accuracy    <       2.53677831 Ry

     iteration #  3     ecut=    50.00 Ry     beta= 0.70
     CG style diagonalization
     ethr =  1.69E-03,  avg # of iterations =  3.8

     total cpu time spent up to now is      671.2 secs

     total energy              =    -898.70670868 Ry
     estimated scf accuracy    <       0.52262409 Ry

     iteration #  4     ecut=    50.00 Ry     beta= 0.70
     CG style diagonalization
     ethr =  3.48E-04,  avg # of iterations =  3.8

     total cpu time spent up to now is      862.2 secs

     total energy              =    -898.85166980 Ry
     estimated scf accuracy    <       0.27288363 Ry

     iteration #  5     ecut=    50.00 Ry     beta= 0.70
     CG style diagonalization
     ethr =  1.82E-04,  avg # of iterations =  3.3

     total cpu time spent up to now is     1023.0 secs

     total energy              =    -898.87852030 Ry
     estimated scf accuracy    <       0.18296848 Ry

     iteration #  6     ecut=    50.00 Ry     beta= 0.70
     CG style diagonalization
     ethr =  1.22E-04,  avg # of iterations =  3.2

     total cpu time spent up to now is     1177.1 secs

     total energy              =    -898.90463974 Ry
     estimated scf accuracy    <       0.01607039 Ry

     iteration #  7     ecut=    50.00 Ry     beta= 0.70
     CG style diagonalization
     c_bands:  1 eigenvalues not converged
     c_bands:  2 eigenvalues not converged
     c_bands:  2 eigenvalues not converged
     c_bands:  1 eigenvalues not converged
     c_bands:  2 eigenvalues not converged
     c_bands:  1 eigenvalues not converged
     ethr =  1.07E-05,  avg # of iterations =  4.8

     total cpu time spent up to now is     1432.0 secs

     total energy              =    -898.90781228 Ry
     estimated scf accuracy    <       0.00478302 Ry

     iteration #  8     ecut=    50.00 Ry     beta= 0.70
     CG style diagonalization
     c_bands:  1 eigenvalues not converged
     c_bands:  1 eigenvalues not converged
     c_bands:  1 eigenvalues not converged
     c_bands:  1 eigenvalues not converged
     c_bands:  1 eigenvalues not converged
     c_bands:  1 eigenvalues not converged
     ethr =  3.19E-06,  avg # of iterations =  5.2

     total cpu time spent up to now is     1707.1 secs

     total energy              =    -898.90953967 Ry
     estimated scf accuracy    <       0.00071178 Ry

     iteration #  9     ecut=    50.00 Ry     beta= 0.70
     CG style diagonalization
     c_bands:  1 eigenvalues not converged
     c_bands:  1 eigenvalues not converged
     c_bands:  1 eigenvalues not converged
     ethr =  4.75E-07,  avg # of iterations =  6.6

     total cpu time spent up to now is     2056.8 secs

     total energy              =    -898.91070238 Ry
     estimated scf accuracy    <       0.00015880 Ry

     iteration # 10     ecut=    50.00 Ry     beta= 0.70
     CG style diagonalization
     c_bands:  1 eigenvalues not converged
     ethr =  1.06E-07,  avg # of iterations =  5.6

     total cpu time spent up to now is     2351.6 secs

     total energy              =    -898.91094340 Ry
     estimated scf accuracy    <       0.00022583 Ry

     iteration # 11     ecut=    50.00 Ry     beta= 0.70
     CG style diagonalization
     ethr =  1.06E-07,  avg # of iterations =  3.4

     total cpu time spent up to now is     2517.9 secs

     total energy              =    -898.91097892 Ry
     estimated scf accuracy    <       0.00000494 Ry

     iteration # 12     ecut=    50.00 Ry     beta= 0.70
     CG style diagonalization
     c_bands:  1 eigenvalues not converged
     c_bands:  1 eigenvalues not converged
     c_bands:  1 eigenvalues not converged
     ethr =  3.30E-09,  avg # of iterations =  8.6

     total cpu time spent up to now is     2978.7 secs

     total energy              =    -898.91101720 Ry
     estimated scf accuracy    <       0.00000501 Ry

     iteration # 13     ecut=    50.00 Ry     beta= 0.70
     CG style diagonalization
     c_bands:  1 eigenvalues not converged
     ethr =  3.30E-09,  avg # of iterations =  3.9

     total cpu time spent up to now is     3174.4 secs

     total energy              =    -898.91101866 Ry
     estimated scf accuracy    <       0.00000110 Ry

     iteration # 14     ecut=    50.00 Ry     beta= 0.70
     CG style diagonalization
     ethr =  7.35E-10,  avg # of iterations =  6.1

     total cpu time spent up to now is     3489.9 secs

     End of self-consistent calculation

          k = 0.0000 0.0000 0.0000 ( 32571 PWs)   bands (ev):

   -66.4442 -33.8090 -33.7917 -33.7560 -33.6218 -33.0362 -32.9528 -32.8323
   -15.8972 -15.8735 -15.8544 -15.8448 -15.8315 -15.8204 -15.7902 -15.7756
   -15.7651 -15.7404 -15.7003 -15.6439 -13.5972 -13.5949 -13.4896 -13.4707
   -13.4461  -7.9286  -7.5713  -7.3745  -7.3174  -7.1316  -7.0409  -6.9571
    -6.7888  -6.6946  -6.6359  -6.6042  -4.1856  -3.5121  -3.3650  -3.1297
    -3.0956  -3.0490  -2.9834  -2.8948  -2.7784  -2.7316  -2.6615  -2.6327
    -2.5924  -2.4724  -2.4188  -2.3436  -2.2736  -2.2661  -2.2202  -2.1646
    -2.0702  -1.9990  -1.9639  -1.9109  -1.8560  -1.7950  -1.6833  -1.5636
    -1.4812  -1.3519  -1.2718  -1.2548  -1.1607  -1.0661  -0.9891  -0.9288
    -0.5752  -0.1260   1.9788   2.0778   2.3592   2.7423   3.4517   4.0189
     4.2060   4.5868   4.7273   5.0294   5.1273   5.2450   5.2645   5.5474
     5.5640   5.6514

          k = 0.3826-0.0033 0.0152 ( 32604 PWs)   bands (ev):

   -66.4442 -33.8090 -33.7917 -33.7560 -33.6218 -33.0362 -32.9528 -32.8323
   -15.8972 -15.8684 -15.8585 -15.8448 -15.8325 -15.8200 -15.7903 -15.7755
   -15.7647 -15.7405 -15.7011 -15.6440 -13.5972 -13.5949 -13.4896 -13.4707
   -13.4461  -7.8573  -7.6575  -7.3951  -7.2448  -7.1739  -7.0539  -6.9399
    -6.7746  -6.7105  -6.6437  -6.6153  -4.1849  -3.5373  -3.1570  -3.1170
    -3.0759  -3.0168  -2.9486  -2.9265  -2.8130  -2.7613  -2.7354  -2.6682
    -2.6019  -2.5795  -2.4017  -2.3797  -2.3232  -2.2196  -2.1969  -2.1670
    -2.0224  -1.9880  -1.9631  -1.9267  -1.8151  -1.7064  -1.6482  -1.5568
    -1.5191  -1.4074  -1.2956  -1.2860  -1.1661  -1.1039  -0.9745  -0.9362
    -0.5796  -0.1429   1.9884   2.0847   2.3590   2.7422   3.4641   4.0461
     4.1829   4.7590   4.8855   5.0954   5.1734   5.3139   5.3273   5.4176
     5.5219   5.6503

          k =-0.0044 0.5243-0.0253 ( 32596 PWs)   bands (ev):

   -66.4442 -33.8090 -33.7917 -33.7560 -33.6218 -33.0362 -32.9528 -32.8323
   -15.8970 -15.8735 -15.8542 -15.8447 -15.8304 -15.8204 -15.7901 -15.7765
   -15.7659 -15.7407 -15.7003 -15.6443 -13.5972 -13.5949 -13.4896 -13.4707
   -13.4461  -7.8175  -7.5973  -7.4160  -7.2668  -7.1200  -7.0572  -7.0075
    -6.7934  -6.7756  -6.6570  -6.5870  -4.2386  -3.6564  -3.2251  -3.1546
    -3.0560  -2.9901  -2.9467  -2.9073  -2.7698  -2.7333  -2.6367  -2.5524
    -2.5308  -2.5116  -2.4468  -2.3962  -2.2772  -2.2124  -2.2108  -2.0835
    -2.0273  -1.9756  -1.8819  -1.8252  -1.7698  -1.7453  -1.6819  -1.6365
    -1.5998  -1.4005  -1.3888  -1.3234  -1.2246  -1.0932  -1.0333  -1.0059
    -0.5048  -0.1494   1.9722   2.1053   2.3719   2.6585   3.2753   3.8730
     4.2302   4.7665   4.8824   5.0729   5.2190   5.2869   5.4281   5.4485
     5.6005   5.6498

          k = 0.3783 0.5210-0.0101 ( 32564 PWs)   bands (ev):

   -66.4442 -33.8090 -33.7917 -33.7560 -33.6218 -33.0362 -32.9528 -32.8323
   -15.8970 -15.8684 -15.8584 -15.8447 -15.8314 -15.8200 -15.7902 -15.7764
   -15.7654 -15.7408 -15.7011 -15.6443 -13.5972 -13.5949 -13.4896 -13.4707
   -13.4461  -7.7904  -7.5143  -7.3844  -7.3373  -7.2907  -7.0804  -6.9234
    -6.7984  -6.7585  -6.6548  -6.5769  -4.2428  -3.6553  -3.2272  -3.1189
    -3.0343  -3.0048  -2.8902  -2.8602  -2.7820  -2.7091  -2.6691  -2.6299
    -2.4850  -2.4615  -2.3540  -2.3460  -2.3147  -2.2767  -2.1811  -2.1341
    -2.0943  -1.9945  -1.9495  -1.8751  -1.7764  -1.7427  -1.6790  -1.6201
    -1.5616  -1.4607  -1.3297  -1.2635  -1.2094  -1.1477  -1.0872  -1.0090
    -0.5097  -0.1487   1.9865   2.1126   2.3730   2.6603   3.2691   3.8807
     4.2224   4.8622   4.9750   5.1528   5.2144   5.2790   5.4206   5.6179
     5.6476   5.6521

          k = 0.0217-0.0273 0.5031 ( 32578 PWs)   bands (ev):

   -66.4442 -33.8090 -33.7917 -33.7560 -33.6218 -33.0362 -32.9528 -32.8323
   -15.8969 -15.8735 -15.8542 -15.8449 -15.8304 -15.8204 -15.7902 -15.7762
   -15.7659 -15.7406 -15.7004 -15.6441 -13.5972 -13.5949 -13.4896 -13.4707
   -13.4461  -7.7851  -7.6236  -7.4733  -7.2718  -7.1110  -7.0946  -6.9240
    -6.8191  -6.7563  -6.6389  -6.5935  -4.1844  -3.5821  -3.1950  -3.1428
    -3.1044  -3.0441  -2.9823  -2.9462  -2.8960  -2.7092  -2.6631  -2.6042
    -2.5753  -2.4366  -2.3861  -2.3578  -2.2869  -2.2398  -2.1512  -2.0739
    -2.0481  -2.0098  -1.9318  -1.8657  -1.7941  -1.7215  -1.6976  -1.6679
    -1.5256  -1.4094  -1.3318  -1.2613  -1.1401  -1.1131  -1.0006  -0.9574
    -0.5362  -0.3000   1.9899   2.0812   2.3789   2.7705   3.4785   3.9112
     4.2475   4.7629   5.0044   5.1550   5.2315   5.3527   5.4214   5.4641
     5.5658   5.7033

          k = 0.4043-0.0306 0.5183 ( 32564 PWs)   bands (ev):

   -66.4442 -33.8090 -33.7917 -33.7560 -33.6218 -33.0362 -32.9528 -32.8323
   -15.8969 -15.8684 -15.8584 -15.8449 -15.8314 -15.8201 -15.7903 -15.7761
   -15.7655 -15.7407 -15.7012 -15.6442 -13.5972 -13.5949 -13.4896 -13.4707
   -13.4461  -7.7405  -7.5669  -7.4951  -7.3656  -7.1766  -7.0495  -6.9328
    -6.7764  -6.7602  -6.6440  -6.6028  -4.1916  -3.5790  -3.1620  -3.1442
    -3.0470  -3.0017  -2.9178  -2.8865  -2.8441  -2.7222  -2.6726  -2.6399
    -2.5603  -2.5030  -2.4590  -2.3759  -2.2941  -2.2585  -2.1784  -2.1551
    -2.0463  -1.9584  -1.9512  -1.9240  -1.8056  -1.7437  -1.7046  -1.6360
    -1.5252  -1.3600  -1.3539  -1.2480  -1.1414  -1.0737  -1.0021  -0.9567
    -0.5411  -0.3194   1.9879   2.0827   2.3817   2.7544   3.4777   3.9343
     4.2379   4.9552   5.0127   5.1628   5.2811   5.3756   5.5046   5.5603
     5.5827   5.7531

          k = 0.0174 0.4970 0.4778 ( 32544 PWs)   bands (ev):

   -66.4442 -33.8090 -33.7917 -33.7560 -33.6218 -33.0362 -32.9528 -32.8323
   -15.8971 -15.8735 -15.8545 -15.8454 -15.8316 -15.8205 -15.7905 -15.7754
   -15.7650 -15.7403 -15.7003 -15.6439 -13.5972 -13.5949 -13.4896 -13.4707
   -13.4461  -7.7178  -7.6534  -7.3780  -7.3295  -7.1182  -7.0846  -6.9754
    -6.8162  -6.7338  -6.6612  -6.6512  -4.3065  -3.6702  -3.1915  -3.1751
    -3.1058  -3.0186  -2.9026  -2.7298  -2.6994  -2.6577  -2.6459  -2.5770
    -2.5229  -2.4387  -2.4217  -2.3650  -2.3133  -2.2304  -2.2048  -2.1469
    -2.0877  -2.0208  -2.0029  -1.8840  -1.8235  -1.7128  -1.6530  -1.6155
    -1.5825  -1.3306  -1.2880  -1.2648  -1.2175  -1.1716  -1.0321  -0.9830
    -0.5229  -0.3316   2.0014   2.1067   2.3927   2.6915   3.2616   3.7910
     4.2336   4.8623   4.9306   5.1079   5.2865   5.3886   5.4710   5.4828
     5.5245   5.6048

          k = 0.4000 0.4937 0.4930 ( 32568 PWs)   bands (ev):

   -66.4442 -33.8090 -33.7917 -33.7560 -33.6218 -33.0362 -32.9528 -32.8323
   -15.8971 -15.8684 -15.8585 -15.8454 -15.8326 -15.8201 -15.7905 -15.7753
   -15.7646 -15.7405 -15.7011 -15.6440 -13.5972 -13.5949 -13.4896 -13.4707
   -13.4461  -7.7024  -7.5366  -7.4886  -7.2791  -7.2140  -7.1253  -6.9358
    -6.8503  -6.7248  -6.6497  -6.6320  -4.3242  -3.5967  -3.1569  -3.0887
    -3.0205  -3.0039  -2.9354  -2.8599  -2.7541  -2.6916  -2.6261  -2.5810
    -2.5283  -2.4907  -2.4439  -2.3509  -2.2889  -2.2376  -2.2124  -2.1173
    -2.0279  -2.0101  -1.9426  -1.8842  -1.8127  -1.7949  -1.6883  -1.6622
    -1.4883  -1.3959  -1.3426  -1.3046  -1.2163  -1.1166  -1.0313  -0.9967
    -0.5172  -0.3195   1.9930   2.1121   2.3970   2.6765   3.2688   3.7912
     4.2474   5.0514   5.1153   5.1524   5.3431   5.3842   5.4798   5.4939
     5.5697   5.7232

     the Fermi energy is     2.0476 ev

!    total energy              =    -898.91101974 Ry
     estimated scf accuracy    <       0.00000050 Ry
     smearing contrib. (-TS)   =      -0.00724287 Ry
     internal energy E=F+TS    =    -898.90377686 Ry

     The total energy is F=E-TS. E is the sum of the following terms:
     one-electron contribution =    -481.87555158 Ry
     hartree contribution      =     278.38883055 Ry
     xc contribution           =    -236.14375729 Ry
     ewald contribution        =    -290.96984394 Ry
     one-center paw contrib.   =    -168.30345461 Ry

     convergence has been achieved in  14 iterations

     Forces acting on atoms (cartesian axes, Ry/au):

     atom    1 type  4   force =     0.00133118    0.00189911   -0.00528389
     atom    2 type  4   force =     0.00602204    0.00680046    0.00728371
     atom    3 type  2   force =     0.00629529    0.00314488    0.00770958
     atom    4 type  4   force =    -0.00094410    0.00064023    0.00744589
     atom    5 type  5   force =    -0.00637993   -0.00923209    0.00938371
     atom    6 type  5   force =     0.01175546    0.01181090   -0.01748024
     atom    7 type  5   force =     0.01382053   -0.02104844   -0.00656734
     atom    8 type  5   force =    -0.00266766    0.00219285   -0.00230277
     atom    9 type  1   force =    -0.00290085   -0.00827107    0.00087999
     atom   10 type  1   force =     0.00388408    0.00495873    0.01040459
     atom   11 type  1   force =     0.00332236   -0.00630568   -0.00335280
     atom   12 type  1   force =     0.00473398   -0.00343541   -0.00785142
     atom   13 type  1   force =    -0.00127686    0.00004821   -0.00189221
     atom   14 type  6   force =     0.00067028    0.08902748    0.01076714
     atom   15 type  1   force =     0.00466547   -0.00794361   -0.00725646
     atom   16 type  1   force =    -0.00305138    0.00171986   -0.00106612
     atom   17 type  1   force =    -0.00676116    0.00345085    0.00127690
     atom   18 type  1   force =    -0.00931890   -0.00473142   -0.01148619
     atom   19 type  1   force =     0.00041378   -0.00517183    0.00250489
     atom   20 type  1   force =     0.00634422   -0.01276420    0.00432043
     atom   21 type  3   force =     0.01173354    0.00306078   -0.00355434
     atom   22 type  3   force =     0.00081724    0.00189317   -0.00096626
     atom   23 type  3   force =    -0.00091484    0.00152753    0.00622482
     atom   24 type  3   force =     0.00243246    0.00592506   -0.00212551
     atom   25 type  3   force =    -0.00294510    0.01276042   -0.00162365
     atom   26 type  3   force =     0.00032979   -0.00636794   -0.00094306
     atom   27 type  3   force =     0.00385121    0.00202789   -0.00013424
     atom   28 type  3   force =    -0.00335284   -0.00476942    0.00489419
     atom   29 type  3   force =     0.00024202   -0.00065157    0.00295163
     atom   30 type  3   force =     0.00041296    0.00063549   -0.00018452
     atom   31 type  3   force =     0.00264263    0.00676566    0.00290086
     atom   32 type  3   force =     0.00352993   -0.00165315    0.00444770
     atom   33 type  3   force =    -0.01128502    0.00786365   -0.00089275
     atom   34 type  3   force =    -0.00091287   -0.00380391   -0.01346289
     atom   35 type  3   force =    -0.00025229    0.00552384   -0.00168545
     atom   36 type  3   force =    -0.00145141   -0.00639083    0.00064605
     atom   37 type  3   force =     0.00731327   -0.00582788   -0.00094987
     atom   38 type  3   force =     0.01169749   -0.04679840   -0.01671446
     atom   39 type  3   force =     0.00182126   -0.00964204   -0.00076089
     atom   40 type  3   force =     0.00184608    0.00625582   -0.00202392
     atom   41 type  3   force =    -0.00254621   -0.00189636    0.00862919
     atom   42 type  3   force =    -0.02424793   -0.00054095   -0.00917102
     atom   43 type  3   force =    -0.01105010    0.00659890    0.00656561
     atom   44 type  3   force =     0.00033244   -0.00353535    0.00113810
     atom   45 type  3   force =     0.00530382    0.01243552   -0.00358463
     atom   46 type  3   force =    -0.01515785   -0.02051481    0.00634056
     atom   47 type  3   force =    -0.00263576    0.00894871   -0.00846094
     atom   48 type  3   force =    -0.00342811   -0.00868927   -0.00115258
     atom   49 type  3   force =    -0.00886254    0.00143269   -0.01007490
     atom   50 type  3   force =    -0.00136716   -0.03157456    0.01669128
     atom   51 type  3   force =     0.00438336    0.00403460    0.01079992
     atom   52 type  3   force =     0.00615617   -0.00407515    0.00212945
     atom   53 type  3   force =    -0.00275966    0.00352652    0.00413631
     atom   54 type  3   force =    -0.00560729   -0.00570259   -0.00055495
     atom   55 type  3   force =    -0.00688759   -0.00663690    0.00115744
     atom   56 type  3   force =    -0.00702990   -0.00398531   -0.00391230
     atom   57 type  3   force =     0.01094327    0.00084302    0.00464719
     atom   58 type  3   force =     0.01121318   -0.00416482    0.00175294
     atom   59 type  3   force =     0.00617991    0.01009988   -0.00982244
     atom   60 type  3   force =    -0.00142571    0.00201647   -0.00011100
     atom   61 type  3   force =     0.00405374    0.00147556   -0.00313809
     atom   62 type  3   force =     0.00175538   -0.00201471    0.01261983
     atom   63 type  3   force =     0.00317577    0.01850004   -0.00129654
     atom   64 type  3   force =     0.00441850    0.00503134   -0.00234371
     atom   65 type  3   force =    -0.00241268    0.00620396    0.00189615
     atom   66 type  3   force =    -0.00646170   -0.00534001    0.00091058
     atom   67 type  3   force =    -0.00889427    0.00886049   -0.00251548
     atom   68 type  3   force =    -0.00465440   -0.00646089    0.00324320

     Total force =     0.143044     Total SCF correction =     0.001386


     Computing stress (Cartesian axis) and pressure

          total   stress  (Ry/bohr**3)                   (kbar)     P=        3.27
   0.00001168  -0.00005114   0.00004158            1.72       -7.52        6.12
  -0.00005114   0.00004420   0.00000714           -7.52        6.50        1.05
   0.00004158   0.00000714   0.00001076            6.12        1.05        1.58


     BFGS Geometry Optimization
     Energy error            =      0.0E+00
     Gradient error          =      8.9E-02
     Cell gradient error     =      5.1E-05


     number of scf cycles    =   1
     number of bfgs steps    =   0

     enthalpy new            =    -898.9110197364 Ry

     new trust radius        =       0.0896787158 bohr
     new conv_thr            =       0.0000010000 Ry

     new unit-cell volume =   5465.16877 a.u.^3 (   809.85446 Ang^3 )
     density =      0.13943 g/cm^3

CELL_PARAMETERS (angstrom)
   0.331886647  -0.417542932  -8.647802202
  -0.043228851  -8.291875440  -0.448539003
 -11.342353672  -0.056185563   0.473788176

ATOMIC_POSITIONS (angstrom)
K            -8.5938432968       -8.1204280291       -4.5984242681
K            -2.8867920421       -0.6078277824       -3.9899382971
Ga           -2.3564482178       -4.3737377654       -8.6736889150
K            -8.2191179361       -4.3520293616       -0.3524422563
Sr           -5.3264209863       -8.4332004915       -8.5432798172
Sr          -11.2788645287       -0.4285189406        0.1009802557
Sr          -11.3214659866       -4.0816713809       -4.0619775104
Sr           -5.4773143295       -4.5077813743       -3.9957805743
B            -8.5685254716       -4.2181222322       -3.5078849051
B            -2.9385266660       -4.5213633864       -5.0233645524
B            -3.0671540377       -8.1736493564       -0.9325109728
B            -8.3733844048       -0.5644421660       -7.6407779334
B            -5.2354618065       -3.0342438827       -1.4405478674
Ta          -11.3908256236       -6.0832950533       -7.1383311545
B           -10.9116044145       -7.2373412692       -2.8052977349
B            -5.1096297629       -1.5731526736       -5.6482223216
B            -5.8823273625       -6.0650317032       -6.9725332277
B            -0.3744003164       -2.7318931699       -1.8672062630
B            -0.1764837936       -1.6956155762       -6.0731550637
B            -6.0321284237       -6.9396398412       -2.7198005155
H            -9.4438263897       -4.3516629465       -2.6500172757
H            -3.8446210836       -4.4137443870       -5.8385143057
H            -3.9765269027       -8.3121912839       -1.7375732107
H            -9.2974464816       -0.4577516907       -6.8254326312
H            -8.5770842522       -5.2252990223       -4.2036889950
H            -2.9050106095       -3.5297302032       -4.2895719313
H            -2.6673071363       -1.2515339075       -8.3576840647
H            -8.7327614762       -7.4989598972       -0.2263870242
H            -8.7744469531       -3.2040866291       -4.1816358618
H            -3.0653677669       -5.5457733366       -4.3504837384
H            -2.8902236903       -7.5312407170       -8.9492604356
H            -8.8726356424       -1.1967707985        0.3654262772
H            -7.5190803016       -4.1412159221       -2.8981343243
H            -1.9081710977       -4.5999703463       -5.6664873323
H            -2.0839934471       -8.1037879777       -1.6339002687
H            -7.3718240040       -0.6095901158       -6.9687986175
H            -5.1925636651       -2.3271399384       -0.4339629842
H           -10.4723913500       -6.6362401430       -8.5844510389
H           -10.8016292098       -6.5461061086       -3.8097479473
H            -5.0046959927       -2.2211880098       -4.6154169632
H            -4.2234171949       -2.9145173610       -2.1530668139
H            -9.8054151195       -5.8822948998       -6.2993036386
H            -9.8577893351       -7.1981952140       -2.1704932693
H            -4.0586018353       -1.6424353196       -6.2892228270
H            -5.4288070297       -4.2160991895       -1.1382807918
H           -10.7879253563       -4.4503025286       -7.2892610756
H           -11.0894886471       -8.4141880093       -3.1161106753
H            -5.2996399158       -0.4017775360       -5.3325895090
H            -6.1825254043       -2.6251137640       -2.1075332377
H            -0.9261245131       -6.3630515284       -6.0855219494
H            -0.5685171786       -6.7989813919       -2.6700985163
H            -6.0425314896       -1.9771358046       -6.3249975841
H            -5.5259095509       -6.6849510288       -5.9817367492
H            -0.0941333032       -2.0258650104       -2.8309857056
H             0.2004244965       -2.3479117074       -7.0392733911
H            -5.7108243389       -6.2477701916       -1.7469283255
H            -6.8758231806       -6.6156434125       -7.4541220759
H            -1.4139449720       -2.2677579266       -1.3643676053
H            -1.1779772331       -2.2212592772       -5.5817979822
H            -6.9983021420       -6.4196347665       -3.2621733651
H            -6.1822629343       -4.9041000265       -6.6976299942
H            -0.6160647351       -3.8822321577       -2.2086171720
H            -0.5059653980       -0.5574159080       -6.4248097419
H            -6.3293690491       -8.0875657232       -2.4094900749
H            -4.9446403733       -6.0828067795       -7.7846908285
H           -10.7493703716       -2.7511986731       -0.6264446859
H           -10.5816198811       -1.7620139222       -4.7995512544
H            -5.0699810063       -6.9302306541       -3.4882638496



     Writing output data file ./tmp/K3Sr4TaGaB11H48.save/
     NEW-OLD atomic charge density approx. for the potential

     negative rho (up, down):  4.163E-08 0.000E+00
     extrapolated charge  150.24885, renormalised to  150.00000

     total cpu time spent up to now is     3983.6 secs

     Self-consistent Calculation

     iteration #  1     ecut=    50.00 Ry     beta= 0.70
     CG style diagonalization
     ethr =  1.00E-06,  avg # of iterations = 16.0

     total cpu time spent up to now is     4875.2 secs

     total energy              =    -898.92618299 Ry
     estimated scf accuracy    <       0.00399642 Ry

     iteration #  2     ecut=    50.00 Ry     beta= 0.70
     CG style diagonalization
     ethr =  2.66E-06,  avg # of iterations =  4.5

     total cpu time spent up to now is     5107.5 secs

     total energy              =    -898.92547505 Ry
     estimated scf accuracy    <       0.02537055 Ry

     iteration #  3     ecut=    50.00 Ry     beta= 0.70
     CG style diagonalization
     ethr =  2.66E-06,  avg # of iterations =  3.8

     total cpu time spent up to now is     5294.7 secs

     total energy              =    -898.92776346 Ry
     estimated scf accuracy    <       0.00651058 Ry

     iteration #  4     ecut=    50.00 Ry     beta= 0.70
     CG style diagonalization
     ethr =  2.66E-06,  avg # of iterations =  3.1

     total cpu time spent up to now is     5442.0 secs

     total energy              =    -898.92862580 Ry
     estimated scf accuracy    <       0.00109922 Ry

     iteration #  5     ecut=    50.00 Ry     beta= 0.70
     CG style diagonalization
     ethr =  7.33E-07,  avg # of iterations =  3.1

     total cpu time spent up to now is     5592.7 secs

     total energy              =    -898.92873850 Ry
     estimated scf accuracy    <       0.00021753 Ry

     iteration #  6     ecut=    50.00 Ry     beta= 0.70
     CG style diagonalization
     ethr =  1.45E-07,  avg # of iterations =  4.0

     total cpu time spent up to now is     5789.9 secs

     total energy              =    -898.92881236 Ry
     estimated scf accuracy    <       0.00006400 Ry

     iteration #  7     ecut=    50.00 Ry     beta= 0.70
     CG style diagonalization
     ethr =  4.27E-08,  avg # of iterations =  3.5

     total cpu time spent up to now is     5960.3 secs

     total energy              =    -898.92882696 Ry
     estimated scf accuracy    <       0.00001602 Ry

     iteration #  8     ecut=    50.00 Ry     beta= 0.70
     CG style diagonalization
     ethr =  1.07E-08,  avg # of iterations =  3.9

     total cpu time spent up to now is     6155.4 secs

     total energy              =    -898.92883405 Ry
     estimated scf accuracy    <       0.00000327 Ry

     iteration #  9     ecut=    50.00 Ry     beta= 0.70
     CG style diagonalization
     ethr =  2.18E-09,  avg # of iterations =  5.2

     total cpu time spent up to now is     6421.9 secs

     End of self-consistent calculation

          k =-0.0000 0.0000-0.0000 ( 32571 PWs)   bands (ev):

   -66.3646 -33.8496 -33.8023 -33.7652 -33.6396 -32.9652 -32.8863 -32.7613
   -15.9360 -15.9065 -15.8807 -15.8672 -15.8398 -15.8276 -15.7988 -15.7836
   -15.7738 -15.7523 -15.7155 -15.6613 -13.5942 -13.5920 -13.4853 -13.4653
   -13.4404  -7.9362  -7.5807  -7.3662  -7.3235  -7.1456  -7.0484  -6.9659
    -6.7935  -6.7108  -6.6699  -6.6075  -4.2030  -3.4998  -3.3566  -3.1153
    -3.1087  -3.0464  -2.9755  -2.8910  -2.7814  -2.7167  -2.6684  -2.6322
    -2.5997  -2.4739  -2.4160  -2.3557  -2.2789  -2.2687  -2.2340  -2.1671
    -2.0730  -2.0170  -1.9568  -1.9129  -1.8432  -1.8090  -1.6873  -1.5644
    -1.5033  -1.3613  -1.2977  -1.2578  -1.1821  -1.0931  -1.0285  -0.9458
    -0.6863  -0.2235   2.0069   2.1085   2.4146   2.7384   3.4659   4.0514
     4.2288   4.5897   4.7217   5.0241   5.1234   5.2280   5.2499   5.5358
     5.5495   5.6432

          k = 0.3825-0.0028 0.0148 ( 32604 PWs)   bands (ev):

   -66.3646 -33.8496 -33.8023 -33.7652 -33.6396 -32.9652 -32.8863 -32.7613
   -15.9360 -15.9043 -15.8807 -15.8690 -15.8403 -15.8272 -15.7988 -15.7835
   -15.7733 -15.7525 -15.7164 -15.6614 -13.5942 -13.5920 -13.4853 -13.4653
   -13.4404  -7.8678  -7.6588  -7.3957  -7.2512  -7.1850  -7.0595  -6.9473
    -6.7850  -6.7207  -6.6801  -6.6185  -4.2019  -3.5233  -3.1519  -3.1404
    -3.0616  -3.0006  -2.9427  -2.8902  -2.8160  -2.7536  -2.7491  -2.6832
    -2.6145  -2.5911  -2.3989  -2.3927  -2.3243  -2.2416  -2.2012  -2.1521
    -2.0266  -1.9906  -1.9599  -1.9207  -1.8174  -1.7139  -1.6656  -1.5613
    -1.5328  -1.4193  -1.3130  -1.2821  -1.1907  -1.1344  -1.0133  -0.9511
    -0.6994  -0.2405   2.0170   2.1166   2.4133   2.7388   3.4795   4.0795
     4.2049   4.7493   4.8847   5.0949   5.1646   5.2995   5.3249   5.4118
     5.5034   5.6428

          k =-0.0037 0.5237-0.0254 ( 32596 PWs)   bands (ev):

   -66.3646 -33.8496 -33.8023 -33.7652 -33.6396 -32.9652 -32.8863 -32.7613
   -15.9358 -15.9065 -15.8806 -15.8671 -15.8386 -15.8277 -15.7987 -15.7844
   -15.7745 -15.7525 -15.7156 -15.6616 -13.5942 -13.5920 -13.4853 -13.4653
   -13.4404  -7.8284  -7.6014  -7.4230  -7.2572  -7.1301  -7.0659  -7.0217
    -6.8044  -6.7802  -6.6925  -6.5929  -4.2516  -3.6434  -3.2266  -3.1609
    -3.0464  -2.9903  -2.9487  -2.9097  -2.7626  -2.7037  -2.6417  -2.5624
    -2.5449  -2.5256  -2.4495  -2.3908  -2.2828  -2.2216  -2.1905  -2.0913
    -2.0280  -1.9770  -1.8947  -1.8328  -1.7829  -1.7474  -1.6782  -1.6552
    -1.5965  -1.4262  -1.3944  -1.3258  -1.2436  -1.1429  -1.0520  -1.0237
    -0.6207  -0.2520   2.0037   2.1341   2.4214   2.6570   3.3012   3.8972
     4.2523   4.7632   4.8848   5.0668   5.2167   5.2758   5.4168   5.4442
     5.5818   5.6441

          k = 0.3788 0.5209-0.0106 ( 32564 PWs)   bands (ev):

   -66.3646 -33.8496 -33.8023 -33.7652 -33.6396 -32.9652 -32.8863 -32.7613
   -15.9358 -15.9043 -15.8806 -15.8688 -15.8392 -15.8273 -15.7987 -15.7843
   -15.7740 -15.7527 -15.7164 -15.6617 -13.5942 -13.5920 -13.4853 -13.4653
   -13.4404  -7.8021  -7.5153  -7.3822  -7.3431  -7.3040  -7.0858  -6.9311
    -6.8094  -6.7688  -6.6850  -6.5852  -4.2560  -3.6416  -3.2191  -3.1337
    -3.0250  -3.0053  -2.8905  -2.8525  -2.7887  -2.7040  -2.6728  -2.6416
    -2.4776  -2.4538  -2.3556  -2.3274  -2.3206  -2.2884  -2.1832  -2.1408
    -2.1002  -1.9971  -1.9561  -1.9007  -1.7874  -1.7382  -1.6865  -1.6349
    -1.5551  -1.4735  -1.3296  -1.2765  -1.2260  -1.1730  -1.1255  -1.0304
    -0.6324  -0.2512   2.0183   2.1419   2.4233   2.6575   3.2961   3.9054
     4.2440   4.8596   4.9671   5.1554   5.2123   5.2779   5.4067   5.6080
     5.6434   5.6491

          k = 0.0211-0.0273 0.5030 ( 32578 PWs)   bands (ev):

   -66.3646 -33.8496 -33.8023 -33.7652 -33.6396 -32.9652 -32.8863 -32.7613
   -15.9357 -15.9065 -15.8807 -15.8671 -15.8386 -15.8277 -15.7988 -15.7842
   -15.7746 -15.7524 -15.7156 -15.6615 -13.5942 -13.5920 -13.4853 -13.4653
   -13.4404  -7.8016  -7.6214  -7.4766  -7.2629  -7.1227  -7.1081  -6.9334
    -6.8330  -6.7665  -6.6685  -6.6001  -4.1986  -3.5685  -3.2109  -3.1406
    -3.0935  -3.0296  -2.9716  -2.9489  -2.8864  -2.7167  -2.6720  -2.5996
    -2.5816  -2.4345  -2.3949  -2.3636  -2.2787  -2.2427  -2.1372  -2.0831
    -2.0586  -2.0008  -1.9328  -1.8758  -1.7930  -1.7495  -1.7242  -1.6784
    -1.5318  -1.4221  -1.3368  -1.2644  -1.1597  -1.1213  -1.0615  -0.9742
    -0.6543  -0.3912   2.0198   2.1065   2.4313   2.7699   3.4914   3.9392
     4.2665   4.7601   5.0064   5.1580   5.2183   5.3527   5.4047   5.4616
     5.5587   5.6910

          k = 0.4036-0.0301 0.5178 ( 32564 PWs)   bands (ev):

   -66.3646 -33.8496 -33.8023 -33.7652 -33.6396 -32.9652 -32.8863 -32.7613
   -15.9357 -15.9043 -15.8807 -15.8688 -15.8392 -15.8273 -15.7988 -15.7841
   -15.7740 -15.7526 -15.7164 -15.6616 -13.5942 -13.5920 -13.4853 -13.4653
   -13.4404  -7.7607  -7.5586  -7.4937  -7.3702  -7.1890  -7.0567  -6.9422
    -6.7915  -6.7636  -6.6810  -6.6067  -4.2061  -3.5633  -3.1847  -3.1262
    -3.0298  -2.9942  -2.9139  -2.8862  -2.8400  -2.7216  -2.6805  -2.6551
    -2.5682  -2.5063  -2.4448  -2.3759  -2.3074  -2.2615  -2.1642  -2.1591
    -2.0504  -1.9692  -1.9464  -1.9275  -1.8094  -1.7686  -1.7096  -1.6523
    -1.5252  -1.3751  -1.3701  -1.2483  -1.1500  -1.1009  -1.0506  -0.9831
    -0.6596  -0.4097   2.0177   2.1094   2.4336   2.7529   3.4919   3.9608
     4.2574   4.9592   5.0058   5.1608   5.2671   5.3681   5.4960   5.5590
     5.5781   5.7509

          k = 0.0175 0.4964 0.4775 ( 32544 PWs)   bands (ev):

   -66.3646 -33.8496 -33.8023 -33.7652 -33.6396 -32.9652 -32.8863 -32.7613
   -15.9359 -15.9065 -15.8811 -15.8672 -15.8399 -15.8277 -15.7990 -15.7834
   -15.7737 -15.7523 -15.7155 -15.6613 -13.5942 -13.5920 -13.4853 -13.4653
   -13.4404  -7.7375  -7.6532  -7.3656  -7.3365  -7.1302  -7.0916  -6.9864
    -6.8293  -6.7356  -6.6923  -6.6639  -4.3162  -3.6575  -3.1961  -3.1688
    -3.1080  -3.0336  -2.8855  -2.7288  -2.7021  -2.6568  -2.6390  -2.5634
    -2.5235  -2.4475  -2.4258  -2.3693  -2.3148  -2.2496  -2.1905  -2.1446
    -2.0894  -2.0326  -2.0060  -1.8936  -1.8389  -1.7129  -1.6572  -1.6292
    -1.6004  -1.3414  -1.2884  -1.2700  -1.2336  -1.1744  -1.0884  -1.0046
    -0.6316  -0.4486   2.0332   2.1309   2.4439   2.6903   3.2880   3.8126
     4.2541   4.8612   4.9360   5.0964   5.2827   5.3841   5.4613   5.4772
     5.5215   5.5969

          k = 0.4000 0.4936 0.4924 ( 32568 PWs)   bands (ev):

   -66.3646 -33.8496 -33.8023 -33.7652 -33.6396 -32.9652 -32.8863 -32.7613
   -15.9359 -15.9043 -15.8811 -15.8690 -15.8405 -15.8274 -15.7990 -15.7833
   -15.7732 -15.7525 -15.7164 -15.6614 -13.5942 -13.5920 -13.4853 -13.4653
   -13.4404  -7.7226  -7.5264  -7.4920  -7.2827  -7.2264  -7.1294  -6.9446
    -6.8607  -6.7400  -6.6785  -6.6380  -4.3337  -3.5838  -3.1581  -3.0790
    -3.0291  -2.9997  -2.9392  -2.8574  -2.7529  -2.6942  -2.6297  -2.5646
    -2.5326  -2.4924  -2.4511  -2.3506  -2.2898  -2.2496  -2.2069  -2.1192
    -2.0371  -2.0129  -1.9491  -1.8911  -1.8180  -1.7946  -1.6947  -1.6762
    -1.4935  -1.4102  -1.3599  -1.3009  -1.2316  -1.1271  -1.0779  -1.0283
    -0.6257  -0.4331   2.0254   2.1370   2.4489   2.6743   3.2950   3.8141
     4.2675   5.0544   5.1046   5.1515   5.3384   5.3822   5.4756   5.4948
     5.5713   5.7105

     the Fermi energy is     2.0768 ev

!    total energy              =    -898.92883730 Ry
     estimated scf accuracy    <       0.00000030 Ry
     smearing contrib. (-TS)   =      -0.00723666 Ry
     internal energy E=F+TS    =    -898.92160063 Ry

     The total energy is F=E-TS. E is the sum of the following terms:
     one-electron contribution =    -482.89968719 Ry
     hartree contribution      =     278.87902488 Ry
     xc contribution           =    -236.17076559 Ry
     ewald contribution        =    -290.42725872 Ry
     one-center paw contrib.   =    -168.30291402 Ry

     convergence has been achieved in   9 iterations

     Forces acting on atoms (cartesian axes, Ry/au):

     atom    1 type  4   force =     0.00144101    0.00190846   -0.00551953
     atom    2 type  4   force =     0.00559463    0.00647857    0.00681758
     atom    3 type  2   force =     0.00562255    0.00182671    0.00672800
     atom    4 type  4   force =    -0.00024438    0.00068524    0.00708766
     atom    5 type  5   force =    -0.00501859   -0.00782199    0.00845108
     atom    6 type  5   force =     0.01034630    0.01150947   -0.01491837
     atom    7 type  5   force =     0.01318850   -0.01817770   -0.00561333
     atom    8 type  5   force =    -0.00315909    0.00154216   -0.00135006
     atom    9 type  1   force =    -0.00034072   -0.00002983   -0.00208843
     atom   10 type  1   force =     0.00158534    0.00102951    0.00173968
     atom   11 type  1   force =     0.00071320    0.00024312    0.00088510
     atom   12 type  1   force =     0.00292402   -0.00397873   -0.00155621
     atom   13 type  1   force =    -0.00600965    0.00456146   -0.00416936
     atom   14 type  6   force =    -0.00753200    0.04598924   -0.00192839
     atom   15 type  1   force =    -0.00066937   -0.00198790   -0.00155882
     atom   16 type  1   force =     0.00017651   -0.00029534   -0.00042039
     atom   17 type  1   force =    -0.00069788    0.00305895    0.00380659
     atom   18 type  1   force =    -0.00212671   -0.00346400   -0.00369050
     atom   19 type  1   force =     0.00039738    0.00688776   -0.00460224
     atom   20 type  1   force =    -0.00090252   -0.00272484    0.00020774
     atom   21 type  3   force =     0.00663102    0.00169387    0.00041702
     atom   22 type  3   force =     0.00422451    0.00137995    0.00264119
     atom   23 type  3   force =    -0.00111776    0.00092698    0.00559878
     atom   24 type  3   force =     0.00393001    0.00472274   -0.00371420
     atom   25 type  3   force =    -0.00292626    0.00811478   -0.00388391
     atom   26 type  3   force =     0.00128980   -0.00287492    0.00140281
     atom   27 type  3   force =     0.00370428    0.00121447    0.00030798
     atom   28 type  3   force =    -0.00206061   -0.00267994    0.00231310
     atom   29 type  3   force =     0.00047087   -0.00254284    0.00401997
     atom   30 type  3   force =     0.00025789    0.00078436    0.00014567
     atom   31 type  3   force =     0.00344090    0.00156320    0.00017989
     atom   32 type  3   force =     0.00316822   -0.00272386    0.00312325
     atom   33 type  3   force =    -0.00883875    0.00729056   -0.00053601
     atom   34 type  3   force =    -0.00144574   -0.00292449   -0.01172904
     atom   35 type  3   force =     0.00173813    0.00524871   -0.00297109
     atom   36 type  3   force =    -0.00198462   -0.00583510   -0.00036784
     atom   37 type  3   force =     0.00651074   -0.00522025   -0.00085433
     atom   38 type  3   force =    -0.00068692   -0.03780625   -0.00043764
     atom   39 type  3   force =     0.00261615   -0.00813295   -0.00239596
     atom   40 type  3   force =     0.00131059    0.00552617   -0.00133122
     atom   41 type  3   force =    -0.00027524   -0.00105833    0.00607724
     atom   42 type  3   force =    -0.01745186    0.00336035   -0.00509958
     atom   43 type  3   force =    -0.00906910    0.00576928    0.00587857
     atom   44 type  3   force =    -0.00003414   -0.00261256    0.00098167
     atom   45 type  3   force =     0.00361072    0.00808390   -0.00257747
     atom   46 type  3   force =    -0.00698914    0.00312092    0.00713082
     atom   47 type  3   force =    -0.00306391    0.00454492   -0.00863735
     atom   48 type  3   force =    -0.00350357   -0.00594996   -0.00088872
     atom   49 type  3   force =    -0.00442990   -0.00013472   -0.00665807
     atom   50 type  3   force =     0.00326190   -0.02570817    0.00725516
     atom   51 type  3   force =     0.00762210    0.00187803    0.00736209
     atom   52 type  3   force =     0.00412675   -0.00479172    0.00112979
     atom   53 type  3   force =    -0.00367510    0.00477204    0.00255573
     atom   54 type  3   force =    -0.00449485   -0.00445473   -0.00341995
     atom   55 type  3   force =    -0.00623313   -0.00575773    0.00083859
     atom   56 type  3   force =    -0.00596558   -0.00382862   -0.00237476
     atom   57 type  3   force =     0.00615741   -0.00086787    0.00299918
     atom   58 type  3   force =     0.00736082   -0.00330676    0.00240063
     atom   59 type  3   force =     0.00121222    0.00618129   -0.00582983
     atom   60 type  3   force =     0.00357526   -0.00163437    0.00266475
     atom   61 type  3   force =     0.00334536    0.00194768   -0.00275697
     atom   62 type  3   force =     0.00039931   -0.00508605    0.01001907
     atom   63 type  3   force =     0.00600985    0.00847666    0.00091749
     atom   64 type  3   force =     0.00261614   -0.00079958   -0.00049082
     atom   65 type  3   force =    -0.00255379    0.00586757    0.00197658
     atom   66 type  3   force =    -0.00892597   -0.00475623   -0.00209011
     atom   67 type  3   force =    -0.00653472    0.00784508   -0.00078326
     atom   68 type  3   force =    -0.00161883   -0.00606587    0.00118330

     Total force =     0.095097     Total SCF correction =     0.001807


     Computing stress (Cartesian axis) and pressure

          total   stress  (Ry/bohr**3)                   (kbar)     P=        3.17
   0.00001285  -0.00003251   0.00004567            1.89       -4.78        6.72
  -0.00003251   0.00005565   0.00000626           -4.78        8.19        0.92
   0.00004567   0.00000626  -0.00000390            6.72        0.92       -0.57

     Energy error            =      1.8E-02
     Gradient error          =      4.6E-02
     Cell gradient error     =      5.6E-05


     number of scf cycles    =   2
     number of bfgs steps    =   1

     enthalpy old            =    -898.9110197364 Ry
     enthalpy new            =    -898.9288372960 Ry

     CASE: enthalpy_new < enthalpy_old

     new trust radius        =       0.0987569815 bohr
     new conv_thr            =       0.0000004599 Ry

     new unit-cell volume =   5481.03941 a.u.^3 (   812.20624 Ang^3 )
     density =      0.13902 g/cm^3

CELL_PARAMETERS (angstrom)
   0.315275416  -0.421607724  -8.646814578
  -0.030681829  -8.311829107  -0.451042141
 -11.347671330  -0.037770653   0.450810706

ATOMIC_POSITIONS (angstrom)
K            -8.5934343412       -8.1254859552       -4.6231684819
K            -2.8900705815       -0.5995219682       -3.9891420267
Ga           -2.3626840256       -4.3809606876       -8.6726815640
K            -8.2177091627       -4.3485786856       -0.3635034462
Sr           -5.3379466452       -8.4550044546       -8.5478921007
Sr          -11.2742638992       -0.4001870556        0.0633894941
Sr          -11.3166494314       -4.0922568539       -4.0913558867
Sr           -5.4840701291       -4.5092632449       -4.0094543977
B            -8.5743711573       -4.2169230006       -3.5277163499
B            -2.9410328739       -4.5271933001       -5.0271020712
B            -3.0563047836       -8.1895464298       -0.9410113372
B            -8.3894766302       -0.5581541437       -7.6601343485
B            -5.2412592204       -3.0299052817       -1.4555220564
Ta          -11.4076093374       -6.0294106725       -7.1622601000
B           -10.9112777125       -7.2408273939       -2.8318970250
B            -5.1217899675       -1.5701868662       -5.6592530139
B            -5.8916556343       -6.0690606602       -6.9827047982
B            -0.3773160634       -2.7419271523       -1.8736550170
B            -0.1857501934       -1.6968341831       -6.0767615652
B            -6.0292231183       -6.9517735432       -2.7329396672
H            -9.4401418431       -4.3456983335       -2.6705731431
H            -3.8480067576       -4.4183932183       -5.8454298004
H            -3.9697706060       -8.3251786033       -1.7425210356
H            -9.3122761454       -0.4410220857       -6.8472502009
H            -8.5847412126       -5.2164971244       -4.2256441575
H            -2.9085046595       -3.5381422330       -4.2953639394
H            -2.6801034209       -1.2513461045       -8.3627956359
H            -8.7281166732       -7.5057860912       -0.2435653424
H            -8.7821853256       -3.2008307084       -4.1964764253
H            -3.0665936402       -5.5546503888       -4.3580136823
H            -2.8945631193       -7.5447741749       -8.9561737087
H            -8.8718207994       -1.1875496876        0.3503473403
H            -7.5313425256       -4.1326736471       -2.9150175660
H            -1.9145294423       -4.6125274706       -5.6829207788
H            -2.0740361161       -8.1152565408       -1.6429991027
H            -7.3908263599       -0.6068013611       -6.9837038579
H            -5.1861963662       -2.3295553365       -0.4459364709
H           -10.4830436107       -6.6755325841       -8.6106095742
H           -10.8023804194       -6.5534647167       -3.8352980166
H            -5.0118986436       -2.2143215945       -4.6273458103
H            -4.2260586777       -2.9164456748       -2.1560904288
H            -9.8320316078       -5.8797762408       -6.3262282853
H            -9.8650279988       -7.1943816749       -2.1867346697
H            -4.0708703184       -1.6442954109       -6.2966304871
H            -5.4235850981       -4.2092011822       -1.1530660305
H           -10.8096386580       -4.4469883555       -7.3053961434
H           -11.0912280392       -8.4121049333       -3.1490607890
H            -5.3160454810       -0.4018884556       -5.3440668287
H            -6.1910658739       -2.6218124452       -2.1277021289
H            -0.9262188663       -6.4042925531       -6.0802908177
H            -0.5564930820       -6.8129715548       -2.6654267823
H            -6.0511549903       -1.9783844974       -6.3362003939
H            -5.5335755556       -6.6894159443       -5.9918536272
H            -0.1011025706       -2.0358792169       -2.8343746565
H             0.1840859094       -2.3615746437       -7.0383692726
H            -5.7132885814       -6.2576707237       -1.7628004163
H            -6.8772143535       -6.6230644617       -7.4664026703
H            -1.4060498532       -2.2746546648       -1.3656292878
H            -1.1842758027       -2.2196692547       -5.5908387738
H            -6.9958970466       -6.4255199309       -3.2760146301
H            -6.1879916311       -4.9060239914       -6.7139189480
H            -0.6138740730       -3.8954804523       -2.2008586352
H            -0.5131577601       -0.5498440531       -6.4251815621
H            -6.3218173363       -8.0970851441       -2.4253475335
H            -4.9556851605       -6.0859573689       -7.7942203267
H           -10.7602408469       -2.7451624803       -0.6504279790
H           -10.6011010527       -1.7427432141       -4.8223141553
H            -5.0706926302       -6.9455153902       -3.4988773532



     Writing output data file ./tmp/K3Sr4TaGaB11H48.save/
     NEW-OLD atomic charge density approx. for the potential

     negative rho (up, down):  6.524E-08 0.000E+00
     extrapolated charge  150.43376, renormalised to  150.00000

     total cpu time spent up to now is     6913.7 secs

     Self-consistent Calculation

     iteration #  1     ecut=    50.00 Ry     beta= 0.70
     CG style diagonalization
     ethr =  1.00E-06,  avg # of iterations = 18.2

     total cpu time spent up to now is     7911.3 secs

     total energy              =    -898.93680169 Ry
     estimated scf accuracy    <       0.00899969 Ry

     iteration #  2     ecut=    50.00 Ry     beta= 0.70
     CG style diagonalization
     ethr =  6.00E-06,  avg # of iterations =  4.6

     total cpu time spent up to now is     8144.4 secs

     total energy              =    -898.93811270 Ry
     estimated scf accuracy    <       0.04264165 Ry

     iteration #  3     ecut=    50.00 Ry     beta= 0.70
     CG style diagonalization
     ethr =  6.00E-06,  avg # of iterations =  4.0

     total cpu time spent up to now is     8344.1 secs

     total energy              =    -898.94212865 Ry
     estimated scf accuracy    <       0.01314821 Ry

     iteration #  4     ecut=    50.00 Ry     beta= 0.70
     CG style diagonalization
     ethr =  6.00E-06,  avg # of iterations =  3.1

     total cpu time spent up to now is     8493.1 secs

     total energy              =    -898.94390668 Ry
     estimated scf accuracy    <       0.00456871 Ry

     iteration #  5     ecut=    50.00 Ry     beta= 0.70
     CG style diagonalization
     ethr =  3.05E-06,  avg # of iterations =  3.1

     total cpu time spent up to now is     8640.0 secs

     total energy              =    -898.94418339 Ry
     estimated scf accuracy    <       0.00088100 Ry

     iteration #  6     ecut=    50.00 Ry     beta= 0.70
     CG style diagonalization
     ethr =  5.87E-07,  avg # of iterations =  3.5

     total cpu time spent up to now is     8808.2 secs

     total energy              =    -898.94430188 Ry
     estimated scf accuracy    <       0.00031711 Ry

     iteration #  7     ecut=    50.00 Ry     beta= 0.70
     CG style diagonalization
     ethr =  2.11E-07,  avg # of iterations =  3.7

     total cpu time spent up to now is     8991.4 secs

     total energy              =    -898.94439290 Ry
     estimated scf accuracy    <       0.00001873 Ry

     iteration #  8     ecut=    50.00 Ry     beta= 0.70
     CG style diagonalization
     ethr =  1.25E-08,  avg # of iterations =  5.1

     total cpu time spent up to now is     9253.3 secs

     total energy              =    -898.94442176 Ry
     estimated scf accuracy    <       0.00001248 Ry

     iteration #  9     ecut=    50.00 Ry     beta= 0.70
     CG style diagonalization
     ethr =  8.32E-09,  avg # of iterations =  3.8

     total cpu time spent up to now is     9442.9 secs

     total energy              =    -898.94442419 Ry
     estimated scf accuracy    <       0.00000593 Ry

     iteration # 10     ecut=    50.00 Ry     beta= 0.70
     CG style diagonalization
     ethr =  3.95E-09,  avg # of iterations =  4.0

     total cpu time spent up to now is     9641.6 secs

     total energy              =    -898.94442595 Ry
     estimated scf accuracy    <       0.00001128 Ry

     iteration # 11     ecut=    50.00 Ry     beta= 0.70
     CG style diagonalization
     ethr =  3.95E-09,  avg # of iterations =  3.3

     total cpu time spent up to now is     9803.1 secs

     total energy              =    -898.94442761 Ry
     estimated scf accuracy    <       0.00000063 Ry

     iteration # 12     ecut=    50.00 Ry     beta= 0.70
     CG style diagonalization
     ethr =  4.22E-10,  avg # of iterations =  6.4

     total cpu time spent up to now is    10142.6 secs

     total energy              =    -898.94442916 Ry
     estimated scf accuracy    <       0.00000076 Ry

     iteration # 13     ecut=    50.00 Ry     beta= 0.70
     CG style diagonalization
     ethr =  4.22E-10,  avg # of iterations =  3.6

     total cpu time spent up to now is    10319.9 secs

     End of self-consistent calculation

          k = 0.0000 0.0000 0.0000 ( 32571 PWs)   bands (ev):

   -66.3151 -33.9038 -33.8218 -33.7814 -33.6581 -32.9214 -32.8499 -32.7227
   -15.9852 -15.9539 -15.9256 -15.8863 -15.8563 -15.8413 -15.8158 -15.7977
   -15.7894 -15.7641 -15.7311 -15.6800 -13.6140 -13.6119 -13.5052 -13.4845
   -13.4592  -7.9435  -7.5919  -7.3577  -7.3264  -7.1676  -7.0604  -6.9762
    -6.8086  -6.7384  -6.7164  -6.6140  -4.2342  -3.4938  -3.3501  -3.1332
    -3.0974  -3.0344  -2.9715  -2.8908  -2.7909  -2.7198  -2.6789  -2.6273
    -2.6057  -2.4750  -2.4123  -2.3655  -2.2918  -2.2745  -2.2472  -2.1723
    -2.0914  -2.0381  -1.9523  -1.9257  -1.8481  -1.8019  -1.6849  -1.5704
    -1.5266  -1.3722  -1.3517  -1.2592  -1.2138  -1.1492  -1.0770  -0.9812
    -0.7950  -0.3484   2.0081   2.1109   2.4710   2.7093   3.4541   4.0777
     4.2529   4.5975   4.7110   5.0157   5.1101   5.1975   5.2288   5.5053
     5.5399   5.6342

          k = 0.3822-0.0022 0.0140 ( 32604 PWs)   bands (ev):

   -66.3151 -33.9038 -33.8218 -33.7814 -33.6581 -32.9214 -32.8499 -32.7227
   -15.9852 -15.9526 -15.9256 -15.8873 -15.8566 -15.8410 -15.8158 -15.7976
   -15.7888 -15.7643 -15.7319 -15.6800 -13.6140 -13.6119 -13.5052 -13.4845
   -13.4592  -7.8763  -7.6640  -7.3914  -7.2629  -7.2037  -7.0617  -6.9600
    -6.8070  -6.7360  -6.7347  -6.6246  -4.2326  -3.5177  -3.1671  -3.1369
    -3.0489  -2.9912  -2.9336  -2.8738  -2.8170  -2.7652  -2.7381  -2.7046
    -2.6269  -2.6089  -2.4089  -2.3993  -2.3192  -2.2642  -2.2177  -2.1479
    -2.0342  -2.0001  -1.9668  -1.9155  -1.8215  -1.7254  -1.6742  -1.5633
    -1.5514  -1.4352  -1.3423  -1.2835  -1.2338  -1.1844  -1.0650  -0.9838
    -0.8205  -0.3656   2.0187   2.1200   2.4688   2.7099   3.4680   4.1064
     4.2278   4.7379   4.8884   5.0875   5.1473   5.2762   5.3187   5.4009
     5.4728   5.6342

          k =-0.0028 0.5225-0.0256 ( 32596 PWs)   bands (ev):

   -66.3151 -33.9038 -33.8218 -33.7814 -33.6581 -32.9214 -32.8499 -32.7227
   -15.9850 -15.9539 -15.9256 -15.8862 -15.8552 -15.8414 -15.8157 -15.7985
   -15.7900 -15.7643 -15.7311 -15.6803 -13.6140 -13.6118 -13.5052 -13.4845
   -13.4592  -7.8375  -7.6113  -7.4290  -7.2388  -7.1492  -7.0831  -7.0372
    -6.8279  -6.7917  -6.7405  -6.6029  -4.2800  -3.6357  -3.2325  -3.1706
    -3.0422  -2.9917  -2.9354  -2.9112  -2.7660  -2.6788  -2.6463  -2.5876
    -2.5629  -2.5359  -2.4547  -2.3828  -2.2995  -2.2295  -2.1756  -2.1015
    -2.0351  -1.9758  -1.9192  -1.8295  -1.7974  -1.7426  -1.6847  -1.6804
    -1.6024  -1.4647  -1.4014  -1.3499  -1.2629  -1.2031  -1.0940  -1.0595
    -0.7386  -0.3834   2.0093   2.1338   2.4613   2.6387   3.3041   3.9180
     4.2765   4.7641   4.8914   5.0589   5.2075   5.2545   5.3966   5.4370
     5.5598   5.6296

          k = 0.3795 0.5203-0.0115 ( 32564 PWs)   bands (ev):

   -66.3151 -33.9038 -33.8218 -33.7814 -33.6581 -32.9214 -32.8499 -32.7227
   -15.9850 -15.9526 -15.9255 -15.8872 -15.8555 -15.8410 -15.8158 -15.7984
   -15.7894 -15.7645 -15.7319 -15.6803 -13.6140 -13.6118 -13.5052 -13.4845
   -13.4592  -7.8112  -7.5218  -7.3770  -7.3539  -7.3208  -7.0889  -6.9450
    -6.8342  -6.7855  -6.7284  -6.5965  -4.2841  -3.6349  -3.2084  -3.1526
    -3.0349  -2.9856  -2.8967  -2.8438  -2.7999  -2.7043  -2.6794  -2.6575
    -2.4805  -2.4279  -2.3642  -2.3316  -2.3168  -2.2933  -2.1950  -2.1485
    -2.1132  -2.0114  -1.9700  -1.9148  -1.7988  -1.7332  -1.6989  -1.6609
    -1.5528  -1.4864  -1.3412  -1.2977  -1.2586  -1.2188  -1.1724  -1.0662
    -0.7605  -0.3826   2.0237   2.1421   2.4648   2.6375   3.3007   3.9267
     4.2683   4.8670   4.9548   5.1534   5.2040   5.2689   5.3881   5.5879
     5.6351   5.6427

          k = 0.0201-0.0274 0.5030 ( 32578 PWs)   bands (ev):

   -66.3151 -33.9038 -33.8218 -33.7814 -33.6581 -32.9214 -32.8499 -32.7227
   -15.9851 -15.9539 -15.9256 -15.8862 -15.8552 -15.8414 -15.8158 -15.7983
   -15.7901 -15.7642 -15.7311 -15.6802 -13.6140 -13.6119 -13.5052 -13.4845
   -13.4592  -7.8179  -7.6202  -7.4793  -7.2453  -7.1451  -7.1263  -6.9480
    -6.8616  -6.7833  -6.7107  -6.6101  -4.2268  -3.5660  -3.2315  -3.1380
    -3.0871  -3.0137  -2.9569  -2.9472  -2.8831  -2.7298  -2.6753  -2.5944
    -2.5906  -2.4363  -2.4117  -2.3665  -2.2747  -2.2527  -2.1238  -2.1040
    -2.0630  -1.9981  -1.9391  -1.8929  -1.7873  -1.7849  -1.7545  -1.6894
    -1.5453  -1.4404  -1.3500  -1.2837  -1.1905  -1.1672  -1.1223  -1.0054
    -0.7761  -0.5020   2.0232   2.1038   2.4830   2.7428   3.4747   3.9608
     4.2853   4.7596   5.0079   5.1559   5.1927   5.3488   5.3828   5.4532
     5.5437   5.6762

          k = 0.4023-0.0295 0.5170 ( 32564 PWs)   bands (ev):

   -66.3151 -33.9038 -33.8218 -33.7814 -33.6581 -32.9214 -32.8499 -32.7227
   -15.9850 -15.9526 -15.9256 -15.8872 -15.8555 -15.8411 -15.8158 -15.7982
   -15.7895 -15.7645 -15.7320 -15.6802 -13.6140 -13.6119 -13.5052 -13.4845
   -13.4592  -7.7795  -7.5510  -7.4904  -7.3772  -7.2090  -7.0617  -6.9587
    -6.8195  -6.7717  -6.7329  -6.6153  -4.2346  -3.5571  -3.2090  -3.1098
    -3.0258  -2.9732  -2.9152  -2.8811  -2.8283  -2.7341  -2.6953  -2.6702
    -2.5726  -2.5133  -2.4385  -2.3688  -2.3219  -2.2684  -2.1709  -2.1566
    -2.0639  -1.9919  -1.9433  -1.9302  -1.8214  -1.7929  -1.7228  -1.6519
    -1.5328  -1.4027  -1.3799  -1.2648  -1.1823  -1.1611  -1.1089  -1.0194
    -0.7803  -0.5190   2.0208   2.1085   2.4854   2.7250   3.4762   3.9816
     4.2772   4.9643   4.9964   5.1593   5.2401   5.3574   5.4834   5.5502
     5.5705   5.7447

          k = 0.0173 0.4951 0.4774 ( 32544 PWs)   bands (ev):

   -66.3151 -33.9038 -33.8218 -33.7814 -33.6581 -32.9214 -32.8499 -32.7227
   -15.9852 -15.9539 -15.9259 -15.8863 -15.8564 -15.8415 -15.8160 -15.7976
   -15.7892 -15.7641 -15.7311 -15.6800 -13.6140 -13.6118 -13.5052 -13.4845
   -13.4592  -7.7555  -7.6554  -7.3614  -7.3317  -7.1497  -7.1024  -7.0010
    -6.8554  -6.7565  -6.7287  -6.6764  -4.3401  -3.6570  -3.2014  -3.1651
    -3.1014  -3.0467  -2.8756  -2.7300  -2.7042  -2.6499  -2.6331  -2.5614
    -2.5247  -2.4511  -2.4390  -2.3786  -2.3234  -2.2693  -2.1887  -2.1423
    -2.0965  -2.0421  -2.0081  -1.9089  -1.8576  -1.7073  -1.6618  -1.6505
    -1.6250  -1.3597  -1.3074  -1.2883  -1.2713  -1.1850  -1.1572  -1.0403
    -0.7507  -0.5850   2.0388   2.1255   2.4887   2.6701   3.2918   3.8298
     4.2767   4.8592   4.9452   5.0788   5.2760   5.3749   5.4442   5.4615
     5.5134   5.5849

          k = 0.3996 0.4929 0.4914 ( 32568 PWs)   bands (ev):

   -66.3151 -33.9038 -33.8218 -33.7814 -33.6581 -32.9214 -32.8499 -32.7227
   -15.9852 -15.9526 -15.9259 -15.8873 -15.8568 -15.8411 -15.8160 -15.7975
   -15.7887 -15.7644 -15.7319 -15.6800 -13.6140 -13.6118 -13.5052 -13.4845
   -13.4592  -7.7407  -7.5107  -7.5022  -7.2925  -7.2417  -7.1311  -6.9600
    -6.8823  -6.7716  -6.7136  -6.6465  -4.3570  -3.5827  -3.1545  -3.0786
    -3.0339  -2.9955  -2.9394  -2.8632  -2.7553  -2.6933  -2.6335  -2.5530
    -2.5329  -2.5005  -2.4528  -2.3572  -2.3017  -2.2718  -2.2051  -2.1178
    -2.0491  -2.0173  -1.9612  -1.8956  -1.8248  -1.7961  -1.7096  -1.6875
    -1.5128  -1.4293  -1.3904  -1.3160  -1.2486  -1.1610  -1.1472  -1.0655
    -0.7424  -0.5663   2.0316   2.1324   2.4940   2.6537   3.2986   3.8331
     4.2899   5.0513   5.0936   5.1489   5.3323   5.3792   5.4652   5.4948
     5.5661   5.6953

     the Fermi energy is     2.0775 ev

!    total energy              =    -898.94442935 Ry
     estimated scf accuracy    <       0.00000001 Ry
     smearing contrib. (-TS)   =      -0.00757059 Ry
     internal energy E=F+TS    =    -898.93685875 Ry

     The total energy is F=E-TS. E is the sum of the following terms:
     one-electron contribution =    -484.39542097 Ry
     hartree contribution      =     279.56049682 Ry
     xc contribution           =    -236.19155376 Ry
     ewald contribution        =    -289.60752034 Ry
     one-center paw contrib.   =    -168.30286051 Ry

     convergence has been achieved in  13 iterations

     Forces acting on atoms (cartesian axes, Ry/au):

     atom    1 type  4   force =     0.00153619    0.00185192   -0.00569583
     atom    2 type  4   force =     0.00494462    0.00577172    0.00608791
     atom    3 type  2   force =     0.00536421    0.00310945    0.00562921
     atom    4 type  4   force =     0.00059742    0.00063532    0.00666440
     atom    5 type  5   force =    -0.00345405   -0.00590241    0.00709772
     atom    6 type  5   force =     0.00863959    0.00968256   -0.01177060
     atom    7 type  5   force =     0.01133453   -0.01370756   -0.00560464
     atom    8 type  5   force =    -0.00308425    0.00092286   -0.00043576
     atom    9 type  1   force =     0.00128927    0.00426459   -0.00335068
     atom   10 type  1   force =     0.00129708   -0.00162938   -0.00254633
     atom   11 type  1   force =    -0.00009053    0.00369816    0.00264798
     atom   12 type  1   force =     0.00158497   -0.00364309    0.00088938
     atom   13 type  1   force =    -0.00747283    0.00570321   -0.00454018
     atom   14 type  6   force =    -0.01605194   -0.00265672   -0.01101554
     atom   15 type  1   force =    -0.00234159    0.00121091    0.00119428
     atom   16 type  1   force =     0.00133992   -0.00156263   -0.00016246
     atom   17 type  1   force =     0.00196263    0.00282568    0.00433787
     atom   18 type  1   force =     0.00182039   -0.00374182    0.00052802
     atom   19 type  1   force =     0.00079376    0.01034922   -0.00652755
     atom   20 type  1   force =    -0.00399063    0.00107330   -0.00084734
     atom   21 type  3   force =     0.00151748    0.00042605    0.00391735
     atom   22 type  3   force =     0.00525299    0.00095057    0.00412875
     atom   23 type  3   force =    -0.00074845    0.00052178    0.00542479
     atom   24 type  3   force =     0.00334600    0.00310129   -0.00332215
     atom   25 type  3   force =    -0.00251284    0.00450305   -0.00541201
     atom   26 type  3   force =     0.00224359   -0.00148056    0.00209039
     atom   27 type  3   force =     0.00325822    0.00144558    0.00034549
     atom   28 type  3   force =    -0.00017557   -0.00213619    0.00053434
     atom   29 type  3   force =     0.00028202   -0.00197440    0.00330394
     atom   30 type  3   force =    -0.00007679    0.00129278   -0.00002560
     atom   31 type  3   force =     0.00361354   -0.00192092   -0.00113940
     atom   32 type  3   force =     0.00270327   -0.00302044    0.00214205
     atom   33 type  3   force =    -0.00526306    0.00652759   -0.00025617
     atom   34 type  3   force =    -0.00105363   -0.00189041   -0.00996497
     atom   35 type  3   force =     0.00222261    0.00476783   -0.00330596
     atom   36 type  3   force =    -0.00177530   -0.00516457   -0.00068766
     atom   37 type  3   force =     0.00484285   -0.00406312   -0.00056499
     atom   38 type  3   force =    -0.01173852   -0.02581007    0.01368978
     atom   39 type  3   force =     0.00332725   -0.00620613   -0.00359625
     atom   40 type  3   force =     0.00069748    0.00392210    0.00044805
     atom   41 type  3   force =     0.00170986    0.00006975    0.00287349
     atom   42 type  3   force =    -0.01192479    0.00662417   -0.00158410
     atom   43 type  3   force =    -0.00727664    0.00447829    0.00448776
     atom   44 type  3   force =     0.00070455   -0.00155263    0.00002870
     atom   45 type  3   force =     0.00138443    0.00484445   -0.00192589
     atom   46 type  3   force =     0.00188155    0.02902105    0.00760141
     atom   47 type  3   force =    -0.00328550    0.00209947   -0.00735031
     atom   48 type  3   force =    -0.00333704   -0.00368552   -0.00091371
     atom   49 type  3   force =    -0.00150070   -0.00074365   -0.00405068
     atom   50 type  3   force =     0.00792347   -0.01749170   -0.00263838
     atom   51 type  3   force =     0.00732301    0.00070899    0.00528248
     atom   52 type  3   force =     0.00279238   -0.00519668    0.00071044
     atom   53 type  3   force =    -0.00393178    0.00515967    0.00262506
     atom   54 type  3   force =    -0.00316082   -0.00410848   -0.00562289
     atom   55 type  3   force =    -0.00513595   -0.00341269   -0.00010101
     atom   56 type  3   force =    -0.00486137   -0.00331736   -0.00049831
     atom   57 type  3   force =     0.00262003   -0.00159324    0.00220507
     atom   58 type  3   force =     0.00302991   -0.00241685    0.00340095
     atom   59 type  3   force =    -0.00216655    0.00354209   -0.00230752
     atom   60 type  3   force =     0.00437653   -0.00330090    0.00306679
     atom   61 type  3   force =     0.00257243    0.00174641   -0.00209128
     atom   62 type  3   force =    -0.00056881   -0.00607956    0.00754059
     atom   63 type  3   force =     0.00741420    0.00256387    0.00126470
     atom   64 type  3   force =     0.00093706   -0.00344311    0.00062276
     atom   65 type  3   force =    -0.00132396    0.00510724    0.00115847
     atom   66 type  3   force =    -0.00816062   -0.00367462   -0.00287424
     atom   67 type  3   force =    -0.00492004    0.00689128   -0.00029960
     atom   68 type  3   force =     0.00090322   -0.00488683   -0.00094038

     Total force =     0.077149     Total SCF correction =     0.000198


     Computing stress (Cartesian axis) and pressure

          total   stress  (Ry/bohr**3)                   (kbar)     P=        3.27
   0.00001905  -0.00001613   0.00004715            2.80       -2.37        6.94
  -0.00001613   0.00006226   0.00000273           -2.37        9.16        0.40
   0.00004715   0.00000273  -0.00001460            6.94        0.40       -2.15

     Energy error            =      1.6E-02
     Gradient error          =      2.9E-02
     Cell gradient error     =      6.2E-05


     number of scf cycles    =   3
     number of bfgs steps    =   2

     enthalpy old            =    -898.9288372960 Ry
     enthalpy new            =    -898.9444293483 Ry

     CASE: enthalpy_new < enthalpy_old

     new trust radius        =       0.1451275834 bohr
     new conv_thr            =       0.0000002902 Ry

     new unit-cell volume =   5518.98646 a.u.^3 (   817.82942 Ang^3 )
     density =      0.13807 g/cm^3

CELL_PARAMETERS (angstrom)
   0.275340778  -0.429363150  -8.639978231
  -0.007717254  -8.361311802  -0.455147356
 -11.364139277  -0.003505515   0.395636337

ATOMIC_POSITIONS (angstrom)
K            -8.6021806567       -8.1458558831       -4.6783575086
K            -2.9001617710       -0.5823463081       -3.9860142646
Ga           -2.3823099638       -4.3977089119       -8.6662829100
K            -8.2196770721       -4.3482773620       -0.3895833535
Sr           -5.3723461131       -8.5095348927       -8.5547488551
Sr          -11.2697495391       -0.3445661724       -0.0223943583
Sr          -11.3146681457       -4.1222568431       -4.1585051601
Sr           -5.5056052436       -4.5182786641       -4.0382722653
B            -8.5931809933       -4.2176156645       -3.5735152488
B            -2.9518129424       -4.5462657198       -5.0364689947
B            -3.0388744825       -8.2285890166       -0.9577620851
B            -8.4325356763       -0.5483039875       -7.7003474541
B            -5.2604204101       -3.0236488280       -1.4900587988
Ta          -11.4657085649       -5.9631291204       -7.2238194872
B           -10.9213797785       -7.2564719815       -2.8901393979
B            -5.1529345405       -1.5678713403       -5.6822188210
B            -5.9186573695       -6.0838526545       -7.0021394286
B            -0.3829864793       -2.7669725821       -1.8835788686
B            -0.2090641040       -1.6967649383       -6.0830358872
B            -6.0326953997       -6.9837855970       -2.7622783559
H            -9.4436364010       -4.3412721778       -2.7138290262
H            -3.8604152782       -4.4330566304       -5.8568816303
H            -3.9613526104       -8.3614828731       -1.7521180249
H            -9.3522608146       -0.4095090645       -6.8949685996
H            -8.6098415034       -5.2067733696       -4.2763832524
H            -2.9197526715       -3.5594700408       -4.3058765763
H            -2.7132226245       -1.2513648756       -8.3704938361
H            -8.7240190223       -7.5307839084       -0.2848852976
H            -8.8064545044       -3.1993465851       -4.2303557650
H            -3.0756118385       -5.5782225779       -4.3729641297
H            -2.9122239089       -7.5829147522       -8.9677860909
H            -8.8742879665       -1.1735946204        0.3133059436
H            -7.5625329321       -4.1197989392       -2.9528981659
H            -1.9338073462       -4.6428879096       -5.7162060253
H            -2.0576339586       -8.1465140296       -1.6623888448
H            -7.4387250657       -0.6043190118       -7.0159461067
H            -5.1766514284       -2.3388743414       -0.4734335343
H           -10.5285668755       -6.7644357353       -8.6530292194
H           -10.8125316604       -6.5787751721       -3.8942417120
H            -5.0333633807       -2.2036085265       -4.6509714887
H            -4.2340731594       -2.9236004472       -2.1653111956
H            -9.8978964352       -5.8785979659       -6.3827040473
H            -9.8895308912       -7.1961922967       -2.2249334261
H            -4.1019202460       -1.6501069357       -6.3119750444
H            -5.4190741737       -4.2013922790       -1.1862343089
H           -10.8592785033       -4.4197517784       -7.3391690091
H           -11.1064289479       -8.4200914997       -3.2227862119
H            -5.3569954584       -0.4032391625       -5.3688341822
H            -6.2128433194       -2.6198034375       -2.1715548948
H            -0.9269922896       -6.4945874475       -6.0741114159
H            -0.5346174981       -6.8490256627       -2.6536477344
H            -6.0767269883       -1.9860363882       -6.3597189368
H            -5.5594388900       -6.7047539506       -6.0114868796
H            -0.1179787374       -2.0594782012       -2.8428299017
H             0.1445420442       -2.3903086218       -7.0333839537
H            -5.7250022382       -6.2865364015       -1.7966147084
H            -6.8919986103       -6.6472440780       -7.4913882216
H            -1.3942979616       -2.2916321501       -1.3663829595
H            -1.2050702961       -2.2188731203       -5.6053400797
H            -6.9976754217       -6.4477778172       -3.3061500387
H            -6.2088061364       -4.9159672524       -6.7476026387
H            -0.6128775801       -3.9287598363       -2.1833369988
H            -0.5298953657       -0.5367705772       -6.4225210107
H            -6.3144705831       -8.1288496269       -2.4593238560
H            -4.9872973367       -6.0983495153       -7.8129244317
H           -10.7905439021       -2.7390076868       -0.7074799952
H           -10.6509635654       -1.7060834685       -4.8737027825
H            -5.0772201145       -6.9857633675       -3.5234125392



     Writing output data file ./tmp/K3Sr4TaGaB11H48.save/
     NEW-OLD atomic charge density approx. for the potential

     negative rho (up, down):  2.291E-06 0.000E+00
     extrapolated charge  151.02999, renormalised to  150.00000

     total cpu time spent up to now is    10813.7 secs

     Self-consistent Calculation

     iteration #  1     ecut=    50.00 Ry     beta= 0.70
     CG style diagonalization
     c_bands:  1 eigenvalues not converged
     ethr =  1.00E-06,  avg # of iterations = 22.4

     negative rho (up, down):  4.068E-08 0.000E+00

     total cpu time spent up to now is    12051.4 secs

     total energy              =    -898.91294480 Ry
     estimated scf accuracy    <       0.05442214 Ry

     iteration #  2     ecut=    50.00 Ry     beta= 0.70
     CG style diagonalization
     ethr =  3.63E-05,  avg # of iterations =  4.5

     total cpu time spent up to now is    12280.8 secs

     total energy              =    -898.92392723 Ry
     estimated scf accuracy    <       0.23984501 Ry

     iteration #  3     ecut=    50.00 Ry     beta= 0.70
     CG style diagonalization
     ethr =  3.63E-05,  avg # of iterations =  4.1

     total cpu time spent up to now is    12485.5 secs

     total energy              =    -898.95029370 Ry
     estimated scf accuracy    <       0.06637289 Ry

     iteration #  4     ecut=    50.00 Ry     beta= 0.70
     CG style diagonalization
     ethr =  3.63E-05,  avg # of iterations =  3.2

     total cpu time spent up to now is    12636.0 secs

     total energy              =    -898.96021011 Ry
     estimated scf accuracy    <       0.02421896 Ry

     iteration #  5     ecut=    50.00 Ry     beta= 0.70
     CG style diagonalization
     ethr =  1.61E-05,  avg # of iterations =  3.1

     total cpu time spent up to now is    12784.3 secs

     total energy              =    -898.96173483 Ry
     estimated scf accuracy    <       0.00619035 Ry

     iteration #  6     ecut=    50.00 Ry     beta= 0.70
     CG style diagonalization
     ethr =  4.13E-06,  avg # of iterations =  3.6

     total cpu time spent up to now is    12960.7 secs

     total energy              =    -898.96158729 Ry
     estimated scf accuracy    <       0.00306019 Ry

     iteration #  7     ecut=    50.00 Ry     beta= 0.70
     CG style diagonalization
     ethr =  2.04E-06,  avg # of iterations =  3.9

     total cpu time spent up to now is    13154.0 secs

     total energy              =    -898.96227525 Ry
     estimated scf accuracy    <       0.00036467 Ry

     iteration #  8     ecut=    50.00 Ry     beta= 0.70
     CG style diagonalization
     ethr =  2.43E-07,  avg # of iterations =  4.4

     total cpu time spent up to now is    13374.8 secs

     total energy              =    -898.96244086 Ry
     estimated scf accuracy    <       0.00020969 Ry

     iteration #  9     ecut=    50.00 Ry     beta= 0.70
     CG style diagonalization
     ethr =  1.40E-07,  avg # of iterations =  3.5

     total cpu time spent up to now is    13547.2 secs

     total energy              =    -898.96249823 Ry
     estimated scf accuracy    <       0.00004660 Ry

     iteration # 10     ecut=    50.00 Ry     beta= 0.70
     CG style diagonalization
     c_bands:  1 eigenvalues not converged
     ethr =  3.11E-08,  avg # of iterations =  5.0

     total cpu time spent up to now is    13807.2 secs

     total energy              =    -898.96254975 Ry
     estimated scf accuracy    <       0.00010344 Ry

     iteration # 11     ecut=    50.00 Ry     beta= 0.70
     CG style diagonalization
     ethr =  3.11E-08,  avg # of iterations =  3.4

     total cpu time spent up to now is    13973.9 secs

     total energy              =    -898.96256368 Ry
     estimated scf accuracy    <       0.00001001 Ry

     iteration # 12     ecut=    50.00 Ry     beta= 0.70
     CG style diagonalization
     ethr =  6.68E-09,  avg # of iterations =  5.2

     total cpu time spent up to now is    14244.9 secs

     total energy              =    -898.96257319 Ry
     estimated scf accuracy    <       0.00000262 Ry

     iteration # 13     ecut=    50.00 Ry     beta= 0.70
     CG style diagonalization
     c_bands:  1 eigenvalues not converged
     ethr =  1.75E-09,  avg # of iterations =  5.2

     total cpu time spent up to now is    14511.1 secs

     End of self-consistent calculation

          k =-0.0000 0.0000-0.0000 ( 32571 PWs)   bands (ev):

   -66.3445 -34.0038 -33.8723 -33.8207 -33.6859 -32.9419 -32.8931 -32.7618
   -16.0720 -16.0437 -16.0074 -15.9338 -15.9000 -15.8763 -15.8614 -15.8332
   -15.8279 -15.7819 -15.7550 -15.7110 -13.6786 -13.6765 -13.5748 -13.5510
   -13.5275  -7.9561  -7.6108  -7.3900  -7.2956  -7.2146  -7.0806  -6.9847
    -6.8657  -6.8153  -6.7669  -6.6321  -4.3071  -3.4969  -3.3519  -3.1765
    -3.0775  -3.0236  -2.9787  -2.9027  -2.8270  -2.7375  -2.7072  -2.6432
    -2.5947  -2.4800  -2.4271  -2.3833  -2.3100  -2.2908  -2.2577  -2.1760
    -2.1309  -2.0671  -1.9637  -1.9515  -1.8620  -1.7868  -1.6767  -1.5905
    -1.5581  -1.4643  -1.3986  -1.3069  -1.2700  -1.2251  -1.1684  -1.0575
    -0.9241  -0.5586   1.9468   2.0489   2.5224   2.6291   3.3746   4.0862
     4.2797   4.6112   4.6802   4.9966   5.0678   5.1196   5.1853   5.4368
     5.5194   5.6106

          k = 0.3816-0.0010 0.0122 ( 32604 PWs)   bands (ev):

   -66.3445 -34.0038 -33.8723 -33.8207 -33.6859 -32.9419 -32.8931 -32.7618
   -16.0720 -16.0430 -16.0074 -15.9345 -15.9002 -15.8760 -15.8614 -15.8331
   -15.8274 -15.7822 -15.7556 -15.7110 -13.6786 -13.6765 -13.5748 -13.5510
   -13.5275  -7.8890  -7.6790  -7.3932  -7.2996  -7.2292  -7.0518  -6.9814
    -6.8706  -6.8286  -6.7694  -6.6409  -4.3050  -3.5261  -3.2094  -3.1269
    -3.0430  -2.9914  -2.9190  -2.8920  -2.8199  -2.7934  -2.7376  -2.7079
    -2.6501  -2.6353  -2.4452  -2.4136  -2.3258  -2.2784  -2.2588  -2.1511
    -2.0609  -2.0136  -1.9920  -1.9005  -1.8432  -1.7404  -1.6654  -1.5861
    -1.5654  -1.4887  -1.4121  -1.3318  -1.2933  -1.2557  -1.1695  -1.0575
    -0.9622  -0.5755   1.9578   2.0587   2.5215   2.6284   3.3867   4.1168
     4.2514   4.7101   4.8927   5.0608   5.0936   5.2370   5.2946   5.3647
     5.4093   5.6137

          k =-0.0011 0.5194-0.0258 ( 32596 PWs)   bands (ev):

   -66.3445 -34.0038 -33.8723 -33.8207 -33.6859 -32.9419 -32.8931 -32.7618
   -16.0719 -16.0437 -16.0074 -15.9337 -15.8991 -15.8763 -15.8614 -15.8340
   -15.8283 -15.7820 -15.7550 -15.7112 -13.6786 -13.6765 -13.5748 -13.5510
   -13.5275  -7.8506  -7.6376  -7.4436  -7.2084  -7.1941  -7.1071  -7.0588
    -6.8837  -6.8558  -6.7916  -6.6251  -4.3502  -3.6367  -3.2505  -3.2002
    -3.0446  -3.0090  -2.9258  -2.8864  -2.7957  -2.6764  -2.6521  -2.6426
    -2.5906  -2.5446  -2.4632  -2.3778  -2.3360  -2.2412  -2.1591  -2.1256
    -2.0595  -1.9930  -1.9452  -1.8428  -1.8082  -1.7564  -1.7163  -1.6883
    -1.6152  -1.5423  -1.4316  -1.3956  -1.3090  -1.2887  -1.1836  -1.1349
    -0.8793  -0.6086   1.9535   2.0686   2.4553   2.6033   3.2460   3.9303
     4.3054   4.7625   4.9038   5.0388   5.1620   5.2154   5.3483   5.4108
     5.5234   5.5870

          k = 0.3805 0.5184-0.0136 ( 32564 PWs)   bands (ev):

   -66.3445 -34.0038 -33.8723 -33.8207 -33.6859 -32.9419 -32.8931 -32.7618
   -16.0719 -16.0430 -16.0073 -15.9344 -15.8993 -15.8760 -15.8614 -15.8339
   -15.8278 -15.7823 -15.7557 -15.7112 -13.6786 -13.6765 -13.5748 -13.5510
   -13.5275  -7.8230  -7.5465  -7.3914  -7.3872  -7.3266  -7.0786  -6.9717
    -6.8999  -6.8424  -6.7838  -6.6193  -4.3533  -3.6389  -3.1990  -3.1912
    -3.0650  -2.9531  -2.9236  -2.8423  -2.8216  -2.7136  -2.7009  -2.6787
    -2.4914  -2.4124  -2.3844  -2.3465  -2.3252  -2.2769  -2.2195  -2.1792
    -2.1429  -2.0657  -1.9750  -1.9238  -1.8151  -1.7406  -1.7343  -1.6813
    -1.5583  -1.5136  -1.3824  -1.3589  -1.3276  -1.3034  -1.2407  -1.1398
    -0.9131  -0.6082   1.9670   2.0771   2.4614   2.6004   3.2459   3.9394
     4.2998   4.8802   4.9224   5.1378   5.1776   5.2356   5.3521   5.5438
     5.6085   5.6226

          k = 0.0175-0.0274 0.5032 ( 32578 PWs)   bands (ev):

   -66.3445 -34.0038 -33.8723 -33.8207 -33.6859 -32.9419 -32.8931 -32.7618
   -16.0719 -16.0437 -16.0074 -15.9337 -15.8991 -15.8763 -15.8614 -15.8339
   -15.8283 -15.7820 -15.7551 -15.7111 -13.6786 -13.6765 -13.5748 -13.5510
   -13.5275  -7.8424  -7.6293  -7.4838  -7.2174  -7.1805  -7.1599  -6.9818
    -6.9299  -6.8291  -6.7731  -6.6321  -4.2960  -3.5844  -3.2711  -3.1459
    -3.0899  -3.0066  -2.9361  -2.9333  -2.8838  -2.7575  -2.6819  -2.6233
    -2.5797  -2.4660  -2.4333  -2.3697  -2.2975  -2.2519  -2.1471  -2.1054
    -2.0743  -2.0079  -1.9536  -1.9222  -1.8513  -1.7958  -1.7660  -1.7144
    -1.5722  -1.4841  -1.4020  -1.3540  -1.2811  -1.2516  -1.1968  -1.0710
    -0.9189  -0.6756   1.9648   2.0368   2.5290   2.6596   3.3833   3.9662
     4.3035   4.7560   5.0015   5.1067   5.1606   5.3156   5.3601   5.4216
     5.5066   5.6357

          k = 0.3991-0.0284 0.5154 ( 32564 PWs)   bands (ev):

   -66.3445 -34.0038 -33.8723 -33.8207 -33.6859 -32.9419 -32.8931 -32.7618
   -16.0719 -16.0430 -16.0073 -15.9344 -15.8993 -15.8760 -15.8614 -15.8338
   -15.8279 -15.7823 -15.7557 -15.7112 -13.6786 -13.6765 -13.5748 -13.5510
   -13.5275  -7.8054  -7.5590  -7.4810  -7.3927  -7.2475  -7.0602  -6.9962
    -6.8791  -6.8276  -6.7929  -6.6362  -4.3038  -3.5677  -3.2544  -3.0926
    -3.0372  -2.9527  -2.9301  -2.8596  -2.8051  -2.7778  -2.7398  -2.6889
    -2.5741  -2.5298  -2.4435  -2.3649  -2.3246  -2.2864  -2.2011  -2.1495
    -2.1033  -2.0420  -1.9509  -1.9295  -1.8497  -1.8223  -1.7571  -1.6275
    -1.5470  -1.4640  -1.4101  -1.3496  -1.2833  -1.2391  -1.2039  -1.0906
    -0.9258  -0.6876   1.9617   2.0438   2.5320   2.6425   3.3853   3.9873
     4.2974   4.9495   4.9846   5.1345   5.1994   5.3268   5.4510   5.5102
     5.5546   5.7253

          k = 0.0165 0.4920 0.4774 ( 32544 PWs)   bands (ev):

   -66.3445 -34.0038 -33.8723 -33.8207 -33.6859 -32.9419 -32.8931 -32.7618
   -16.0720 -16.0437 -16.0076 -15.9338 -15.9001 -15.8765 -15.8614 -15.8332
   -15.8277 -15.7820 -15.7550 -15.7110 -13.6786 -13.6765 -13.5748 -13.5510
   -13.5275  -7.7795  -7.6691  -7.3875  -7.2955  -7.1952  -7.1141  -7.0265
    -6.9173  -6.8400  -6.7628  -6.6956  -4.4024  -3.6768  -3.2165  -3.1738
    -3.0947  -3.0561  -2.8726  -2.7587  -2.7163  -2.6368  -2.6338  -2.5752
    -2.5171  -2.4822  -2.4569  -2.3951  -2.3364  -2.2993  -2.2143  -2.1254
    -2.1171  -2.0555  -2.0190  -1.9391  -1.8812  -1.7358  -1.7040  -1.6850
    -1.6060  -1.4208  -1.3733  -1.3632  -1.3108  -1.2706  -1.2122  -1.1149
    -0.8950  -0.7991   1.9823   2.0546   2.4923   2.6271   3.2358   3.8371
     4.3044   4.8458   4.9571   5.0337   5.2567   5.3437   5.3996   5.4217
     5.4857   5.5592

          k = 0.3980 0.4910 0.4896 ( 32568 PWs)   bands (ev):

   -66.3445 -34.0038 -33.8723 -33.8207 -33.6859 -32.9419 -32.8931 -32.7618
   -16.0720 -16.0430 -16.0076 -15.9345 -15.9003 -15.8762 -15.8614 -15.8331
   -15.8273 -15.7822 -15.7556 -15.7110 -13.6786 -13.6765 -13.5748 -13.5510
   -13.5275  -7.7640  -7.5345  -7.4900  -7.3251  -7.2607  -7.1207  -6.9948
    -6.9358  -6.8493  -6.7611  -6.6653  -4.4180  -3.6003  -3.1617  -3.0940
    -3.0594  -2.9812  -2.9288  -2.8960  -2.7708  -2.6886  -2.6400  -2.5448
    -2.5358  -2.5212  -2.4482  -2.3863  -2.3420  -2.3018  -2.2147  -2.1190
    -2.0704  -2.0309  -1.9804  -1.8998  -1.8506  -1.8175  -1.7176  -1.6962
    -1.5579  -1.4879  -1.4583  -1.3672  -1.2792  -1.2614  -1.2379  -1.1312
    -0.8845  -0.7782   1.9759   2.0624   2.4913   2.6181   3.2422   3.8432
     4.3179   5.0084   5.0826   5.1357   5.3171   5.3660   5.4389   5.4784
     5.5406   5.6690

     the Fermi energy is     2.0131 ev

!    total energy              =    -898.96257652 Ry
     estimated scf accuracy    <       0.00000024 Ry
     smearing contrib. (-TS)   =      -0.00869274 Ry
     internal energy E=F+TS    =    -898.95388378 Ry

     The total energy is F=E-TS. E is the sum of the following terms:
     one-electron contribution =    -487.26916137 Ry
     hartree contribution      =     280.77856400 Ry
     xc contribution           =    -236.18159488 Ry
     ewald contribution        =    -287.97864323 Ry
     one-center paw contrib.   =    -168.30304830 Ry

     convergence has been achieved in  13 iterations

     Forces acting on atoms (cartesian axes, Ry/au):

     atom    1 type  4   force =     0.00179462    0.00168154   -0.00590268
     atom    2 type  4   force =     0.00364963    0.00425961    0.00459777
     atom    3 type  2   force =     0.00433183    0.00473428    0.00304011
     atom    4 type  4   force =     0.00182528    0.00048778    0.00596082
     atom    5 type  5   force =    -0.00029875   -0.00191408    0.00420023
     atom    6 type  5   force =     0.00519945    0.00356519   -0.00613890
     atom    7 type  5   force =     0.00697507   -0.00576409   -0.00686106
     atom    8 type  5   force =    -0.00206743   -0.00035237    0.00106656
     atom    9 type  1   force =     0.00239084    0.00841160   -0.00341193
     atom   10 type  1   force =     0.00142169   -0.00429162   -0.00706548
     atom   11 type  1   force =    -0.00032104    0.00651531    0.00407926
     atom   12 type  1   force =    -0.00001185   -0.00248361    0.00313557
     atom   13 type  1   force =    -0.00646547    0.00520796   -0.00392631
     atom   14 type  6   force =    -0.02019849   -0.06285583   -0.01736662
     atom   15 type  1   force =    -0.00354868    0.00480527    0.00346207
     atom   16 type  1   force =     0.00242371   -0.00317398    0.00049662
     atom   17 type  1   force =     0.00407737    0.00177276    0.00385738
     atom   18 type  1   force =     0.00579529   -0.00364707    0.00497910
     atom   19 type  1   force =     0.00038490    0.01083025   -0.00677010
     atom   20 type  1   force =    -0.00652120    0.00448880   -0.00199386
     atom   21 type  3   force =    -0.00585848   -0.00136265    0.00817522
     atom   22 type  3   force =     0.00585825    0.00023566    0.00541618
     atom   23 type  3   force =     0.00051933    0.00015591    0.00534050
     atom   24 type  3   force =     0.00095977    0.00011089   -0.00132584
     atom   25 type  3   force =    -0.00125096   -0.00006177   -0.00694480
     atom   26 type  3   force =     0.00381892   -0.00084022    0.00191975
     atom   27 type  3   force =     0.00229937    0.00295606   -0.00004423
     atom   28 type  3   force =     0.00366364   -0.00224106   -0.00217975
     atom   29 type  3   force =    -0.00022991    0.00027982    0.00115561
     atom   30 type  3   force =    -0.00067406    0.00211259   -0.00048075
     atom   31 type  3   force =     0.00331376   -0.00592274   -0.00190068
     atom   32 type  3   force =     0.00168198   -0.00258380    0.00068583
     atom   33 type  3   force =     0.00093683    0.00498035   -0.00032165
     atom   34 type  3   force =     0.00030882   -0.00010181   -0.00667889
     atom   35 type  3   force =     0.00231052    0.00370677   -0.00348863
     atom   36 type  3   force =    -0.00185072   -0.00374957   -0.00111108
     atom   37 type  3   force =     0.00102528   -0.00176174   -0.00021461
     atom   38 type  3   force =    -0.02380671   -0.00332263    0.02862747
     atom   39 type  3   force =     0.00450560   -0.00254909   -0.00507869
     atom   40 type  3   force =    -0.00050139    0.00108645    0.00360991
     atom   41 type  3   force =     0.00382315    0.00203493   -0.00258697
     atom   42 type  3   force =    -0.00820735    0.00977593    0.00147856
     atom   43 type  3   force =    -0.00392615    0.00182335    0.00138636
     atom   44 type  3   force =     0.00201852    0.00046313   -0.00191420
     atom   45 type  3   force =    -0.00271616    0.00051513   -0.00117134
     atom   46 type  3   force =     0.00971380    0.05131656    0.00852676
     atom   47 type  3   force =    -0.00317074   -0.00012607   -0.00369927
     atom   48 type  3   force =    -0.00287192   -0.00069155   -0.00127683
     atom   49 type  3   force =     0.00286370   -0.00117135    0.00011200
     atom   50 type  3   force =     0.01249354   -0.00326886   -0.01451128
     atom   51 type  3   force =     0.00485836   -0.00069027    0.00207145
     atom   52 type  3   force =     0.00123021   -0.00547948    0.00051688
     atom   53 type  3   force =    -0.00401110    0.00567898    0.00329750
     atom   54 type  3   force =    -0.00108220   -0.00497149   -0.00796938
     atom   55 type  3   force =    -0.00279878    0.00215719   -0.00177797
     atom   56 type  3   force =    -0.00300517   -0.00242433    0.00284340
     atom   57 type  3   force =    -0.00178676   -0.00158181    0.00169563
     atom   58 type  3   force =    -0.00354680   -0.00135281    0.00500655
     atom   59 type  3   force =    -0.00605232    0.00094268    0.00281418
     atom   60 type  3   force =     0.00402955   -0.00541851    0.00277191
     atom   61 type  3   force =     0.00104824    0.00093184   -0.00067257
     atom   62 type  3   force =    -0.00184057   -0.00606217    0.00337525
     atom   63 type  3   force =     0.00878170   -0.00499094    0.00051889
     atom   64 type  3   force =    -0.00180540   -0.00559402    0.00212380
     atom   65 type  3   force =     0.00141366    0.00340878   -0.00058021
     atom   66 type  3   force =    -0.00492976   -0.00142456   -0.00304837
     atom   67 type  3   force =    -0.00236774    0.00510106   -0.00006004
     atom   68 type  3   force =     0.00397787   -0.00230643   -0.00387010

     Total force =     0.109137     Total SCF correction =     0.001580


     Computing stress (Cartesian axis) and pressure

          total   stress  (Ry/bohr**3)                   (kbar)     P=        2.27
   0.00002380   0.00000422   0.00004124            3.50        0.62        6.07
   0.00000422   0.00005090  -0.00000423            0.62        7.49       -0.62
   0.00004124  -0.00000423  -0.00002850            6.07       -0.62       -4.19

     Energy error            =      1.8E-02
     Gradient error          =      6.3E-02
     Cell gradient error     =      5.1E-05


     number of scf cycles    =   4
     number of bfgs steps    =   3

     enthalpy old            =    -898.9444293483 Ry
     enthalpy new            =    -898.9625765172 Ry

     CASE: enthalpy_new < enthalpy_old

     new trust radius        =       0.1116590233 bohr
     new conv_thr            =       0.0000006286 Ry

     new unit-cell volume =   5550.39162 a.u.^3 (   822.48318 Ang^3 )
     density =      0.13729 g/cm^3

CELL_PARAMETERS (angstrom)
   0.239472093  -0.433986041  -8.629300387
   0.008102337  -8.404183604  -0.456710508
 -11.381798867   0.020521638   0.345966314

ATOMIC_POSITIONS (angstrom)
K            -8.6166098548       -8.1665610261       -4.7242099265
K            -2.9105915103       -0.5680267810       -3.9814339723
Ga           -2.4030218967       -4.4095672500       -8.6563139206
K            -8.2249353421       -4.3520061367       -0.4116481591
Sr           -5.4072021497       -8.5558260103       -8.5560843122
Sr          -11.2706482731       -0.3047763850       -0.0960944996
Sr          -11.3201559273       -4.1500542506       -4.2169896418
Sr           -5.5283461551       -4.5285983865       -4.0600573213
B            -8.6139733193       -4.2188060043       -3.6118407687
B            -2.9643235238       -4.5649766522       -5.0440552890
B            -3.0286353649       -8.2618187138       -0.9694752100
B            -8.4743367364       -0.5419284206       -7.7310791263
B            -5.2803319747       -3.0203077108       -1.5194308264
Ta          -11.5279442084       -5.9495477591       -7.2789542614
B           -10.9379814779       -7.2726116982       -2.9379586620
B            -5.1823102153       -1.5683867676       -5.6990890308
B            -5.9464823681       -6.0982729909       -7.0147591946
B            -0.3871555624       -2.7892721201       -1.8881685788
B            -0.2313267866       -1.6946658684       -6.0852531724
B            -6.0429366163       -7.0123892898       -2.7862150770
H            -9.4564608951       -4.3425635318       -2.7470246540
H            -3.8742219156       -4.4467205932       -5.8620068096
H            -3.9585330381       -8.3946649219       -1.7574421656
H            -9.3923050145       -0.3867553632       -6.9327153220
H            -8.6369270153       -5.2036076634       -4.3199837475
H            -2.9311568936       -3.5787443880       -4.3123757391
H            -2.7446252061       -1.2493217944       -8.3730323372
H            -8.7240384976       -7.5575340280       -0.3218280671
H            -8.8325619236       -3.1998811989       -4.2592488244
H            -3.0880863752       -5.5983741451       -4.3832391595
H            -2.9329157462       -7.6181879885       -8.9722292027
H            -8.8798116900       -1.1660708292        0.2794673864
H            -7.5908986813       -4.1115342001       -2.9845807709
H            -1.9533772728       -4.6680368979       -5.7406565171
H            -2.0481004748       -8.1742006972       -1.6773606871
H            -7.4839618611       -0.6041953283       -7.0414418032
H            -5.1730295591       -2.3485663953       -0.4970421676
H           -10.5844685775       -6.8336299906       -8.6743471393
H           -10.8269447562       -6.6038808092       -3.9448236827
H            -5.0558671467       -2.1970450398       -4.6668822517
H            -4.2423989272       -2.9300560064       -2.1753878060
H            -9.9619718305       -5.8777508958       -6.4272305656
H            -9.9164659704       -7.2031409164       -2.2584234123
H            -4.1305671583       -1.6546511393       -6.3235281902
H            -5.4216966110       -4.1988248013       -1.2141082748
H           -10.9038771718       -4.3809245093       -7.3632434446
H           -11.1280199045       -8.4324806498       -3.2832958429
H            -5.3952106285       -0.4045903590       -5.3886427675
H            -6.2327489505       -2.6209081259       -2.2067248515
H            -0.9276551337       -6.5654997576       -6.0721553848
H            -0.5203302657       -6.8807032424       -2.6416832454
H            -6.1028555293       -1.9953750354       -6.3770133708
H            -5.5881644578       -6.7181863370       -6.0236625492
H            -0.1331977141       -2.0809647650       -2.8505797960
H             0.1090102167       -2.4100516125       -7.0260974134
H            -5.7396729937       -6.3139462675       -1.8223583701
H            -6.9132429855       -6.6700287836       -7.5084105043
H            -1.3895942205       -2.3065219788       -1.3643443798
H            -1.2279924297       -2.2182399051       -5.6117076058
H            -7.0048784236       -6.4716234699       -3.3301546247
H            -6.2326373008       -4.9265187575       -6.7723232717
H            -0.6150318320       -3.9581730526       -2.1678584410
H            -0.5437337931       -0.5282699880       -6.4171888066
H            -6.3158565916       -8.1605257270       -2.4856664108
H            -5.0183824211       -6.1100889717       -7.8255007788
H           -10.8201814655       -2.7378444878       -0.7579077294
H           -10.6981911041       -1.6782926871       -4.9169794373
H            -5.0861582966       -7.0214705892       -3.5441099839



     Writing output data file ./tmp/K3Sr4TaGaB11H48.save/
     NEW-OLD atomic charge density approx. for the potential

     negative rho (up, down):  4.858E-07 0.000E+00
     extrapolated charge  150.84760, renormalised to  150.00000

     total cpu time spent up to now is    15004.0 secs

     Self-consistent Calculation

     iteration #  1     ecut=    50.00 Ry     beta= 0.70
     CG style diagonalization
     c_bands:  1 eigenvalues not converged
     ethr =  1.00E-06,  avg # of iterations = 21.0

     negative rho (up, down):  1.901E-08 0.000E+00

     total cpu time spent up to now is    16157.4 secs

     total energy              =    -898.94126810 Ry
     estimated scf accuracy    <       0.03728826 Ry

     iteration #  2     ecut=    50.00 Ry     beta= 0.70
     CG style diagonalization
     ethr =  2.49E-05,  avg # of iterations =  4.5

     total cpu time spent up to now is    16388.7 secs

     total energy              =    -898.94707099 Ry
     estimated scf accuracy    <       0.19466243 Ry

     iteration #  3     ecut=    50.00 Ry     beta= 0.70
     CG style diagonalization
     ethr =  2.49E-05,  avg # of iterations =  4.0

     total cpu time spent up to now is    16592.2 secs

     total energy              =    -898.96702769 Ry
     estimated scf accuracy    <       0.05646867 Ry

     iteration #  4     ecut=    50.00 Ry     beta= 0.70
     CG style diagonalization
     ethr =  2.49E-05,  avg # of iterations =  3.1

     total cpu time spent up to now is    16742.5 secs

     total energy              =    -898.97387035 Ry
     estimated scf accuracy    <       0.01185738 Ry

     iteration #  5     ecut=    50.00 Ry     beta= 0.70
     CG style diagonalization
     ethr =  7.90E-06,  avg # of iterations =  3.2

     total cpu time spent up to now is    16895.1 secs

     total energy              =    -898.97466069 Ry
     estimated scf accuracy    <       0.00350455 Ry

     iteration #  6     ecut=    50.00 Ry     beta= 0.70
     CG style diagonalization
     ethr =  2.34E-06,  avg # of iterations =  3.9

     total cpu time spent up to now is    17091.8 secs

     total energy              =    -898.97489550 Ry
     estimated scf accuracy    <       0.00161934 Ry

     iteration #  7     ecut=    50.00 Ry     beta= 0.70
     CG style diagonalization
     ethr =  1.08E-06,  avg # of iterations =  3.8

     total cpu time spent up to now is    17281.0 secs

     total energy              =    -898.97530049 Ry
     estimated scf accuracy    <       0.00011466 Ry

     iteration #  8     ecut=    50.00 Ry     beta= 0.70
     CG style diagonalization
     ethr =  7.64E-08,  avg # of iterations =  4.8

     total cpu time spent up to now is    17528.3 secs

     total energy              =    -898.97540445 Ry
     estimated scf accuracy    <       0.00007078 Ry

     iteration #  9     ecut=    50.00 Ry     beta= 0.70
     CG style diagonalization
     ethr =  4.72E-08,  avg # of iterations =  3.8

     total cpu time spent up to now is    17717.9 secs

     total energy              =    -898.97542226 Ry
     estimated scf accuracy    <       0.00004280 Ry

     iteration # 10     ecut=    50.00 Ry     beta= 0.70
     CG style diagonalization
     ethr =  2.85E-08,  avg # of iterations =  3.7

     total cpu time spent up to now is    17897.8 secs

     total energy              =    -898.97542725 Ry
     estimated scf accuracy    <       0.00015180 Ry

     iteration # 11     ecut=    50.00 Ry     beta= 0.70
     CG style diagonalization
     ethr =  2.85E-08,  avg # of iterations =  3.3

     total cpu time spent up to now is    18058.1 secs

     total energy              =    -898.97543983 Ry
     estimated scf accuracy    <       0.00000515 Ry

     iteration # 12     ecut=    50.00 Ry     beta= 0.70
     CG style diagonalization
     c_bands:  1 eigenvalues not converged
     ethr =  3.43E-09,  avg # of iterations =  6.2

     total cpu time spent up to now is    18383.6 secs

     total energy              =    -898.97545059 Ry
     estimated scf accuracy    <       0.00000374 Ry

     iteration # 13     ecut=    50.00 Ry     beta= 0.70
     CG style diagonalization
     ethr =  2.50E-09,  avg # of iterations =  3.6

     total cpu time spent up to now is    18560.4 secs

     End of self-consistent calculation

          k =-0.0000 0.0000 0.0000 ( 32571 PWs)   bands (ev):

   -66.4306 -34.0750 -33.9134 -33.8505 -33.7089 -33.0095 -32.9787 -32.8412
   -16.1304 -16.1094 -16.0670 -15.9724 -15.9366 -15.9036 -15.8986 -15.8606
   -15.8578 -15.8004 -15.7753 -15.7385 -13.7182 -13.7160 -13.6178 -13.5924
   -13.5704  -7.9653  -7.6217  -7.4256  -7.2816  -7.2513  -7.0943  -6.9839
    -6.9283  -6.8568  -6.7921  -6.6419  -4.3552  -3.5060  -3.3660  -3.2059
    -3.0739  -3.0332  -2.9964  -2.9201  -2.8645  -2.7506  -2.7261  -2.6636
    -2.5894  -2.5083  -2.4397  -2.3923  -2.3284  -2.3018  -2.2574  -2.1712
    -2.1482  -2.0884  -1.9863  -1.9650  -1.8774  -1.7823  -1.6760  -1.6121
    -1.5638  -1.5307  -1.4179  -1.3832  -1.3020  -1.2566  -1.2236  -1.1092
    -0.9561  -0.7014   1.8811   1.9815   2.5132   2.6003   3.2891   4.0685
     4.2946   4.6175   4.6519   4.9816   5.0232   5.0566   5.1534   5.3916
     5.5045   5.5871

          k = 0.3809-0.0002 0.0106 ( 32604 PWs)   bands (ev):

   -66.4306 -34.0750 -33.9134 -33.8505 -33.7089 -33.0095 -32.9787 -32.8412
   -16.1304 -16.1088 -16.0669 -15.9729 -15.9367 -15.9034 -15.8986 -15.8605
   -15.8574 -15.8007 -15.7758 -15.7385 -13.7182 -13.7160 -13.6178 -13.5924
   -13.5704  -7.8972  -7.6915  -7.4109  -7.3315  -7.2438  -7.0444  -6.9926
    -6.9342  -6.8741  -6.7935  -6.6486  -4.3528  -3.5411  -3.2404  -3.1414
    -3.0491  -3.0021  -2.9285  -2.9157  -2.8454  -2.8103  -2.7428  -2.6961
    -2.6662  -2.6413  -2.4793  -2.4340  -2.3405  -2.3008  -2.2593  -2.1613
    -2.0878  -2.0321  -2.0007  -1.8920  -1.8654  -1.7379  -1.6602  -1.6165
    -1.5798  -1.5216  -1.4527  -1.3993  -1.3203  -1.3001  -1.2295  -1.1087
    -0.9954  -0.7151   1.8917   1.9914   2.5158   2.5960   3.2990   4.0989
     4.2646   4.6885   4.8905   5.0287   5.0442   5.2162   5.2609   5.3304
     5.3814   5.5947

          k = 0.0001 0.5168-0.0260 ( 32596 PWs)   bands (ev):

   -66.4306 -34.0750 -33.9134 -33.8505 -33.7089 -33.0095 -32.9787 -32.8412
   -16.1303 -16.1094 -16.0669 -15.9723 -15.9358 -15.9035 -15.8986 -15.8614
   -15.8580 -15.8005 -15.7753 -15.7387 -13.7182 -13.7160 -13.6178 -13.5924
   -13.5704  -7.8577  -7.6616  -7.4582  -7.2421  -7.2026  -7.0968  -7.0804
    -6.9383  -6.8975  -6.8124  -6.6366  -4.3981  -3.6467  -3.2665  -3.2325
    -3.0551  -3.0219  -2.9417  -2.8618  -2.8321  -2.7239  -2.6641  -2.6501
    -2.5989  -2.5599  -2.4639  -2.4009  -2.3418  -2.2511  -2.1545  -2.1537
    -2.0799  -2.0163  -1.9406  -1.8765  -1.8261  -1.7714  -1.7451  -1.6637
    -1.6243  -1.5977  -1.4677  -1.4211  -1.3611  -1.3123  -1.2431  -1.1852
    -0.9123  -0.7648   1.8884   2.0005   2.4191   2.5960   3.1674   3.9245
     4.3220   4.7546   4.9106   5.0178   5.1199   5.1954   5.3068   5.3787
     5.5027   5.5519

          k = 0.3810 0.5166-0.0154 ( 32564 PWs)   bands (ev):

   -66.4306 -34.0750 -33.9134 -33.8505 -33.7089 -33.0095 -32.9787 -32.8412
   -16.1303 -16.1088 -16.0669 -15.9728 -15.9359 -15.9033 -15.8986 -15.8614
   -15.8576 -15.8008 -15.7758 -15.7387 -13.7182 -13.7160 -13.6178 -13.5924
   -13.5704  -7.8278  -7.5743  -7.4173  -7.4131  -7.3283  -7.0633  -6.9940
    -6.9540  -6.8879  -6.8067  -6.6311  -4.4003  -3.6510  -3.2213  -3.2080
    -3.0886  -2.9555  -2.9432  -2.8571  -2.8366  -2.7372  -2.7076  -2.6820
    -2.5056  -2.4420  -2.3895  -2.3523  -2.3416  -2.2737  -2.2355  -2.2129
    -2.1499  -2.0944  -1.9745  -1.9381  -1.8204  -1.7850  -1.7455  -1.6637
    -1.5684  -1.5475  -1.4261  -1.4149  -1.3902  -1.3384  -1.2722  -1.1869
    -0.9406  -0.7644   1.9007   2.0089   2.4246   2.5944   3.1687   3.9334
     4.3208   4.8669   4.9133   5.1145   5.1546   5.2036   5.3285   5.5129
     5.5859   5.5902

          k = 0.0153-0.0274 0.5037 ( 32578 PWs)   bands (ev):

   -66.4306 -34.0750 -33.9134 -33.8505 -33.7089 -33.0095 -32.9787 -32.8412
   -16.1304 -16.1094 -16.0669 -15.9723 -15.9358 -15.9037 -15.8985 -15.8614
   -15.8580 -15.8005 -15.7753 -15.7387 -13.7182 -13.7160 -13.6178 -13.5924
   -13.5704  -7.8562  -7.6441  -7.4890  -7.2440  -7.1892  -7.1548  -7.0379
    -6.9628  -6.8653  -6.8029  -6.6440  -4.3430  -3.6118  -3.2983  -3.1615
    -3.0980  -3.0340  -2.9320  -2.9112  -2.8869  -2.7752  -2.6921  -2.6571
    -2.5717  -2.4957  -2.4480  -2.3750  -2.3177  -2.2560  -2.1717  -2.0977
    -2.0879  -2.0268  -1.9633  -1.9407  -1.8888  -1.8255  -1.7467  -1.7250
    -1.5880  -1.5235  -1.4699  -1.4133  -1.3441  -1.3046  -1.2461  -1.1120
    -0.9494  -0.7786   1.9013   1.9691   2.5258   2.6169   3.2887   3.9545
     4.3125   4.7475   4.9918   5.0462   5.1449   5.2756   5.3500   5.3950
     5.4738   5.5993

          k = 0.3961-0.0276 0.5143 ( 32564 PWs)   bands (ev):

   -66.4306 -34.0750 -33.9134 -33.8505 -33.7089 -33.0095 -32.9787 -32.8412
   -16.1304 -16.1088 -16.0668 -15.9728 -15.9359 -15.9034 -15.8985 -15.8613
   -15.8576 -15.8007 -15.7758 -15.7387 -13.7182 -13.7160 -13.6178 -13.5924
   -13.5704  -7.8188  -7.5762  -7.4815  -7.4080  -7.2721  -7.0643  -7.0302
    -6.9171  -6.8786  -6.8145  -6.6472  -4.3505  -3.5895  -3.2853  -3.0913
    -3.0542  -2.9770  -2.9388  -2.8458  -2.8206  -2.8078  -2.7449  -2.7033
    -2.5758  -2.5422  -2.4594  -2.3652  -2.3385  -2.2847  -2.2227  -2.1505
    -2.1326  -2.0818  -1.9580  -1.9329  -1.8815  -1.8240  -1.7793  -1.6120
    -1.5496  -1.5091  -1.4483  -1.4364  -1.3402  -1.3136  -1.2530  -1.1327
    -0.9692  -0.7821   1.8977   1.9770   2.5245   2.6061   3.2900   3.9765
     4.3078   4.9251   4.9747   5.0834   5.1967   5.2954   5.4198   5.4725
     5.5356   5.7012

          k = 0.0154 0.4894 0.4777 ( 32544 PWs)   bands (ev):

   -66.4306 -34.0750 -33.9134 -33.8505 -33.7089 -33.0095 -32.9787 -32.8412
   -16.1305 -16.1094 -16.0671 -15.9724 -15.9367 -15.9041 -15.8983 -15.8606
   -15.8577 -15.8004 -15.7753 -15.7385 -13.7182 -13.7160 -13.6178 -13.5924
   -13.5704  -7.7905  -7.6865  -7.4125  -7.2848  -7.2251  -7.1169  -7.0558
    -6.9583  -6.8905  -6.7889  -6.7023  -4.4476  -3.7014  -3.2314  -3.1852
    -3.1103  -3.0491  -2.8821  -2.7928  -2.7320  -2.6629  -2.6367  -2.5782
    -2.5137  -2.5083  -2.4665  -2.4116  -2.3443  -2.3070  -2.2353  -2.1454
    -2.1092  -2.0689  -2.0295  -1.9574  -1.8869  -1.8064  -1.7546  -1.6625
    -1.5741  -1.4892  -1.4248  -1.4140  -1.3403  -1.3317  -1.2569  -1.1621
    -0.9424  -0.9083   1.9175   1.9862   2.4535   2.6185   3.1578   3.8316
     4.3232   4.8268   4.9576   4.9952   5.2363   5.3112   5.3631   5.3949
     5.4567   5.5379

          k = 0.3963 0.4892 0.4883 ( 32568 PWs)   bands (ev):

   -66.4306 -34.0750 -33.9134 -33.8505 -33.7089 -33.0095 -32.9787 -32.8412
   -16.1305 -16.1088 -16.0670 -15.9729 -15.9368 -15.9039 -15.8983 -15.8605
   -15.8573 -15.8007 -15.7758 -15.7386 -13.7182 -13.7160 -13.6178 -13.5924
   -13.5704  -7.7734  -7.5667  -7.4867  -7.3560  -7.2722  -7.1065  -7.0424
    -6.9638  -6.8977  -6.7895  -6.6750  -4.4619  -3.6228  -3.1750  -3.1133
    -3.0897  -2.9763  -2.9480  -2.9062  -2.7863  -2.6875  -2.6412  -2.5736
    -2.5418  -2.5147  -2.4459  -2.4172  -2.3758  -2.3137  -2.2291  -2.1337
    -2.0837  -2.0422  -1.9891  -1.9196  -1.8662  -1.8424  -1.7050  -1.6854
    -1.5973  -1.5602  -1.4959  -1.4112  -1.3454  -1.3015  -1.2907  -1.1660
    -0.9220  -0.9015   1.9112   1.9940   2.4479   2.6157   3.1637   3.8391
     4.3377   4.9636   5.0650   5.1211   5.3056   5.3481   5.4177   5.4526
     5.5156   5.6470

     the Fermi energy is     1.9456 ev

!    total energy              =    -898.97545176 Ry
     estimated scf accuracy    <       0.00000016 Ry
     smearing contrib. (-TS)   =      -0.00929311 Ry
     internal energy E=F+TS    =    -898.96615865 Ry

     The total energy is F=E-TS. E is the sum of the following terms:
     one-electron contribution =    -489.16258759 Ry
     hartree contribution      =     281.52677617 Ry
     xc contribution           =    -236.14113184 Ry
     ewald contribution        =    -286.88534248 Ry
     one-center paw contrib.   =    -168.30387292 Ry

     convergence has been achieved in  13 iterations

     Forces acting on atoms (cartesian axes, Ry/au):

     atom    1 type  4   force =     0.00206725    0.00153014   -0.00599625
     atom    2 type  4   force =     0.00263256    0.00304743    0.00351961
     atom    3 type  2   force =     0.00351139    0.00575687    0.00203803
     atom    4 type  4   force =     0.00252286    0.00043415    0.00554101
     atom    5 type  5   force =     0.00203953    0.00073659    0.00199717
     atom    6 type  5   force =     0.00264388   -0.00271355   -0.00247691
     atom    7 type  5   force =     0.00386499   -0.00077248   -0.00840158
     atom    8 type  5   force =    -0.00071127   -0.00110743    0.00198043
     atom    9 type  1   force =     0.00160429    0.00819433   -0.00160191
     atom   10 type  1   force =     0.00188029   -0.00463837   -0.00778984
     atom   11 type  1   force =     0.00061549    0.00612944    0.00353142
     atom   12 type  1   force =    -0.00113397   -0.00153368    0.00348160
     atom   13 type  1   force =    -0.00307604    0.00338946   -0.00289536
     atom   14 type  6   force =    -0.01027742   -0.06270946   -0.01577989
     atom   15 type  1   force =    -0.00310580    0.00583377    0.00288852
     atom   16 type  1   force =     0.00265865   -0.00373757    0.00104169
     atom   17 type  1   force =     0.00402724    0.00082369    0.00231487
     atom   18 type  1   force =     0.00526565   -0.00272958    0.00593193
     atom   19 type  1   force =    -0.00063191    0.00758355   -0.00464939
     atom   20 type  1   force =    -0.00536901    0.00399509   -0.00203645
     atom   21 type  3   force =    -0.00861117   -0.00206334    0.00862325
     atom   22 type  3   force =     0.00515286   -0.00015473    0.00489434
     atom   23 type  3   force =     0.00156948    0.00017543    0.00506387
     atom   24 type  3   force =    -0.00112785   -0.00186569    0.00053203
     atom   25 type  3   force =    -0.00002133   -0.00111260   -0.00657324
     atom   26 type  3   force =     0.00495310   -0.00142044    0.00090829
     atom   27 type  3   force =     0.00163459    0.00412820   -0.00021141
     atom   28 type  3   force =     0.00645875   -0.00275083   -0.00381019
     atom   29 type  3   force =    -0.00069745    0.00232254   -0.00055679
     atom   30 type  3   force =    -0.00096202    0.00214996   -0.00074495
     atom   31 type  3   force =     0.00269376   -0.00626417   -0.00095331
     atom   32 type  3   force =     0.00084578   -0.00181590   -0.00021884
     atom   33 type  3   force =     0.00408207    0.00377074   -0.00104722
     atom   34 type  3   force =     0.00197126    0.00071261   -0.00478789
     atom   35 type  3   force =     0.00198845    0.00280280   -0.00340264
     atom   36 type  3   force =    -0.00194977   -0.00267780   -0.00107069
     atom   37 type  3   force =    -0.00209784   -0.00008288   -0.00019688
     atom   38 type  3   force =    -0.02644635    0.00835488    0.03158575
     atom   39 type  3   force =     0.00510357   -0.00000643   -0.00541120
     atom   40 type  3   force =    -0.00131389   -0.00055453    0.00539481
     atom   41 type  3   force =     0.00362727    0.00314021   -0.00573257
     atom   42 type  3   force =    -0.00916449    0.00983461    0.00178974
     atom   43 type  3   force =    -0.00141795   -0.00008761   -0.00111113
     atom   44 type  3   force =     0.00250124    0.00180872   -0.00312222
     atom   45 type  3   force =    -0.00536219   -0.00136306   -0.00102544
     atom   46 type  3   force =     0.00280982    0.03482840    0.00939466
     atom   47 type  3   force =    -0.00269340   -0.00027966   -0.00035100
     atom   48 type  3   force =    -0.00241543    0.00040608   -0.00166561
     atom   49 type  3   force =     0.00492704   -0.00094171    0.00226433
     atom   50 type  3   force =     0.01259419    0.00290429   -0.01804189
     atom   51 type  3   force =     0.00187937   -0.00090844    0.00030509
     atom   52 type  3   force =     0.00083968   -0.00534932    0.00077018
     atom   53 type  3   force =    -0.00371766    0.00576333    0.00407879
     atom   54 type  3   force =     0.00001250   -0.00662433   -0.00802433
     atom   55 type  3   force =    -0.00090316    0.00641140   -0.00300966
     atom   56 type  3   force =    -0.00195842   -0.00196155    0.00464108
     atom   57 type  3   force =    -0.00331161   -0.00071640    0.00193398
     atom   58 type  3   force =    -0.00608039   -0.00143813    0.00538708
     atom   59 type  3   force =    -0.00694456    0.00084336    0.00516948
     atom   60 type  3   force =     0.00244505   -0.00598259    0.00174980
     atom   61 type  3   force =    -0.00008735    0.00019824    0.00042437
     atom   62 type  3   force =    -0.00233016   -0.00492707    0.00086292
     atom   63 type  3   force =     0.00861703   -0.00736670   -0.00094910
     atom   64 type  3   force =    -0.00330300   -0.00494166    0.00261964
     atom   65 type  3   force =     0.00314203    0.00197516   -0.00155920
     atom   66 type  3   force =    -0.00138094    0.00022240   -0.00233563
     atom   67 type  3   force =    -0.00101117    0.00369754   -0.00037182
     atom   68 type  3   force =     0.00443201   -0.00030573   -0.00474732

     Total force =     0.102169     Total SCF correction =     0.000970


     Computing stress (Cartesian axis) and pressure

          total   stress  (Ry/bohr**3)                   (kbar)     P=        0.44
   0.00002028   0.00000771   0.00003298            2.98        1.13        4.85
   0.00000771   0.00002407  -0.00000864            1.13        3.54       -1.27
   0.00003298  -0.00000864  -0.00003527            4.85       -1.27       -5.19

     Energy error            =      1.3E-02
     Gradient error          =      6.3E-02
     Cell gradient error     =      3.5E-05


     number of scf cycles    =   5
     number of bfgs steps    =   4

     enthalpy old            =    -898.9625765172 Ry
     enthalpy new            =    -898.9754517558 Ry

     CASE: enthalpy_new < enthalpy_old

     new trust radius        =       0.1231535191 bohr
     new conv_thr            =       0.0000006271 Ry

     new unit-cell volume =   5579.95613 a.u.^3 (   826.86419 Ang^3 )
     density =      0.13656 g/cm^3

CELL_PARAMETERS (angstrom)
   0.196610051  -0.436303012  -8.609988434
   0.023557885  -8.448827036  -0.455740911
 -11.404460557   0.044368416   0.286305764

ATOMIC_POSITIONS (angstrom)
K            -8.6378435563       -8.1869285730       -4.7742981757
K            -2.9239659292       -0.5509020120       -3.9731626411
Ga           -2.4297641842       -4.4161201269       -8.6374188421
K            -8.2326168061       -4.3564115689       -0.4357926147
Sr           -5.4500309699       -8.6012292571       -8.5506682670
Sr          -11.2755948121       -0.2680900727       -0.1803971059
Sr          -11.3324253492       -4.1785523023       -4.2853280701
Sr           -5.5570048030       -4.5394961186       -4.0803950234
B            -8.6417545618       -4.2168537796       -3.6527429978
B            -2.9807379826       -4.5853821736       -5.0510106910
B            -3.0194172297       -8.2944561063       -0.9796470744
B            -8.5268850618       -0.5343757254       -7.7604831043
B            -5.3042092626       -3.0163238558       -1.5522781170
Ta          -11.6022578878       -5.9585507148       -7.3415095367
B           -10.9628635257       -7.2871103502       -2.9901532411
B            -5.2176670255       -1.5697594089       -5.7137868541
B            -5.9816336703       -6.1117568234       -7.0235687869
B            -0.3916248442       -2.8133960168       -1.8885056069
B            -0.2596488784       -1.6895595001       -6.0822839821
B            -6.0596901655       -7.0416261855       -2.8114121782
H            -9.4800615027       -4.3451054863       -2.7804970852
H            -3.8921663049       -4.4598914276       -5.8614671004
H            -3.9575928412       -8.4290001681       -1.7592290906
H            -9.4437597284       -0.3634009303       -6.9706782079
H            -8.6716111558       -5.1999600940       -4.3687490947
H            -2.9443034873       -3.5996072284       -4.3163475202
H            -2.7833009610       -1.2422584593       -8.3696374424
H            -8.7241357534       -7.5884049932       -0.3659319580
H            -8.8668353089       -3.1978477095       -4.2915491749
H            -3.1062409386       -5.6173131322       -4.3910651117
H            -2.9608966947       -7.6554077279       -8.9682072820
H            -8.8886856819       -1.1597887007        0.2381545485
H            -7.6231039382       -4.1009947651       -3.0197589988
H            -1.9771764722       -4.6923981470       -5.7629790722
H            -2.0402828572       -8.2015487939       -1.6921588705
H            -7.5396237659       -0.6040039257       -7.0668467345
H            -5.1738747165       -2.3586847323       -0.5241263286
H           -10.6650036419       -6.8974703216       -8.6800300789
H           -10.8466333291       -6.6295932790       -4.0018958720
H            -5.0852967416       -2.1899962188       -4.6787269966
H            -4.2530868377       -2.9346917631       -2.1895429174
H           -10.0441788850       -5.8710449155       -6.4730446455
H            -9.9507266790       -7.2112022650       -2.2975310009
H            -4.1648290245       -1.6567391446       -6.3340167361
H            -5.4313022998       -4.1968647207       -1.2452873972
H           -10.9628790402       -4.3319094282       -7.3827038629
H           -11.1590983628       -8.4449444293       -3.3475944642
H            -5.4418129984       -0.4048923205       -5.4089773444
H            -6.2550060251       -2.6222675017       -2.2433599888
H            -0.9275626384       -6.6358209655       -6.0719577217
H            -0.5083132995       -6.9133201921       -2.6252353489
H            -6.1359344254       -2.0067782847       -6.3920077244
H            -5.6264740667       -6.7278860338       -6.0303445902
H            -0.1510601060       -2.1071338919       -2.8593130582
H             0.0672208866       -2.4237492437       -7.0133888568
H            -5.7597150314       -6.3435674228       -1.8470547228
H            -6.9448540410       -6.6921415288       -7.5207690430
H            -1.3894662422       -2.3228292162       -1.3585679376
H            -1.2593512564       -2.2147847624       -5.6107008347
H            -7.0176798155       -6.4992491812       -3.3549053216
H            -6.2650626761       -4.9364311638       -6.7941460097
H            -0.6202014504       -3.9901614047       -2.1492373530
H            -0.5584302473       -0.5208890534       -6.4070662918
H            -6.3239795632       -8.1950159163       -2.5117309833
H            -5.0561407327       -6.1199419563       -7.8342713682
H           -10.8552624591       -2.7369006462       -0.8168903478
H           -10.7555252647       -1.6470912991       -4.9649280551
H            -5.0984789689       -7.0579017156       -3.5663145431



     Writing output data file ./tmp/K3Sr4TaGaB11H48.save/
     NEW-OLD atomic charge density approx. for the potential

     negative rho (up, down):  1.992E-06 0.000E+00
     extrapolated charge  150.79370, renormalised to  150.00000

     total cpu time spent up to now is    19055.8 secs

     Self-consistent Calculation

     iteration #  1     ecut=    50.00 Ry     beta= 0.70
     CG style diagonalization
     c_bands:  1 eigenvalues not converged
     ethr =  1.00E-06,  avg # of iterations = 21.0

     negative rho (up, down):  7.248E-08 0.000E+00

     total cpu time spent up to now is    20206.1 secs

     total energy              =    -898.95771327 Ry
     estimated scf accuracy    <       0.03838183 Ry

     iteration #  2     ecut=    50.00 Ry     beta= 0.70
     CG style diagonalization
     ethr =  2.56E-05,  avg # of iterations =  4.3

     total cpu time spent up to now is    20429.1 secs

     total energy              =    -898.95982422 Ry
     estimated scf accuracy    <       0.16719487 Ry

     iteration #  3     ecut=    50.00 Ry     beta= 0.70
     CG style diagonalization
     ethr =  2.56E-05,  avg # of iterations =  3.9

     total cpu time spent up to now is    20628.5 secs

     total energy              =    -898.97794647 Ry
     estimated scf accuracy    <       0.07004144 Ry

     iteration #  4     ecut=    50.00 Ry     beta= 0.70
     CG style diagonalization
     ethr =  2.56E-05,  avg # of iterations =  3.2

     total cpu time spent up to now is    20781.3 secs

     total energy              =    -898.98704011 Ry
     estimated scf accuracy    <       0.01160976 Ry

     iteration #  5     ecut=    50.00 Ry     beta= 0.70
     CG style diagonalization
     ethr =  7.74E-06,  avg # of iterations =  3.2

     total cpu time spent up to now is    20935.7 secs

     total energy              =    -898.98804303 Ry
     estimated scf accuracy    <       0.00348839 Ry

     iteration #  6     ecut=    50.00 Ry     beta= 0.70
     CG style diagonalization
     ethr =  2.33E-06,  avg # of iterations =  3.7

     total cpu time spent up to now is    21123.2 secs

     total energy              =    -898.98809187 Ry
     estimated scf accuracy    <       0.00204726 Ry

     iteration #  7     ecut=    50.00 Ry     beta= 0.70
     CG style diagonalization
     ethr =  1.36E-06,  avg # of iterations =  3.7

     total cpu time spent up to now is    21305.2 secs

     total energy              =    -898.98854139 Ry
     estimated scf accuracy    <       0.00024850 Ry

     iteration #  8     ecut=    50.00 Ry     beta= 0.70
     CG style diagonalization
     ethr =  1.66E-07,  avg # of iterations =  4.2

     total cpu time spent up to now is    21514.8 secs

     total energy              =    -898.98864845 Ry
     estimated scf accuracy    <       0.00008938 Ry

     iteration #  9     ecut=    50.00 Ry     beta= 0.70
     CG style diagonalization
     ethr =  5.96E-08,  avg # of iterations =  3.8

     total cpu time spent up to now is    21704.9 secs

     total energy              =    -898.98867556 Ry
     estimated scf accuracy    <       0.00006229 Ry

     iteration # 10     ecut=    50.00 Ry     beta= 0.70
     CG style diagonalization
     ethr =  4.15E-08,  avg # of iterations =  3.7

     total cpu time spent up to now is    21888.6 secs

     total energy              =    -898.98869083 Ry
     estimated scf accuracy    <       0.00006766 Ry

     iteration # 11     ecut=    50.00 Ry     beta= 0.70
     CG style diagonalization
     ethr =  4.15E-08,  avg # of iterations =  3.2

     total cpu time spent up to now is    22040.9 secs

     total energy              =    -898.98869955 Ry
     estimated scf accuracy    <       0.00000370 Ry

     iteration # 12     ecut=    50.00 Ry     beta= 0.70
     CG style diagonalization
     c_bands:  1 eigenvalues not converged
     ethr =  2.47E-09,  avg # of iterations =  7.0

     total cpu time spent up to now is    22417.5 secs

     total energy              =    -898.98871441 Ry
     estimated scf accuracy    <       0.00000128 Ry

     iteration # 13     ecut=    50.00 Ry     beta= 0.70
     CG style diagonalization
     ethr =  8.52E-10,  avg # of iterations =  4.5

     total cpu time spent up to now is    22649.8 secs

     End of self-consistent calculation

          k = 0.0000 0.0000 0.0000 ( 32571 PWs)   bands (ev):

   -66.5151 -34.1398 -33.9471 -33.8732 -33.7402 -33.0845 -33.0556 -32.9152
   -16.1807 -16.1704 -16.1225 -16.0039 -15.9671 -15.9292 -15.9244 -15.8829
   -15.8802 -15.8293 -15.8037 -15.7759 -13.7279 -13.7254 -13.6288 -13.6027
   -13.5822  -7.9735  -7.6269  -7.4598  -7.3025  -7.2646  -7.1209  -6.9893
    -6.9680  -6.8846  -6.8110  -6.6416  -4.3877  -3.5210  -3.3909  -3.2317
    -3.0862  -3.0499  -3.0143  -2.9505  -2.8925  -2.7601  -2.7471  -2.6863
    -2.5853  -2.5484  -2.4464  -2.3988  -2.3496  -2.3165  -2.2553  -2.1698
    -2.1548  -2.1039  -2.0131  -1.9777  -1.9061  -1.7739  -1.6891  -1.6380
    -1.5785  -1.5516  -1.4634  -1.4223  -1.3525  -1.2777  -1.2727  -1.1466
    -0.9541  -0.8242   1.8232   1.9246   2.4960   2.6245   3.2045   4.0461
     4.3193   4.6102   4.6372   4.9699   4.9726   5.0020   5.1292   5.3585
     5.4954   5.5653

          k = 0.3800 0.0006 0.0086 ( 32604 PWs)   bands (ev):

   -66.5151 -34.1398 -33.9471 -33.8732 -33.7402 -33.0845 -33.0556 -32.9152
   -16.1806 -16.1700 -16.1225 -16.0043 -15.9672 -15.9292 -15.9242 -15.8828
   -15.8799 -15.8295 -15.8042 -15.7759 -13.7280 -13.7254 -13.6288 -13.6027
   -13.5822  -7.9046  -7.7009  -7.4331  -7.3632  -7.2594  -7.0737  -6.9929
    -6.9706  -6.9026  -6.8144  -6.6458  -4.3851  -3.5628  -3.2708  -3.1776
    -3.0599  -3.0070  -2.9580  -2.9486  -2.8684  -2.8240  -2.7402  -2.7019
    -2.6767  -2.6326  -2.5183  -2.4561  -2.3497  -2.3254  -2.2530  -2.1790
    -2.1145  -2.0624  -1.9986  -1.9007  -1.8672  -1.7363  -1.7031  -1.6365
    -1.5966  -1.5175  -1.4757  -1.4547  -1.4009  -1.3147  -1.2733  -1.1457
    -1.0038  -0.8246   1.8328   1.9346   2.4985   2.6194   3.2125   4.0730
     4.2892   4.6715   4.8817   4.9742   5.0172   5.1910   5.2314   5.3087
     5.3712   5.5777

          k = 0.0013 0.5140-0.0260 ( 32596 PWs)   bands (ev):

   -66.5151 -34.1398 -33.9471 -33.8732 -33.7402 -33.0845 -33.0556 -32.9152
   -16.1806 -16.1704 -16.1225 -16.0039 -15.9664 -15.9290 -15.9246 -15.8836
   -15.8803 -15.8293 -15.8038 -15.7761 -13.7279 -13.7254 -13.6288 -13.6028
   -13.5822  -7.8614  -7.6855  -7.4724  -7.2782  -7.2262  -7.1216  -7.0667
    -6.9828  -6.9194  -6.8303  -6.6369  -4.4327  -3.6648  -3.2840  -3.2720
    -3.0661  -3.0345  -2.9627  -2.8740  -2.8518  -2.7655  -2.6765  -2.6579
    -2.6037  -2.5815  -2.4630  -2.4265  -2.3405  -2.2684  -2.1838  -2.1532
    -2.0962  -2.0268  -1.9413  -1.9225  -1.8542  -1.7845  -1.7724  -1.6559
    -1.6405  -1.6139  -1.5015  -1.4477  -1.4007  -1.3366  -1.3063  -1.2148
    -0.9500  -0.8581   1.8283   1.9437   2.4025   2.6187   3.0839   3.9166
     4.3453   4.7465   4.9143   4.9960   5.0921   5.1822   5.2689   5.3457
     5.4847   5.5259

          k = 0.3813 0.5146-0.0174 ( 32564 PWs)   bands (ev):

   -66.5151 -34.1398 -33.9471 -33.8732 -33.7402 -33.0845 -33.0556 -32.9152
   -16.1806 -16.1700 -16.1224 -16.0043 -15.9665 -15.9290 -15.9243 -15.8836
   -15.8800 -15.8296 -15.8043 -15.7761 -13.7279 -13.7253 -13.6288 -13.6027
   -13.5822  -7.8286  -7.6043  -7.4409  -7.4385  -7.3373  -7.0764  -7.0100
    -6.9842  -6.9188  -6.8238  -6.6319  -4.4336  -3.6713  -3.2573  -3.2248
    -3.1105  -2.9918  -2.9420  -2.8793  -2.8514  -2.7566  -2.7216  -2.6740
    -2.5236  -2.4810  -2.3985  -2.3749  -2.3491  -2.2822  -2.2507  -2.2219
    -2.1559  -2.1124  -1.9732  -1.9597  -1.8567  -1.8011  -1.7584  -1.6374
    -1.5962  -1.5859  -1.4707  -1.4644  -1.4466  -1.3651  -1.2981  -1.2131
    -0.9698  -0.8598   1.8391   1.9521   2.4069   2.6185   3.0857   3.9251
     4.3519   4.8415   4.9181   5.0852   5.1370   5.1742   5.3114   5.4897
     5.5514   5.5701

          k = 0.0126-0.0272 0.5047 ( 32578 PWs)   bands (ev):

   -66.5151 -34.1398 -33.9471 -33.8732 -33.7402 -33.0844 -33.0556 -32.9152
   -16.1807 -16.1704 -16.1224 -16.0039 -15.9664 -15.9291 -15.9244 -15.8837
   -15.8803 -15.8293 -15.8038 -15.7761 -13.7280 -13.7254 -13.6288 -13.6028
   -13.5822  -7.8663  -7.6586  -7.4954  -7.2730  -7.2117  -7.1447  -7.1005
    -6.9807  -6.8906  -6.8242  -6.6456  -4.3761  -3.6509  -3.3200  -3.1825
    -3.1047  -3.0720  -2.9451  -2.8922  -2.8842  -2.7834  -2.7050  -2.6888
    -2.5682  -2.5309  -2.4669  -2.3815  -2.3330  -2.2697  -2.1891  -2.1123
    -2.0798  -2.0544  -1.9799  -1.9576  -1.9181  -1.8641  -1.7357  -1.7139
    -1.6068  -1.5706  -1.5326  -1.4645  -1.3969  -1.3673  -1.2867  -1.1343
    -0.9843  -0.8192   1.8465   1.9144   2.5127   2.6275   3.1951   3.9448
     4.3307   4.7386   4.9696   4.9939   5.1301   5.2412   5.3282   5.3821
     5.4422   5.5625

          k = 0.3926-0.0266 0.5134 ( 32564 PWs)   bands (ev):

   -66.5151 -34.1398 -33.9471 -33.8732 -33.7402 -33.0845 -33.0556 -32.9152
   -16.1806 -16.1700 -16.1224 -16.0043 -15.9666 -15.9291 -15.9241 -15.8836
   -15.8799 -15.8296 -15.8043 -15.7761 -13.7279 -13.7254 -13.6288 -13.6028
   -13.5822  -7.8281  -7.5925  -7.4851  -7.4270  -7.2941  -7.1154  -7.0348
    -6.9372  -6.9127  -6.8340  -6.6475  -4.3829  -3.6247  -3.3092  -3.0968
    -3.0752  -3.0226  -2.9490  -2.8705  -2.8296  -2.8189  -2.7258  -2.7180
    -2.5767  -2.5549  -2.4746  -2.3828  -2.3588  -2.2795  -2.2324  -2.1831
    -2.1333  -2.1175  -1.9699  -1.9424  -1.9208  -1.8317  -1.7755  -1.6295
    -1.5639  -1.5370  -1.5038  -1.4604  -1.4158  -1.3949  -1.2956  -1.1534
    -1.0130  -0.8152   1.8424   1.9228   2.5055   2.6250   3.1957   3.9679
     4.3280   4.9015   4.9603   5.0233   5.2069   5.2616   5.3917   5.4405
     5.5138   5.6721

          k = 0.0139 0.4869 0.4787 ( 32544 PWs)   bands (ev):

   -66.5151 -34.1398 -33.9471 -33.8732 -33.7402 -33.0844 -33.0556 -32.9152
   -16.1807 -16.1704 -16.1226 -16.0039 -15.9672 -15.9297 -15.9241 -15.8828
   -15.8802 -15.8293 -15.8038 -15.7760 -13.7279 -13.7253 -13.6288 -13.6028
   -13.5822  -7.7957  -7.7045  -7.4377  -7.2982  -7.2359  -7.1504  -7.0732
    -6.9827  -6.9212  -6.8133  -6.6982  -4.4836  -3.7317  -3.2484  -3.1922
    -3.1306  -3.0485  -2.8976  -2.8269  -2.7465  -2.7061  -2.6493  -2.5751
    -2.5290  -2.5106  -2.4768  -2.4224  -2.3620  -2.3014  -2.2524  -2.1689
    -2.1186  -2.0838  -2.0339  -1.9822  -1.8860  -1.8647  -1.8027  -1.6373
    -1.5708  -1.5427  -1.4770  -1.4565  -1.3884  -1.3612  -1.3230  -1.1846
    -1.0833  -0.8591   1.8595   1.9317   2.4299   2.6396   3.0736   3.8280
     4.3532   4.8069   4.9404   4.9735   5.2128   5.2789   5.3334   5.3769
     5.4273   5.5193

          k = 0.3939 0.4874 0.4873 ( 32568 PWs)   bands (ev):

   -66.5151 -34.1398 -33.9471 -33.8732 -33.7402 -33.0845 -33.0556 -32.9152
   -16.1807 -16.1700 -16.1226 -16.0043 -15.9673 -15.9297 -15.9238 -15.8827
   -15.8799 -15.8296 -15.8043 -15.7760 -13.7280 -13.7253 -13.6288 -13.6028
   -13.5822  -7.7765  -7.5990  -7.4881  -7.3875  -7.2845  -7.1179  -7.0850
    -6.9741  -6.9275  -6.8129  -6.6751  -4.4961  -3.6529  -3.1860  -3.1373
    -3.1192  -3.0122  -2.9566  -2.9010  -2.7953  -2.6997  -2.6491  -2.5962
    -2.5493  -2.5085  -2.4542  -2.4363  -2.4077  -2.3201  -2.2436  -2.1575
    -2.1044  -2.0510  -1.9969  -1.9648  -1.8667  -1.8535  -1.6970  -1.6752
    -1.6453  -1.6201  -1.5254  -1.4521  -1.4329  -1.3618  -1.3053  -1.1825
    -1.0652  -0.8559   1.8533   1.9394   2.4229   2.6404   3.0790   3.8369
     4.3695   4.9193   5.0430   5.1062   5.2967   5.3232   5.4006   5.4255
     5.4806   5.5209

     the Fermi energy is     1.8879 ev

!    total energy              =    -898.98871543 Ry
     estimated scf accuracy    <       0.00000016 Ry
     smearing contrib. (-TS)   =      -0.00964468 Ry
     internal energy E=F+TS    =    -898.97907075 Ry

     The total energy is F=E-TS. E is the sum of the following terms:
     one-electron contribution =    -490.89803425 Ry
     hartree contribution      =     282.21964956 Ry
     xc contribution           =    -236.09761322 Ry
     ewald contribution        =    -285.89785146 Ry
     one-center paw contrib.   =    -168.30522138 Ry

     convergence has been achieved in  13 iterations

     Forces acting on atoms (cartesian axes, Ry/au):

     atom    1 type  4   force =     0.00240930    0.00130117   -0.00600514
     atom    2 type  4   force =     0.00153214    0.00175687    0.00249534
     atom    3 type  2   force =     0.00360536    0.00724735    0.00189192
     atom    4 type  4   force =     0.00318727    0.00050029    0.00510679
     atom    5 type  5   force =     0.00419740    0.00292901   -0.00025675
     atom    6 type  5   force =     0.00015719   -0.00951367    0.00103520
     atom    7 type  5   force =     0.00097585    0.00341682   -0.01021042
     atom    8 type  5   force =     0.00117446   -0.00164264    0.00265495
     atom    9 type  1   force =    -0.00038948    0.00525033    0.00146624
     atom   10 type  1   force =     0.00313012   -0.00339941   -0.00600826
     atom   11 type  1   force =     0.00229481    0.00363776    0.00141501
     atom   12 type  1   force =    -0.00200612   -0.00066027    0.00262791
     atom   13 type  1   force =     0.00204201    0.00040538   -0.00137701
     atom   14 type  6   force =     0.00131990   -0.03754388   -0.00870138
     atom   15 type  1   force =    -0.00131983    0.00514731    0.00043454
     atom   16 type  1   force =     0.00215453   -0.00354152    0.00156056
     atom   17 type  1   force =     0.00254018   -0.00004294    0.00000492
     atom   18 type  1   force =     0.00172438   -0.00161569    0.00470798
     atom   19 type  1   force =    -0.00200857    0.00182774   -0.00028425
     atom   20 type  1   force =    -0.00166901    0.00084405   -0.00105775
     atom   21 type  3   force =    -0.00862992   -0.00214763    0.00645858
     atom   22 type  3   force =     0.00313876   -0.00038072    0.00260510
     atom   23 type  3   force =     0.00251517    0.00033376    0.00426630
     atom   24 type  3   force =    -0.00347917   -0.00345229    0.00265945
     atom   25 type  3   force =     0.00139424    0.00003629   -0.00462429
     atom   26 type  3   force =     0.00598510   -0.00253850   -0.00060782
     atom   27 type  3   force =     0.00113506    0.00459964    0.00014444
     atom   28 type  3   force =     0.00887176   -0.00337202   -0.00505542
     atom   29 type  3   force =    -0.00120063    0.00420109   -0.00189887
     atom   30 type  3   force =    -0.00109192    0.00108606   -0.00075174
     atom   31 type  3   force =     0.00177077   -0.00369375    0.00152559
     atom   32 type  3   force =    -0.00014249   -0.00105832   -0.00107854
     atom   33 type  3   force =     0.00515102    0.00253286   -0.00239828
     atom   34 type  3   force =     0.00387787    0.00088994   -0.00343138
     atom   35 type  3   force =     0.00165949    0.00180432   -0.00327527
     atom   36 type  3   force =    -0.00197956   -0.00168253   -0.00055543
     atom   37 type  3   force =    -0.00521892    0.00162831   -0.00011039
     atom   38 type  3   force =    -0.02383622    0.01340319    0.02744959
     atom   39 type  3   force =     0.00531278    0.00232749   -0.00507959
     atom   40 type  3   force =    -0.00197817   -0.00160816    0.00643556
     atom   41 type  3   force =     0.00197485    0.00379740   -0.00800388
     atom   42 type  3   force =    -0.00990053    0.00844237    0.00223806
     atom   43 type  3   force =     0.00111290   -0.00170065   -0.00359635
     atom   44 type  3   force =     0.00247109    0.00281251   -0.00394319
     atom   45 type  3   force =    -0.00737435   -0.00215644   -0.00126842
     atom   46 type  3   force =    -0.00928241    0.00549417    0.00851498
     atom   47 type  3   force =    -0.00194884    0.00052142    0.00324022
     atom   48 type  3   force =    -0.00182416    0.00038656   -0.00198625
     atom   49 type  3   force =     0.00560835   -0.00010141    0.00325656
     atom   50 type  3   force =     0.01054747    0.00536801   -0.01790937
     atom   51 type  3   force =    -0.00210760   -0.00011253   -0.00067450
     atom   52 type  3   force =     0.00114367   -0.00499837    0.00133481
     atom   53 type  3   force =    -0.00309229    0.00535191    0.00502671
     atom   54 type  3   force =     0.00072802   -0.00872536   -0.00644964
     atom   55 type  3   force =     0.00117966    0.00959562   -0.00462335
     atom   56 type  3   force =    -0.00131699   -0.00171407    0.00550493
     atom   57 type  3   force =    -0.00330049    0.00063218    0.00258581
     atom   58 type  3   force =    -0.00623991   -0.00221370    0.00484968
     atom   59 type  3   force =    -0.00605802    0.00205806    0.00616728
     atom   60 type  3   force =    -0.00019118   -0.00552703    0.00009046
     atom   61 type  3   force =    -0.00118611   -0.00041388    0.00149100
     atom   62 type  3   force =    -0.00236551   -0.00287987   -0.00091860
     atom   63 type  3   force =     0.00714724   -0.00628458   -0.00308092
     atom   64 type  3   force =    -0.00424337   -0.00260904    0.00250189
     atom   65 type  3   force =     0.00435563    0.00033660   -0.00215454
     atom   66 type  3   force =     0.00289713    0.00172395   -0.00091504
     atom   67 type  3   force =    -0.00022028    0.00209916   -0.00106380
     atom   68 type  3   force =     0.00317914    0.00160393   -0.00439256

     Total force =     0.078401     Total SCF correction =     0.001409


     Computing stress (Cartesian axis) and pressure

          total   stress  (Ry/bohr**3)                   (kbar)     P=       -1.35
   0.00001490   0.00000372   0.00002223            2.19        0.55        3.27
   0.00000372  -0.00000555  -0.00001262            0.55       -0.82       -1.86
   0.00002223  -0.00001262  -0.00003686            3.27       -1.86       -5.42

     Energy error            =      1.3E-02
     Gradient error          =      3.8E-02
     Cell gradient error     =      3.7E-05


     number of scf cycles    =   6
     number of bfgs steps    =   5

     enthalpy old            =    -898.9754517558 Ry
     enthalpy new            =    -898.9887154294 Ry

     CASE: enthalpy_new < enthalpy_old

     new trust radius        =       0.1413632836 bohr
     new conv_thr            =       0.0000003754 Ry

     new unit-cell volume =   5601.31185 a.u.^3 (   830.02878 Ang^3 )
     density =      0.13604 g/cm^3

CELL_PARAMETERS (angstrom)
   0.148788048  -0.434255668  -8.579651244
   0.038495510  -8.488610530  -0.450480800
 -11.431605775   0.067698151   0.219174501

ATOMIC_POSITIONS (angstrom)
K            -8.6642143458       -8.1999168928       -4.8241321057
K            -2.9398678528       -0.5306729973       -3.9599805556
Ga           -2.4599182899       -4.4104100333       -8.6058381837
K            -8.2413083073       -4.3581434934       -0.4591669885
Sr           -5.4967658072       -8.6355180420       -8.5349580941
Sr          -11.2857463462       -0.2402068844       -0.2695226645
Sr          -11.3523719912       -4.1999734964       -4.3606980215
Sr           -5.5889865738       -4.5474179271       -4.0951820422
B            -8.6763503748       -4.2085233423       -3.6906439018
B            -2.9988325767       -4.6029257146       -5.0544770171
B            -3.0100343083       -8.3206318435       -0.9865868252
B            -8.5889010320       -0.5233527818       -7.7840823563
B            -5.3283362068       -3.0108407292       -1.5855426893
Ta          -11.6817139713       -5.9792159137       -7.4028470287
B           -10.9944460356       -7.2933127788       -3.0429563530
B            -5.2572160742       -1.5701605674       -5.7226881667
B            -6.0224435175       -6.1189307077       -7.0254096554
B            -0.3974811172       -2.8361291142       -1.8830310225
B            -0.2935666692       -1.6813918169       -6.0698058427
B            -6.0805138737       -7.0667267113       -2.8340628934
H            -9.5147281673       -4.3455831550       -2.8112078107
H            -3.9136269201       -4.4683027231       -5.8530291942
H            -3.9572510486       -8.4577057693       -1.7548623608
H            -9.5062142188       -0.3395635035       -7.0032792958
H            -8.7115136248       -5.1908558818       -4.4176114469
H            -2.9567232914       -3.6190787639       -4.3158840357
H            -2.8274198102       -1.2271011793       -8.3567000323
H            -8.7214443349       -7.6182019561       -0.4150111138
H            -8.9084297949       -3.1886075484       -4.3243706974
H            -3.1292580244       -5.6306769078       -4.3934518077
H            -2.9944354623       -7.6858964686       -8.9494833722
H            -8.9013593734       -1.1538622280        0.1906443588
H            -7.6568519269       -4.0853599677       -3.0561055947
H            -2.0023681350       -4.7109644787       -5.7791255329
H            -2.0337760753       -8.2225232096       -1.7045570303
H            -7.6038540663       -0.6013876512       -7.0881590659
H            -5.1816777806       -2.3657927746       -0.5528690688
H           -10.7695845349       -6.9432877610       -8.6629096822
H           -10.8697317189       -6.6480875309       -4.0608029175
H            -5.1208935757       -2.1809503690       -4.6824100464
H            -4.2663654545       -2.9339429026       -2.2082211389
H           -10.1422212434       -5.8522955189       -6.5136435425
H            -9.9893594168       -7.2160199506       -2.3400712492
H            -4.2029769027       -1.6528375605       -6.3412616857
H            -5.4497428434       -4.1934466102       -1.2776704250
H           -11.0405777200       -4.2815710229       -7.3930945713
H           -11.1981963737       -8.4505096032       -3.4078442337
H            -5.4950254677       -0.4024961835       -5.4273574978
H            -6.2773505391       -2.6211185045       -2.2774772729
H            -0.9254289857       -6.6960376127       -6.0730324745
H            -0.5008570826       -6.9405752037       -2.6033754571
H            -6.1740371922       -2.0179052912       -6.4007454468
H            -5.6726862279       -6.7272666771       -6.0265319604
H            -0.1702093826       -2.1379130758       -2.8674501642
H             0.0222642460       -2.4250177204       -6.9945080512
H            -5.7840175745       -6.3702024486       -1.8665247904
H            -6.9857439601       -6.7062653003       -7.5231627699
H            -1.3946045442       -2.3391333424       -1.3480009127
H            -1.2982760488       -2.2051614165       -5.5984552741
H            -7.0364554084       -6.5256743501       -3.3775303294
H            -6.3052258875       -4.9410234707       -6.8079295116
H            -0.6283717791       -4.0203775241       -2.1276962633
H            -0.5726434417       -0.5138966665       -6.3915131825
H            -6.3394117401       -8.2248824408       -2.5335618302
H            -5.0974382554       -6.1230159268       -7.8352502982
H           -10.8921157487       -2.7328522629       -0.8804799560
H           -10.8205020943       -1.6116000406       -5.0138085758
H            -5.1136285819       -7.0873882911       -3.5868159204



     Writing output data file ./tmp/K3Sr4TaGaB11H48.save/
     NEW-OLD atomic charge density approx. for the potential

     negative rho (up, down):  9.110E-07 0.000E+00
     extrapolated charge  150.57114, renormalised to  150.00000

     total cpu time spent up to now is    23143.4 secs

     Self-consistent Calculation

     iteration #  1     ecut=    50.00 Ry     beta= 0.70
     CG style diagonalization
     ethr =  1.00E-06,  avg # of iterations = 19.6

     total cpu time spent up to now is    24218.1 secs

     total energy              =    -898.98266115 Ry
     estimated scf accuracy    <       0.03166603 Ry

     iteration #  2     ecut=    50.00 Ry     beta= 0.70
     CG style diagonalization
     ethr =  2.11E-05,  avg # of iterations =  4.0

     total cpu time spent up to now is    24420.1 secs

     total energy              =    -898.98288932 Ry
     estimated scf accuracy    <       0.06569564 Ry

     iteration #  3     ecut=    50.00 Ry     beta= 0.70
     CG style diagonalization
     ethr =  2.11E-05,  avg # of iterations =  3.6

     total cpu time spent up to now is    24598.5 secs

     total energy              =    -898.98942091 Ry
     estimated scf accuracy    <       0.07889159 Ry

     iteration #  4     ecut=    50.00 Ry     beta= 0.70
     CG style diagonalization
     ethr =  2.11E-05,  avg # of iterations =  3.1

     total cpu time spent up to now is    24747.5 secs

     total energy              =    -898.99839912 Ry
     estimated scf accuracy    <       0.00767859 Ry

     iteration #  5     ecut=    50.00 Ry     beta= 0.70
     CG style diagonalization
     ethr =  5.12E-06,  avg # of iterations =  3.3

     total cpu time spent up to now is    24903.7 secs

     total energy              =    -898.99954320 Ry
     estimated scf accuracy    <       0.00249179 Ry

     iteration #  6     ecut=    50.00 Ry     beta= 0.70
     CG style diagonalization
     ethr =  1.66E-06,  avg # of iterations =  3.5

     total cpu time spent up to now is    25073.5 secs

     total energy              =    -898.99977254 Ry
     estimated scf accuracy    <       0.00163833 Ry

     iteration #  7     ecut=    50.00 Ry     beta= 0.70
     CG style diagonalization
     ethr =  1.09E-06,  avg # of iterations =  3.3

     total cpu time spent up to now is    25233.5 secs

     total energy              =    -898.99999268 Ry
     estimated scf accuracy    <       0.00019219 Ry

     iteration #  8     ecut=    50.00 Ry     beta= 0.70
     CG style diagonalization
     ethr =  1.28E-07,  avg # of iterations =  4.2

     total cpu time spent up to now is    25448.2 secs

     total energy              =    -899.00008099 Ry
     estimated scf accuracy    <       0.00012695 Ry

     iteration #  9     ecut=    50.00 Ry     beta= 0.70
     CG style diagonalization
     ethr =  8.46E-08,  avg # of iterations =  3.5

     total cpu time spent up to now is    25619.9 secs

     total energy              =    -899.00010670 Ry
     estimated scf accuracy    <       0.00008290 Ry

     iteration # 10     ecut=    50.00 Ry     beta= 0.70
     CG style diagonalization
     ethr =  5.53E-08,  avg # of iterations =  3.5

     total cpu time spent up to now is    25788.8 secs

     total energy              =    -899.00011649 Ry
     estimated scf accuracy    <       0.00007400 Ry

     iteration # 11     ecut=    50.00 Ry     beta= 0.70
     CG style diagonalization
     ethr =  4.93E-08,  avg # of iterations =  3.3

     total cpu time spent up to now is    25947.2 secs

     total energy              =    -899.00012792 Ry
     estimated scf accuracy    <       0.00000620 Ry

     iteration # 12     ecut=    50.00 Ry     beta= 0.70
     CG style diagonalization
     ethr =  4.13E-09,  avg # of iterations =  6.4

     total cpu time spent up to now is    26284.2 secs

     total energy              =    -899.00014746 Ry
     estimated scf accuracy    <       0.00000626 Ry

     iteration # 13     ecut=    50.00 Ry     beta= 0.70
     CG style diagonalization
     ethr =  4.13E-09,  avg # of iterations =  3.5

     total cpu time spent up to now is    26453.1 secs

     total energy              =    -899.00014879 Ry
     estimated scf accuracy    <       0.00000110 Ry

     iteration # 14     ecut=    50.00 Ry     beta= 0.70
     CG style diagonalization
     ethr =  7.31E-10,  avg # of iterations =  4.9

     total cpu time spent up to now is    26699.8 secs

     End of self-consistent calculation

          k =-0.0000 0.0000 0.0000 ( 32571 PWs)   bands (ev):

   -66.5493 -34.1855 -33.9631 -33.8834 -33.7820 -33.1348 -33.0771 -32.9448
   -16.2144 -16.2122 -16.1623 -16.0188 -15.9819 -15.9427 -15.9346 -15.8956
   -15.8895 -15.8695 -15.8418 -15.8228 -13.6897 -13.6865 -13.5909 -13.5645
   -13.5456  -7.9799  -7.6247  -7.4839  -7.3388  -7.2629  -7.1620  -7.0135
    -6.9596  -6.8960  -6.8233  -6.6304  -4.4019  -3.5512  -3.4208  -3.2531
    -3.1048  -3.0698  -3.0213  -2.9839  -2.9070  -2.7782  -2.7583  -2.7038
    -2.5901  -2.5630  -2.4523  -2.4029  -2.3658  -2.3357  -2.2562  -2.1935
    -2.1461  -2.1068  -2.0397  -1.9872  -1.9342  -1.7671  -1.7175  -1.6480
    -1.6299  -1.5431  -1.5177  -1.4462  -1.3896  -1.3097  -1.2839  -1.1632
    -1.0206  -0.8244   1.7911   1.8988   2.5151   2.6971   3.1442   4.0274
     4.3605   4.5907   4.6451   4.9271   4.9471   4.9898   5.1190   5.3435
     5.4930   5.5521

          k = 0.3790 0.0014 0.0065 ( 32604 PWs)   bands (ev):

   -66.5493 -34.1855 -33.9631 -33.8834 -33.7820 -33.1348 -33.0771 -32.9448
   -16.2141 -16.2121 -16.1623 -16.0191 -15.9820 -15.9427 -15.9342 -15.8953
   -15.8891 -15.8699 -15.8425 -15.8229 -13.6897 -13.6865 -13.5909 -13.5645
   -13.5456  -7.9125  -7.7019  -7.4465  -7.3929  -7.2752  -7.1244  -7.0044
    -6.9606  -6.9124  -6.8292  -6.6324  -4.3991  -3.5961  -3.3008  -3.2190
    -3.0721  -3.0057  -2.9945  -2.9798  -2.8797  -2.8357  -2.7384  -2.7160
    -2.6800  -2.6182  -2.5506  -2.4711  -2.3550  -2.3398  -2.2539  -2.2014
    -2.1336  -2.0881  -1.9969  -1.9087  -1.8606  -1.7870  -1.7144  -1.6627
    -1.5971  -1.5605  -1.5019  -1.4700  -1.4496  -1.3265  -1.2991  -1.1632
    -1.0727  -0.8208   1.7991   1.9090   2.5158   2.6921   3.1507   4.0492
     4.3320   4.6624   4.8666   4.9319   5.0087   5.1642   5.2250   5.3013
     5.3791   5.5653

          k = 0.0025 0.5116-0.0259 ( 32596 PWs)   bands (ev):

   -66.5493 -34.1855 -33.9631 -33.8834 -33.7820 -33.1348 -33.0771 -32.9448
   -16.2143 -16.2121 -16.1623 -16.0187 -15.9813 -15.9426 -15.9347 -15.8961
   -15.8898 -15.8696 -15.8418 -15.8230 -13.6897 -13.6865 -13.5909 -13.5645
   -13.5456  -7.8624  -7.7034  -7.4825  -7.3033  -7.2558  -7.1605  -7.0477
    -7.0019  -6.9239  -6.8443  -6.6256  -4.4513  -3.6950  -3.3244  -3.2896
    -3.0711  -3.0441  -2.9815  -2.9093  -2.8512  -2.7903  -2.6924  -2.6662
    -2.6078  -2.5964  -2.4662  -2.4380  -2.3415  -2.2931  -2.1958  -2.1586
    -2.1080  -2.0282  -1.9679  -1.9510  -1.8899  -1.8042  -1.7880  -1.6888
    -1.6484  -1.6004  -1.5231  -1.4712  -1.4285  -1.3765  -1.3570  -1.2242
    -1.0728  -0.7944   1.7920   1.9180   2.4292   2.6863   3.0202   3.9135
     4.3789   4.7480   4.9144   4.9891   5.0809   5.1782   5.2463   5.3240
     5.4675   5.5160

          k = 0.3815 0.5130-0.0193 ( 32564 PWs)   bands (ev):

   -66.5493 -34.1855 -33.9631 -33.8834 -33.7820 -33.1348 -33.0770 -32.9448
   -16.2140 -16.2121 -16.1623 -16.0191 -15.9814 -15.9426 -15.9343 -15.8959
   -15.8894 -15.8700 -15.8425 -15.8230 -13.6897 -13.6865 -13.5908 -13.5645
   -13.5456  -7.8279  -7.6265  -7.4604  -7.4573  -7.3465  -7.1235  -7.0102
    -6.9850  -6.9300  -6.8355  -6.6210  -4.4507  -3.7038  -3.3051  -3.2341
    -3.1248  -3.0194  -2.9469  -2.8961  -2.8653  -2.7644  -2.7401  -2.6651
    -2.5438  -2.5160  -2.4250  -2.3786  -2.3458  -2.2909  -2.2572  -2.2236
    -2.1710  -2.1180  -1.9911  -1.9673  -1.9047  -1.8080  -1.7706  -1.6697
    -1.6275  -1.5943  -1.5143  -1.4915  -1.4693  -1.3841  -1.3292  -1.2200
    -1.0947  -0.7958   1.8012   1.9264   2.4325   2.6874   3.0218   3.9220
     4.3963   4.8297   4.9254   5.0604   5.1254   5.1591   5.3042   5.4781
     5.5214   5.5622

          k = 0.0095-0.0268 0.5063 ( 32578 PWs)   bands (ev):

   -66.5493 -34.1855 -33.9631 -33.8834 -33.7820 -33.1348 -33.0771 -32.9448
   -16.2143 -16.2122 -16.1623 -16.0187 -15.9813 -15.9427 -15.9346 -15.8962
   -15.8897 -15.8696 -15.8418 -15.8230 -13.6897 -13.6865 -13.5909 -13.5645
   -13.5456  -7.8725  -7.6657  -7.5015  -7.2888  -7.2366  -7.1934  -7.0995
    -6.9926  -6.8999  -6.8386  -6.6362  -4.3934  -3.7002  -3.3318  -3.2061
    -3.1095  -3.0999  -2.9667  -2.8894  -2.8739  -2.7781  -2.7147  -2.7076
    -2.5877  -2.5533  -2.4853  -2.3860  -2.3439  -2.2843  -2.2094  -2.1180
    -2.0895  -2.0704  -2.0006  -1.9777  -1.9397  -1.8952  -1.7400  -1.7235
    -1.6638  -1.5833  -1.5619  -1.5036  -1.4349  -1.4064  -1.3107  -1.1403
    -1.0685  -0.7693   1.8187   1.8920   2.5284   2.6939   3.1264   3.9435
     4.3674   4.7373   4.9100   4.9895   5.1193   5.2215   5.3038   5.3881
     5.4260   5.5326

          k = 0.3886-0.0255 0.5128 ( 32564 PWs)   bands (ev):

   -66.5493 -34.1855 -33.9631 -33.8834 -33.7820 -33.1348 -33.0771 -32.9448
   -16.2140 -16.2121 -16.1622 -16.0191 -15.9814 -15.9427 -15.9342 -15.8959
   -15.8894 -15.8699 -15.8425 -15.8230 -13.6897 -13.6865 -13.5908 -13.5645
   -13.5456  -7.8353  -7.5974  -7.4850  -7.4471  -7.3181  -7.1692  -7.0336
    -6.9412  -6.9288  -6.8490  -6.6368  -4.3989  -3.6740  -3.3210  -3.1086
    -3.0960  -3.0662  -2.9617  -2.8920  -2.8363  -2.8166  -2.7335  -2.7008
    -2.5739  -2.5687  -2.4815  -2.4283  -2.3596  -2.2857  -2.2309  -2.2175
    -2.1625  -2.1133  -2.0079  -1.9547  -1.9301  -1.8451  -1.7752  -1.6818
    -1.6015  -1.5693  -1.5230  -1.4911  -1.4539  -1.4267  -1.3294  -1.1635
    -1.0861  -0.7684   1.8142   1.9006   2.5194   2.6955   3.1264   3.9669
     4.3681   4.8810   4.9455   4.9778   5.2159   5.2414   5.3742   5.4272
     5.4948   5.6421

          k = 0.0121 0.4848 0.4805 ( 32544 PWs)   bands (ev):

   -66.5493 -34.1855 -33.9631 -33.8834 -33.7820 -33.1348 -33.0770 -32.9448
   -16.2144 -16.2123 -16.1624 -16.0188 -15.9820 -15.9430 -15.9344 -15.8955
   -15.8895 -15.8696 -15.8418 -15.8229 -13.6897 -13.6865 -13.5908 -13.5645
   -13.5456  -7.7962  -7.7166  -7.4582  -7.3183  -7.2370  -7.2055  -7.0660
    -7.0000  -6.9291  -6.8317  -6.6844  -4.5093  -3.7636  -3.2664  -3.1889
    -3.1478  -3.0583  -2.9147  -2.8508  -2.7525  -2.7450  -2.6667  -2.5789
    -2.5356  -2.5083  -2.4874  -2.4248  -2.3783  -2.2981  -2.2657  -2.1975
    -2.1468  -2.0967  -2.0335  -2.0237  -1.9017  -1.8670  -1.8278  -1.6612
    -1.6097  -1.5490  -1.5176  -1.4846  -1.4459  -1.3778  -1.3587  -1.2071
    -1.1903  -0.7735   1.8272   1.9100   2.4487   2.7033   3.0081   3.8326
     4.4012   4.7954   4.9151   4.9735   5.1930   5.2474   5.3250   5.3712
     5.4033   5.5092

          k = 0.3911 0.4862 0.4870 ( 32568 PWs)   bands (ev):

   -66.5493 -34.1855 -33.9631 -33.8834 -33.7820 -33.1348 -33.0770 -32.9448
   -16.2141 -16.2122 -16.1624 -16.0191 -15.9821 -15.9430 -15.9340 -15.8952
   -15.8892 -15.8699 -15.8425 -15.8229 -13.6897 -13.6865 -13.5908 -13.5645
   -13.5456  -7.7760  -7.6216  -7.4874  -7.4146  -7.2993  -7.1730  -7.0794
    -6.9779  -6.9359  -6.8295  -6.6647  -4.5194  -3.6900  -3.1905  -3.1614
    -3.1384  -3.0585  -2.9476  -2.8999  -2.7944  -2.7304  -2.6616  -2.6053
    -2.5526  -2.5206  -2.4618  -2.4406  -2.4262  -2.3202  -2.2523  -2.1952
    -2.1267  -2.0683  -2.0102  -1.9820  -1.8909  -1.8423  -1.7253  -1.7127
    -1.6603  -1.6462  -1.5349  -1.5333  -1.4578  -1.4053  -1.3143  -1.1969
    -1.1841  -0.7720   1.8212   1.9170   2.4414   2.7067   3.0129   3.8428
     4.4204   4.8861   5.0241   5.1020   5.2770   5.3113   5.3918   5.4142
     5.4478   5.5013

     the Fermi energy is     1.8591 ev

!    total energy              =    -899.00015007 Ry
     estimated scf accuracy    <       0.00000018 Ry
     smearing contrib. (-TS)   =      -0.00975990 Ry
     internal energy E=F+TS    =    -898.99039016 Ry

     The total energy is F=E-TS. E is the sum of the following terms:
     one-electron contribution =    -492.50170171 Ry
     hartree contribution      =     282.91344471 Ry
     xc contribution           =    -236.07258604 Ry
     ewald contribution        =    -285.02363683 Ry
     one-center paw contrib.   =    -168.30591029 Ry

     convergence has been achieved in  14 iterations

     Forces acting on atoms (cartesian axes, Ry/au):

     atom    1 type  4   force =     0.00281133    0.00105590   -0.00587378
     atom    2 type  4   force =     0.00045772    0.00060343    0.00157992
     atom    3 type  2   force =     0.00409257    0.00684955    0.00283182
     atom    4 type  4   force =     0.00379884    0.00075341    0.00454112
     atom    5 type  5   force =     0.00566542    0.00431727   -0.00208698
     atom    6 type  5   force =    -0.00219137   -0.01462853    0.00410718
     atom    7 type  5   force =    -0.00125223    0.00641950   -0.01154271
     atom    8 type  5   force =     0.00326597   -0.00184587    0.00292074
     atom    9 type  1   force =    -0.00281761    0.00181762    0.00389443
     atom   10 type  1   force =     0.00425841   -0.00156907   -0.00299581
     atom   11 type  1   force =     0.00401482    0.00041183   -0.00123983
     atom   12 type  1   force =    -0.00231074   -0.00004609    0.00107084
     atom   13 type  1   force =     0.00650451   -0.00250557    0.00012130
     atom   14 type  6   force =     0.00286845   -0.00199770    0.00346331
     atom   15 type  1   force =     0.00082560    0.00357116   -0.00227340
     atom   16 type  1   force =     0.00130198   -0.00257985    0.00187064
     atom   17 type  1   force =     0.00067017   -0.00040431   -0.00184134
     atom   18 type  1   force =    -0.00234928   -0.00099332    0.00234872
     atom   19 type  1   force =    -0.00313934   -0.00358685    0.00450344
     atom   20 type  1   force =     0.00232642   -0.00256671    0.00038251
     atom   21 type  3   force =    -0.00643331   -0.00161573    0.00260192
     atom   22 type  3   force =     0.00082978   -0.00038097   -0.00072737
     atom   23 type  3   force =     0.00307137    0.00048199    0.00258925
     atom   24 type  3   force =    -0.00536582   -0.00427948    0.00430513
     atom   25 type  3   force =     0.00274876    0.00257925   -0.00166492
     atom   26 type  3   force =     0.00683718   -0.00305698   -0.00179089
     atom   27 type  3   force =     0.00101099    0.00377154    0.00114876
     atom   28 type  3   force =     0.01029769   -0.00377788   -0.00569055
     atom   29 type  3   force =    -0.00145057    0.00458625   -0.00187734
     atom   30 type  3   force =    -0.00088878   -0.00088524   -0.00059748
     atom   31 type  3   force =     0.00085657    0.00102930    0.00481728
     atom   32 type  3   force =    -0.00117979   -0.00061033   -0.00189499
     atom   33 type  3   force =     0.00381398    0.00149264   -0.00394467
     atom   34 type  3   force =     0.00547322    0.00037798   -0.00261348
     atom   35 type  3   force =     0.00177350    0.00085340   -0.00332831
     atom   36 type  3   force =    -0.00190221   -0.00087375    0.00034775
     atom   37 type  3   force =    -0.00755010    0.00317361    0.00033615
     atom   38 type  3   force =    -0.01430488    0.00841097    0.01413306
     atom   39 type  3   force =     0.00503370    0.00415043   -0.00419466
     atom   40 type  3   force =    -0.00228316   -0.00169684    0.00626770
     atom   41 type  3   force =    -0.00013824    0.00377737   -0.00927462
     atom   42 type  3   force =    -0.00833437    0.00609991    0.00366961
     atom   43 type  3   force =     0.00330678   -0.00260048   -0.00565784
     atom   44 type  3   force =     0.00170338    0.00325534   -0.00399182
     atom   45 type  3   force =    -0.00809326   -0.00224489   -0.00175191
     atom   46 type  3   force =    -0.01935358   -0.02046271    0.00527281
     atom   47 type  3   force =    -0.00111870    0.00136556    0.00603489
     atom   48 type  3   force =    -0.00112923   -0.00052190   -0.00194724
     atom   49 type  3   force =     0.00532658    0.00106916    0.00314970
     atom   50 type  3   force =     0.00649042    0.00412282   -0.01260961
     atom   51 type  3   force =    -0.00551622    0.00143046   -0.00125927
     atom   52 type  3   force =     0.00198589   -0.00451180    0.00194673
     atom   53 type  3   force =    -0.00231817    0.00461993    0.00542330
     atom   54 type  3   force =     0.00101364   -0.01017467   -0.00372576
     atom   55 type  3   force =     0.00311527    0.01038815   -0.00639639
     atom   56 type  3   force =    -0.00109033   -0.00167294    0.00517299
     atom   57 type  3   force =    -0.00215995    0.00186079    0.00316500
     atom   58 type  3   force =    -0.00445935   -0.00303384    0.00356729
     atom   59 type  3   force =    -0.00409851    0.00368345    0.00600738
     atom   60 type  3   force =    -0.00222002   -0.00459645   -0.00126847
     atom   61 type  3   force =    -0.00200470   -0.00067068    0.00226018
     atom   62 type  3   force =    -0.00197769   -0.00049895   -0.00175023
     atom   63 type  3   force =     0.00460972   -0.00233985   -0.00513670
     atom   64 type  3   force =    -0.00445601    0.00000665    0.00196202
     atom   65 type  3   force =     0.00454999   -0.00135707   -0.00213461
     atom   66 type  3   force =     0.00597379    0.00286509    0.00001524
     atom   67 type  3   force =     0.00024186    0.00030839   -0.00159069
     atom   68 type  3   force =     0.00096127    0.00302721   -0.00315647

     Total force =     0.065874     Total SCF correction =     0.001790


     Computing stress (Cartesian axis) and pressure

          total   stress  (Ry/bohr**3)                   (kbar)     P=       -2.46
   0.00000932  -0.00000386   0.00000866            1.37       -0.57        1.27
  -0.00000386  -0.00002718  -0.00001452           -0.57       -4.00       -2.14
   0.00000866  -0.00001452  -0.00003222            1.27       -2.14       -4.74

     Energy error            =      1.1E-02
     Gradient error          =      2.0E-02
     Cell gradient error     =      3.2E-05


     number of scf cycles    =   7
     number of bfgs steps    =   6

     enthalpy old            =    -898.9887154294 Ry
     enthalpy new            =    -899.0001500661 Ry

     CASE: enthalpy_new < enthalpy_old

     new trust radius        =       0.1179574529 bohr
     new conv_thr            =       0.0000002046 Ry

     new unit-cell volume =   5606.77600 a.u.^3 (   830.83848 Ang^3 )
     density =      0.13591 g/cm^3

CELL_PARAMETERS (angstrom)
   0.112758481  -0.428084795  -8.548005807
   0.049494601  -8.509539591  -0.442179085
 -11.454502602   0.084862453   0.167835757

ATOMIC_POSITIONS (angstrom)
K            -8.6847474773       -8.1985037676       -4.8565010997
K            -2.9526769974       -0.5132892069       -3.9456783903
Ga           -2.4809206780       -4.3932472003       -8.5699960409
K            -8.2468134570       -4.3544515989       -0.4724502488
Sr           -5.5291364335       -8.6446966846       -8.5130172818
Sr          -11.2981798180       -0.2303599961       -0.3322756796
Sr          -11.3727395031       -4.2035721433       -4.4183265769
Sr           -5.6116309166       -4.5482687021       -4.0982834008
B            -8.7063006301       -4.1947649771       -3.7114563058
B            -3.0106725631       -4.6102359988       -5.0519895649
B            -3.0012921765       -8.3310781043       -0.9879253830
B            -8.6393010852       -0.5105736161       -7.7932963198
B            -5.3428965462       -3.0051048161       -1.6072067042
Ta          -11.7437672587       -5.9894506843       -7.4360391244
B           -11.0204737042       -7.2864053126       -3.0780568518
B            -5.2871358759       -1.5678888070       -5.7218470080
B            -6.0540461242       -6.1152186013       -7.0187017359
B            -0.4033089910       -2.8497243123       -1.8738672774
B            -0.3212794193       -1.6732036568       -6.0503175595
B            -6.0960828546       -7.0783406799       -2.8450901057
H            -9.5475529831       -4.3413661082       -2.8289800284
H            -3.9306046807       -4.4676577816       -5.8398242601
H            -3.9557861849       -8.4696244046       -1.7452474685
H            -9.5590656397       -0.3213522484       -7.0182099816
H            -8.7416306632       -5.1754259298       -4.4483234965
H            -2.9622204589       -3.6297249179       -4.3105469627
H            -2.8609623788       -1.2082343619       -8.3371565631
H            -8.7144901200       -7.6351994405       -0.4519968099
H            -8.9429034872       -3.1732788799       -4.3450938644
H            -3.1480369246       -5.6337841229       -4.3887883112
H            -3.0201690346       -7.6956419290       -8.9196456185
H            -8.9140564460       -1.1487471813        0.1531146266
H            -7.6812688805       -4.0677224782       -3.0814322926
H            -2.0183324339       -4.7169470521       -5.7835923068
H            -2.0285447467       -8.2289626691       -1.7103622865
H            -7.6549752640       -0.5954940763       -7.0969440024
H            -5.1945562129       -2.3655855502       -0.5729644803
H           -10.8588108816       -6.9585833741       -8.6318979709
H           -10.8868445069       -6.6497112809       -4.1006502147
H            -5.1502482472       -2.1712258345       -4.6758699681
H            -4.2779759582       -2.9266660794       -2.2255399014
H           -10.2216056632       -5.8249763706       -6.5326587263
H           -10.0177109953       -7.2135735001       -2.3712451520
H            -4.2319549008       -1.6427162396       -6.3422477203
H            -5.4707592775       -4.1882602643       -1.3003215602
H           -11.1132323835       -4.2494329464       -7.3909114168
H           -11.2306417431       -8.4440811888       -3.4417397673
H            -5.5367730070       -0.3975966646       -5.4369938610
H            -6.2914926938       -2.6158351883       -2.2970872183
H            -0.9210104080       -6.7268338101       -6.0724334743
H            -0.4999565183       -6.9516135088       -2.5830351570
H            -6.2029234836       -2.0239965964       -6.3990044096
H            -5.7099968305       -6.7141607551       -6.0119344158
H            -0.1836379751       -2.1641283010       -2.8714893157
H            -0.0093511251       -2.4126102269       -6.9764842692
H            -5.8036958010       -6.3836781058       -1.8733743197
H            -7.0201604583       -6.7050599654       -7.5130767249
H            -1.4020254272       -2.3501455041       -1.3359938727
H            -1.3307002040       -2.1908461126       -5.5784301974
H            -7.0538100502       -6.5404165481       -3.3895439326
H            -6.3386396125       -4.9366997213       -6.8078112600
H            -0.6360758043       -4.0377772159       -2.1098115328
H            -0.5812986170       -0.5073308512       -6.3762879651
H            -6.3558097966       -8.2376879954       -2.5428655222
H            -5.1267765801       -6.1169647616       -7.8268553479
H           -10.9176470887       -2.7243665893       -0.9265349560
H           -10.8710898920       -1.5816361924       -5.0462978700
H            -5.1258980831       -7.0979176875       -3.5975984643



     Writing output data file ./tmp/K3Sr4TaGaB11H48.save/
     NEW-OLD atomic charge density approx. for the potential

     negative rho (up, down):  3.919E-07 0.000E+00
     extrapolated charge  150.14599, renormalised to  150.00000

     total cpu time spent up to now is    27196.4 secs

     Self-consistent Calculation

     iteration #  1     ecut=    50.00 Ry     beta= 0.70
     CG style diagonalization
     ethr =  1.00E-06,  avg # of iterations = 15.2

     negative rho (up, down):  1.623E-08 0.000E+00

     total cpu time spent up to now is    28024.1 secs

     total energy              =    -899.00309372 Ry
     estimated scf accuracy    <       0.01770809 Ry

     iteration #  2     ecut=    50.00 Ry     beta= 0.70
     CG style diagonalization
     ethr =  1.18E-05,  avg # of iterations =  3.1

     total cpu time spent up to now is    28172.0 secs

     total energy              =    -899.00625557 Ry
     estimated scf accuracy    <       0.00542030 Ry

     iteration #  3     ecut=    50.00 Ry     beta= 0.70
     CG style diagonalization
     ethr =  3.61E-06,  avg # of iterations =  3.2

     negative rho (up, down):  1.068E-08 0.000E+00

     total cpu time spent up to now is    28323.2 secs

     total energy              =    -899.00594645 Ry
     estimated scf accuracy    <       0.01974593 Ry

     iteration #  4     ecut=    50.00 Ry     beta= 0.70
     CG style diagonalization
     ethr =  3.61E-06,  avg # of iterations =  3.1

     negative rho (up, down):  1.169E-08 0.000E+00

     total cpu time spent up to now is    28468.7 secs

     total energy              =    -899.00768504 Ry
     estimated scf accuracy    <       0.00151806 Ry

     iteration #  5     ecut=    50.00 Ry     beta= 0.70
     CG style diagonalization
     ethr =  1.01E-06,  avg # of iterations =  3.1

     negative rho (up, down):  1.027E-08 0.000E+00

     total cpu time spent up to now is    28614.7 secs

     total energy              =    -899.00792243 Ry
     estimated scf accuracy    <       0.00090043 Ry

     iteration #  6     ecut=    50.00 Ry     beta= 0.70
     CG style diagonalization
     ethr =  6.00E-07,  avg # of iterations =  3.2

     total cpu time spent up to now is    28765.9 secs

     total energy              =    -899.00798797 Ry
     estimated scf accuracy    <       0.00005426 Ry

     iteration #  7     ecut=    50.00 Ry     beta= 0.70
     CG style diagonalization
     ethr =  3.62E-08,  avg # of iterations =  4.5

     negative rho (up, down):  1.018E-08 0.000E+00

     total cpu time spent up to now is    28991.9 secs

     total energy              =    -899.00804615 Ry
     estimated scf accuracy    <       0.00005885 Ry

     iteration #  8     ecut=    50.00 Ry     beta= 0.70
     CG style diagonalization
     ethr =  3.62E-08,  avg # of iterations =  3.2

     negative rho (up, down):  1.020E-08 0.000E+00

     total cpu time spent up to now is    29146.5 secs

     total energy              =    -899.00804736 Ry
     estimated scf accuracy    <       0.00003962 Ry

     iteration #  9     ecut=    50.00 Ry     beta= 0.70
     CG style diagonalization
     ethr =  2.64E-08,  avg # of iterations =  3.2

     negative rho (up, down):  1.028E-08 0.000E+00

     total cpu time spent up to now is    29299.2 secs

     total energy              =    -899.00803378 Ry
     estimated scf accuracy    <       0.00014799 Ry

     iteration # 10     ecut=    50.00 Ry     beta= 0.70
     CG style diagonalization
     ethr =  2.64E-08,  avg # of iterations =  3.1

     negative rho (up, down):  1.039E-08 0.000E+00

     total cpu time spent up to now is    29446.8 secs

     total energy              =    -899.00804477 Ry
     estimated scf accuracy    <       0.00001359 Ry

     iteration # 11     ecut=    50.00 Ry     beta= 0.70
     CG style diagonalization
     ethr =  9.06E-09,  avg # of iterations =  4.1

     negative rho (up, down):  1.040E-08 0.000E+00

     total cpu time spent up to now is    29652.2 secs

     total energy              =    -899.00804912 Ry
     estimated scf accuracy    <       0.00001002 Ry

     iteration # 12     ecut=    50.00 Ry     beta= 0.70
     CG style diagonalization
     ethr =  6.68E-09,  avg # of iterations =  3.7

     negative rho (up, down):  1.041E-08 0.000E+00

     total cpu time spent up to now is    29833.1 secs

     total energy              =    -899.00805213 Ry
     estimated scf accuracy    <       0.00000076 Ry

     iteration # 13     ecut=    50.00 Ry     beta= 0.70
     CG style diagonalization
     ethr =  5.09E-10,  avg # of iterations =  6.9

     negative rho (up, down):  1.042E-08 0.000E+00

     total cpu time spent up to now is    30198.7 secs

     total energy              =    -899.00805502 Ry
     estimated scf accuracy    <       0.00000055 Ry

     iteration # 14     ecut=    50.00 Ry     beta= 0.70
     CG style diagonalization
     ethr =  3.70E-10,  avg # of iterations =  3.6

     negative rho (up, down):  1.042E-08 0.000E+00

     total cpu time spent up to now is    30375.7 secs

     total energy              =    -899.00805506 Ry
     estimated scf accuracy    <       0.00000037 Ry

     iteration # 15     ecut=    50.00 Ry     beta= 0.70
     CG style diagonalization
     ethr =  2.46E-10,  avg # of iterations =  3.9

     negative rho (up, down):  1.042E-08 0.000E+00

     total cpu time spent up to now is    30567.8 secs

     total energy              =    -899.00805517 Ry
     estimated scf accuracy    <       0.00000159 Ry

     iteration # 16     ecut=    50.00 Ry     beta= 0.70
     CG style diagonalization
     ethr =  2.46E-10,  avg # of iterations =  3.4

     negative rho (up, down):  1.041E-08 0.000E+00

     total cpu time spent up to now is    30733.5 secs

     total energy              =    -899.00805518 Ry
     estimated scf accuracy    <       0.00000087 Ry

     iteration # 17     ecut=    50.00 Ry     beta= 0.70
     CG style diagonalization
     ethr =  2.46E-10,  avg # of iterations =  3.2

     negative rho (up, down):  1.041E-08 0.000E+00

     total cpu time spent up to now is    30887.8 secs

     End of self-consistent calculation

          k = 0.0000 0.0000 0.0000 ( 32571 PWs)   bands (ev):

   -66.5185 -34.1952 -33.9588 -33.8814 -33.8119 -33.1290 -33.0437 -32.9195
   -16.2245 -16.2137 -16.1703 -16.0144 -15.9781 -15.9377 -15.9329 -15.8991
   -15.8951 -15.8870 -15.8681 -15.8539 -13.6352 -13.6316 -13.5357 -13.5095
   -13.4912  -7.9811  -7.6168  -7.4876  -7.3551  -7.2610  -7.1822  -7.0207
    -6.9551  -6.8931  -6.8283  -6.6162  -4.4078  -3.5869  -3.4349  -3.2563
    -3.1074  -3.0796  -3.0199  -2.9969  -2.9106  -2.7873  -2.7618  -2.7069
    -2.5993  -2.5496  -2.4536  -2.4031  -2.3693  -2.3484  -2.2569  -2.2112
    -2.1422  -2.1082  -2.0562  -1.9855  -1.9468  -1.7665  -1.7342  -1.6733
    -1.6498  -1.5615  -1.5283  -1.4533  -1.3982  -1.3255  -1.2820  -1.1718
    -1.0967  -0.7814   1.7915   1.9068   2.5599   2.7834   3.1315   4.0254
     4.4053   4.5872   4.6584   4.9099   4.9361   5.0064   5.1240   5.3513
     5.4931   5.5594

          k = 0.3782 0.0019 0.0049 ( 32604 PWs)   bands (ev):

   -66.5185 -34.1952 -33.9588 -33.8814 -33.8119 -33.1290 -33.0437 -32.9195
   -16.2242 -16.2136 -16.1702 -16.0148 -15.9782 -15.9377 -15.9323 -15.8986
   -15.8953 -15.8867 -15.8693 -15.8539 -13.6353 -13.6316 -13.5357 -13.5095
   -13.4912  -7.9167  -7.6942  -7.4423  -7.4073  -7.2851  -7.1422  -7.0110
    -6.9556  -6.9077  -6.8347  -6.6169  -4.4049  -3.6284  -3.3138  -3.2349
    -3.0766  -3.0169  -3.0035  -2.9813  -2.8808  -2.8431  -2.7444  -2.7150
    -2.6801  -2.6100  -2.5599  -2.4715  -2.3588  -2.3397  -2.2567  -2.2167
    -2.1393  -2.0952  -1.9970  -1.9087  -1.8614  -1.8179  -1.7116  -1.6961
    -1.6053  -1.5958  -1.5175  -1.4761  -1.4454  -1.3345  -1.3007  -1.1774
    -1.1430  -0.7792   1.7984   1.9171   2.5591   2.7787   3.1365   4.0443
     4.3780   4.6644   4.8586   4.9240   5.0170   5.1599   5.2315   5.3045
     5.3985   5.5717

          k = 0.0034 0.5103-0.0255 ( 32596 PWs)   bands (ev):

   -66.5185 -34.1952 -33.9588 -33.8814 -33.8119 -33.1290 -33.0437 -32.9195
   -16.2245 -16.2136 -16.1702 -16.0144 -15.9775 -15.9375 -15.9331 -15.8992
   -15.8955 -15.8874 -15.8681 -15.8540 -13.6352 -13.6316 -13.5357 -13.5095
   -13.4912  -7.8611  -7.7055  -7.4826  -7.3150  -7.2639  -7.1758  -7.0432
    -7.0024  -6.9204  -6.8515  -6.6110  -4.4620  -3.7242  -3.3497  -3.2872
    -3.0680  -3.0429  -2.9834  -2.9219  -2.8452  -2.7988  -2.7015  -2.6748
    -2.6130  -2.5965  -2.4640  -2.4385  -2.3457  -2.3023  -2.1929  -2.1640
    -2.1183  -2.0256  -1.9892  -1.9576  -1.9099  -1.8190  -1.7893  -1.7028
    -1.6629  -1.5992  -1.5361  -1.4864  -1.4413  -1.4130  -1.3712  -1.2323
    -1.1392  -0.7349   1.7889   1.9257   2.4791   2.7672   3.0061   3.9231
     4.4151   4.7646   4.9201   4.9961   5.0859   5.1840   5.2444   5.3224
     5.4648   5.5173

          k = 0.3816 0.5123-0.0206 ( 32564 PWs)   bands (ev):

   -66.5185 -34.1952 -33.9588 -33.8814 -33.8119 -33.1290 -33.0437 -32.9195
   -16.2242 -16.2135 -16.1702 -16.0147 -15.9776 -15.9375 -15.9324 -15.8988
   -15.8957 -15.8871 -15.8693 -15.8540 -13.6352 -13.6316 -13.5357 -13.5095
   -13.4912  -7.8275  -7.6268  -7.4692  -7.4625  -7.3477  -7.1420  -7.0151
    -6.9789  -6.9266  -6.8416  -6.6065  -4.4604  -3.7342  -3.3321  -3.2308
    -3.1231  -3.0229  -2.9520  -2.8947  -2.8746  -2.7615  -2.7503  -2.6618
    -2.5587  -2.5235  -2.4331  -2.3799  -2.3380  -2.2914  -2.2553  -2.2311
    -2.1793  -2.1167  -2.0138  -1.9646  -1.9265  -1.8203  -1.7800  -1.7085
    -1.6456  -1.5886  -1.5324  -1.4942  -1.4691  -1.3916  -1.3657  -1.2302
    -1.1638  -0.7347   1.7969   1.9339   2.4816   2.7695   3.0069   3.9324
     4.4407   4.8375   4.9362   5.0528   5.1254   5.1633   5.3086   5.4792
     5.5222   5.5669

          k = 0.0072-0.0264 0.5081 ( 32578 PWs)   bands (ev):

   -66.5185 -34.1952 -33.9588 -33.8814 -33.8119 -33.1290 -33.0437 -32.9195
   -16.2245 -16.2137 -16.1702 -16.0144 -15.9775 -15.9377 -15.9329 -15.8992
   -15.8956 -15.8873 -15.8681 -15.8540 -13.6353 -13.6316 -13.5357 -13.5095
   -13.4912  -7.8713  -7.6624  -7.5018  -7.2880  -7.2571  -7.2065  -7.0973
    -6.9977  -6.8981  -6.8453  -6.6235  -4.4038  -3.7349  -3.3272  -3.2152
    -3.1174  -3.0987  -2.9797  -2.8839  -2.8701  -2.7682  -2.7140  -2.7132
    -2.6134  -2.5480  -2.4927  -2.3877  -2.3472  -2.2952  -2.2182  -2.1218
    -2.1059  -2.0687  -2.0130  -1.9925  -1.9504  -1.9088  -1.7760  -1.7365
    -1.6777  -1.5856  -1.5708  -1.5126  -1.4512  -1.4102  -1.3199  -1.1469
    -1.1355  -0.7229   1.8225   1.9026   2.5691   2.7781   3.1070   3.9548
     4.4129   4.7499   4.8748   4.9987   5.1201   5.2209   5.2958   5.4024
     5.4345   5.5217

          k = 0.3855-0.0244 0.5130 ( 32564 PWs)   bands (ev):

   -66.5185 -34.1952 -33.9588 -33.8814 -33.8119 -33.1290 -33.0437 -32.9195
   -16.2242 -16.2136 -16.1701 -16.0147 -15.9776 -15.9377 -15.9323 -15.8987
   -15.8958 -15.8870 -15.8693 -15.8541 -13.6352 -13.6316 -13.5357 -13.5095
   -13.4912  -7.8364  -7.5854  -7.4825  -7.4579  -7.3331  -7.1844  -7.0334
    -6.9430  -6.9301  -6.8553  -6.6233  -4.4075  -3.7121  -3.3146  -3.1170
    -3.1019  -3.0814  -2.9695  -2.8913  -2.8330  -2.8202  -2.7407  -2.6830
    -2.5797  -2.5666  -2.4769  -2.4538  -2.3594  -2.2916  -2.2381  -2.2304
    -2.1785  -2.1089  -2.0311  -1.9651  -1.9245  -1.8501  -1.7991  -1.7034
    -1.6263  -1.5935  -1.5314  -1.5107  -1.4617  -1.4169  -1.3403  -1.1912
    -1.1274  -0.7231   1.8179   1.9111   2.5598   2.7818   3.1065   3.9783
     4.4171   4.8685   4.9353   4.9753   5.2064   5.2556   5.3724   5.4375
     5.4932   5.6311

          k = 0.0107 0.4840 0.4826 ( 32544 PWs)   bands (ev):

   -66.5185 -34.1952 -33.9588 -33.8814 -33.8119 -33.1290 -33.0437 -32.9195
   -16.2245 -16.2138 -16.1703 -16.0144 -15.9782 -15.9382 -15.9327 -15.8991
   -15.8950 -15.8870 -15.8681 -15.8539 -13.6352 -13.6316 -13.5357 -13.5095
   -13.4912  -7.7926  -7.7153  -7.4648  -7.3284  -7.2389  -7.2201  -7.0598
    -7.0076  -6.9286  -6.8401  -6.6696  -4.5286  -3.7807  -3.2740  -3.1761
    -3.1507  -3.0645  -2.9222  -2.8598  -2.7607  -2.7417  -2.6791  -2.5844
    -2.5347  -2.5084  -2.4918  -2.4213  -2.3829  -2.2984  -2.2788  -2.2160
    -2.1590  -2.1055  -2.0515  -2.0197  -1.9251  -1.8572  -1.8206  -1.7061
    -1.6124  -1.5722  -1.5301  -1.5029  -1.4529  -1.3942  -1.3746  -1.2788
    -1.1987  -0.7113   1.8277   1.9207   2.4931   2.7790   2.9929   3.8488
     4.4538   4.8015   4.9120   4.9782   5.1864   5.2334   5.3323   5.3783
     5.3997   5.5124

          k = 0.3889 0.4859 0.4875 ( 32568 PWs)   bands (ev):

   -66.5185 -34.1952 -33.9588 -33.8814 -33.8119 -33.1290 -33.0437 -32.9195
   -16.2242 -16.2137 -16.1703 -16.0148 -15.9782 -15.9381 -15.9321 -15.8987
   -15.8952 -15.8867 -15.8693 -15.8539 -13.6353 -13.6316 -13.5357 -13.5095
   -13.4912  -7.7736  -7.6212  -7.4851  -7.4248  -7.3087  -7.1912  -7.0758
    -6.9781  -6.9342  -6.8374  -6.6514  -4.5360  -3.7149  -3.1876  -3.1696
    -3.1395  -3.0708  -2.9415  -2.8982  -2.7897  -2.7474  -2.6712  -2.6086
    -2.5527  -2.5345  -2.4588  -2.4473  -2.4212  -2.3153  -2.2539  -2.2223
    -2.1353  -2.0827  -2.0105  -1.9842  -1.9094  -1.8427  -1.7518  -1.7379
    -1.6678  -1.6605  -1.5715  -1.5290  -1.4535  -1.4221  -1.3317  -1.2699
    -1.1950  -0.7104   1.8218   1.9273   2.4859   2.7840   2.9971   3.8600
     4.4762   4.8761   5.0204   5.1131   5.2556   5.3213   5.3946   5.4169
     5.4434   5.5041

     the Fermi energy is     1.8636 ev

!    total energy              =    -899.00805524 Ry
     estimated scf accuracy    <       0.00000004 Ry
     smearing contrib. (-TS)   =      -0.00969616 Ry
     internal energy E=F+TS    =    -898.99835908 Ry

     The total energy is F=E-TS. E is the sum of the following terms:
     one-electron contribution =    -493.80530800 Ry
     hartree contribution      =     283.56439299 Ry
     xc contribution           =    -236.07752849 Ry
     ewald contribution        =    -284.37304975 Ry
     one-center paw contrib.   =    -168.30686584 Ry

     convergence has been achieved in  17 iterations

     negative rho (up, down):  1.041E-08 0.000E+00

     Forces acting on atoms (cartesian axes, Ry/au):

     atom    1 type  4   force =     0.00304328    0.00090186   -0.00557269
     atom    2 type  4   force =    -0.00025768   -0.00003605    0.00101986
     atom    3 type  2   force =     0.00365655    0.00566937    0.00296747
     atom    4 type  4   force =     0.00405421    0.00102057    0.00390088
     atom    5 type  5   force =     0.00584306    0.00448855   -0.00270298
     atom    6 type  5   force =    -0.00341841   -0.01515271    0.00562845
     atom    7 type  5   force =    -0.00183638    0.00762168   -0.01135478
     atom    8 type  5   force =     0.00450575   -0.00181448    0.00287996
     atom    9 type  1   force =    -0.00412638    0.00021669    0.00417084
     atom   10 type  1   force =     0.00395432   -0.00074812   -0.00104946
     atom   11 type  1   force =     0.00481330   -0.00072559   -0.00224619
     atom   12 type  1   force =    -0.00213320    0.00004691    0.00004740
     atom   13 type  1   force =     0.00710131   -0.00342033    0.00065910
     atom   14 type  6   force =    -0.00311362    0.02575928    0.01195395
     atom   15 type  1   force =     0.00155757    0.00237825   -0.00303336
     atom   16 type  1   force =     0.00078305   -0.00153610    0.00176203
     atom   17 type  1   force =    -0.00020659   -0.00012503   -0.00196399
     atom   18 type  1   force =    -0.00369069   -0.00131625    0.00087106
     atom   19 type  1   force =    -0.00335242   -0.00476125    0.00603867
     atom   20 type  1   force =     0.00352232   -0.00373585    0.00112427
     atom   21 type  3   force =    -0.00387179   -0.00087980   -0.00044470
     atom   22 type  3   force =     0.00006956   -0.00029206   -0.00299992
     atom   23 type  3   force =     0.00303880    0.00044242    0.00064204
     atom   24 type  3   force =    -0.00558325   -0.00415893    0.00431945
     atom   25 type  3   force =     0.00334459    0.00433169    0.00042773
     atom   26 type  3   force =     0.00731699   -0.00244611   -0.00195941
     atom   27 type  3   force =     0.00130237    0.00208280    0.00220062
     atom   28 type  3   force =     0.01011022   -0.00376354   -0.00546670
     atom   29 type  3   force =    -0.00141776    0.00351921   -0.00064926
     atom   30 type  3   force =    -0.00032385   -0.00247283   -0.00067125
     atom   31 type  3   force =     0.00057152    0.00431412    0.00665204
     atom   32 type  3   force =    -0.00187175   -0.00071493   -0.00238626
     atom   33 type  3   force =     0.00134317    0.00107209   -0.00460229
     atom   34 type  3   force =     0.00603519   -0.00056275   -0.00242982
     atom   35 type  3   force =     0.00218868    0.00025561   -0.00337872
     atom   36 type  3   force =    -0.00169212   -0.00057359    0.00121109
     atom   37 type  3   force =    -0.00799392    0.00388557    0.00111311
     atom   38 type  3   force =    -0.00251875   -0.00274214   -0.00184805
     atom   39 type  3   force =     0.00438160    0.00469400   -0.00312275
     atom   40 type  3   force =    -0.00206491   -0.00095245    0.00511689
     atom   41 type  3   force =    -0.00115415    0.00303682   -0.00926361
     atom   42 type  3   force =    -0.00602938    0.00417055    0.00518595
     atom   43 type  3   force =     0.00431399   -0.00254454   -0.00630876
     atom   44 type  3   force =     0.00057837    0.00298204   -0.00316994
     atom   45 type  3   force =    -0.00718428   -0.00222960   -0.00207676
     atom   46 type  3   force =    -0.02321832   -0.03137616    0.00237694
     atom   47 type  3   force =    -0.00066773    0.00133864    0.00662705
     atom   48 type  3   force =    -0.00065488   -0.00136939   -0.00139696
     atom   49 type  3   force =     0.00476757    0.00179252    0.00241081
     atom   50 type  3   force =     0.00150922    0.00042140   -0.00276772
     atom   51 type  3   force =    -0.00604934    0.00260971   -0.00190439
     atom   52 type  3   force =     0.00264341   -0.00420524    0.00211544
     atom   53 type  3   force =    -0.00177360    0.00391290    0.00485835
     atom   54 type  3   force =     0.00082376   -0.00986941   -0.00147380
     atom   55 type  3   force =     0.00389748    0.00868938   -0.00704780
     atom   56 type  3   force =    -0.00112268   -0.00163267    0.00418855
     atom   57 type  3   force =    -0.00093473    0.00213349    0.00316309
     atom   58 type  3   force =    -0.00225819   -0.00316229    0.00231246
     atom   59 type  3   force =    -0.00253189    0.00428543    0.00529004
     atom   60 type  3   force =    -0.00219179   -0.00395905   -0.00137521
     atom   61 type  3   force =    -0.00220945   -0.00044600    0.00242082
     atom   62 type  3   force =    -0.00150752    0.00060472   -0.00160708
     atom   63 type  3   force =     0.00239878    0.00109267   -0.00568794
     atom   64 type  3   force =    -0.00391416    0.00108945    0.00140755
     atom   65 type  3   force =     0.00355677   -0.00250816   -0.00145507
     atom   66 type  3   force =     0.00595346    0.00313341   -0.00046191
     atom   67 type  3   force =     0.00060116   -0.00111540   -0.00130753
     atom   68 type  3   force =    -0.00070584    0.00335500   -0.00187690

     Total force =     0.071413     Total SCF correction =     0.000216


     Computing stress (Cartesian axis) and pressure


     negative rho (up, down):  1.041E-08 0.000E+00
          total   stress  (Ry/bohr**3)                   (kbar)     P=       -2.43
   0.00000545  -0.00000918  -0.00000194            0.80       -1.35       -0.29
  -0.00000918  -0.00003173  -0.00001340           -1.35       -4.67       -1.97
  -0.00000194  -0.00001340  -0.00002319           -0.29       -1.97       -3.41

     Energy error            =      7.9E-03
     Gradient error          =      3.1E-02
     Cell gradient error     =      3.2E-05


     number of scf cycles    =   8
     number of bfgs steps    =   7

     enthalpy old            =    -899.0001500661 Ry
     enthalpy new            =    -899.0080552442 Ry

     CASE: enthalpy_new < enthalpy_old

     new trust radius        =       0.1335364974 bohr
     new conv_thr            =       0.0000003138 Ry

     new unit-cell volume =   5604.63362 a.u.^3 (   830.52102 Ang^3 )
     density =      0.13596 g/cm^3

CELL_PARAMETERS (angstrom)
   0.073369204  -0.417195594  -8.505702365
   0.063428825  -8.525892083  -0.429025462
 -11.482508398   0.106209797   0.110815821

ATOMIC_POSITIONS (angstrom)
K            -8.7057279861       -8.1858206412       -4.8885039750
K            -2.9672389768       -0.4912184136       -3.9256374846
Ga           -2.5007452692       -4.3626199788       -8.5192466380
K            -8.2504596225       -4.3443012816       -0.4821103520
Sr           -5.5599872502       -8.6400672401       -8.4795644576
Sr          -11.3164642622       -0.2272198319       -0.3972671550
Sr          -11.3986462284       -4.1941087913       -4.4840468715
Sr           -5.6334716008       -4.5441619478       -4.0941671241
B            -8.7429924286       -4.1712270485       -3.7277372132
B            -3.0208815787       -4.6131657646       -5.0444729709
B            -2.9874106148       -8.3346344508       -0.9857406226
B            -8.6982058608       -0.4908862754       -7.7962567720
B            -5.3556536235       -2.9963956197       -1.6282409020
Ta          -11.8205192252       -5.9763256384       -7.4574752376
B           -11.0500160132       -7.2668763018       -3.1124669050
B            -5.3198017144       -1.5618601163       -5.7142353283
B            -6.0882784165       -6.1018507258       -7.0036157944
B            -0.4105321784       -2.8628999277       -1.8596316483
B            -0.3534681443       -1.6615011609       -6.0201477417
B            -6.1117052035       -7.0846468137       -2.8514789349
H            -9.5881732973       -4.3306404795       -2.8447091511
H            -3.9484512685       -4.4603358040       -5.8201323932
H            -3.9510038254       -8.4744699165       -1.7293114246
H            -9.6228152000       -0.2987600566       -7.0264875504
H            -8.7736107800       -5.1475742734       -4.4762506224
H            -2.9624067820       -3.6376174344       -4.2999644895
H            -2.8969368125       -1.1809801653       -8.3062770574
H            -8.6999819959       -7.6489008138       -0.4926154050
H            -8.9833401267       -3.1478656771       -4.3631599351
H            -3.1683550452       -5.6321438201       -4.3781174359
H            -3.0464361646       -7.6931848988       -8.8716030366
H            -8.9313634040       -1.1411702795        0.1100830713
H            -7.7086915831       -4.0409778281       -3.1082671633
H            -2.0312415259       -4.7175640242       -5.7830227758
H            -2.0197617743       -8.2282259630       -1.7142545590
H            -7.7140842512       -0.5842611737       -7.0998082301
H            -5.2151847185       -2.3590539441       -0.5931484959
H           -10.9599411118       -6.9679037269       -8.5894914792
H           -10.9037551771       -6.6388137986       -4.1404553747
H            -5.1844323408       -2.1560968222       -4.6606075738
H            -4.2920820575       -2.9121271502       -2.2481769642
H           -10.3137500407       -5.7810427753       -6.5420961871
H           -10.0469382543       -7.2038263798       -2.4049179859
H            -4.2643655434       -1.6243301506       -6.3393183826
H            -5.4996675091       -4.1793659099       -1.3242993110
H           -11.2090856899       -4.2212482783       -7.3803879395
H           -11.2677612369       -8.4259835219       -3.4687551056
H            -5.5845588227       -0.3891229266       -5.4438530784
H            -6.3040071078       -2.6045065351       -2.3137048009
H            -0.9135074455       -6.7529634400       -6.0648264694
H            -0.5012011103       -6.9552236286       -2.5573965880
H            -6.2334750135       -2.0285968109       -6.3893814887
H            -5.7523230521       -6.6872885431       -5.9851974259
H            -0.1973231258       -2.1973211164       -2.8738094153
H            -0.0414298064       -2.3879035435       -6.9544958728
H            -5.8260193330       -6.3928170651       -1.8739917112
H            -7.0590549701       -6.6924511094       -7.4909807823
H            -1.4115621405       -2.3618407195       -1.3191215416
H            -1.3685272196       -2.1676908822       -5.5470032449
H            -7.0736990358       -6.5521267849       -3.3977299771
H            -6.3772518054       -4.9238052288       -6.7984089742
H            -0.6449988298       -4.0529489025       -2.0878283311
H            -0.5887971697       -0.4967471601       -6.3571394889
H            -6.3764662525       -8.2429503303       -2.5466717011
H            -5.1565365439       -6.1028970632       -7.8091334310
H           -10.9445356033       -2.7078950790       -0.9763857873
H           -10.9285590247       -1.5434943426       -5.0780559747
H            -5.1394289204       -7.0989845699       -3.6049713465



     Writing output data file ./tmp/K3Sr4TaGaB11H48.save/
     NEW-OLD atomic charge density approx. for the potential

     negative rho (up, down):  7.145E-07 0.000E+00
     extrapolated charge  149.94274, renormalised to  150.00000

     total cpu time spent up to now is    31384.8 secs

     Self-consistent Calculation

     iteration #  1     ecut=    50.00 Ry     beta= 0.70
     CG style diagonalization
     ethr =  1.00E-06,  avg # of iterations = 17.2

     negative rho (up, down):  2.008E-08 0.000E+00

     total cpu time spent up to now is    32332.2 secs

     total energy              =    -899.00772195 Ry
     estimated scf accuracy    <       0.03018403 Ry

     iteration #  2     ecut=    50.00 Ry     beta= 0.70
     CG style diagonalization
     ethr =  2.01E-05,  avg # of iterations =  3.2

     negative rho (up, down):  2.080E-08 0.000E+00

     total cpu time spent up to now is    32487.5 secs

     total energy              =    -899.00486739 Ry
     estimated scf accuracy    <       0.03377610 Ry

     iteration #  3     ecut=    50.00 Ry     beta= 0.70
     CG style diagonalization
     ethr =  2.01E-05,  avg # of iterations =  3.3

     negative rho (up, down):  2.048E-08 0.000E+00

     total cpu time spent up to now is    32648.9 secs

     total energy              =    -899.00795523 Ry
     estimated scf accuracy    <       0.11258252 Ry

     iteration #  4     ecut=    50.00 Ry     beta= 0.70
     CG style diagonalization
     ethr =  2.01E-05,  avg # of iterations =  3.0

     negative rho (up, down):  2.145E-08 0.000E+00

     total cpu time spent up to now is    32793.9 secs

     total energy              =    -899.01595897 Ry
     estimated scf accuracy    <       0.00324851 Ry

     iteration #  5     ecut=    50.00 Ry     beta= 0.70
     CG style diagonalization
     ethr =  2.17E-06,  avg # of iterations =  3.3

     negative rho (up, down):  1.986E-08 0.000E+00

     total cpu time spent up to now is    32951.5 secs

     total energy              =    -899.01663407 Ry
     estimated scf accuracy    <       0.00172061 Ry

     iteration #  6     ecut=    50.00 Ry     beta= 0.70
     CG style diagonalization
     ethr =  1.15E-06,  avg # of iterations =  3.1

     negative rho (up, down):  1.660E-08 0.000E+00

     total cpu time spent up to now is    33102.5 secs

     total energy              =    -899.01688963 Ry
     estimated scf accuracy    <       0.00092749 Ry

     iteration #  7     ecut=    50.00 Ry     beta= 0.70
     CG style diagonalization
     ethr =  6.18E-07,  avg # of iterations =  3.1

     negative rho (up, down):  1.717E-08 0.000E+00

     total cpu time spent up to now is    33253.0 secs

     total energy              =    -899.01697034 Ry
     estimated scf accuracy    <       0.00008125 Ry

     iteration #  8     ecut=    50.00 Ry     beta= 0.70
     CG style diagonalization
     ethr =  5.42E-08,  avg # of iterations =  4.8

     negative rho (up, down):  1.722E-08 0.000E+00

     total cpu time spent up to now is    33499.2 secs

     total energy              =    -899.01706230 Ry
     estimated scf accuracy    <       0.00007914 Ry

     iteration #  9     ecut=    50.00 Ry     beta= 0.70
     CG style diagonalization
     ethr =  5.28E-08,  avg # of iterations =  3.3

     negative rho (up, down):  1.722E-08 0.000E+00

     total cpu time spent up to now is    33658.6 secs

     total energy              =    -899.01706845 Ry
     estimated scf accuracy    <       0.00005969 Ry

     iteration # 10     ecut=    50.00 Ry     beta= 0.70
     CG style diagonalization
     ethr =  3.98E-08,  avg # of iterations =  3.2

     negative rho (up, down):  1.718E-08 0.000E+00

     total cpu time spent up to now is    33809.3 secs

     total energy              =    -899.01706990 Ry
     estimated scf accuracy    <       0.00004368 Ry

     iteration # 11     ecut=    50.00 Ry     beta= 0.70
     CG style diagonalization
     ethr =  2.91E-08,  avg # of iterations =  3.1

     negative rho (up, down):  1.725E-08 0.000E+00

     total cpu time spent up to now is    33957.6 secs

     total energy              =    -899.01706367 Ry
     estimated scf accuracy    <       0.00004555 Ry

     iteration # 12     ecut=    50.00 Ry     beta= 0.70
     CG style diagonalization
     ethr =  2.91E-08,  avg # of iterations =  3.2

     negative rho (up, down):  1.727E-08 0.000E+00

     total cpu time spent up to now is    34114.2 secs

     total energy              =    -899.01706845 Ry
     estimated scf accuracy    <       0.00000715 Ry

     iteration # 13     ecut=    50.00 Ry     beta= 0.70
     CG style diagonalization
     ethr =  4.76E-09,  avg # of iterations =  5.4

     negative rho (up, down):  1.728E-08 0.000E+00

     total cpu time spent up to now is    34396.8 secs

     total energy              =    -899.01707872 Ry
     estimated scf accuracy    <       0.00000587 Ry

     iteration # 14     ecut=    50.00 Ry     beta= 0.70
     CG style diagonalization
     ethr =  3.91E-09,  avg # of iterations =  3.4

     negative rho (up, down):  1.727E-08 0.000E+00

     total cpu time spent up to now is    34562.4 secs

     total energy              =    -899.01707968 Ry
     estimated scf accuracy    <       0.00000065 Ry

     iteration # 15     ecut=    50.00 Ry     beta= 0.70
     CG style diagonalization
     ethr =  4.34E-10,  avg # of iterations =  5.3

     negative rho (up, down):  1.726E-08 0.000E+00

     total cpu time spent up to now is    34837.6 secs

     End of self-consistent calculation

          k =-0.0000 0.0000 0.0000 ( 32571 PWs)   bands (ev):

   -66.4530 -34.1815 -33.9453 -33.8739 -33.8280 -33.0948 -32.9818 -32.8644
   -16.2136 -16.1944 -16.1562 -16.0016 -15.9659 -15.9268 -15.9238 -15.9121
   -15.8916 -15.8835 -15.8776 -15.8693 -13.5724 -13.5681 -13.4718 -13.4454
   -13.4279  -7.9811  -7.6085  -7.4784  -7.3576  -7.2603  -7.1876  -7.0207
    -6.9497  -6.8845  -6.8333  -6.6014  -4.4272  -3.6279  -3.4369  -3.2426
    -3.1088  -3.0739  -3.0145  -2.9982  -2.9071  -2.7843  -2.7713  -2.6986
    -2.6053  -2.5283  -2.4537  -2.4012  -2.3627  -2.3549  -2.2583  -2.2154
    -2.1427  -2.1136  -2.0641  -1.9747  -1.9533  -1.7697  -1.7408  -1.6938
    -1.6558  -1.5892  -1.5245  -1.4553  -1.4003  -1.3369  -1.2817  -1.1960
    -1.1551  -0.7680   1.8046   1.9284   2.6159   2.8894   3.1464   4.0417
     4.4649   4.5915   4.6808   4.9073   4.9405   5.0318   5.1373   5.3718
     5.4936   5.5809

          k = 0.3773 0.0026 0.0031 ( 32604 PWs)   bands (ev):

   -66.4530 -34.1815 -33.9453 -33.8739 -33.8280 -33.0948 -32.9818 -32.8644
   -16.2134 -16.1944 -16.1562 -16.0019 -15.9660 -15.9259 -15.9236 -15.9126
   -15.8905 -15.8839 -15.8790 -15.8694 -13.5725 -13.5681 -13.4718 -13.4454
   -13.4280  -7.9211  -7.6818  -7.4266  -7.4125  -7.2937  -7.1390  -7.0153
    -6.9506  -6.8980  -6.8390  -6.6011  -4.4245  -3.6630  -3.3136  -3.2312
    -3.0745  -3.0277  -3.0003  -2.9702  -2.8807  -2.8483  -2.7454  -2.7086
    -2.6797  -2.6050  -2.5554  -2.4638  -2.3620  -2.3290  -2.2584  -2.2235
    -2.1414  -2.0932  -1.9982  -1.9070  -1.8647  -1.8268  -1.7210  -1.7128
    -1.6165  -1.6014  -1.5263  -1.4911  -1.4401  -1.3428  -1.2976  -1.2307
    -1.1724  -0.7657   1.8104   1.9388   2.6137   2.8869   3.1478   4.0590
     4.4366   4.6733   4.8608   4.9353   5.0340   5.1673   5.2448   5.3139
     5.4271   5.5793

          k = 0.0045 0.5093-0.0249 ( 32596 PWs)   bands (ev):

   -66.4530 -34.1815 -33.9453 -33.8739 -33.8280 -33.0948 -32.9818 -32.8644
   -16.2136 -16.1943 -16.1562 -16.0016 -15.9653 -15.9266 -15.9239 -15.9123
   -15.8919 -15.8838 -15.8779 -15.8695 -13.5725 -13.5681 -13.4718 -13.4454
   -13.4280  -7.8634  -7.6959  -7.4774  -7.3198  -7.2578  -7.1795  -7.0416
    -6.9940  -6.9124  -6.8605  -6.5952  -4.4864  -3.7535  -3.3598  -3.2753
    -3.0646  -3.0334  -2.9718  -2.9178  -2.8293  -2.8020  -2.7125  -2.6821
    -2.6190  -2.5927  -2.4571  -2.4344  -2.3474  -2.2992  -2.1857  -2.1603
    -2.1250  -2.0270  -1.9868  -1.9575  -1.9109  -1.8345  -1.7840  -1.7093
    -1.6805  -1.6066  -1.5518  -1.5162  -1.4438  -1.4422  -1.3845  -1.2402
    -1.1864  -0.7086   1.7997   1.9462   2.5370   2.8545   3.0381   3.9497
     4.4651   4.7973   4.9329   5.0067   5.1036   5.1956   5.2508   5.3344
     5.4727   5.5239

          k = 0.3817 0.5119-0.0218 ( 32564 PWs)   bands (ev):

   -66.4530 -34.1815 -33.9453 -33.8739 -33.8280 -33.0948 -32.9818 -32.8644
   -16.2134 -16.1943 -16.1562 -16.0019 -15.9653 -15.9256 -15.9239 -15.9127
   -15.8909 -15.8840 -15.8795 -15.8696 -13.5725 -13.5681 -13.4718 -13.4454
   -13.4279  -7.8325  -7.6114  -7.4732  -7.4587  -7.3458  -7.1395  -7.0202
    -6.9711  -6.9161  -6.8495  -6.5907  -4.4845  -3.7640  -3.3405  -3.2220
    -3.1101  -3.0102  -2.9538  -2.8985  -2.8727  -2.7586  -2.7504  -2.6611
    -2.5693  -2.5158  -2.4346  -2.3797  -2.3276  -2.2818  -2.2514  -2.2391
    -2.1717  -2.1140  -2.0299  -1.9667  -1.9245  -1.8347  -1.7895  -1.7308
    -1.6541  -1.5907  -1.5423  -1.4899  -1.4651  -1.4177  -1.3980  -1.2512
    -1.2052  -0.7076   1.8066   1.9542   2.5385   2.8596   3.0368   3.9607
     4.4980   4.8557   4.9529   5.0548   5.1365   5.1798   5.3199   5.4866
     5.5346   5.5791

          k = 0.0047-0.0257 0.5105 ( 32578 PWs)   bands (ev):

   -66.4530 -34.1815 -33.9453 -33.8739 -33.8280 -33.0948 -32.9818 -32.8644
   -16.2136 -16.1944 -16.1562 -16.0016 -15.9653 -15.9268 -15.9238 -15.9122
   -15.8919 -15.8838 -15.8779 -15.8695 -13.5725 -13.5681 -13.4718 -13.4454
   -13.4280  -7.8677  -7.6542  -7.4977  -7.2826  -7.2585  -7.2058  -7.0968
    -7.0004  -6.8913  -6.8520  -6.6104  -4.4280  -3.7610  -3.3102  -3.2120
    -3.1178  -3.0930  -2.9870  -2.8792  -2.8598  -2.7581  -2.7168  -2.7066
    -2.6265  -2.5335  -2.4934  -2.3898  -2.3477  -2.3068  -2.2163  -2.1281
    -2.1069  -2.0688  -2.0242  -2.0075  -1.9524  -1.9174  -1.7901  -1.7419
    -1.6891  -1.5898  -1.5745  -1.5176  -1.4591  -1.4012  -1.3281  -1.2008
    -1.1584  -0.7100   1.8385   1.9271   2.6202   2.8856   3.1113   3.9838
     4.4768   4.7778   4.8472   5.0165   5.1331   5.2266   5.2976   5.4254
     5.4647   5.5188

          k = 0.3819-0.0230 0.5136 ( 32564 PWs)   bands (ev):

   -66.4530 -34.1815 -33.9453 -33.8739 -33.8280 -33.0948 -32.9818 -32.8644
   -16.2134 -16.1944 -16.1561 -16.0019 -15.9653 -15.9259 -15.9236 -15.9127
   -15.8909 -15.8840 -15.8794 -15.8696 -13.5725 -13.5681 -13.4718 -13.4454
   -13.4279  -7.8368  -7.5605  -7.4819  -7.4636  -7.3387  -7.1779  -7.0343
    -6.9421  -6.9268  -6.8603  -6.6097  -4.4294  -3.7425  -3.2945  -3.1194
    -3.1067  -3.0751  -2.9758  -2.8811  -2.8314  -2.8176  -2.7430  -2.6660
    -2.5898  -2.5580  -2.4650  -2.4635  -2.3608  -2.2981  -2.2499  -2.2312
    -2.1812  -2.1092  -2.0397  -1.9745  -1.9143  -1.8523  -1.8090  -1.7118
    -1.6399  -1.6094  -1.5486  -1.5196  -1.4622  -1.4125  -1.3417  -1.2399
    -1.1496  -0.7107   1.8342   1.9352   2.6106   2.8920   3.1096   4.0069
     4.4858   4.8568   4.9334   4.9956   5.1993   5.2777   5.3775   5.4514
     5.5064   5.6337

          k = 0.0092 0.4836 0.4856 ( 32544 PWs)   bands (ev):

   -66.4530 -34.1815 -33.9453 -33.8739 -33.8280 -33.0948 -32.9818 -32.8644
   -16.2136 -16.1946 -16.1563 -16.0016 -15.9660 -15.9272 -15.9238 -15.9122
   -15.8914 -15.8835 -15.8777 -15.8694 -13.5725 -13.5681 -13.4718 -13.4454
   -13.4280  -7.7919  -7.7032  -7.4648  -7.3316  -7.2332  -7.2177  -7.0513
    -7.0110  -6.9246  -6.8489  -6.6551  -4.5609  -3.7891  -3.2729  -3.1574
    -3.1452  -3.0618  -2.9214  -2.8704  -2.7534  -2.7259  -2.6891  -2.5898
    -2.5345  -2.5105  -2.4913  -2.4143  -2.3817  -2.3002  -2.2870  -2.2131
    -2.1609  -2.1121  -2.0575  -2.0145  -1.9416  -1.8535  -1.7981  -1.7341
    -1.6133  -1.6060  -1.5374  -1.5109  -1.4481  -1.4162  -1.3993  -1.3232
    -1.2183  -0.6866   1.8417   1.9442   2.5445   2.8568   3.0272   3.8823
     4.5251   4.8206   4.9240   4.9878   5.1902   5.2272   5.3446   5.3965
     5.4099   5.5274

          k = 0.3864 0.4863 0.4887 ( 32568 PWs)   bands (ev):

   -66.4530 -34.1815 -33.9453 -33.8739 -33.8280 -33.0948 -32.9818 -32.8644
   -16.2134 -16.1945 -16.1563 -16.0019 -15.9661 -15.9264 -15.9234 -15.9126
   -15.8902 -15.8839 -15.8790 -15.8694 -13.5725 -13.5681 -13.4718 -13.4454
   -13.4280  -7.7755  -7.6036  -7.4840  -7.4245  -7.3123  -7.1890  -7.0718
    -6.9766  -6.9270  -6.8461  -6.6378  -4.5653  -3.7323  -3.1840  -3.1694
    -3.1253  -3.0607  -2.9358  -2.8938  -2.7972  -2.7398  -2.6820  -2.6090
    -2.5612  -2.5352  -2.4583  -2.4470  -2.4095  -2.3067  -2.2526  -2.2275
    -2.1364  -2.0928  -2.0080  -1.9844  -1.9129  -1.8488  -1.7743  -1.7408
    -1.6843  -1.6719  -1.5879  -1.5208  -1.4461  -1.4318  -1.3696  -1.3152
    -1.2156  -0.6863   1.8362   1.9503   2.5368   2.8642   3.0305   3.8952
     4.5528   4.8755   5.0252   5.1370   5.2380   5.3416   5.4039   5.4260
     5.4586   5.5173

     the Fermi energy is     1.8813 ev

!    total energy              =    -899.01708082 Ry
     estimated scf accuracy    <       0.00000010 Ry
     smearing contrib. (-TS)   =      -0.00954964 Ry
     internal energy E=F+TS    =    -899.00753118 Ry

     The total energy is F=E-TS. E is the sum of the following terms:
     one-electron contribution =    -495.76536287 Ry
     hartree contribution      =     284.59059911 Ry
     xc contribution           =    -236.09530220 Ry
     ewald contribution        =    -283.42984891 Ry
     one-center paw contrib.   =    -168.30761630 Ry

     convergence has been achieved in  15 iterations

     negative rho (up, down):  1.726E-08 0.000E+00

     Forces acting on atoms (cartesian axes, Ry/au):

     atom    1 type  4   force =     0.00308774    0.00080283   -0.00496867
     atom    2 type  4   force =    -0.00090682   -0.00050068    0.00042116
     atom    3 type  2   force =     0.00342965    0.00439803    0.00332353
     atom    4 type  4   force =     0.00406206    0.00129431    0.00287576
     atom    5 type  5   force =     0.00504961    0.00406297   -0.00275075
     atom    6 type  5   force =    -0.00458379   -0.01263320    0.00651019
     atom    7 type  5   force =    -0.00141395    0.00838143   -0.00941330
     atom    8 type  5   force =     0.00505067   -0.00160181    0.00268276
     atom    9 type  1   force =    -0.00457486   -0.00055971    0.00310249
     atom   10 type  1   force =     0.00273283   -0.00052470    0.00033001
     atom   11 type  1   force =     0.00481553   -0.00046285   -0.00195867
     atom   12 type  1   force =    -0.00155766   -0.00021062   -0.00076287
     atom   13 type  1   force =     0.00549887   -0.00307533    0.00106497
     atom   14 type  6   force =    -0.01060683    0.04219676    0.01336129
     atom   15 type  1   force =     0.00160873    0.00112499   -0.00277990
     atom   16 type  1   force =     0.00026946   -0.00033359    0.00130859
     atom   17 type  1   force =    -0.00069423    0.00060500   -0.00104096
     atom   18 type  1   force =    -0.00347971   -0.00224386   -0.00044237
     atom   19 type  1   force =    -0.00277535   -0.00318336    0.00473350
     atom   20 type  1   force =     0.00313960   -0.00382111    0.00158061
     atom   21 type  3   force =    -0.00115871    0.00003097   -0.00311887
     atom   22 type  3   force =     0.00046420   -0.00016113   -0.00482499
     atom   23 type  3   force =     0.00301743    0.00030245   -0.00159821
     atom   24 type  3   force =    -0.00447812   -0.00348311    0.00295399
     atom   25 type  3   force =     0.00341998    0.00514125    0.00189803
     atom   26 type  3   force =     0.00774597   -0.00125332   -0.00180948
     atom   27 type  3   force =     0.00186004    0.00013983    0.00296234
     atom   28 type  3   force =     0.00879101   -0.00358585   -0.00451786
     atom   29 type  3   force =    -0.00142730    0.00207677    0.00109607
     atom   30 type  3   force =     0.00065982   -0.00376460   -0.00124387
     atom   31 type  3   force =     0.00079736    0.00626885    0.00725622
     atom   32 type  3   force =    -0.00251552   -0.00106964   -0.00272298
     atom   33 type  3   force =    -0.00152125    0.00099278   -0.00441334
     atom   34 type  3   force =     0.00581652   -0.00198575   -0.00239234
     atom   35 type  3   force =     0.00249751   -0.00026771   -0.00303607
     atom   36 type  3   force =    -0.00132941   -0.00051774    0.00216507
     atom   37 type  3   force =    -0.00727662    0.00395047    0.00190669
     atom   38 type  3   force =     0.00874052   -0.01276099   -0.01682130
     atom   39 type  3   force =     0.00325645    0.00447019   -0.00152199
     atom   40 type  3   force =    -0.00136554    0.00029721    0.00326090
     atom   41 type  3   force =    -0.00176090    0.00163501   -0.00823908
     atom   42 type  3   force =    -0.00360457    0.00281810    0.00647870
     atom   43 type  3   force =     0.00472385   -0.00193442   -0.00612654
     atom   44 type  3   force =    -0.00073354    0.00222733   -0.00164514
     atom   45 type  3   force =    -0.00498282   -0.00207625   -0.00237126
     atom   46 type  3   force =    -0.02348539   -0.03260316   -0.00006608
     atom   47 type  3   force =    -0.00042565    0.00074522    0.00585391
     atom   48 type  3   force =    -0.00023487   -0.00199423   -0.00032740
     atom   49 type  3   force =     0.00376646    0.00240281    0.00103096
     atom   50 type  3   force =    -0.00510569   -0.00385852    0.01169144
     atom   51 type  3   force =    -0.00464306    0.00371454   -0.00299983
     atom   52 type  3   force =     0.00302832   -0.00395956    0.00184438
     atom   53 type  3   force =    -0.00113387    0.00295756    0.00361918
     atom   54 type  3   force =     0.00030447   -0.00816435    0.00091323
     atom   55 type  3   force =     0.00374799    0.00553834   -0.00619066
     atom   56 type  3   force =    -0.00112808   -0.00134175    0.00281963
     atom   57 type  3   force =     0.00037582    0.00176635    0.00268102
     atom   58 type  3   force =     0.00027620   -0.00270127    0.00082537
     atom   59 type  3   force =    -0.00094322    0.00412400    0.00407833
     atom   60 type  3   force =    -0.00124359   -0.00312034   -0.00091903
     atom   61 type  3   force =    -0.00200627    0.00015502    0.00220872
     atom   62 type  3   force =    -0.00105948    0.00067834   -0.00094655
     atom   63 type  3   force =     0.00007417    0.00353538   -0.00492168
     atom   64 type  3   force =    -0.00275606    0.00128728    0.00072162
     atom   65 type  3   force =     0.00163833   -0.00352927   -0.00019460
     atom   66 type  3   force =     0.00434105    0.00278785   -0.00162483
     atom   67 type  3   force =     0.00097000   -0.00270132   -0.00048133
     atom   68 type  3   force =    -0.00214545    0.00307487   -0.00036788

     Total force =     0.081080     Total SCF correction =     0.000738


     Computing stress (Cartesian axis) and pressure


     negative rho (up, down):  1.726E-08 0.000E+00
          total   stress  (Ry/bohr**3)                   (kbar)     P=       -2.04
  -0.00000025  -0.00001137  -0.00000966           -0.04       -1.67       -1.42
  -0.00001137  -0.00002811  -0.00001152           -1.67       -4.13       -1.69
  -0.00000966  -0.00001152  -0.00001329           -1.42       -1.69       -1.95

     Energy error            =      9.0E-03
     Gradient error          =      4.2E-02
     Cell gradient error     =      2.8E-05


     number of scf cycles    =   9
     number of bfgs steps    =   8

     enthalpy old            =    -899.0080552442 Ry
     enthalpy new            =    -899.0170808199 Ry

     CASE: enthalpy_new < enthalpy_old

     new trust radius        =       0.1706810844 bohr
     new conv_thr            =       0.0000004220 Ry

     new unit-cell volume =   5593.71137 a.u.^3 (   828.90251 Ang^3 )
     density =      0.13622 g/cm^3

CELL_PARAMETERS (angstrom)
   0.022736381  -0.398649954  -8.443642641
   0.084433366  -8.541538420  -0.407539779
 -11.520485889   0.137767255   0.036583258

ATOMIC_POSITIONS (angstrom)
K            -8.7288942734       -8.1577289615       -4.9265070739
K            -2.9861510296       -0.4590755429       -3.8953128413
Ga           -2.5209483068       -4.3106085559       -8.4409592800
K            -8.2504428666       -4.3243453492       -0.4890034170
Sr           -5.5933671969       -8.6194816509       -8.4263957010
Sr          -11.3441700104       -0.2289853248       -0.4767079432
Sr          -11.4332379483       -4.1663521687       -4.5713165567
Sr           -5.6566644688       -4.5337067003       -4.0807194287
B            -8.7934872468       -4.1314264630       -3.7427514291
B            -3.0305260919       -4.6122478809       -5.0294183017
B            -2.9631390142       -8.3312045672       -0.9781975578
B            -8.7767379018       -0.4589187807       -7.7933223800
B            -5.3689059350       -2.9819142217       -1.6523811585
Ta          -11.9328600983       -5.9235818786       -7.4719082621
B           -11.0872829426       -7.2293388552       -3.1523344961
B            -5.3610721500       -1.5494506629       -5.6977714490
B            -6.1306509509       -6.0741862641       -6.9753422286
B            -0.4200638656       -2.8797720616       -1.8375055749
B            -0.3965769081       -1.6416289398       -5.9738408285
B            -6.1292143676       -7.0867419837       -2.8533237152
H            -9.6428451055       -4.3094298458       -2.8622585689
H            -3.9686276203       -4.4440323483       -5.7903094092
H            -3.9394875239       -8.4731385483       -1.7037384289
H            -9.7095483487       -0.2654121257       -7.0300148780
H            -8.8121055642       -5.0987608262       -4.5059374499
H            -2.9540045399       -3.6437710943       -4.2811062770
H            -2.9410305869       -1.1393607309       -8.2563346696
H            -8.6716593897       -7.6624441900       -0.5442553857
H            -9.0371502196       -3.1058424340       -4.3805416026
H            -3.1925485047       -5.6261622340       -4.3591452116
H            -3.0761025728       -7.6758906614       -8.7931194654
H            -8.9566714405       -1.1290703996        0.0523887156
H            -7.7455672055       -3.9975291413       -3.1421948461
H            -2.0418648734       -4.7138549469       -5.7774118333
H            -2.0035146106       -8.2201321984       -1.7166101571
H            -7.7926951176       -0.5642682110       -7.0960863850
H            -5.2479046415       -2.3436112634       -0.6168313121
H           -11.0871131670       -6.9790683036       -8.5329938898
H           -10.9215696453       -6.6113334750       -4.1869771101
H            -5.2294302566       -2.1304809456       -4.6332770104
H            -4.3114621000       -2.8869416624       -2.2812372998
H           -10.4369474533       -5.7085396365       -6.5417659448
H           -10.0806854417       -7.1833271937       -2.4476939474
H            -4.3069036849       -1.5927725881       -6.3309310488
H            -5.5414421606       -4.1642912174       -1.3548741751
H           -11.3507423775       -4.1919767252       -7.3593985877
H           -11.3152892121       -8.3912275207       -3.4934044669
H            -5.6477734627       -0.3749189240       -5.4485193186
H            -6.3161702415       -2.5831796450       -2.3309149488
H            -0.9031635125       -6.7834229525       -6.0383262966
H            -0.5032338791       -6.9508846119       -2.5215116765
H            -6.2698202641       -2.0328542018       -6.3689491889
H            -5.8070972940       -6.6394856695       -5.9398792469
H            -0.2140234604       -2.2453921603       -2.8736354171
H            -0.0802329188       -2.3457213560       -6.9238820611
H            -5.8546169511       -6.3992678269       -1.8678765841
H            -7.1078757106       -6.6647428040       -7.4509534631
H            -1.4232978379       -2.3769977768       -1.2938278889
H            -1.4188921592       -2.1294446907       -5.4972928766
H            -7.0977862474       -6.5630579118       -3.4024554219
H            -6.4277120213       -4.8979468895       -6.7768467152
H            -0.6563752845       -4.0697400373       -2.0561810115
H            -0.5968255201       -0.4780027879       -6.3298268443
H            -6.4038379854       -8.2413740222       -2.5449941750
H            -5.1920029548       -6.0778047601       -7.7767164536
H           -10.9778103641       -2.6784583215       -1.0409792651
H           -11.0035138433       -1.4882840004       -5.1147120797
H            -5.1563924205       -7.0900275698       -3.6091201049



     Writing output data file ./tmp/K3Sr4TaGaB11H48.save/
     NEW-OLD atomic charge density approx. for the potential

     negative rho (up, down):  2.111E-06 0.000E+00
     extrapolated charge  149.70750, renormalised to  150.00000

     total cpu time spent up to now is    35332.8 secs

     Self-consistent Calculation

     iteration #  1     ecut=    50.00 Ry     beta= 0.70
     CG style diagonalization
     c_bands:  1 eigenvalues not converged
     ethr =  1.00E-06,  avg # of iterations = 20.1

     negative rho (up, down):  4.424E-08 0.000E+00

     total cpu time spent up to now is    36435.5 secs

     total energy              =    -899.00589105 Ry
     estimated scf accuracy    <       0.06506257 Ry

     iteration #  2     ecut=    50.00 Ry     beta= 0.70
     CG style diagonalization
     ethr =  4.34E-05,  avg # of iterations =  3.4

     total cpu time spent up to now is    36602.1 secs

     total energy              =    -899.00358339 Ry
     estimated scf accuracy    <       0.07404484 Ry

     iteration #  3     ecut=    50.00 Ry     beta= 0.70
     CG style diagonalization

     Program PWSCF v.6.7MaX starts on 18Jan2026 at 22:19:33 

     This program is part of the open-source Quantum ESPRESSO suite
     for quantum simulation of materials; please cite
         "P. Giannozzi et al., J. Phys.:Condens. Matter 21 395502 (2009);
         "P. Giannozzi et al., J. Phys.:Condens. Matter 29 465901 (2017);
          URL http://www.quantum-espresso.org", 
     in publications or presentations arising from this work. More details at
     http://www.quantum-espresso.org/quote

     Parallel version (MPI), running on     2 processors

     MPI processes distributed on     1 nodes
     R & G space division:  proc/nbgrp/npool/nimage =       2
     Waiting for input...
     Reading input from standard input

     Current dimensions of program PWSCF are:
     Max number of different atomic species (ntypx) = 10
     Max number of k-points (npk) =  40000
     Max angular momentum in pseudopotentials (lmaxx) =  3
     file Ga.UPF: wavefunction(s)  4S renormalized
     file H.UPF: wavefunction(s)  1S renormalized

     Subspace diagonalization in iterative solution of the eigenvalue problem:
     a serial algorithm will be used


     Parallelization info
     --------------------
     sticks:   dense  smooth     PW     G-vecs:    dense   smooth      PW
     Min        4060    2031    554               368518   130294   18525
     Max        4061    2032    555               368519   130295   18526
     Sum        8121    4063   1109               737037   260589   37051



     bravais-lattice index     =            0
     lattice parameter (alat)  =      16.3696  a.u.
     unit-cell volume          =    5456.0900 (a.u.)^3
     number of atoms/cell      =           68
     number of atomic types    =            6
     number of electrons       =       150.00
     number of Kohn-Sham states=           90
     kinetic-energy cutoff     =      50.0000  Ry
     charge density cutoff     =     400.0000  Ry
     scf convergence threshold =      1.0E-06
     mixing beta               =       0.7000
     number of iterations used =            4  plain     mixing
     energy convergence thresh.=      1.0E-04
     force convergence thresh. =      1.0E-03
     press convergence thresh. =      5.0E-01
     Exchange-correlation=  SLA  PW   PBE  PBE
                           (   1   4   3   4   0   0   0)
     nstep                     =           50


     celldm(1)=  16.369564  celldm(2)=   0.000000  celldm(3)=   0.000000
     celldm(4)=   0.000000  celldm(5)=   0.000000  celldm(6)=   0.000000

     crystal axes: (cart. coord. in units of alat)
               a(1) = (   0.039278  -0.047920  -0.998079 )  
               a(2) = (  -0.006158  -0.956168  -0.051589 )  
               a(3) = (  -1.309064  -0.008161   0.056042 )  

     reciprocal axes: (cart. coord. in units 2 pi/alat)
               b(1) = ( -0.043419  0.054571 -1.006254 )  
               b(2) = (  0.008707 -1.048632  0.050690 )  
               b(3) = ( -0.765248  0.006570 -0.030431 )  


     PseudoPot. # 1 for B  read from file:
     /home/marco/ZOS_Cloud_Compute/pseudo/B.UPF
     MD5 check sum: d9c678ba5d3b2fd7b74e61139c9288d8
     Pseudo is Projector augmented-wave + core cor, Zval =  3.0
     Generated using "atomic" code by A. Dal Corso  v.5.1.2
     Shape of augmentation charge: PSQ
     Using radial grid of 1059 points,  4 beta functions with: 
                l(1) =   0
                l(2) =   0
                l(3) =   1
                l(4) =   1
     Q(r) pseudized with 0 coefficients 


     PseudoPot. # 2 for Ga read from file:
     /home/marco/ZOS_Cloud_Compute/pseudo/Ga.UPF
     MD5 check sum: 79e63b61437c88080bf469cc04ca4be8
     Pseudo is Projector augmented-wave + core cor, Zval = 13.0
     Generated using "atomic" code by A. Dal Corso  v.5.1.2
     Shape of augmentation charge: PSQ
     Using radial grid of 1205 points,  6 beta functions with: 
                l(1) =   0
                l(2) =   0
                l(3) =   1
                l(4) =   1
                l(5) =   2
                l(6) =   2
     Q(r) pseudized with 0 coefficients 


     PseudoPot. # 3 for H  read from file:
     /home/marco/ZOS_Cloud_Compute/pseudo/H.UPF
     MD5 check sum: 850d63dcbcc06c5de8b44e0ab9f952da
     Pseudo is Projector augmented-wave, Zval =  1.0
     Generated using "atomic" code by A. Dal Corso  v.5.1.2
     Shape of augmentation charge: PSQ
     Using radial grid of  929 points,  2 beta functions with: 
                l(1) =   0
                l(2) =   0
     Q(r) pseudized with 0 coefficients 


     PseudoPot. # 4 for K  read from file:
     /home/marco/ZOS_Cloud_Compute/pseudo/K.UPF
     MD5 check sum: 0975f8d1feef6b2899f42b1061589f29
     Pseudo is Norm-conserving + core correction, Zval =  1.0
     Generated by new atomic code, or converted to UPF format
     Using radial grid of 1165 points,  2 beta functions with: 
                l(1) =   0
                l(2) =   1

     PseudoPot. # 5 for Sr read from file:
     /home/marco/ZOS_Cloud_Compute/pseudo/Sr.UPF
     MD5 check sum: 71c4688e601547c0814ef38edf55aea6
     Pseudo is Ultrasoft + core correction, Zval = 10.0
     Generated by new atomic code, or converted to UPF format
     Using radial grid of  883 points,  6 beta functions with: 
                l(1) =   0
                l(2) =   0
                l(3) =   1
                l(4) =   1
                l(5) =   2
                l(6) =   2
     Q(r) pseudized with  8 coefficients,  rinner =    1.200   1.200   1.200
                                                       1.200   1.200

     PseudoPot. # 6 for Ta read from file:
     /home/marco/ZOS_Cloud_Compute/pseudo/Ta.UPF
     MD5 check sum: 395be6f3d7fb4652d9fb26f9961305c8
     Pseudo is Ultrasoft + core correction, Zval = 13.0
     Generated by new atomic code, or converted to UPF format
     Using radial grid of  921 points,  6 beta functions with: 
                l(1) =   0
                l(2) =   0
                l(3) =   1
                l(4) =   1
                l(5) =   2
                l(6) =   2
     Q(r) pseudized with  6 coefficients,  rinner =    1.000   1.000   1.000
                                                       1.000   1.000

     atomic species   valence    mass     pseudopotential
        B              3.00     1.00000     B ( 1.00)
        Ga            13.00     1.00000     Ga( 1.00)
        H              1.00     1.00000     H ( 1.00)
        K              1.00     1.00000     K ( 1.00)
        Sr            10.00     1.00000     Sr( 1.00)
        Ta            13.00     1.00000     Ta( 1.00)

     No symmetry found



   Cartesian axes

     site n.     atom                  positions (alat units)
         1           K   tau(   1) = (  -0.9925256  -0.9376883  -0.5291844  )
         2           K   tau(   2) = (  -0.3331379  -0.0708494  -0.4605669  )
         3           Ga  tau(   3) = (  -0.2719420  -0.5047137  -1.0011326  )
         4           K   tau(   4) = (  -0.9490941  -0.5030943  -0.0400541  )
         5           Sr  tau(   5) = (  -0.6145405  -0.9725119  -0.9857438  )
         6           Sr  tau(   6) = (  -1.3024654  -0.0518007   0.0140840  )
         7           Sr  tau(   7) = (  -1.3075472  -0.4709736  -0.4669510  )
         8           Sr  tau(   8) = (  -0.6321485  -0.5206698  -0.4602639  )
         9           B   tau(   9) = (  -0.9889008  -0.4870946  -0.4037852  )
        10           B   tau(  10) = (  -0.3394309  -0.5220094  -0.5799385  )
        11           B   tau(  11) = (  -0.3552704  -0.9425855  -0.1068793  )
        12           B   tau(  12) = (  -0.9658119  -0.0659542  -0.8803304  )
        13           B   tau(  13) = (  -0.6044110  -0.3506363  -0.1654478  )
        14           Ta  tau(  14) = (  -1.3146746  -0.7084601  -0.8230037  )
        15           B   tau(  15) = (  -1.2603026  -0.8356334  -0.3218585  )
        16           B   tau(  16) = (  -0.5890604  -0.1821480  -0.6511536  )
        17           B   tau(  17) = (  -0.6785126  -0.7003177  -0.8039503  )
        18           B   tau(  18) = (  -0.0428183  -0.3147535  -0.2146920  )
        19           B   tau(  19) = (  -0.0199143  -0.1951127  -0.7010027  )
        20           B   tau(  20) = (  -0.6972406  -0.8002922  -0.3132900  )
        21           H   tau(  21) = (  -1.0909341  -0.5033328  -0.3043996  )
        22           H   tau(  22) = (  -0.4437005  -0.5095288  -0.6732142  )
        23           H   tau(  23) = (  -0.4598843  -0.9591573  -0.2002651  )
        24           H   tau(  24) = (  -1.0723976  -0.0543763  -0.7864721  )
        25           H   tau(  25) = (  -0.9899508  -0.6045080  -0.4839135  )
        26           H   tau(  26) = (  -0.3352876  -0.4069783  -0.4945824  )
        27           H   tau(  27) = (  -0.3072459  -0.1446634  -0.9642106  )
        28           H   tau(  28) = (  -1.0087046  -0.8657280  -0.0252233  )
        29           H   tau(  29) = (  -1.0126274  -0.3706437  -0.4816660  )
        30           H   tau(  30) = (  -0.3540890  -0.6399069  -0.5015976  )
        31           H   tau(  31) = (  -0.3337532  -0.8691128  -1.0325132  )
        32           H   tau(  32) = (  -1.0244096  -0.1392193   0.0429915  )
        33           H   tau(  33) = (  -0.8673360  -0.4790698  -0.3334328  )
        34           H   tau(  34) = (  -0.2201609  -0.5303733  -0.6528255  )
        35           H   tau(  35) = (  -0.2414929  -0.9350927  -0.1880482  )
        36           H   tau(  36) = (  -0.8499332  -0.0708462  -0.8034152  )
        37           H   tau(  37) = (  -0.6000015  -0.2687528  -0.0493547  )
        38           H   tau(  38) = (  -1.2092615  -0.7637597  -0.9883210  )
        39           H   tau(  39) = (  -1.2472144  -0.7557834  -0.4382070  )
        40           H   tau(  40) = (  -0.5774688  -0.2571588  -0.5318976  )
        41           H   tau(  41) = (  -0.4874322  -0.3365474  -0.2484466  )
        42           H   tau(  42) = (  -1.1302542  -0.6795940  -0.7251474  )
        43           H   tau(  43) = (  -1.1377941  -0.8318655  -0.2495670  )
        44           H   tau(  44) = (  -0.4679033  -0.1896480  -0.7253911  )
        45           H   tau(  45) = (  -0.6273371  -0.4877125  -0.1304119  )
        46           H   tau(  46) = (  -1.2438692  -0.5133690  -0.8402584  )
        47           H   tau(  47) = (  -1.2805220  -0.9723923  -0.3576102  )
        48           H   tau(  48) = (  -0.6108313  -0.0464705  -0.6147225  )
        49           H   tau(  49) = (  -0.7131061  -0.3036681  -0.2418199  )
        50           H   tau(  50) = (  -0.1070067  -0.7318317  -0.7031099  )
        51           H   tau(  51) = (  -0.0665612  -0.7842941  -0.3086080  )
        52           H   tau(  52) = (  -0.6972656  -0.2285025  -0.7293355  )
        53           H   tau(  53) = (  -0.6378339  -0.7717758  -0.6898065  )
        54           H   tau(  54) = (  -0.0104802  -0.2332178  -0.3266383  )
        55           H   tau(  55) = (   0.0240497  -0.2701666  -0.8124523  )
        56           H   tau(  56) = (  -0.6593572  -0.7210189  -0.2005602  )
        57           H   tau(  57) = (  -0.7942750  -0.7637882  -0.8596060  )
        58           H   tau(  58) = (  -0.1640363  -0.2614304  -0.1573528  )
        59           H   tau(  59) = (  -0.1359834  -0.2568176  -0.6434108  )
        60           H   tau(  60) = (  -0.8081285  -0.7413623  -0.3755097  )
        61           H   tau(  61) = (  -0.7136501  -0.5663750  -0.7719419  )
        62           H   tau(  62) = (  -0.0715134  -0.4475985  -0.2555142  )
        63           H   tau(  63) = (  -0.0578979  -0.0653494  -0.7413392  )
        64           H   tau(  64) = (  -0.7316334  -0.9338017  -0.2770103  )
        65           H   tau(  65) = (  -0.5704668  -0.7023805  -0.8978318  )
        66           H   tau(  66) = (  -1.2404997  -0.3184978  -0.0710073  )
        67           H   tau(  67) = (  -1.2203449  -0.2051869  -0.5524591  )
        68           H   tau(  68) = (  -0.5854356  -0.7994344  -0.4020285  )

     number of k points=     8  Methfessel-Paxton smearing, width (Ry)=  0.0200
                       cart. coord. in units 2pi/alat
        k(    1) = (   0.0000000   0.0000000   0.0000000), wk =   0.2500000
        k(    2) = (   0.3826241  -0.0032850   0.0152155), wk =   0.2500000
        k(    3) = (  -0.0043537   0.5243161  -0.0253451), wk =   0.2500000
        k(    4) = (   0.3782704   0.5210311  -0.0101296), wk =   0.2500000
        k(    5) = (   0.0217093  -0.0272854   0.5031269), wk =   0.2500000
        k(    6) = (   0.4043334  -0.0305704   0.5183424), wk =   0.2500000
        k(    7) = (   0.0173556   0.4970307   0.4777818), wk =   0.2500000
        k(    8) = (   0.3999797   0.4937457   0.4929973), wk =   0.2500000

     Dense  grid:   737037 G-vectors     FFT dimensions: ( 108, 100, 144)

     Smooth grid:   260589 G-vectors     FFT dimensions: (  75,  72, 100)

     Estimated max dynamical RAM per process >       2.30 GB

     Estimated total dynamical RAM >       4.61 GB

     Atomic positions and unit cell read from directory:
     ./tmp/K3Sr4TaGaB11H48.save/
     Atomic positions from file used, from input discarded


     The initial density is read from file :
     ./tmp/K3Sr4TaGaB11H48.save/charge-density


     starting charge  149.70768, renormalised to  150.00000

     negative rho (up, down):  1.726E-08 0.000E+00
     Cannot read wfcs: file not found
     Starting wfcs are  178 randomized atomic wfcs
     Checking if some PAW data can be deallocated... 

     total cpu time spent up to now is      138.8 secs

     Self-consistent Calculation

     iteration #  1     ecut=    50.00 Ry     beta= 0.70
     CG style diagonalization
     c_bands:  1 eigenvalues not converged
     c_bands:  2 eigenvalues not converged
     c_bands:  1 eigenvalues not converged
     c_bands:  1 eigenvalues not converged
     c_bands:  2 eigenvalues not converged
     ethr =  1.00E-05,  avg # of iterations = 16.4

     negative rho (up, down):  2.359E-08 0.000E+00

     total cpu time spent up to now is     1312.6 secs

     total energy              =    -897.51878119 Ry
     estimated scf accuracy    <       5.07139230 Ry

     iteration #  2     ecut=    50.00 Ry     beta= 0.70
     CG style diagonalization
     ethr =  3.38E-03,  avg # of iterations =  3.6

     negative rho (up, down):  1.167E-08 0.000E+00

     total cpu time spent up to now is     1537.4 secs

     total energy              =    -898.19516989 Ry
     estimated scf accuracy    <       2.67183956 Ry

     iteration #  3     ecut=    50.00 Ry     beta= 0.70
     CG style diagonalization
     ethr =  1.78E-03,  avg # of iterations =  3.6

     negative rho (up, down):  1.777E-08 0.000E+00

     total cpu time spent up to now is     1759.2 secs

     total energy              =    -898.75278821 Ry
     estimated scf accuracy    <       0.65845274 Ry

     iteration #  4     ecut=    50.00 Ry     beta= 0.70
     CG style diagonalization
     ethr =  4.39E-04,  avg # of iterations =  3.6

     negative rho (up, down):  4.446E-08 0.000E+00

     total cpu time spent up to now is     1980.8 secs

     total energy              =    -898.93921637 Ry
     estimated scf accuracy    <       0.67382462 Ry

     iteration #  5     ecut=    50.00 Ry     beta= 0.70
     CG style diagonalization
     ethr =  4.39E-04,  avg # of iterations =  3.0

     negative rho (up, down):  3.179E-08 0.000E+00

     total cpu time spent up to now is     2160.6 secs

     total energy              =    -898.99640262 Ry
     estimated scf accuracy    <       0.07463637 Ry

     iteration #  6     ecut=    50.00 Ry     beta= 0.70
     CG style diagonalization
     ethr =  4.98E-05,  avg # of iterations =  3.9

     negative rho (up, down):  1.912E-08 0.000E+00

     total cpu time spent up to now is     2390.7 secs

     total energy              =    -899.01920178 Ry
     estimated scf accuracy    <       0.03753377 Ry

     iteration #  7     ecut=    50.00 Ry     beta= 0.70
     CG style diagonalization
     c_bands:  1 eigenvalues not converged
     c_bands:  1 eigenvalues not converged
     ethr =  2.50E-05,  avg # of iterations =  3.9

     negative rho (up, down):  2.198E-08 0.000E+00

     total cpu time spent up to now is     2623.8 secs

     total energy              =    -899.02486478 Ry
     estimated scf accuracy    <       0.00818084 Ry

     iteration #  8     ecut=    50.00 Ry     beta= 0.70
     CG style diagonalization
     c_bands:  1 eigenvalues not converged
     c_bands:  1 eigenvalues not converged
     ethr =  5.45E-06,  avg # of iterations =  5.0

     negative rho (up, down):  2.041E-08 0.000E+00

     total cpu time spent up to now is     2935.7 secs

     total energy              =    -899.02590866 Ry
     estimated scf accuracy    <       0.00926776 Ry

     iteration #  9     ecut=    50.00 Ry     beta= 0.70
     CG style diagonalization
     c_bands:  1 eigenvalues not converged
     ethr =  5.45E-06,  avg # of iterations =  3.5

     negative rho (up, down):  1.759E-08 0.000E+00

     total cpu time spent up to now is     3141.7 secs

     total energy              =    -899.02738437 Ry
     estimated scf accuracy    <       0.00108823 Ry

     iteration # 10     ecut=    50.00 Ry     beta= 0.70
     CG style diagonalization
     c_bands:  2 eigenvalues not converged
     c_bands:  1 eigenvalues not converged
     ethr =  7.25E-07,  avg # of iterations =  5.8

     negative rho (up, down):  1.864E-08 0.000E+00

     total cpu time spent up to now is     3502.5 secs

     total energy              =    -899.02834234 Ry
     estimated scf accuracy    <       0.00183165 Ry

     iteration # 11     ecut=    50.00 Ry     beta= 0.70
     CG style diagonalization
     c_bands:  1 eigenvalues not converged
     ethr =  7.25E-07,  avg # of iterations =  3.5

     negative rho (up, down):  1.802E-08 0.000E+00

     total cpu time spent up to now is     3708.6 secs

     total energy              =    -899.02852682 Ry
     estimated scf accuracy    <       0.00016499 Ry

     iteration # 12     ecut=    50.00 Ry     beta= 0.70
     CG style diagonalization
     c_bands:  1 eigenvalues not converged
     ethr =  1.10E-07,  avg # of iterations =  6.0

     negative rho (up, down):  1.779E-08 0.000E+00

     total cpu time spent up to now is     4081.7 secs

     total energy              =    -899.02879220 Ry
     estimated scf accuracy    <       0.00004388 Ry

     iteration # 13     ecut=    50.00 Ry     beta= 0.70
     CG style diagonalization
     ethr =  2.93E-08,  avg # of iterations =  5.4

     negative rho (up, down):  1.775E-08 0.000E+00

     total cpu time spent up to now is     4408.0 secs

     total energy              =    -899.02885455 Ry
     estimated scf accuracy    <       0.00000735 Ry

     iteration # 14     ecut=    50.00 Ry     beta= 0.70
     CG style diagonalization
     c_bands:  1 eigenvalues not converged
     ethr =  4.90E-09,  avg # of iterations =  6.5

     negative rho (up, down):  1.774E-08 0.000E+00

     total cpu time spent up to now is     4800.0 secs

     total energy              =    -899.02887259 Ry
     estimated scf accuracy    <       0.00000408 Ry

     iteration # 15     ecut=    50.00 Ry     beta= 0.70
     CG style diagonalization
     ethr =  2.72E-09,  avg # of iterations =  4.4

     negative rho (up, down):  1.767E-08 0.000E+00

     total cpu time spent up to now is     5059.4 secs

     total energy              =    -899.02887543 Ry
     estimated scf accuracy    <       0.00000248 Ry

     iteration # 16     ecut=    50.00 Ry     beta= 0.70
     CG style diagonalization
     ethr =  1.65E-09,  avg # of iterations =  4.0

     negative rho (up, down):  1.768E-08 0.000E+00

     total cpu time spent up to now is     5287.8 secs

     total energy              =    -899.02887670 Ry
     estimated scf accuracy    <       0.00000105 Ry

     iteration # 17     ecut=    50.00 Ry     beta= 0.70
     CG style diagonalization
     ethr =  6.99E-10,  avg # of iterations =  4.6

     negative rho (up, down):  1.767E-08 0.000E+00

     total cpu time spent up to now is     5557.7 secs

     End of self-consistent calculation

          k = 0.0000 0.0000-0.0000 ( 32571 PWs)   bands (ev):

   -66.3742 -34.1334 -33.9231 -33.8616 -33.8190 -33.0492 -32.9082 -32.7949
   -16.1727 -16.1448 -16.1096 -15.9810 -15.9460 -15.9145 -15.9031 -15.9003
   -15.8827 -15.8751 -15.8661 -15.8586 -13.5029 -13.4974 -13.4013 -13.3739
   -13.3580  -7.9852  -7.6057  -7.4558  -7.3406  -7.2630  -7.1756  -7.0118
    -6.9366  -6.8722  -6.8383  -6.5886  -4.4790  -3.6763  -3.4227  -3.2080
    -3.1266  -3.0375  -3.0054  -2.9865  -2.8896  -2.7897  -2.7722  -2.6765
    -2.6058  -2.4997  -2.4578  -2.3951  -2.3497  -2.3389  -2.2621  -2.1962
    -2.1511  -2.1165  -2.0571  -1.9579  -1.9454  -1.7766  -1.7265  -1.6820
    -1.6729  -1.6036  -1.5058  -1.4636  -1.4016  -1.3411  -1.2910  -1.2370
    -1.1640  -0.8139   1.8240   1.9548   2.6733   2.9866   3.2143   4.0828
     4.5503   4.6012   4.7186   4.9220   4.9659   5.0686   5.1622   5.4074
     5.4998   5.6196

          k = 0.3760 0.0037 0.0008 ( 32604 PWs)   bands (ev):

   -66.3742 -34.1334 -33.9231 -33.8616 -33.8190 -33.0492 -32.9082 -32.7949
   -16.1724 -16.1448 -16.1096 -15.9814 -15.9460 -15.9134 -15.9031 -15.9007
   -15.8815 -15.8764 -15.8667 -15.8587 -13.5029 -13.4974 -13.4013 -13.3739
   -13.3580  -7.9326  -7.6662  -7.4198  -7.3842  -7.3030  -7.1100  -7.0187
    -6.9366  -6.8885  -6.8403  -6.5876  -4.4771  -3.7026  -3.2976  -3.2035
    -3.0652  -3.0418  -2.9880  -2.9491  -2.8790  -2.8450  -2.7406  -2.6952
    -2.6710  -2.6006  -2.5390  -2.4551  -2.3581  -2.3044  -2.2510  -2.2154
    -2.1413  -2.0810  -1.9972  -1.9081  -1.8600  -1.8095  -1.7319  -1.7049
    -1.6081  -1.6007  -1.5329  -1.5060  -1.4440  -1.3476  -1.3053  -1.2608
    -1.1789  -0.8111   1.8288   1.9651   2.6694   2.9928   3.2046   4.0992
     4.5153   4.6938   4.8779   4.9700   5.0605   5.1821   5.2630   5.3400
     5.4702   5.5850

          k = 0.0060 0.5083-0.0240 ( 32596 PWs)   bands (ev):

   -66.3742 -34.1334 -33.9231 -33.8616 -33.8190 -33.0492 -32.9082 -32.7949
   -16.1727 -16.1447 -16.1095 -15.9810 -15.9453 -15.9144 -15.9030 -15.9004
   -15.8830 -15.8753 -15.8667 -15.8588 -13.5029 -13.4974 -13.4013 -13.3739
   -13.3580  -7.8786  -7.6723  -7.4702  -7.3121  -7.2388  -7.1713  -7.0375
    -6.9727  -6.8968  -6.8760  -6.5808  -4.5424  -3.7868  -3.3486  -3.2539
    -3.0776  -3.0029  -2.9485  -2.8884  -2.8090  -2.7950  -2.7319  -2.6800
    -2.6291  -2.5828  -2.4548  -2.4175  -2.3383  -2.2816  -2.1852  -2.1273
    -2.1082  -2.0344  -1.9723  -1.9326  -1.8829  -1.8483  -1.7689  -1.7124
    -1.6930  -1.6242  -1.5750  -1.5516  -1.4694  -1.4279  -1.4024  -1.2361
    -1.2161  -0.7398   1.8189   1.9707   2.5895   2.9156   3.1544   4.0001
     4.5374   4.8508   4.9570   5.0168   5.1424   5.2180   5.2702   5.3652
     5.5003   5.5405

          k = 0.3820 0.5120-0.0231 ( 32564 PWs)   bands (ev):

   -66.3742 -34.1334 -33.9231 -33.8616 -33.8190 -33.0492 -32.9082 -32.7949
   -16.1724 -16.1446 -16.1095 -15.9813 -15.9453 -15.9133 -15.9030 -15.9008
   -15.8819 -15.8765 -15.8674 -15.8589 -13.5029 -13.4974 -13.4013 -13.3739
   -13.3580  -7.8524  -7.5768  -7.4764  -7.4424  -7.3420  -7.1091  -7.0263
    -6.9565  -6.8974  -6.8616  -6.5762  -4.5410  -3.7955  -3.3241  -3.2118
    -3.0883  -2.9795  -2.9466  -2.9205  -2.8528  -2.7649  -2.7289  -2.6613
    -2.5701  -2.4904  -2.4317  -2.3810  -2.3157  -2.2652  -2.2511  -2.2279
    -2.1372  -2.1050  -2.0279  -1.9727  -1.8904  -1.8459  -1.7936  -1.7381
    -1.6447  -1.6040  -1.5450  -1.5020  -1.4666  -1.4461  -1.4045  -1.2566
    -1.2370  -0.7387   1.8246   1.9783   2.5894   2.9245   3.1507   4.0140
     4.5745   4.8887   4.9707   5.0708   5.1686   5.2100   5.3371   5.5071
     5.5610   5.5976

          k = 0.0013-0.0245 0.5141 ( 32578 PWs)   bands (ev):

   -66.3742 -34.1334 -33.9231 -33.8616 -33.8190 -33.0492 -32.9082 -32.7949
   -16.1727 -16.1448 -16.1095 -15.9810 -15.9453 -15.9144 -15.9031 -15.9003
   -15.8830 -15.8753 -15.8667 -15.8589 -13.5029 -13.4974 -13.4013 -13.3739
   -13.3580  -7.8684  -7.6449  -7.4880  -7.2758  -7.2243  -7.1958  -7.0961
    -7.0000  -6.8774  -6.8611  -6.6003  -4.4844  -3.7793  -3.2785  -3.1965
    -3.1150  -3.0837  -2.9849  -2.8860  -2.8289  -2.7477  -2.7152  -2.6961
    -2.6198  -2.5081  -2.4842  -2.3913  -2.3419  -2.3136  -2.2020  -2.1251
    -2.1034  -2.0720  -2.0345  -2.0157  -1.9381  -1.9153  -1.7646  -1.7439
    -1.6893  -1.6009  -1.5728  -1.5229  -1.4603  -1.3827  -1.3310  -1.2339
    -1.1803  -0.7567   1.8601   1.9574   2.6700   2.9919   3.1600   4.0400
     4.5687   4.8216   4.8272   5.0444   5.1668   5.2364   5.3089   5.4731
     5.5135   5.5812

          k = 0.3773-0.0208 0.5150 ( 32564 PWs)   bands (ev):

   -66.3742 -34.1334 -33.9231 -33.8616 -33.8190 -33.0492 -32.9082 -32.7949
   -16.1724 -16.1447 -16.1095 -15.9813 -15.9453 -15.9134 -15.9030 -15.9008
   -15.8819 -15.8765 -15.8673 -15.8589 -13.5029 -13.4974 -13.4013 -13.3739
   -13.3580  -7.8443  -7.5202  -7.4947  -7.4553  -7.3291  -7.1452  -7.0383
    -6.9336  -6.9228  -6.8630  -6.5994  -4.4829  -3.7650  -3.2605  -3.1276
    -3.1016  -3.0483  -2.9746  -2.8766  -2.8365  -2.7863  -2.7387  -2.6486
    -2.5967  -2.5532  -2.4524  -2.4382  -2.3651  -2.3068  -2.2532  -2.2134
    -2.1757  -2.1115  -2.0309  -1.9895  -1.8835  -1.8526  -1.7859  -1.7056
    -1.6401  -1.6192  -1.5708  -1.5285  -1.4537  -1.4192  -1.3311  -1.2658
    -1.1669  -0.7581   1.8565   1.9650   2.6599   3.0014   3.1572   4.0623
     4.5848   4.8469   4.9452   5.0370   5.2000   5.3070   5.3885   5.4607
     5.5426   5.6548

          k = 0.0073 0.4838 0.4901 ( 32544 PWs)   bands (ev):

   -66.3742 -34.1334 -33.9231 -33.8616 -33.8190 -33.0492 -32.9082 -32.7949
   -16.1727 -16.1449 -16.1097 -15.9810 -15.9461 -15.9145 -15.9036 -15.9002
   -15.8823 -15.8750 -15.8662 -15.8586 -13.5029 -13.4974 -13.4013 -13.3739
   -13.3580  -7.8042  -7.6778  -7.4620  -7.3215  -7.2079  -7.2055  -7.0356
    -7.0130  -6.9143  -6.8608  -6.6439  -4.6221  -3.7910  -3.2627  -3.1401
    -3.1305  -3.0465  -2.9115  -2.8843  -2.7208  -2.7179  -2.6769  -2.5945
    -2.5373  -2.5036  -2.4865  -2.4041  -2.3739  -2.3017  -2.2749  -2.1854
    -2.1489  -2.1134  -2.0553  -2.0057  -1.9417  -1.8537  -1.7627  -1.7424
    -1.6440  -1.6130  -1.5434  -1.5081  -1.4486  -1.4327  -1.4060  -1.3358
    -1.2533  -0.7226   1.8634   1.9725   2.5862   2.9122   3.1415   3.9425
     4.6250   4.8533   4.9532   5.0043   5.2097   5.2288   5.3675   5.4312
     5.4343   5.5533

          k = 0.3833 0.4874 0.4910 ( 32568 PWs)   bands (ev):

   -66.3742 -34.1334 -33.9231 -33.8616 -33.8190 -33.0492 -32.9082 -32.7949
   -16.1724 -16.1449 -16.1097 -15.9814 -15.9461 -15.9135 -15.9035 -15.9007
   -15.8810 -15.8764 -15.8668 -15.8587 -13.5029 -13.4974 -13.4013 -13.3739
   -13.3580  -7.7917  -7.5621  -7.4916  -7.4114  -7.3069  -7.1607  -7.0663
    -6.9737  -6.9101  -6.8590  -6.6268  -4.6231  -3.7437  -3.1850  -3.1662
    -3.0901  -3.0261  -2.9288  -2.8859  -2.8191  -2.7101  -2.6831  -2.6101
    -2.5668  -2.5251  -2.4603  -2.4407  -2.3895  -2.2948  -2.2474  -2.1923
    -2.1268  -2.0938  -2.0033  -1.9764  -1.9013  -1.8518  -1.7915  -1.7288
    -1.7006  -1.6702  -1.5924  -1.5164  -1.4570  -1.4081  -1.3945  -1.3393
    -1.2520  -0.7231   1.8587   1.9779   2.5778   2.9208   3.1449   3.9582
     4.6630   4.8854   5.0393   5.1703   5.2277   5.3740   5.4179   5.4495
     5.4981   5.5764

     the Fermi energy is     1.9051 ev

!    total energy              =    -899.02887752 Ry
     estimated scf accuracy    <       0.00000013 Ry
     smearing contrib. (-TS)   =      -0.00940734 Ry
     internal energy E=F+TS    =    -899.01947018 Ry

     The total energy is F=E-TS. E is the sum of the following terms:
     one-electron contribution =    -499.17106093 Ry
     hartree contribution      =     286.39851059 Ry
     xc contribution           =    -236.12361571 Ry
     ewald contribution        =    -281.81074444 Ry
     one-center paw contrib.   =    -168.31255969 Ry

     convergence has been achieved in  17 iterations

     negative rho (up, down):  1.767E-08 0.000E+00

     Forces acting on atoms (cartesian axes, Ry/au):

     atom    1 type  4   force =     0.00284747    0.00076768   -0.00374007
     atom    2 type  4   force =    -0.00148624   -0.00079199   -0.00047491
     atom    3 type  2   force =     0.00020133    0.00463500    0.00312733
     atom    4 type  4   force =     0.00372800    0.00155683    0.00120332
     atom    5 type  5   force =     0.00304055    0.00284698   -0.00218924
     atom    6 type  5   force =    -0.00587612   -0.00619398    0.00674306
     atom    7 type  5   force =    -0.00011112    0.00895908   -0.00448253
     atom    8 type  5   force =     0.00458214   -0.00114378    0.00232458
     atom    9 type  1   force =    -0.00375848   -0.00061897    0.00070514
     atom   10 type  1   force =     0.00095234   -0.00084632    0.00118613
     atom   11 type  1   force =     0.00370499    0.00059608   -0.00034586
     atom   12 type  1   force =    -0.00009805   -0.00092700   -0.00168353
     atom   13 type  1   force =     0.00169813   -0.00146067    0.00151929
     atom   14 type  6   force =    -0.01365817    0.03522003    0.00596922
     atom   15 type  1   force =     0.00154210   -0.00064257   -0.00179604
     atom   16 type  1   force =    -0.00053302    0.00102664    0.00053647
     atom   17 type  1   force =    -0.00102511    0.00162749    0.00105058
     atom   18 type  1   force =    -0.00166432   -0.00368448   -0.00182738
     atom   19 type  1   force =    -0.00095351    0.00083326    0.00080919
     atom   20 type  1   force =     0.00122076   -0.00280347    0.00188625
     atom   21 type  3   force =     0.00157979    0.00110869   -0.00527835
     atom   22 type  3   force =     0.00223953    0.00002800   -0.00621753
     atom   23 type  3   force =     0.00351197    0.00016885   -0.00390869
     atom   24 type  3   force =    -0.00188214   -0.00209172    0.00000446
     atom   25 type  3   force =     0.00281086    0.00440187    0.00235008
     atom   26 type  3   force =     0.00819288    0.00022265   -0.00166207
     atom   27 type  3   force =     0.00268644   -0.00146175    0.00293833
     atom   28 type  3   force =     0.00606109   -0.00333827   -0.00253890
     atom   29 type  3   force =    -0.00164900    0.00069775    0.00310734
     atom   30 type  3   force =     0.00216678   -0.00469074   -0.00253972
     atom   31 type  3   force =     0.00165935    0.00675429    0.00640392
     atom   32 type  3   force =    -0.00312115   -0.00163148   -0.00286433
     atom   33 type  3   force =    -0.00431237    0.00124931   -0.00304343
     atom   34 type  3   force =     0.00461200   -0.00417390   -0.00228385
     atom   35 type  3   force =     0.00242579   -0.00076014   -0.00184018
     atom   36 type  3   force =    -0.00086406   -0.00076485    0.00319063
     atom   37 type  3   force =    -0.00512442    0.00316379    0.00264078
     atom   38 type  3   force =     0.01455011   -0.01364789   -0.02423105
     atom   39 type  3   force =     0.00143710    0.00336728    0.00082812
     atom   40 type  3   force =     0.00001715    0.00200335    0.00064193
     atom   41 type  3   force =    -0.00208131   -0.00065820   -0.00573517
     atom   42 type  3   force =    -0.00226241    0.00199286    0.00586362
     atom   43 type  3   force =     0.00442925   -0.00077625   -0.00493302
     atom   44 type  3   force =    -0.00189273    0.00088899    0.00063165
     atom   45 type  3   force =    -0.00109244   -0.00149880   -0.00262776
     atom   46 type  3   force =    -0.01940326   -0.02146435   -0.00217761
     atom   47 type  3   force =    -0.00042684   -0.00039987    0.00349427
     atom   48 type  3   force =     0.00010703   -0.00227090    0.00144272
     atom   49 type  3   force =     0.00203516    0.00290963   -0.00119659
     atom   50 type  3   force =    -0.01213823   -0.00691192    0.02735117
     atom   51 type  3   force =    -0.00126659    0.00496877   -0.00456058
     atom   52 type  3   force =     0.00295304   -0.00371943    0.00095252
     atom   53 type  3   force =    -0.00017264    0.00152995    0.00163791
     atom   54 type  3   force =    -0.00057911   -0.00474167    0.00357887
     atom   55 type  3   force =     0.00243097    0.00051202   -0.00322576
     atom   56 type  3   force =    -0.00094564   -0.00059633    0.00112710
     atom   57 type  3   force =     0.00177700    0.00067388    0.00163037
     atom   58 type  3   force =     0.00307407   -0.00146629   -0.00109884
     atom   59 type  3   force =     0.00110608    0.00322922    0.00191840
     atom   60 type  3   force =     0.00028094   -0.00172230   -0.00004563
     atom   61 type  3   force =    -0.00126535    0.00128086    0.00160221
     atom   62 type  3   force =    -0.00072817   -0.00081648    0.00030910
     atom   63 type  3   force =    -0.00264791    0.00453673   -0.00239580
     atom   64 type  3   force =    -0.00077430    0.00045069   -0.00015079
     atom   65 type  3   force =    -0.00114696   -0.00439779    0.00167056
     atom   66 type  3   force =     0.00140912    0.00144327   -0.00321736
     atom   67 type  3   force =     0.00101158   -0.00458684    0.00051273
     atom   68 type  3   force =    -0.00314175    0.00204966    0.00142325

     Total force =     0.075665     Total SCF correction =     0.000719


     Computing stress (Cartesian axis) and pressure


     negative rho (up, down):  1.767E-08 0.000E+00
          total   stress  (Ry/bohr**3)                   (kbar)     P=       -1.31
  -0.00000832  -0.00000886  -0.00001182           -1.22       -1.30       -1.74
  -0.00000886  -0.00001472  -0.00000975           -1.30       -2.17       -1.43
  -0.00001182  -0.00000975  -0.00000373           -1.74       -1.43       -0.55

     Energy error            =      1.2E-02
     Gradient error          =      3.5E-02
     Cell gradient error     =      1.5E-05


     number of scf cycles    =  10
     number of bfgs steps    =   9

     enthalpy old            =    -899.0170808199 Ry
     enthalpy new            =    -899.0288775229 Ry

     CASE: enthalpy_new < enthalpy_old

     new trust radius        =       0.1406065350 bohr
     new conv_thr            =       0.0000003522 Ry

     new unit-cell volume =   5576.94056 a.u.^3 (   826.41733 Ang^3 )
     density =      0.13663 g/cm^3

CELL_PARAMETERS (angstrom)
  -0.010559181  -0.380435029  -8.394156509
   0.100957631  -8.546309143  -0.387459596
 -11.545435956   0.161874306  -0.013035415

ATOMIC_POSITIONS (angstrom)
K            -8.7384676560       -8.1268786914       -4.9470620579
K            -2.9988621536       -0.4339246949       -3.8707215483
Ga           -2.5307942902       -4.2598203899       -8.3746429982
K            -8.2436337129       -4.3043489690       -0.4871726536
Sr           -5.6081786528       -8.5895248691       -8.3793072277
Sr          -11.3664668354       -0.2364330651       -0.5231189961
Sr          -11.4553279850       -4.1292153372       -4.6299169719
Sr           -5.6653421618       -4.5216149177       -4.0617685727
B            -8.8290599998       -4.0952851534       -3.7460069030
B            -3.0329797318       -4.6068924653       -5.0129671923
B            -2.9401258333       -8.3202877660       -0.9664028792
B            -8.8292790745       -0.4309274467       -7.7840231470
B            -5.3741434233       -2.9689389635       -1.6641665411
Ta          -12.0191410453       -5.8590899299       -7.4703519661
B           -11.1089945929       -7.1927826213       -3.1726233749
B            -5.3869761872       -1.5356160144       -5.6793496992
B            -6.1562186869       -6.0440937118       -6.9452806774
B            -0.4261067212       -2.8918362390       -1.8187934724
B            -0.4263605713       -1.6212085033       -5.9360265574
B            -6.1378604586       -7.0820785196       -2.8462780565
H            -9.6798389896       -4.2877946790       -2.8708572224
H            -3.9773515165       -4.4256542230       -5.7660862463
H            -3.9249257149       -8.4645881032       -1.6811598343
H            -9.7695752142       -0.2389568271       -7.0249546717
H            -8.8329014671       -5.0533530218       -4.5178453628
H            -2.9369914256       -3.6431423865       -4.2627307465
H            -2.9664439028       -1.1043107378       -8.2117906711
H            -8.6409636000       -7.6687022923       -0.5764326596
H            -9.0735192276       -3.0681737144       -4.3843305887
H            -3.2053073841       -5.6189529272       -4.3409954005
H            -3.0904354648       -7.6480845391       -8.7216873842
H            -8.9759289113       -1.1198026047        0.0115564022
H            -7.7711204329       -3.9593146986       -3.1631416370
H            -2.0416964299       -4.7076908933       -5.7677647816
H            -1.9873787641       -8.2077693407       -1.7139651199
H            -7.8457613702       -0.5451458239       -7.0843796077
H            -5.2757067587       -2.3260170567       -0.6290972392
H           -11.1667499615       -6.9810654119       -8.4919821998
H           -10.9276345013       -6.5790021470       -4.2108026477
H            -5.2589955083       -2.1063206502       -4.6066919259
H            -4.3252934108       -2.8643399478       -2.3071958002
H           -10.5223503320       -5.6433939434       -6.5268413712
H           -10.0965603538       -7.1621792617       -2.4745511021
H            -4.3353610005       -1.5632163496       -6.3194231583
H            -5.5722902188       -4.1512347756       -1.3744110200
H           -11.4638732888       -4.1778403594       -7.3368897599
H           -11.3448971578       -8.3575136037       -3.4973843264
H            -5.6900033204       -0.3619943641       -5.4459143225
H            -6.3189914824       -2.5615734074       -2.3379390132
H            -0.8984528181       -6.7995803864       -5.9959987236
H            -0.5049518002       -6.9370131753       -2.4952035213
H            -6.2892506226       -2.0343869141       -6.3463787649
H            -5.8426069215       -6.5940057535       -5.8971875898
H            -0.2242180839       -2.2823021857       -2.8686690175
H            -0.1031243469       -2.3070101769       -6.8999757464
H            -5.8726305887       -6.3980373174       -1.8552962141
H            -7.1374905256       -6.6343729364       -7.4108829063
H            -1.4297104616       -2.3868788839       -1.2733936731
H            -1.4530962856       -2.0945766805       -5.4540649817
H            -7.1109113742       -6.5661376772       -3.3980983222
H            -6.4609523010       -4.8702099210       -6.7513354250
H            -0.6641632774       -4.0788715042       -2.0308989483
H            -0.6014338263       -0.4593091116       -6.3083308460
H            -6.4217828663       -8.2324209754       -2.5357070607
H            -5.2124049627       -6.0545920294       -7.7432869733
H           -10.9967384862       -2.6513836564       -1.0842887599
H           -11.0516519656       -1.4473977742       -5.1334370791
H            -5.1670193546       -7.0730836676       -3.6046511153



     Writing output data file ./tmp/K3Sr4TaGaB11H48.save/
     NEW-OLD atomic charge density approx. for the potential

     negative rho (up, down):  1.004E-06 0.000E+00
     extrapolated charge  149.54952, renormalised to  150.00000

     total cpu time spent up to now is     6062.6 secs

     Self-consistent Calculation

     iteration #  1     ecut=    50.00 Ry     beta= 0.70
     CG style diagonalization
     c_bands:  1 eigenvalues not converged
     ethr =  1.00E-06,  avg # of iterations = 19.9

     negative rho (up, down):  3.459E-08 0.000E+00

     total cpu time spent up to now is     7356.5 secs

     total energy              =    -899.01607083 Ry
     estimated scf accuracy    <       0.04825715 Ry

     iteration #  2     ecut=    50.00 Ry     beta= 0.70
     CG style diagonalization
     ethr =  3.22E-05,  avg # of iterations =  3.7

     total cpu time spent up to now is     7575.9 secs

     total energy              =    -899.01916418 Ry
     estimated scf accuracy    <       0.06176504 Ry

     iteration #  3     ecut=    50.00 Ry     beta= 0.70
     CG style diagonalization
     ethr =  3.22E-05,  avg # of iterations =  3.5

     total cpu time spent up to now is     7778.4 secs

     total energy              =    -899.02589042 Ry
     estimated scf accuracy    <       0.08827453 Ry

     iteration #  4     ecut=    50.00 Ry     beta= 0.70
     CG style diagonalization
     ethr =  3.22E-05,  avg # of iterations =  3.0

     total cpu time spent up to now is     7947.6 secs

     total energy              =    -899.03527568 Ry
     estimated scf accuracy    <       0.01002760 Ry

     iteration #  5     ecut=    50.00 Ry     beta= 0.70
     CG style diagonalization
     ethr =  6.69E-06,  avg # of iterations =  3.1

     total cpu time spent up to now is     8119.7 secs

     total energy              =    -899.03646674 Ry
     estimated scf accuracy    <       0.00245501 Ry

     iteration #  6     ecut=    50.00 Ry     beta= 0.70
     CG style diagonalization
     c_bands:  1 eigenvalues not converged
     ethr =  1.64E-06,  avg # of iterations =  3.4

     total cpu time spent up to now is     8314.1 secs

     total energy              =    -899.03676831 Ry
     estimated scf accuracy    <       0.00151575 Ry

     iteration #  7     ecut=    50.00 Ry     beta= 0.70
     CG style diagonalization
     c_bands:  1 eigenvalues not converged
     ethr =  1.01E-06,  avg # of iterations =  3.2

     total cpu time spent up to now is     8495.3 secs

     total energy              =    -899.03683765 Ry
     estimated scf accuracy    <       0.00012933 Ry

     iteration #  8     ecut=    50.00 Ry     beta= 0.70
     CG style diagonalization
     c_bands:  1 eigenvalues not converged
     ethr =  8.62E-08,  avg # of iterations =  5.3

     total cpu time spent up to now is     8816.4 secs

     total energy              =    -899.03695952 Ry
     estimated scf accuracy    <       0.00011248 Ry

     iteration #  9     ecut=    50.00 Ry     beta= 0.70
     CG style diagonalization
     ethr =  7.50E-08,  avg # of iterations =  3.7

     total cpu time spent up to now is     9035.0 secs

     total energy              =    -899.03698493 Ry
     estimated scf accuracy    <       0.00001473 Ry

     iteration # 10     ecut=    50.00 Ry     beta= 0.70
     CG style diagonalization
     ethr =  9.82E-09,  avg # of iterations =  5.9

     total cpu time spent up to now is     9403.0 secs

     total energy              =    -899.03700547 Ry
     estimated scf accuracy    <       0.00008126 Ry

     iteration # 11     ecut=    50.00 Ry     beta= 0.70
     CG style diagonalization
     ethr =  9.82E-09,  avg # of iterations =  3.6

     total cpu time spent up to now is     9611.9 secs

     total energy              =    -899.03701305 Ry
     estimated scf accuracy    <       0.00000144 Ry

     iteration # 12     ecut=    50.00 Ry     beta= 0.70
     CG style diagonalization
     c_bands:  1 eigenvalues not converged
     ethr =  9.58E-10,  avg # of iterations =  6.0

     total cpu time spent up to now is     9984.5 secs

     total energy              =    -899.03701628 Ry
     estimated scf accuracy    <       0.00000054 Ry

     iteration # 13     ecut=    50.00 Ry     beta= 0.70
     CG style diagonalization
     ethr =  3.59E-10,  avg # of iterations =  4.6

     total cpu time spent up to now is    10258.8 secs

     End of self-consistent calculation

          k = 0.0000 0.0000 0.0000 ( 32571 PWs)   bands (ev):

   -66.3286 -34.0695 -33.9030 -33.8503 -33.7816 -33.0168 -32.8659 -32.7486
   -16.1168 -16.0854 -16.0493 -15.9626 -15.9281 -15.9026 -15.8853 -15.8733
   -15.8621 -15.8557 -15.8424 -15.8206 -13.4652 -13.4587 -13.3629 -13.3346
   -13.3203  -7.9957  -7.6120  -7.4362  -7.3088  -7.2660  -7.1497  -6.9929
    -6.9223  -6.8684  -6.8344  -6.5877  -4.5368  -3.7136  -3.3976  -3.1709
    -3.1445  -2.9983  -2.9914  -2.9714  -2.8586  -2.7949  -2.7694  -2.6523
    -2.5862  -2.4877  -2.4648  -2.3795  -2.3357  -2.3177  -2.2636  -2.1689
    -2.1614  -2.1028  -2.0492  -1.9487  -1.9195  -1.7810  -1.7103  -1.6879
    -1.6056  -1.5949  -1.4911  -1.4631  -1.4028  -1.3317  -1.2919  -1.2364
    -1.1341  -0.8957   1.8435   1.9746   2.6984   3.0261   3.2985   4.1289
     4.6154   4.6213   4.7493   4.9501   5.0030   5.1004   5.1881   5.4373
     5.5140   5.6481

          k = 0.3752 0.0045-0.0007 ( 32604 PWs)   bands (ev):

   -66.3286 -34.0695 -33.9030 -33.8503 -33.7816 -33.0168 -32.8659 -32.7486
   -16.1165 -16.0853 -16.0493 -15.9630 -15.9281 -15.9021 -15.8852 -15.8729
   -15.8623 -15.8555 -15.8434 -15.8206 -13.4652 -13.4587 -13.3629 -13.3346
   -13.3204  -7.9502  -7.6577  -7.4199  -7.3422  -7.3049  -7.0683  -7.0147
    -6.9184  -6.8913  -6.8333  -6.5864  -4.5357  -3.7319  -3.2690  -3.1763
    -3.0652  -3.0394  -2.9655  -2.9454  -2.8463  -2.8358  -2.7393  -2.6849
    -2.6431  -2.5983  -2.5186  -2.4551  -2.3568  -2.2768  -2.2322  -2.2011
    -2.1376  -2.0602  -1.9879  -1.9182  -1.8457  -1.7777  -1.7484  -1.6600
    -1.6029  -1.5597  -1.5378  -1.5034  -1.4462  -1.3517  -1.2791  -1.2516
    -1.1593  -0.8927   1.8479   1.9848   2.6935   3.0369   3.2817   4.1472
     4.5740   4.7237   4.9014   5.0104   5.0827   5.2006   5.2722   5.3682
     5.5036   5.6042

          k = 0.0071 0.5079-0.0230 ( 32596 PWs)   bands (ev):

   -66.3286 -34.0695 -33.9030 -33.8503 -33.7816 -33.0168 -32.8659 -32.7486
   -16.1168 -16.0852 -16.0492 -15.9626 -15.9273 -15.9025 -15.8851 -15.8736
   -15.8623 -15.8566 -15.8425 -15.8208 -13.4652 -13.4587 -13.3629 -13.3346
   -13.3204  -7.9029  -7.6493  -7.4685  -7.2909  -7.2171  -7.1540  -7.0265
    -6.9464  -6.8915  -6.8828  -6.5781  -4.6000  -3.8127  -3.3186  -3.2323
    -3.1001  -2.9622  -2.9356  -2.8489  -2.8129  -2.7614  -2.7454  -2.6680
    -2.6305  -2.5714  -2.4616  -2.3927  -2.3258  -2.2591  -2.1757  -2.1045
    -2.0761  -2.0400  -1.9760  -1.8934  -1.8488  -1.8203  -1.7462  -1.7050
    -1.6782  -1.6352  -1.5961  -1.5488  -1.4614  -1.4184  -1.4007  -1.2552
    -1.1851  -0.8048   1.8396   1.9892   2.6057   2.9529   3.2596   4.0505
     4.5938   4.8982   4.9830   5.0253   5.1818   5.2369   5.2941   5.3989
     5.5195   5.5551

          k = 0.3824 0.5124-0.0237 ( 32564 PWs)   bands (ev):

   -66.3286 -34.0695 -33.9030 -33.8503 -33.7816 -33.0168 -32.8659 -32.7486
   -16.1165 -16.0852 -16.0492 -15.9630 -15.9273 -15.9020 -15.8851 -15.8732
   -15.8625 -15.8564 -15.8435 -15.8208 -13.4652 -13.4587 -13.3629 -13.3346
   -13.3204  -7.8809  -7.5490  -7.4721  -7.4222  -7.3344  -7.0604  -7.0299
    -6.9426  -6.8863  -6.8656  -6.5734  -4.5997  -3.8179  -3.2908  -3.2034
    -3.0838  -2.9611  -2.9253  -2.9121  -2.8371  -2.7628  -2.7139  -2.6606
    -2.5506  -2.4575  -2.4229  -2.3850  -2.3107  -2.2682  -2.2378  -2.2112
    -2.1136  -2.0902  -1.9974  -1.9764  -1.8660  -1.8349  -1.7744  -1.6922
    -1.6300  -1.6094  -1.5394  -1.5135  -1.4614  -1.4298  -1.4013  -1.2566
    -1.2317  -0.8046   1.8447   1.9963   2.6048   2.9634   3.2555   4.0670
     4.6330   4.9188   4.9884   5.0907   5.2053   5.2373   5.3594   5.5201
     5.5880   5.6175

          k =-0.0009-0.0235 0.5170 ( 32578 PWs)   bands (ev):

   -66.3286 -34.0695 -33.9030 -33.8503 -33.7816 -33.0168 -32.8659 -32.7486
   -16.1168 -16.0853 -16.0492 -15.9626 -15.9273 -15.9025 -15.8853 -15.8734
   -15.8623 -15.8565 -15.8425 -15.8209 -13.4652 -13.4587 -13.3629 -13.3347
   -13.3204  -7.8785  -7.6440  -7.4754  -7.2652  -7.1830  -7.1674  -7.0958
    -6.9954  -6.8674  -6.8625  -6.6016  -4.5458  -3.7833  -3.2494  -3.1794
    -3.1231  -3.0651  -2.9771  -2.8842  -2.8017  -2.7414  -2.7078  -2.6874
    -2.5938  -2.4869  -2.4660  -2.3817  -2.3328  -2.3038  -2.1825  -2.1322
    -2.0921  -2.0627  -2.0339  -2.0140  -1.9138  -1.8964  -1.7582  -1.7124
    -1.6496  -1.6148  -1.5712  -1.5142  -1.4562  -1.3706  -1.3202  -1.1981
    -1.1837  -0.8383   1.8799   1.9805   2.6889   3.0316   3.2388   4.0964
     4.6417   4.8164   4.8712   5.0668   5.2019   5.2519   5.3284   5.5095
     5.5130   5.5670

          k = 0.3743-0.0190 0.5164 ( 32564 PWs)   bands (ev):

   -66.3286 -34.0695 -33.9030 -33.8503 -33.7816 -33.0168 -32.8659 -32.7486
   -16.1165 -16.0853 -16.0492 -15.9630 -15.9273 -15.9020 -15.8853 -15.8731
   -15.8624 -15.8563 -15.8434 -15.8209 -13.4652 -13.4587 -13.3629 -13.3347
   -13.3203  -7.8602  -7.5272  -7.4750  -7.4367  -7.3060  -7.0968  -7.0439
    -6.9282  -6.9158  -6.8586  -6.6010  -4.5425  -3.7718  -3.2341  -3.1285
    -3.1050  -3.0186  -2.9471  -2.8823  -2.8256  -2.7643  -2.7256  -2.6401
    -2.5926  -2.5561  -2.4221  -2.4082  -2.3622  -2.3110  -2.2425  -2.1913
    -2.1608  -2.1038  -2.0151  -2.0021  -1.8716  -1.8193  -1.7671  -1.6678
    -1.6297  -1.6047  -1.5763  -1.5312  -1.4408  -1.4301  -1.3142  -1.2320
    -1.1614  -0.8405   1.8769   1.9878   2.6792   3.0403   3.2375   4.1182
     4.6600   4.8529   4.9670   5.0778   5.2097   5.3226   5.3999   5.4732
     5.5763   5.6577

          k = 0.0062 0.4845 0.4940 ( 32544 PWs)   bands (ev):

   -66.3286 -34.0695 -33.9030 -33.8503 -33.7816 -33.0168 -32.8659 -32.7486
   -16.1168 -16.0855 -16.0494 -15.9626 -15.9282 -15.9026 -15.8862 -15.8722
   -15.8621 -15.8559 -15.8425 -15.8206 -13.4652 -13.4587 -13.3629 -13.3346
   -13.3204  -7.8269  -7.6575  -7.4599  -7.2980  -7.1982  -7.1608  -7.0169
    -7.0158  -6.9052  -6.8657  -6.6453  -4.6810  -3.7878  -3.2520  -3.1346
    -3.1221  -3.0319  -2.9054  -2.8692  -2.7216  -2.6802  -2.6427  -2.5948
    -2.5410  -2.4842  -2.4817  -2.3986  -2.3623  -2.2980  -2.2563  -2.1475
    -2.1352  -2.0955  -2.0513  -1.9857  -1.9250  -1.8458  -1.7482  -1.7149
    -1.6483  -1.6057  -1.5319  -1.5145  -1.4489  -1.4194  -1.3737  -1.3203
    -1.2790  -0.7929   1.8848   1.9940   2.5931   2.9520   3.2380   4.0011
     4.6991   4.8881   4.9848   5.0212   5.2339   5.2404   5.3947   5.4567
     5.4652   5.5812

          k = 0.3814 0.4889 0.4933 ( 32568 PWs)   bands (ev):

   -66.3286 -34.0695 -33.9030 -33.8503 -33.7816 -33.0168 -32.8659 -32.7486
   -16.1165 -16.0855 -16.0494 -15.9630 -15.9282 -15.9021 -15.8862 -15.8718
   -15.8623 -15.8557 -15.8434 -15.8206 -13.4652 -13.4587 -13.3629 -13.3346
   -13.3204  -7.8173  -7.5229  -7.5039  -7.3903  -7.2942  -7.1107  -7.0654
    -6.9701  -6.8937  -6.8675  -6.6272  -4.6798  -3.7471  -3.1853  -3.1712
    -3.0538  -2.9837  -2.9255  -2.8787  -2.8227  -2.7104  -2.6510  -2.6094
    -2.5558  -2.5178  -2.4572  -2.4318  -2.3732  -2.2870  -2.2393  -2.1354
    -2.1087  -2.0646  -2.0033  -1.9574  -1.8965  -1.8360  -1.7856  -1.7275
    -1.7008  -1.6392  -1.5855  -1.5199  -1.4292  -1.3927  -1.3732  -1.3365
    -1.2791  -0.7946   1.8809   1.9992   2.5849   2.9604   3.2414   4.0190
     4.7469   4.9083   5.0586   5.1901   5.2384   5.3984   5.4292   5.4848
     5.5358   5.5909

     the Fermi energy is     1.9256 ev

!    total energy              =    -899.03701669 Ry
     estimated scf accuracy    <       0.00000012 Ry
     smearing contrib. (-TS)   =      -0.00939117 Ry
     internal energy E=F+TS    =    -899.02762552 Ry

     The total energy is F=E-TS. E is the sum of the following terms:
     one-electron contribution =    -502.18035282 Ry
     hartree contribution      =     288.01405290 Ry
     xc contribution           =    -236.14362699 Ry
     ewald contribution        =    -280.40034683 Ry
     one-center paw contrib.   =    -168.31735178 Ry

     convergence has been achieved in  13 iterations

     Forces acting on atoms (cartesian axes, Ry/au):

     atom    1 type  4   force =     0.00233468    0.00089482   -0.00239815
     atom    2 type  4   force =    -0.00165435   -0.00061161   -0.00124127
     atom    3 type  2   force =    -0.00224689    0.00496616    0.00231452
     atom    4 type  4   force =     0.00307318    0.00171448   -0.00024456
     atom    5 type  5   force =     0.00053004    0.00136258   -0.00116793
     atom    6 type  5   force =    -0.00608203    0.00131632    0.00531149
     atom    7 type  5   force =     0.00130072    0.00901534    0.00129923
     atom    8 type  5   force =     0.00285900   -0.00049107    0.00181382
     atom    9 type  1   force =    -0.00166636    0.00025678   -0.00170228
     atom   10 type  1   force =     0.00037767   -0.00152752    0.00072669
     atom   11 type  1   force =     0.00225330    0.00159922    0.00197906
     atom   12 type  1   force =     0.00156869   -0.00193175   -0.00222540
     atom   13 type  1   force =    -0.00228134    0.00072057    0.00141897
     atom   14 type  6   force =    -0.01320221   -0.00037715    0.00129184
     atom   15 type  1   force =     0.00147331   -0.00159213   -0.00077422
     atom   16 type  1   force =    -0.00099287    0.00128220    0.00001807
     atom   17 type  1   force =    -0.00113905    0.00209769    0.00310364
     atom   18 type  1   force =     0.00041740   -0.00444972   -0.00204864
     atom   19 type  1   force =     0.00154600    0.00378953   -0.00285107
     atom   20 type  1   force =    -0.00111645   -0.00121237    0.00192582
     atom   21 type  3   force =     0.00238639    0.00161127   -0.00514266
     atom   22 type  3   force =     0.00427201    0.00022195   -0.00612882
     atom   23 type  3   force =     0.00420616    0.00027206   -0.00463067
     atom   24 type  3   force =     0.00079341   -0.00044488   -0.00296640
     atom   25 type  3   force =     0.00162063    0.00220527    0.00098715
     atom   26 type  3   force =     0.00811921    0.00078970   -0.00174769
     atom   27 type  3   force =     0.00318456   -0.00116016    0.00170099
     atom   28 type  3   force =     0.00315802   -0.00299835   -0.00048206
     atom   29 type  3   force =    -0.00205004    0.00041150    0.00398686
     atom   30 type  3   force =     0.00318601   -0.00431815   -0.00385612
     atom   31 type  3   force =     0.00273706    0.00504754    0.00415573
     atom   32 type  3   force =    -0.00312707   -0.00199677   -0.00256244
     atom   33 type  3   force =    -0.00489466    0.00185002   -0.00087109
     atom   34 type  3   force =     0.00266177   -0.00592227   -0.00203728
     atom   35 type  3   force =     0.00198299   -0.00078779   -0.00015508
     atom   36 type  3   force =    -0.00066659   -0.00133468    0.00352621
     atom   37 type  3   force =    -0.00243224    0.00167126    0.00264777
     atom   38 type  3   force =     0.01082611   -0.00325194   -0.01921639
     atom   39 type  3   force =    -0.00007520    0.00160420    0.00258968
     atom   40 type  3   force =     0.00138432    0.00316292   -0.00121573
     atom   41 type  3   force =    -0.00209554   -0.00254308   -0.00246879
     atom   42 type  3   force =    -0.00359092    0.00195635    0.00241531
     atom   43 type  3   force =     0.00332237    0.00033011   -0.00296711
     atom   44 type  3   force =    -0.00191799   -0.00028381    0.00230903
     atom   45 type  3   force =     0.00238855   -0.00030998   -0.00264144
     atom   46 type  3   force =    -0.01180756    0.00010354   -0.00246227
     atom   47 type  3   force =    -0.00078371   -0.00144230    0.00061285
     atom   48 type  3   force =    -0.00017469   -0.00141049    0.00291776
     atom   49 type  3   force =     0.00037592    0.00276838   -0.00296175
     atom   50 type  3   force =    -0.01352219   -0.00418220    0.02747328
     atom   51 type  3   force =     0.00236300    0.00559304   -0.00536482
     atom   52 type  3   force =     0.00213153   -0.00352673   -0.00020311
     atom   53 type  3   force =     0.00057529    0.00042680    0.00016471
     atom   54 type  3   force =    -0.00131707   -0.00119627    0.00430049
     atom   55 type  3   force =     0.00036035   -0.00372523    0.00053700
     atom   56 type  3   force =    -0.00072590    0.00026572    0.00013620
     atom   57 type  3   force =     0.00226513   -0.00053640    0.00061851
     atom   58 type  3   force =     0.00447995   -0.00017238   -0.00238014
     atom   59 type  3   force =     0.00269692    0.00221335   -0.00037210
     atom   60 type  3   force =     0.00112978   -0.00029576    0.00072187
     atom   61 type  3   force =    -0.00028842    0.00237571    0.00093136
     atom   62 type  3   force =    -0.00073657   -0.00355265    0.00145915
     atom   63 type  3   force =    -0.00423012    0.00397832    0.00063460
     atom   64 type  3   force =     0.00100162   -0.00095279   -0.00073284
     atom   65 type  3   force =    -0.00308403   -0.00427202    0.00303886
     atom   66 type  3   force =    -0.00088052   -0.00051433   -0.00396258
     atom   67 type  3   force =     0.00028408   -0.00521497    0.00066890
     atom   68 type  3   force =    -0.00284457    0.00066499    0.00244546

     Total force =     0.055424     Total SCF correction =     0.001219


     Computing stress (Cartesian axis) and pressure

          total   stress  (Ry/bohr**3)                   (kbar)     P=       -1.09
  -0.00001646  -0.00000287  -0.00000596           -2.42       -0.42       -0.88
  -0.00000287  -0.00000103  -0.00000680           -0.42       -0.15       -1.00
  -0.00000596  -0.00000680  -0.00000477           -0.88       -1.00       -0.70

     Energy error            =      8.1E-03
     Gradient error          =      2.7E-02
     Cell gradient error     =      1.6E-05


     number of scf cycles    =  11
     number of bfgs steps    =  10

     enthalpy old            =    -899.0288775229 Ry
     enthalpy new            =    -899.0370166898 Ry

     CASE: enthalpy_new < enthalpy_old

     new trust radius        =       0.0765682947 bohr
     new conv_thr            =       0.0000002747 Ry

     new unit-cell volume =   5560.63175 a.u.^3 (   824.00061 Ang^3 )
     density =      0.13703 g/cm^3

CELL_PARAMETERS (angstrom)
  -0.017614539  -0.369873410  -8.372947971
   0.106375252  -8.540897930  -0.376616165
 -11.547149021   0.169067416  -0.024166141

ATOMIC_POSITIONS (angstrom)
K            -8.7322932616       -8.1075346404       -4.9455087826
K            -3.0017528116       -0.4248184230       -3.8605294653
Ga           -2.5302068766       -4.2301651111       -8.3435354689
K            -8.2328717769       -4.2931419286       -0.4802489810
Sr           -5.6034576821       -8.5652980340       -8.3550285136
Sr          -11.3737482487       -0.2441882289       -0.5258182442
Sr          -11.4560430629       -4.0996199010       -4.6409300709
Sr           -5.6589841557       -4.5137131551       -4.0458452802
B            -8.8364761287       -4.0776521435       -3.7391610953
B            -3.0286453114       -4.6010582460       -5.0017105663
B            -2.9276384125       -8.3083519342       -0.9554362577
B            -8.8380151984       -0.4189396226       -7.7731246863
B            -5.3711278405       -2.9625065390       -1.6616451768
Ta          -12.0472922502       -5.8320337671       -7.4549998582
B           -11.1073664838       -7.1738095598       -3.1696989423
B            -5.3900941057       -1.5268706350       -5.6663009441
B            -6.1583125660       -6.0250414695       -6.9245283545
B            -0.4269194565       -2.8959245719       -1.8101161018
B            -0.4332146358       -1.6085934597       -5.9196305955
B            -6.1361106074       -7.0747593538       -2.8348760133
H            -9.6863421099       -4.2756282857       -2.8691342317
H            -3.9727133918       -4.4136001271       -5.7558597566
H            -3.9131929789       -8.4543679174       -1.6704468386
H            -9.7820487868       -0.2293564127       -7.0153843453
H            -8.8301308597       -5.0310935384       -4.5115139782
H            -2.9194449168       -3.6379031474       -4.2522942297
H            -2.9667870956       -1.0884383294       -8.1886376745
H            -8.6199169520       -7.6681184452       -0.5809231485
H            -9.0803549190       -3.0498448710       -4.3755557318
H            -3.2035374195       -5.6144182646       -4.3311069703
H            -3.0873233307       -7.6241364770       -8.6835747035
H            -8.9808816092       -1.1176972557       -0.0004713717
H            -7.7759442691       -3.9414582904       -3.1648608650
H            -2.0337595245       -4.7036742820       -5.7582022207
H            -1.9782197815       -8.1977681691       -1.7078608620
H            -7.8560808423       -0.5356604989       -7.0699670489
H            -5.2868650236       -2.3148950138       -0.6274428860
H           -11.1776922228       -6.9694004061       -8.4770459172
H           -10.9206650950       -6.5576840379       -4.2069230402
H            -5.2634448577       -2.0932715976       -4.5911469930
H            -4.3285964773       -2.8543795067       -2.3165117903
H           -10.5434829516       -5.6118250271       -6.5071740474
H           -10.0901350371       -7.1503383475       -2.4782720943
H            -4.3406750228       -1.5480678853       -6.3088599486
H            -5.5798819219       -4.1455447467       -1.3776231995
H           -11.5061736521       -4.1748763558       -7.3211735067
H           -11.3469526603       -8.3403165637       -3.4842302613
H            -5.6978743066       -0.3554949054       -5.4374033760
H            -6.3128007731       -2.5490116412       -2.3349723532
H            -0.9021356702       -6.7954499791       -5.9590281182
H            -0.5055881324       -6.9207848124       -2.4872624188
H            -6.2872408808       -2.0340585537       -6.3310691714
H            -5.8480100715       -6.5701067280       -5.8730315464
H            -0.2258463536       -2.2945813636       -2.8613383404
H            -0.1052627620       -2.2882833756       -6.8885767818
H            -5.8743840094       -6.3916956215       -1.8427207610
H            -7.1395430843       -6.6155731014       -7.3862303325
H            -1.4290275288       -2.3883817697       -1.2652819034
H            -1.4602416071       -2.0768432264       -5.4328251249
H            -7.1095619313       -6.5621778480       -3.3883378743
H            -6.4665473899       -4.8525759061       -6.7322587867
H            -0.6665849636       -4.0798825114       -2.0201741248
H            -0.6029642101       -0.4480905416       -6.2984970036
H            -6.4239352664       -8.2227770546       -2.5243362378
H            -5.2133218529       -6.0434739685       -7.7211947155
H           -10.9944545884       -2.6391707936       -1.0943959484
H           -11.0572491426       -1.4364520877       -5.1305207683
H            -5.1680059253       -7.0578255233       -3.5947160574



     Writing output data file ./tmp/K3Sr4TaGaB11H48.save/
     NEW-OLD atomic charge density approx. for the potential

     negative rho (up, down):  1.442E-07 0.000E+00
     extrapolated charge  149.56065, renormalised to  150.00000

     total cpu time spent up to now is    10761.9 secs

     Self-consistent Calculation

     iteration #  1     ecut=    50.00 Ry     beta= 0.70
     CG style diagonalization
     ethr =  1.00E-06,  avg # of iterations = 17.5

     negative rho (up, down):  1.955E-08 0.000E+00

     total cpu time spent up to now is    11895.0 secs

     total energy              =    -899.03044776 Ry
     estimated scf accuracy    <       0.01551498 Ry

     iteration #  2     ecut=    50.00 Ry     beta= 0.70
     CG style diagonalization
     ethr =  1.03E-05,  avg # of iterations =  4.3

     negative rho (up, down):  1.106E-08 0.000E+00

     total cpu time spent up to now is    12160.4 secs

     total energy              =    -899.03342229 Ry
     estimated scf accuracy    <       0.04064430 Ry

     iteration #  3     ecut=    50.00 Ry     beta= 0.70
     CG style diagonalization
     ethr =  1.03E-05,  avg # of iterations =  3.8

     total cpu time spent up to now is    12385.5 secs

     total energy              =    -899.03789014 Ry
     estimated scf accuracy    <       0.01994842 Ry

     iteration #  4     ecut=    50.00 Ry     beta= 0.70
     CG style diagonalization
     ethr =  1.03E-05,  avg # of iterations =  3.1

     total cpu time spent up to now is    12558.0 secs

     total energy              =    -899.04042028 Ry
     estimated scf accuracy    <       0.00577528 Ry

     iteration #  5     ecut=    50.00 Ry     beta= 0.70
     CG style diagonalization
     ethr =  3.85E-06,  avg # of iterations =  3.1

     total cpu time spent up to now is    12732.8 secs

     total energy              =    -899.04092180 Ry
     estimated scf accuracy    <       0.00092431 Ry

     iteration #  6     ecut=    50.00 Ry     beta= 0.70
     CG style diagonalization
     ethr =  6.16E-07,  avg # of iterations =  3.5

     total cpu time spent up to now is    12937.4 secs

     total energy              =    -899.04115722 Ry
     estimated scf accuracy    <       0.00076196 Ry

     iteration #  7     ecut=    50.00 Ry     beta= 0.70
     CG style diagonalization
     ethr =  5.08E-07,  avg # of iterations =  3.3

     total cpu time spent up to now is    13128.0 secs

     total energy              =    -899.04125856 Ry
     estimated scf accuracy    <       0.00014383 Ry

     iteration #  8     ecut=    50.00 Ry     beta= 0.70
     CG style diagonalization

     Program PWSCF v.6.7MaX starts on 19Jan2026 at  2:19:32 

     This program is part of the open-source Quantum ESPRESSO suite
     for quantum simulation of materials; please cite
         "P. Giannozzi et al., J. Phys.:Condens. Matter 21 395502 (2009);
         "P. Giannozzi et al., J. Phys.:Condens. Matter 29 465901 (2017);
          URL http://www.quantum-espresso.org", 
     in publications or presentations arising from this work. More details at
     http://www.quantum-espresso.org/quote

     Parallel version (MPI), running on     2 processors

     MPI processes distributed on     1 nodes
     R & G space division:  proc/nbgrp/npool/nimage =       2
     Waiting for input...
     Reading input from standard input

     Current dimensions of program PWSCF are:
     Max number of different atomic species (ntypx) = 10
     Max number of k-points (npk) =  40000
     Max angular momentum in pseudopotentials (lmaxx) =  3
     file Ga.UPF: wavefunction(s)  4S renormalized
     file H.UPF: wavefunction(s)  1S renormalized

     Subspace diagonalization in iterative solution of the eigenvalue problem:
     a serial algorithm will be used


     Parallelization info
     --------------------
     sticks:   dense  smooth     PW     G-vecs:    dense   smooth      PW
     Min        4060    2031    554               368518   130294   18525
     Max        4061    2032    555               368519   130295   18526
     Sum        8121    4063   1109               737037   260589   37051



     bravais-lattice index     =            0
     lattice parameter (alat)  =      16.3696  a.u.
     unit-cell volume          =    5456.0900 (a.u.)^3
     number of atoms/cell      =           68
     number of atomic types    =            6
     number of electrons       =       150.00
     number of Kohn-Sham states=           90
     kinetic-energy cutoff     =      50.0000  Ry
     charge density cutoff     =     400.0000  Ry
     scf convergence threshold =      1.0E-06
     mixing beta               =       0.7000
     number of iterations used =            4  plain     mixing
     energy convergence thresh.=      1.0E-04
     force convergence thresh. =      1.0E-03
     press convergence thresh. =      5.0E-01
     Exchange-correlation=  SLA  PW   PBE  PBE
                           (   1   4   3   4   0   0   0)
     nstep                     =           50


     celldm(1)=  16.369564  celldm(2)=   0.000000  celldm(3)=   0.000000
     celldm(4)=   0.000000  celldm(5)=   0.000000  celldm(6)=   0.000000

     crystal axes: (cart. coord. in units of alat)
               a(1) = (   0.039278  -0.047920  -0.998079 )  
               a(2) = (  -0.006158  -0.956168  -0.051589 )  
               a(3) = (  -1.309064  -0.008161   0.056042 )  

     reciprocal axes: (cart. coord. in units 2 pi/alat)
               b(1) = ( -0.043419  0.054571 -1.006254 )  
               b(2) = (  0.008707 -1.048632  0.050690 )  
               b(3) = ( -0.765248  0.006570 -0.030431 )  


     PseudoPot. # 1 for B  read from file:
     /home/marco/ZOS_Cloud_Compute/pseudo/B.UPF
     MD5 check sum: d9c678ba5d3b2fd7b74e61139c9288d8
     Pseudo is Projector augmented-wave + core cor, Zval =  3.0
     Generated using "atomic" code by A. Dal Corso  v.5.1.2
     Shape of augmentation charge: PSQ
     Using radial grid of 1059 points,  4 beta functions with: 
                l(1) =   0
                l(2) =   0
                l(3) =   1
                l(4) =   1
     Q(r) pseudized with 0 coefficients 


     PseudoPot. # 2 for Ga read from file:
     /home/marco/ZOS_Cloud_Compute/pseudo/Ga.UPF
     MD5 check sum: 79e63b61437c88080bf469cc04ca4be8
     Pseudo is Projector augmented-wave + core cor, Zval = 13.0
     Generated using "atomic" code by A. Dal Corso  v.5.1.2
     Shape of augmentation charge: PSQ
     Using radial grid of 1205 points,  6 beta functions with: 
                l(1) =   0
                l(2) =   0
                l(3) =   1
                l(4) =   1
                l(5) =   2
                l(6) =   2
     Q(r) pseudized with 0 coefficients 


     PseudoPot. # 3 for H  read from file:
     /home/marco/ZOS_Cloud_Compute/pseudo/H.UPF
     MD5 check sum: 850d63dcbcc06c5de8b44e0ab9f952da
     Pseudo is Projector augmented-wave, Zval =  1.0
     Generated using "atomic" code by A. Dal Corso  v.5.1.2
     Shape of augmentation charge: PSQ
     Using radial grid of  929 points,  2 beta functions with: 
                l(1) =   0
                l(2) =   0
     Q(r) pseudized with 0 coefficients 


     PseudoPot. # 4 for K  read from file:
     /home/marco/ZOS_Cloud_Compute/pseudo/K.UPF
     MD5 check sum: 0975f8d1feef6b2899f42b1061589f29
     Pseudo is Norm-conserving + core correction, Zval =  1.0
     Generated by new atomic code, or converted to UPF format
     Using radial grid of 1165 points,  2 beta functions with: 
                l(1) =   0
                l(2) =   1

     PseudoPot. # 5 for Sr read from file:
     /home/marco/ZOS_Cloud_Compute/pseudo/Sr.UPF
     MD5 check sum: 71c4688e601547c0814ef38edf55aea6
     Pseudo is Ultrasoft + core correction, Zval = 10.0
     Generated by new atomic code, or converted to UPF format
     Using radial grid of  883 points,  6 beta functions with: 
                l(1) =   0
                l(2) =   0
                l(3) =   1
                l(4) =   1
                l(5) =   2
                l(6) =   2
     Q(r) pseudized with  8 coefficients,  rinner =    1.200   1.200   1.200
                                                       1.200   1.200

     PseudoPot. # 6 for Ta read from file:
     /home/marco/ZOS_Cloud_Compute/pseudo/Ta.UPF
     MD5 check sum: 395be6f3d7fb4652d9fb26f9961305c8
     Pseudo is Ultrasoft + core correction, Zval = 13.0
     Generated by new atomic code, or converted to UPF format
     Using radial grid of  921 points,  6 beta functions with: 
                l(1) =   0
                l(2) =   0
                l(3) =   1
                l(4) =   1
                l(5) =   2
                l(6) =   2
     Q(r) pseudized with  6 coefficients,  rinner =    1.000   1.000   1.000
                                                       1.000   1.000

     atomic species   valence    mass     pseudopotential
        B              3.00     1.00000     B ( 1.00)
        Ga            13.00     1.00000     Ga( 1.00)
        H              1.00     1.00000     H ( 1.00)
        K              1.00     1.00000     K ( 1.00)
        Sr            10.00     1.00000     Sr( 1.00)
        Ta            13.00     1.00000     Ta( 1.00)

     No symmetry found



   Cartesian axes

     site n.     atom                  positions (alat units)
         1           K   tau(   1) = (  -0.9925256  -0.9376883  -0.5291844  )
         2           K   tau(   2) = (  -0.3331379  -0.0708494  -0.4605669  )
         3           Ga  tau(   3) = (  -0.2719420  -0.5047137  -1.0011326  )
         4           K   tau(   4) = (  -0.9490941  -0.5030943  -0.0400541  )
         5           Sr  tau(   5) = (  -0.6145405  -0.9725119  -0.9857438  )
         6           Sr  tau(   6) = (  -1.3024654  -0.0518007   0.0140840  )
         7           Sr  tau(   7) = (  -1.3075472  -0.4709736  -0.4669510  )
         8           Sr  tau(   8) = (  -0.6321485  -0.5206698  -0.4602639  )
         9           B   tau(   9) = (  -0.9889008  -0.4870946  -0.4037852  )
        10           B   tau(  10) = (  -0.3394309  -0.5220094  -0.5799385  )
        11           B   tau(  11) = (  -0.3552704  -0.9425855  -0.1068793  )
        12           B   tau(  12) = (  -0.9658119  -0.0659542  -0.8803304  )
        13           B   tau(  13) = (  -0.6044110  -0.3506363  -0.1654478  )
        14           Ta  tau(  14) = (  -1.3146746  -0.7084601  -0.8230037  )
        15           B   tau(  15) = (  -1.2603026  -0.8356334  -0.3218585  )
        16           B   tau(  16) = (  -0.5890604  -0.1821480  -0.6511536  )
        17           B   tau(  17) = (  -0.6785126  -0.7003177  -0.8039503  )
        18           B   tau(  18) = (  -0.0428183  -0.3147535  -0.2146920  )
        19           B   tau(  19) = (  -0.0199143  -0.1951127  -0.7010027  )
        20           B   tau(  20) = (  -0.6972406  -0.8002922  -0.3132900  )
        21           H   tau(  21) = (  -1.0909341  -0.5033328  -0.3043996  )
        22           H   tau(  22) = (  -0.4437005  -0.5095288  -0.6732142  )
        23           H   tau(  23) = (  -0.4598843  -0.9591573  -0.2002651  )
        24           H   tau(  24) = (  -1.0723976  -0.0543763  -0.7864721  )
        25           H   tau(  25) = (  -0.9899508  -0.6045080  -0.4839135  )
        26           H   tau(  26) = (  -0.3352876  -0.4069783  -0.4945824  )
        27           H   tau(  27) = (  -0.3072459  -0.1446634  -0.9642106  )
        28           H   tau(  28) = (  -1.0087046  -0.8657280  -0.0252233  )
        29           H   tau(  29) = (  -1.0126274  -0.3706437  -0.4816660  )
        30           H   tau(  30) = (  -0.3540890  -0.6399069  -0.5015976  )
        31           H   tau(  31) = (  -0.3337532  -0.8691128  -1.0325132  )
        32           H   tau(  32) = (  -1.0244096  -0.1392193   0.0429915  )
        33           H   tau(  33) = (  -0.8673360  -0.4790698  -0.3334328  )
        34           H   tau(  34) = (  -0.2201609  -0.5303733  -0.6528255  )
        35           H   tau(  35) = (  -0.2414929  -0.9350927  -0.1880482  )
        36           H   tau(  36) = (  -0.8499332  -0.0708462  -0.8034152  )
        37           H   tau(  37) = (  -0.6000015  -0.2687528  -0.0493547  )
        38           H   tau(  38) = (  -1.2092615  -0.7637597  -0.9883210  )
        39           H   tau(  39) = (  -1.2472144  -0.7557834  -0.4382070  )
        40           H   tau(  40) = (  -0.5774688  -0.2571588  -0.5318976  )
        41           H   tau(  41) = (  -0.4874322  -0.3365474  -0.2484466  )
        42           H   tau(  42) = (  -1.1302542  -0.6795940  -0.7251474  )
        43           H   tau(  43) = (  -1.1377941  -0.8318655  -0.2495670  )
        44           H   tau(  44) = (  -0.4679033  -0.1896480  -0.7253911  )
        45           H   tau(  45) = (  -0.6273371  -0.4877125  -0.1304119  )
        46           H   tau(  46) = (  -1.2438692  -0.5133690  -0.8402584  )
        47           H   tau(  47) = (  -1.2805220  -0.9723923  -0.3576102  )
        48           H   tau(  48) = (  -0.6108313  -0.0464705  -0.6147225  )
        49           H   tau(  49) = (  -0.7131061  -0.3036681  -0.2418199  )
        50           H   tau(  50) = (  -0.1070067  -0.7318317  -0.7031099  )
        51           H   tau(  51) = (  -0.0665612  -0.7842941  -0.3086080  )
        52           H   tau(  52) = (  -0.6972656  -0.2285025  -0.7293355  )
        53           H   tau(  53) = (  -0.6378339  -0.7717758  -0.6898065  )
        54           H   tau(  54) = (  -0.0104802  -0.2332178  -0.3266383  )
        55           H   tau(  55) = (   0.0240497  -0.2701666  -0.8124523  )
        56           H   tau(  56) = (  -0.6593572  -0.7210189  -0.2005602  )
        57           H   tau(  57) = (  -0.7942750  -0.7637882  -0.8596060  )
        58           H   tau(  58) = (  -0.1640363  -0.2614304  -0.1573528  )
        59           H   tau(  59) = (  -0.1359834  -0.2568176  -0.6434108  )
        60           H   tau(  60) = (  -0.8081285  -0.7413623  -0.3755097  )
        61           H   tau(  61) = (  -0.7136501  -0.5663750  -0.7719419  )
        62           H   tau(  62) = (  -0.0715134  -0.4475985  -0.2555142  )
        63           H   tau(  63) = (  -0.0578979  -0.0653494  -0.7413392  )
        64           H   tau(  64) = (  -0.7316334  -0.9338017  -0.2770103  )
        65           H   tau(  65) = (  -0.5704668  -0.7023805  -0.8978318  )
        66           H   tau(  66) = (  -1.2404997  -0.3184978  -0.0710073  )
        67           H   tau(  67) = (  -1.2203449  -0.2051869  -0.5524591  )
        68           H   tau(  68) = (  -0.5854356  -0.7994344  -0.4020285  )

     number of k points=     8  Methfessel-Paxton smearing, width (Ry)=  0.0200
                       cart. coord. in units 2pi/alat
        k(    1) = (   0.0000000   0.0000000   0.0000000), wk =   0.2500000
        k(    2) = (   0.3826241  -0.0032850   0.0152155), wk =   0.2500000
        k(    3) = (  -0.0043537   0.5243161  -0.0253451), wk =   0.2500000
        k(    4) = (   0.3782704   0.5210311  -0.0101296), wk =   0.2500000
        k(    5) = (   0.0217093  -0.0272854   0.5031269), wk =   0.2500000
        k(    6) = (   0.4043334  -0.0305704   0.5183424), wk =   0.2500000
        k(    7) = (   0.0173556   0.4970307   0.4777818), wk =   0.2500000
        k(    8) = (   0.3999797   0.4937457   0.4929973), wk =   0.2500000

     Dense  grid:   737037 G-vectors     FFT dimensions: ( 108, 100, 144)

     Smooth grid:   260589 G-vectors     FFT dimensions: (  75,  72, 100)

     Estimated max dynamical RAM per process >       2.30 GB

     Estimated total dynamical RAM >       4.61 GB

     Atomic positions and unit cell read from directory:
     ./tmp/K3Sr4TaGaB11H48.save/
     Atomic positions from file used, from input discarded


     The initial density is read from file :
     ./tmp/K3Sr4TaGaB11H48.save/charge-density


     starting charge  149.56135, renormalised to  150.00000
     Cannot read wfcs: file not found
     Starting wfcs are  178 randomized atomic wfcs
     Checking if some PAW data can be deallocated... 

     total cpu time spent up to now is      123.9 secs

     Self-consistent Calculation

     iteration #  1     ecut=    50.00 Ry     beta= 0.70
     CG style diagonalization
     c_bands:  1 eigenvalues not converged
     c_bands:  3 eigenvalues not converged
     c_bands:  2 eigenvalues not converged
     ethr =  1.00E-05,  avg # of iterations = 14.4

     total cpu time spent up to now is      960.3 secs

     total energy              =    -898.60983349 Ry
     estimated scf accuracy    <       1.08267683 Ry

     iteration #  2     ecut=    50.00 Ry     beta= 0.70
     CG style diagonalization
     ethr =  7.22E-04,  avg # of iterations =  3.7

     negative rho (up, down):  1.514E-08 0.000E+00

     total cpu time spent up to now is     1152.9 secs

     total energy              =    -898.67703486 Ry
     estimated scf accuracy    <       1.85158696 Ry

     iteration #  3     ecut=    50.00 Ry     beta= 0.70
     CG style diagonalization
     ethr =  7.22E-04,  avg # of iterations =  3.5

     total cpu time spent up to now is     1333.9 secs

     total energy              =    -898.93492693 Ry
     estimated scf accuracy    <       0.33624119 Ry

     iteration #  4     ecut=    50.00 Ry     beta= 0.70
     CG style diagonalization
     ethr =  2.24E-04,  avg # of iterations =  3.5

     negative rho (up, down):  1.103E-08 0.000E+00

     total cpu time spent up to now is     1514.1 secs

     total energy              =    -899.02152903 Ry
     estimated scf accuracy    <       0.18068839 Ry

     iteration #  5     ecut=    50.00 Ry     beta= 0.70
     CG style diagonalization
     ethr =  1.20E-04,  avg # of iterations =  3.0

     negative rho (up, down):  1.007E-08 0.000E+00

     total cpu time spent up to now is     1665.6 secs

     total energy              =    -899.03537584 Ry
     estimated scf accuracy    <       0.01500773 Ry

     iteration #  6     ecut=    50.00 Ry     beta= 0.70
     CG style diagonalization
     ethr =  1.00E-05,  avg # of iterations =  4.1

     total cpu time spent up to now is     1890.6 secs

     total energy              =    -899.03934207 Ry
     estimated scf accuracy    <       0.01112627 Ry

     iteration #  7     ecut=    50.00 Ry     beta= 0.70
     CG style diagonalization
     ethr =  7.42E-06,  avg # of iterations =  3.6

     total cpu time spent up to now is     2081.7 secs

     total energy              =    -899.03995367 Ry
     estimated scf accuracy    <       0.00544908 Ry

     iteration #  8     ecut=    50.00 Ry     beta= 0.70
     CG style diagonalization
     c_bands:  1 eigenvalues not converged
     c_bands:  1 eigenvalues not converged
     c_bands:  1 eigenvalues not converged
     ethr =  3.63E-06,  avg # of iterations =  3.7

     total cpu time spent up to now is     2277.7 secs

     total energy              =    -899.04018808 Ry
     estimated scf accuracy    <       0.00074470 Ry

     iteration #  9     ecut=    50.00 Ry     beta= 0.70
     CG style diagonalization
     ethr =  4.96E-07,  avg # of iterations =  5.7

     total cpu time spent up to now is     2602.9 secs

     total energy              =    -899.04088764 Ry
     estimated scf accuracy    <       0.00072693 Ry

     iteration # 10     ecut=    50.00 Ry     beta= 0.70
     CG style diagonalization
     ethr =  4.85E-07,  avg # of iterations =  3.8

     total cpu time spent up to now is     2807.2 secs

     total energy              =    -899.04105145 Ry
     estimated scf accuracy    <       0.00063240 Ry

     iteration # 11     ecut=    50.00 Ry     beta= 0.70
     CG style diagonalization
     ethr =  4.22E-07,  avg # of iterations =  3.2

     total cpu time spent up to now is     2973.6 secs

     total energy              =    -899.04113936 Ry
     estimated scf accuracy    <       0.00001328 Ry

     iteration # 12     ecut=    50.00 Ry     beta= 0.70
     CG style diagonalization
     c_bands:  1 eigenvalues not converged
     c_bands:  1 eigenvalues not converged
     c_bands:  1 eigenvalues not converged
     c_bands:  1 eigenvalues not converged
     c_bands:  1 eigenvalues not converged
     ethr =  8.86E-09,  avg # of iterations =  9.1

     total cpu time spent up to now is     3500.5 secs

     total energy              =    -899.04131070 Ry
     estimated scf accuracy    <       0.00001006 Ry

     iteration # 13     ecut=    50.00 Ry     beta= 0.70
     CG style diagonalization
     ethr =  6.71E-09,  avg # of iterations =  3.8

     total cpu time spent up to now is     3702.1 secs

     total energy              =    -899.04131359 Ry
     estimated scf accuracy    <       0.00000183 Ry

     iteration # 14     ecut=    50.00 Ry     beta= 0.70
     CG style diagonalization
     ethr =  1.22E-09,  avg # of iterations =  6.2

     total cpu time spent up to now is     4047.7 secs

     End of self-consistent calculation

          k = 0.0000 0.0000 0.0000 ( 32571 PWs)   bands (ev):

   -66.3135 -34.0191 -33.8875 -33.8414 -33.7470 -32.9992 -32.8522 -32.7288
   -16.0712 -16.0395 -16.0024 -15.9478 -15.9140 -15.8937 -15.8718 -15.8651
   -15.8470 -15.8287 -15.8113 -15.7863 -13.4354 -13.4285 -13.3315 -13.3028
   -13.2888  -7.9992  -7.6144  -7.4252  -7.2846  -7.2648  -7.1306  -6.9791
    -6.9119  -6.8690  -6.8282  -6.5899  -4.5527  -3.7196  -3.3768  -3.1530
    -3.1374  -2.9824  -2.9758  -2.9569  -2.8353  -2.7857  -2.7666  -2.6353
    -2.5638  -2.4923  -2.4630  -2.3701  -2.3297  -2.3046  -2.2612  -2.1634
    -2.1554  -2.0925  -2.0464  -1.9462  -1.9013  -1.7771  -1.7011  -1.6832
    -1.5891  -1.5291  -1.4932  -1.4503  -1.3949  -1.3250  -1.2875  -1.2144
    -1.0994  -0.9279   1.8638   1.9932   2.7213   3.0676   3.3364   4.1563
     4.6380   4.6563   4.7666   4.9756   5.0323   5.1215   5.2092   5.4569
     5.5285   5.6715

          k = 0.3752 0.0047-0.0010 ( 32604 PWs)   bands (ev):

   -66.3135 -34.0191 -33.8875 -33.8414 -33.7470 -32.9992 -32.8522 -32.7288
   -16.0708 -16.0394 -16.0024 -15.9483 -15.9141 -15.8934 -15.8718 -15.8649
   -15.8468 -15.8289 -15.8118 -15.7864 -13.4354 -13.4285 -13.3315 -13.3028
   -13.2888  -7.9564  -7.6547  -7.4166  -7.3158  -7.2982  -7.0492  -7.0020
    -6.9059  -6.8953  -6.8272  -6.5887  -4.5521  -3.7342  -3.2445  -3.1624
    -3.0581  -3.0260  -2.9482  -2.9414  -2.8299  -2.8092  -2.7315  -2.6828
    -2.6254  -2.5980  -2.5023  -2.4547  -2.3603  -2.2577  -2.2219  -2.1932
    -2.1345  -2.0488  -1.9778  -1.9272  -1.8364  -1.7642  -1.7364  -1.6383
    -1.5962  -1.5451  -1.5001  -1.4922  -1.4343  -1.3543  -1.2766  -1.2084
    -1.1344  -0.9248   1.8683   2.0032   2.7158   3.0787   3.3183   4.1773
     4.6057   4.7515   4.9182   5.0407   5.0977   5.2205   5.2822   5.3895
     5.5277   5.6264

          k = 0.0075 0.5082-0.0225 ( 32596 PWs)   bands (ev):

   -66.3135 -34.0191 -33.8875 -33.8414 -33.7470 -32.9992 -32.8522 -32.7288
   -16.0712 -16.0393 -16.0023 -15.9478 -15.9131 -15.8937 -15.8715 -15.8654
   -15.8480 -15.8289 -15.8113 -15.7866 -13.4354 -13.4285 -13.3315 -13.3028
   -13.2889  -7.9126  -7.6370  -7.4656  -7.2696  -7.2052  -7.1422  -7.0174
    -6.9253  -6.8992  -6.8774  -6.5796  -4.6151  -3.8152  -3.2947  -3.2113
    -3.1036  -2.9363  -2.9313  -2.8273  -2.8070  -2.7508  -2.7346  -2.6536
    -2.6182  -2.5649  -2.4672  -2.3741  -2.3214  -2.2403  -2.1648  -2.1057
    -2.0647  -2.0381  -1.9801  -1.8762  -1.8395  -1.7926  -1.7334  -1.6818
    -1.6655  -1.6234  -1.6009  -1.5437  -1.4318  -1.4175  -1.3747  -1.2581
    -1.1557  -0.8212   1.8594   2.0072   2.6236   2.9957   3.3013   4.0817
     4.6272   4.9272   5.0026   5.0385   5.2088   5.2533   5.3125   5.4239
     5.5359   5.5633

          k = 0.3826 0.5129-0.0235 ( 32564 PWs)   bands (ev):

   -66.3135 -34.0191 -33.8875 -33.8414 -33.7470 -32.9992 -32.8522 -32.7288
   -16.0708 -16.0393 -16.0022 -15.9483 -15.9131 -15.8933 -15.8715 -15.8652
   -15.8479 -15.8291 -15.8119 -15.7866 -13.4354 -13.4285 -13.3315 -13.3028
   -13.2888  -7.8921  -7.5418  -7.4563  -7.4083  -7.3273  -7.0392  -7.0186
    -6.9346  -6.8860  -6.8609  -6.5746  -4.6154  -3.8183  -3.2690  -3.1884
    -3.0807  -2.9540  -2.9032  -2.8920  -2.8214  -2.7513  -2.7104  -2.6604
    -2.5248  -2.4345  -2.4144  -2.3832  -2.3117  -2.2672  -2.2377  -2.1969
    -2.1131  -2.0861  -1.9817  -1.9726  -1.8618  -1.8219  -1.7559  -1.6498
    -1.6283  -1.5836  -1.5335  -1.5109  -1.4450  -1.4188  -1.3788  -1.2533
    -1.2101  -0.8219   1.8645   2.0142   2.6222   3.0069   3.2971   4.0991
     4.6662   4.9401   5.0056   5.1095   5.2255   5.2576   5.3844   5.5306
     5.6112   5.6390

          k =-0.0014-0.0229 0.5183 ( 32578 PWs)   bands (ev):

   -66.3135 -34.0191 -33.8875 -33.8414 -33.7470 -32.9992 -32.8522 -32.7288
   -16.0712 -16.0394 -16.0023 -15.9478 -15.9131 -15.8937 -15.8720 -15.8649
   -15.8480 -15.8288 -15.8113 -15.7866 -13.4354 -13.4285 -13.3315 -13.3028
   -13.2889  -7.8808  -7.6442  -7.4662  -7.2521  -7.1752  -7.1380  -7.0873
    -6.9897  -6.8675  -6.8546  -6.6048  -4.5639  -3.7720  -3.2315  -3.1634
    -3.1249  -3.0471  -2.9710  -2.8740  -2.7901  -2.7407  -2.7001  -2.6783
    -2.5732  -2.4680  -2.4560  -2.3675  -2.3276  -2.2921  -2.1697  -2.1316
    -2.0903  -2.0460  -2.0282  -2.0110  -1.8971  -1.8762  -1.7525  -1.6980
    -1.6219  -1.6065  -1.5652  -1.4966  -1.4523  -1.3603  -1.3042  -1.1995
    -1.1345  -0.8694   1.9004   2.0002   2.7099   3.0716   3.2766   4.1279
     4.6816   4.8307   4.9009   5.0813   5.2204   5.2676   5.3490   5.5260
     5.5549   5.5763

          k = 0.3737-0.0182 0.5173 ( 32564 PWs)   bands (ev):

   -66.3135 -34.0191 -33.8875 -33.8414 -33.7470 -32.9992 -32.8522 -32.7288
   -16.0707 -16.0394 -16.0023 -15.9483 -15.9132 -15.8934 -15.8720 -15.8647
   -15.8478 -15.8290 -15.8118 -15.7867 -13.4354 -13.4285 -13.3315 -13.3028
   -13.2888  -7.8645  -7.5384  -7.4567  -7.4241  -7.2877  -7.0664  -7.0426
    -6.9278  -6.9069  -6.8534  -6.6047  -4.5600  -3.7623  -3.2197  -3.1219
    -3.0985  -2.9988  -2.9165  -2.8813  -2.8141  -2.7608  -2.7165  -2.6378
    -2.5829  -2.5564  -2.4042  -2.3858  -2.3533  -2.3055  -2.2281  -2.1874
    -2.1506  -2.0868  -2.0160  -1.9960  -1.8673  -1.7974  -1.7567  -1.6370
    -1.6224  -1.5921  -1.5499  -1.5196  -1.4491  -1.4172  -1.3038  -1.2057
    -1.1342  -0.8723   1.8978   2.0073   2.7005   3.0799   3.2749   4.1498
     4.6986   4.8718   4.9861   5.1066   5.2241   5.3342   5.4120   5.4911
     5.6049   5.7244

          k = 0.0061 0.4853 0.4958 ( 32544 PWs)   bands (ev):

   -66.3135 -34.0191 -33.8875 -33.8414 -33.7470 -32.9992 -32.8522 -32.7288
   -16.0712 -16.0396 -16.0025 -15.9478 -15.9141 -15.8938 -15.8735 -15.8632
   -15.8472 -15.8288 -15.8113 -15.7864 -13.4354 -13.4285 -13.3315 -13.3028
   -13.2889  -7.8347  -7.6483  -7.4550  -7.2779  -7.1957  -7.1286  -7.0223
    -6.9982  -6.9022  -6.8626  -6.6492  -4.6967  -3.7750  -3.2416  -3.1335
    -3.1085  -3.0243  -2.8969  -2.8462  -2.7138  -2.6639  -2.6170  -2.5899
    -2.5396  -2.4846  -2.4616  -2.3961  -2.3487  -2.2935  -2.2496  -2.1402
    -2.1206  -2.0767  -2.0505  -1.9609  -1.9167  -1.8283  -1.7404  -1.6858
    -1.6437  -1.5893  -1.5212  -1.5168  -1.4546  -1.3928  -1.3503  -1.3055
    -1.2689  -0.8125   1.9051   2.0132   2.6086   2.9947   3.2743   4.0357
     4.7376   4.9193   5.0070   5.0343   5.2508   5.2591   5.4189   5.4738
     5.4888   5.5986

          k = 0.3812 0.4900 0.4948 ( 32568 PWs)   bands (ev):

   -66.3135 -34.0191 -33.8875 -33.8414 -33.7470 -32.9992 -32.8522 -32.7288
   -16.0708 -16.0396 -16.0025 -15.9483 -15.9142 -15.8934 -15.8734 -15.8630
   -15.8471 -15.8289 -15.8118 -15.7864 -13.4354 -13.4285 -13.3315 -13.3028
   -13.2889  -7.8261  -7.5256  -7.4836  -7.3749  -7.2854  -7.0773  -7.0643
    -6.9651  -6.8879  -6.8672  -6.6300  -4.6948  -3.7371  -3.1791  -3.1665
    -3.0341  -2.9554  -2.9207  -2.8705  -2.8099  -2.7111  -2.6387  -2.6044
    -2.5415  -2.5136  -2.4511  -2.4236  -2.3609  -2.2817  -2.2320  -2.1245
    -2.0764  -2.0280  -2.0091  -1.9456  -1.8921  -1.8217  -1.7737  -1.7244
    -1.6955  -1.6149  -1.5739  -1.5122  -1.4205  -1.3846  -1.3470  -1.3051
    -1.2821  -0.8155   1.9016   2.0183   2.6002   3.0032   3.2774   4.0544
     4.7895   4.9339   5.0777   5.2090   5.2577   5.4110   5.4470   5.5197
     5.5590   5.5867

     the Fermi energy is     1.9452 ev

!    total energy              =    -899.04131638 Ry
     estimated scf accuracy    <       0.00000018 Ry
     smearing contrib. (-TS)   =      -0.00942735 Ry
     internal energy E=F+TS    =    -899.03188903 Ry

     The total energy is F=E-TS. E is the sum of the following terms:
     one-electron contribution =    -503.11471799 Ry
     hartree contribution      =     288.57635479 Ry
     xc contribution           =    -236.15871671 Ry
     ewald contribution        =    -280.01527352 Ry
     one-center paw contrib.   =    -168.31953560 Ry

     convergence has been achieved in  14 iterations

     Forces acting on atoms (cartesian axes, Ry/au):

     atom    1 type  4   force =     0.00194277    0.00103691   -0.00170035
     atom    2 type  4   force =    -0.00152146   -0.00028366   -0.00148791
     atom    3 type  2   force =    -0.00432901    0.00534875    0.00171168
     atom    4 type  4   force =     0.00242852    0.00176055   -0.00091360
     atom    5 type  5   force =    -0.00108511    0.00016706   -0.00016690
     atom    6 type  5   force =    -0.00533309    0.00529937    0.00306153
     atom    7 type  5   force =     0.00198931    0.00789540    0.00366742
     atom    8 type  5   force =     0.00134335    0.00005293    0.00134485
     atom    9 type  1   force =     0.00026520    0.00116885   -0.00309864
     atom   10 type  1   force =     0.00153315   -0.00190206   -0.00078744
     atom   11 type  1   force =     0.00163609    0.00205295    0.00332512
     atom   12 type  1   force =     0.00226151   -0.00288030   -0.00205028
     atom   13 type  1   force =    -0.00405641    0.00222321    0.00064392
     atom   14 type  6   force =    -0.01088904   -0.02245213    0.00376184
     atom   15 type  1   force =     0.00121222   -0.00150743   -0.00025366
     atom   16 type  1   force =    -0.00089802    0.00068426   -0.00013642
     atom   17 type  1   force =    -0.00105802    0.00190207    0.00390491
     atom   18 type  1   force =     0.00119092   -0.00433037   -0.00144058
     atom   19 type  1   force =     0.00286045    0.00401309   -0.00409489
     atom   20 type  1   force =    -0.00232071   -0.00011228    0.00177148
     atom   21 type  3   force =     0.00143869    0.00138274   -0.00340719
     atom   22 type  3   force =     0.00512310    0.00034752   -0.00509671
     atom   23 type  3   force =     0.00448072    0.00059562   -0.00384348
     atom   24 type  3   force =     0.00213003    0.00072290   -0.00444727
     atom   25 type  3   force =     0.00066361    0.00027547   -0.00098791
     atom   26 type  3   force =     0.00750836    0.00043738   -0.00182101
     atom   27 type  3   force =     0.00322640   -0.00007848    0.00053167
     atom   28 type  3   force =     0.00157254   -0.00239208    0.00035916
     atom   29 type  3   force =    -0.00228693    0.00095668    0.00354968
     atom   30 type  3   force =     0.00323771   -0.00341794   -0.00427427
     atom   31 type  3   force =     0.00348105    0.00291593    0.00215967
     atom   32 type  3   force =    -0.00254762   -0.00217065   -0.00210947
     atom   33 type  3   force =    -0.00353777    0.00246788    0.00096263
     atom   34 type  3   force =     0.00102590   -0.00654761   -0.00180347
     atom   35 type  3   force =     0.00181472   -0.00041932    0.00095736
     atom   36 type  3   force =    -0.00054836   -0.00201832    0.00325973
     atom   37 type  3   force =    -0.00057613    0.00041536    0.00216574
     atom   38 type  3   force =     0.00663810    0.00343881   -0.01370858
     atom   39 type  3   force =    -0.00048499    0.00021453    0.00265160
     atom   40 type  3   force =     0.00215945    0.00319153   -0.00140575
     atom   41 type  3   force =    -0.00192211   -0.00314668   -0.00002314
     atom   42 type  3   force =    -0.00596783    0.00181992   -0.00059228
     atom   43 type  3   force =     0.00237691    0.00085841   -0.00120916
     atom   44 type  3   force =    -0.00093366   -0.00079656    0.00261851
     atom   45 type  3   force =     0.00378817    0.00068421   -0.00243215
     atom   46 type  3   force =    -0.00793705    0.01227735   -0.00206430
     atom   47 type  3   force =    -0.00113978   -0.00189363   -0.00126537
     atom   48 type  3   force =    -0.00087548    0.00002007    0.00335760
     atom   49 type  3   force =    -0.00069728    0.00219556   -0.00364096
     atom   50 type  3   force =    -0.01241020   -0.00117506    0.02167886
     atom   51 type  3   force =     0.00431109    0.00539789   -0.00486259
     atom   52 type  3   force =     0.00112250   -0.00338990   -0.00103820
     atom   53 type  3   force =     0.00087468   -0.00003610    0.00006384
     atom   54 type  3   force =    -0.00152925    0.00095332    0.00274551
     atom   55 type  3   force =    -0.00112383   -0.00533559    0.00255744
     atom   56 type  3   force =    -0.00063796    0.00073143    0.00007642
     atom   57 type  3   force =     0.00172331   -0.00126613    0.00012291
     atom   58 type  3   force =     0.00431626    0.00045300   -0.00248397
     atom   59 type  3   force =     0.00320535    0.00160654   -0.00175510
     atom   60 type  3   force =     0.00091537    0.00054380    0.00101820
     atom   61 type  3   force =     0.00042156    0.00286559    0.00054406
     atom   62 type  3   force =    -0.00075871   -0.00548417    0.00185380
     atom   63 type  3   force =    -0.00415687    0.00359959    0.00221007
     atom   64 type  3   force =     0.00180502   -0.00199638   -0.00086616
     atom   65 type  3   force =    -0.00331128   -0.00341839    0.00329997
     atom   66 type  3   force =    -0.00115907   -0.00187318   -0.00343642
     atom   67 type  3   force =    -0.00024979   -0.00427864    0.00032360
     atom   68 type  3   force =    -0.00174126   -0.00037139    0.00244485

     Total force =     0.054910     Total SCF correction =     0.001430


     Computing stress (Cartesian axis) and pressure

          total   stress  (Ry/bohr**3)                   (kbar)     P=       -0.66
  -0.00001628   0.00000053  -0.00000115           -2.40        0.08       -0.17
   0.00000053   0.00000747  -0.00000466            0.08        1.10       -0.69
  -0.00000115  -0.00000466  -0.00000464           -0.17       -0.69       -0.68

     Energy error            =      4.3E-03
     Gradient error          =      2.2E-02
     Cell gradient error     =      1.6E-05


     number of scf cycles    =  12
     number of bfgs steps    =  11

     enthalpy old            =    -899.0370166898 Ry
     enthalpy new            =    -899.0413163795 Ry

     CASE: enthalpy_new < enthalpy_old

     new trust radius        =       0.1143678335 bohr
     new conv_thr            =       0.0000002245 Ry

     new unit-cell volume =   5531.43638 a.u.^3 (   819.67430 Ang^3 )
     density =      0.13776 g/cm^3

CELL_PARAMETERS (angstrom)
  -0.020156064  -0.353685599  -8.346163126
   0.111603590  -8.529256832  -0.360506224
 -11.537509761   0.174931423  -0.028930324

ATOMIC_POSITIONS (angstrom)
K            -8.7118875278       -8.0789701975       -4.9340407889
K            -3.0030353892       -0.4148505087       -3.8487597286
Ga           -2.5278622960       -4.1834527282       -8.3015033373
K            -8.2090009154       -4.2770156453       -0.4663721771
Sr           -5.5871471474       -8.5265806168       -8.3200200755
Sr          -11.3795923450       -0.2544542573       -0.5135460534
Sr          -11.4443632052       -4.0479556375       -4.6395796602
Sr           -5.6401195423       -4.5019891154       -4.0181244422
B            -8.8353465126       -4.0540115864       -3.7243860554
B            -3.0159129514       -4.5922190140       -4.9840397669
B            -2.9078106694       -8.2879885961       -0.9341578128
B            -8.8325825833       -0.4056749857       -7.7538162057
B            -5.3631767939       -2.9528067985       -1.6516813564
Ta          -12.0733265852       -5.8144505649       -7.4168654002
B           -11.0913060026       -7.1496573138       -3.1551786891
B            -5.3857051674       -1.5134076850       -5.6452027445
B            -6.1517723326       -5.9959671508       -6.8892244165
B            -0.4258864576       -2.9025600247       -1.7989533724
B            -0.4349143813       -1.5882901484       -5.9001637866
B            -6.1282029415       -7.0623535124       -2.8117793795
H            -9.6827987347       -4.2582506564       -2.8626094577
H            -3.9559261452       -4.3952529144       -5.7445447477
H            -3.8902418909       -8.4370678245       -1.6566448103
H            -9.7816465749       -0.2179025771       -6.9986892798
H            -8.8135148114       -5.0022696730       -4.4939741353
H            -2.8842257700       -3.6277491255       -4.2372983364
H            -2.9554932899       -1.0671587363       -8.1557991548
H            -8.5834906070       -7.6672189680       -0.5772515819
H            -9.0793872780       -3.0246748437       -4.3537879943
H            -3.1924941277       -5.6098362842       -4.3181403744
H            -3.0724314624       -7.5838087135       -8.6279426756
H            -8.9822016537       -1.1182675748       -0.0112671405
H            -7.7749745170       -3.9171718794       -3.1591066319
H            -2.0162840138       -4.7015943087       -5.7415467017
H            -1.9632250836       -8.1828619250       -1.6942612744
H            -7.8554728604       -0.5238570123       -7.0418600348
H            -5.2979750207       -2.2987266649       -0.6182023152
H           -11.1649331384       -6.9415740407       -8.4655021812
H           -10.9001831199       -6.5262348653       -4.1878232735
H            -5.2588019076       -2.0734070208       -4.5681399665
H            -4.3298763529       -2.8439720413       -2.3253302356
H           -10.5572089811       -5.5695684330       -6.4718781084
H           -10.0661543775       -7.1341703346       -2.4751604576
H            -4.3396582464       -1.5275264124       -6.2891406711
H            -5.5803397690       -4.1385001330       -1.3774662958
H           -11.5541759888       -4.1669414948       -7.2967455023
H           -11.3371136121       -8.3191750871       -3.4548747337
H            -5.6974809665       -0.3456842698       -5.4184184332
H            -6.2976053892       -2.5299646407       -2.3276406180
H            -0.9171370926       -6.7809303325       -5.8882359499
H            -0.5039052561       -6.8899959573       -2.4813862266
H            -6.2734840706       -2.0344782304       -6.3072262487
H            -5.8435757353       -6.5377935041       -5.8366680849
H            -0.2262262935       -2.3057222701       -2.8468717820
H            -0.1019144868       -2.2660991611       -6.8712899308
H            -5.8696988303       -6.3794192802       -1.8200300579
H            -7.1297844903       -6.5888428603       -7.3479960619
H            -1.4227077046       -2.3879490294       -1.2564605931
H            -1.4602654299       -2.0516153110       -5.4047834795
H            -7.0994549332       -6.5530921475       -3.3681133533
H            -6.4634392531       -4.8246014365       -6.7004126371
H            -0.6687092803       -4.0826213328       -2.0055815146
H            -0.6064919163       -0.4284959932       -6.2843733204
H            -6.4184295956       -8.2084825684       -2.5031954871
H            -5.2072860997       -6.0307351237       -7.6846075762
H           -10.9789446422       -2.6256032125       -1.1002023005
H           -11.0475430013       -1.4305400743       -5.1168140536
H            -5.1647940434       -7.0335777009       -3.5734481053



     Writing output data file ./tmp/K3Sr4TaGaB11H48.save/
     NEW-OLD atomic charge density approx. for the potential

     negative rho (up, down):  2.335E-07 0.000E+00
     extrapolated charge  149.20934, renormalised to  150.00000

     total cpu time spent up to now is     4549.5 secs

     Self-consistent Calculation

     iteration #  1     ecut=    50.00 Ry     beta= 0.70
     CG style diagonalization
     c_bands:  1 eigenvalues not converged
     c_bands:  1 eigenvalues not converged
     ethr =  1.00E-06,  avg # of iterations = 20.8

     negative rho (up, down):  4.041E-08 0.000E+00

     total cpu time spent up to now is     5803.5 secs

     total energy              =    -899.01763342 Ry
     estimated scf accuracy    <       0.03873876 Ry

     iteration #  2     ecut=    50.00 Ry     beta= 0.70
     CG style diagonalization
     ethr =  2.58E-05,  avg # of iterations =  4.4

     negative rho (up, down):  1.274E-08 0.000E+00

     total cpu time spent up to now is     6050.5 secs

     total energy              =    -899.02929610 Ry
     estimated scf accuracy    <       0.11189270 Ry

     iteration #  3     ecut=    50.00 Ry     beta= 0.70
     CG style diagonalization
     ethr =  2.58E-05,  avg # of iterations =  3.9

     negative rho (up, down):  1.052E-08 0.000E+00

     total cpu time spent up to now is     6262.0 secs

     total energy              =    -899.04220206 Ry
     estimated scf accuracy    <       0.02190936 Ry

     iteration #  4     ecut=    50.00 Ry     beta= 0.70
     CG style diagonalization
     ethr =  1.46E-05,  avg # of iterations =  3.4

     total cpu time spent up to now is     6442.3 secs

     total energy              =    -899.04590001 Ry
     estimated scf accuracy    <       0.02984801 Ry

     iteration #  5     ecut=    50.00 Ry     beta= 0.70
     CG style diagonalization
     ethr =  1.46E-05,  avg # of iterations =  3.0

     total cpu time spent up to now is     6600.8 secs

     total energy              =    -899.04783927 Ry
     estimated scf accuracy    <       0.00272086 Ry

     iteration #  6     ecut=    50.00 Ry     beta= 0.70
     CG style diagonalization
     ethr =  1.81E-06,  avg # of iterations =  3.8

     negative rho (up, down):  1.068E-08 0.000E+00

     total cpu time spent up to now is     6805.4 secs

     total energy              =    -899.04803410 Ry
     estimated scf accuracy    <       0.00158709 Ry

     iteration #  7     ecut=    50.00 Ry     beta= 0.70
     CG style diagonalization
     ethr =  1.06E-06,  avg # of iterations =  3.5

     negative rho (up, down):  1.083E-08 0.000E+00

     total cpu time spent up to now is     6996.3 secs

     total energy              =    -899.04823845 Ry
     estimated scf accuracy    <       0.00046064 Ry

     iteration #  8     ecut=    50.00 Ry     beta= 0.70
     CG style diagonalization
     ethr =  3.07E-07,  avg # of iterations =  3.7

     negative rho (up, down):  1.100E-08 0.000E+00

     total cpu time spent up to now is     7195.0 secs

     total energy              =    -899.04834363 Ry
     estimated scf accuracy    <       0.00008960 Ry

     iteration #  9     ecut=    50.00 Ry     beta= 0.70
     CG style diagonalization
     c_bands:  1 eigenvalues not converged
     ethr =  5.97E-08,  avg # of iterations =  4.1

     negative rho (up, down):  1.107E-08 0.000E+00

     total cpu time spent up to now is     7416.8 secs

     total energy              =    -899.04839275 Ry
     estimated scf accuracy    <       0.00002240 Ry

     iteration # 10     ecut=    50.00 Ry     beta= 0.70
     CG style diagonalization
     ethr =  1.49E-08,  avg # of iterations =  4.8

     negative rho (up, down):  1.109E-08 0.000E+00

     total cpu time spent up to now is     7691.0 secs

     total energy              =    -899.04841271 Ry
     estimated scf accuracy    <       0.00000778 Ry

     iteration # 11     ecut=    50.00 Ry     beta= 0.70
     CG style diagonalization
     ethr =  5.19E-09,  avg # of iterations =  4.8

     negative rho (up, down):  1.107E-08 0.000E+00

     total cpu time spent up to now is     7955.1 secs

     total energy              =    -899.04841912 Ry
     estimated scf accuracy    <       0.00000331 Ry

     iteration # 12     ecut=    50.00 Ry     beta= 0.70
     CG style diagonalization
     ethr =  2.21E-09,  avg # of iterations =  4.3

     negative rho (up, down):  1.110E-08 0.000E+00

     total cpu time spent up to now is     8187.4 secs

     total energy              =    -899.04842155 Ry
     estimated scf accuracy    <       0.00000336 Ry

     iteration # 13     ecut=    50.00 Ry     beta= 0.70
     CG style diagonalization
     ethr =  2.21E-09,  avg # of iterations =  3.4

     negative rho (up, down):  1.110E-08 0.000E+00

     total cpu time spent up to now is     8363.6 secs

     total energy              =    -899.04842221 Ry
     estimated scf accuracy    <       0.00000023 Ry

     iteration # 14     ecut=    50.00 Ry     beta= 0.70
     CG style diagonalization
     ethr =  1.53E-10,  avg # of iterations =  7.0

     negative rho (up, down):  1.110E-08 0.000E+00

     total cpu time spent up to now is     8756.5 secs

     End of self-consistent calculation

          k =-0.0000-0.0000 0.0000 ( 32571 PWs)   bands (ev):

   -66.3025 -33.9323 -33.8636 -33.8285 -33.6846 -32.9759 -32.8391 -32.7073
   -15.9920 -15.9597 -15.9250 -15.9214 -15.8923 -15.8813 -15.8539 -15.8507
   -15.8342 -15.7696 -15.7535 -15.7261 -13.3677 -13.3605 -13.2612 -13.2339
   -13.2195  -7.9950  -7.6125  -7.4108  -7.2718  -7.2422  -7.1108  -6.9753
    -6.8906  -6.8515  -6.8130  -6.5986  -4.5457  -3.7067  -3.3433  -3.1360
    -3.1064  -2.9763  -2.9415  -2.9303  -2.8068  -2.7608  -2.7578  -2.6060
    -2.5325  -2.5057  -2.4506  -2.3626  -2.3246  -2.2877  -2.2560  -2.1604
    -2.1354  -2.0902  -2.0288  -1.9535  -1.8760  -1.7621  -1.6991  -1.6573
    -1.5582  -1.4989  -1.4707  -1.4248  -1.3548  -1.2792  -1.2744  -1.1762
    -1.0367  -0.9334   1.9069   2.0343   2.7903   3.1691   3.3838   4.1884
     4.6790   4.7025   4.7950   5.0133   5.0814   5.1559   5.2491   5.4831
     5.5547   5.6970

          k = 0.3755 0.0050-0.0011 ( 32604 PWs)   bands (ev):

   -66.3025 -33.9323 -33.8636 -33.8285 -33.6846 -32.9760 -32.8391 -32.7073
   -15.9913 -15.9596 -15.9249 -15.9224 -15.8924 -15.8811 -15.8538 -15.8507
   -15.8342 -15.7697 -15.7539 -15.7262 -13.3677 -13.3605 -13.2612 -13.2339
   -13.2195  -7.9528  -7.6522  -7.4085  -7.2935  -7.2712  -7.0460  -6.9876
    -6.9065  -6.8507  -6.8178  -6.5980  -4.5457  -3.7169  -3.2084  -3.1376
    -3.0431  -3.0038  -2.9438  -2.8997  -2.8199  -2.7567  -2.7058  -2.6874
    -2.6077  -2.5932  -2.4772  -2.4518  -2.3672  -2.2337  -2.2055  -2.1846
    -2.1248  -2.0405  -1.9679  -1.9408  -1.8210  -1.7622  -1.6899  -1.6201
    -1.5763  -1.5400  -1.4857  -1.4632  -1.3719  -1.3065  -1.2706  -1.1498
    -1.0796  -0.9304   1.9113   2.0441   2.7834   3.1794   3.3656   4.2141
     4.6518   4.7985   4.9445   5.0908   5.1194   5.2525   5.3035   5.4217
     5.5633   5.6682

          k = 0.0078 0.5088-0.0216 ( 32596 PWs)   bands (ev):

   -66.3025 -33.9323 -33.8636 -33.8285 -33.6846 -32.9759 -32.8391 -32.7073
   -15.9920 -15.9595 -15.9250 -15.9213 -15.8912 -15.8812 -15.8540 -15.8505
   -15.8356 -15.7699 -15.7536 -15.7264 -13.3677 -13.3605 -13.2612 -13.2339
   -13.2196  -7.9123  -7.6234  -7.4572  -7.2344  -7.1966  -7.1352  -7.0118
    -6.9129  -6.8716  -6.8646  -6.5874  -4.6076  -3.8005  -3.2585  -3.1718
    -3.0945  -2.9298  -2.9008  -2.8125  -2.7798  -2.7461  -2.7090  -2.6170
    -2.5870  -2.5560  -2.4758  -2.3496  -2.3192  -2.2173  -2.1459  -2.1203
    -2.0603  -2.0292  -1.9783  -1.8582  -1.8257  -1.7662  -1.7211  -1.6779
    -1.6504  -1.5885  -1.5726  -1.5322  -1.4326  -1.3654  -1.3146  -1.2253
    -1.0986  -0.8038   1.8986   2.0473   2.6860   3.0919   3.3516   4.1229
     4.6765   4.9690   5.0216   5.0797   5.2424   5.2892   5.3404   5.4622
     5.5587   5.5863

          k = 0.3832 0.5138-0.0227 ( 32564 PWs)   bands (ev):

   -66.3025 -33.9323 -33.8636 -33.8285 -33.6846 -32.9759 -32.8391 -32.7073
   -15.9912 -15.9594 -15.9248 -15.9223 -15.8913 -15.8810 -15.8539 -15.8504
   -15.8356 -15.7699 -15.7539 -15.7264 -13.3677 -13.3605 -13.2612 -13.2339
   -13.2195  -7.8924  -7.5391  -7.4298  -7.3882  -7.3159  -7.0435  -6.9955
    -6.9122  -6.8775  -6.8400  -6.5816  -4.6087  -3.8011  -3.2435  -3.1510
    -3.0652  -2.9477  -2.8775  -2.8508  -2.7862  -2.7349  -2.6994  -2.6610
    -2.4789  -2.4141  -2.4063  -2.3660  -2.3135  -2.2641  -2.2443  -2.1689
    -2.1259  -2.0776  -1.9953  -1.9409  -1.8562  -1.8028  -1.7330  -1.6707
    -1.5606  -1.5422  -1.5283  -1.4959  -1.4219  -1.3816  -1.3331  -1.2096
    -1.1619  -0.8046   1.9037   2.0540   2.6839   3.1028   3.3475   4.1427
     4.7134   4.9733   5.0323   5.1446   5.2529   5.2861   5.4285   5.5510
     5.6464   5.6592

          k =-0.0016-0.0220 0.5199 ( 32578 PWs)   bands (ev):

   -66.3025 -33.9323 -33.8636 -33.8285 -33.6846 -32.9759 -32.8391 -32.7073
   -15.9920 -15.9596 -15.9250 -15.9213 -15.8913 -15.8813 -15.8551 -15.8493
   -15.8356 -15.7698 -15.7535 -15.7265 -13.3677 -13.3605 -13.2612 -13.2339
   -13.2196  -7.8698  -7.6441  -7.4544  -7.2300  -7.1643  -7.1435  -7.0552
    -6.9622  -6.8619  -6.8368  -6.6146  -4.5601  -3.7380  -3.2037  -3.1338
    -3.1151  -3.0186  -2.9629  -2.8634  -2.7823  -2.7412  -2.6906  -2.6542
    -2.5431  -2.4533  -2.4274  -2.3481  -2.3156  -2.2759  -2.1586  -2.1141
    -2.0932  -2.0512  -2.0181  -1.9762  -1.8703  -1.8435  -1.7384  -1.6871
    -1.6135  -1.5693  -1.5340  -1.4614  -1.4250  -1.3407  -1.2747  -1.1972
    -1.0535  -0.8731   1.9448   2.0415   2.7775   3.1707   3.3239   4.1649
     4.7386   4.8669   4.9483   5.0994   5.2417   5.2916   5.3893   5.5480
     5.5888   5.6088

          k = 0.3738-0.0170 0.5188 ( 32564 PWs)   bands (ev):

   -66.3025 -33.9323 -33.8636 -33.8285 -33.6846 -32.9760 -32.8391 -32.7073
   -15.9912 -15.9595 -15.9248 -15.9223 -15.8913 -15.8810 -15.8550 -15.8493
   -15.8356 -15.7699 -15.7539 -15.7265 -13.3677 -13.3605 -13.2612 -13.2339
   -13.2195  -7.8542  -7.5497  -7.4390  -7.4084  -7.2622  -7.0604  -7.0213
    -6.9276  -6.8652  -6.8453  -6.6161  -4.5557  -3.7312  -3.1962  -3.1094
    -3.0680  -2.9727  -2.8802  -2.8717  -2.7951  -2.7611  -2.7104  -2.6322
    -2.5626  -2.5505  -2.3984  -2.3572  -2.3288  -2.2900  -2.2008  -2.1833
    -2.1514  -2.0513  -2.0158  -1.9846  -1.8564  -1.7812  -1.7235  -1.6215
    -1.6016  -1.5751  -1.5077  -1.4612  -1.4356  -1.3933  -1.2952  -1.1773
    -1.0680  -0.8770   1.9428   2.0484   2.7680   3.1780   3.3218   4.1874
     4.7543   4.9124   5.0196   5.1484   5.2541   5.3505   5.4267   5.5167
     5.6397   5.7435

          k = 0.0061 0.4868 0.4983 ( 32544 PWs)   bands (ev):

   -66.3025 -33.9323 -33.8636 -33.8285 -33.6846 -32.9759 -32.8391 -32.7073
   -15.9920 -15.9598 -15.9251 -15.9215 -15.8925 -15.8813 -15.8568 -15.8475
   -15.8346 -15.7697 -15.7535 -15.7262 -13.3677 -13.3605 -13.2612 -13.2339
   -13.2196  -7.8284  -7.6382  -7.4462  -7.2545  -7.1919  -7.0980  -7.0367
    -6.9591  -6.8913  -6.8466  -6.6612  -4.6913  -3.7402  -3.2187  -3.1211
    -3.0870  -3.0155  -2.8807  -2.8051  -2.6980  -2.6489  -2.5885  -2.5747
    -2.5309  -2.4883  -2.4280  -2.3889  -2.3186  -2.2959  -2.2407  -2.1504
    -2.1122  -2.0547  -2.0367  -1.9184  -1.9089  -1.7922  -1.7280  -1.6443
    -1.6255  -1.5626  -1.5134  -1.5046  -1.4425  -1.3584  -1.3290  -1.2817
    -1.1986  -0.7976   1.9458   2.0538   2.6687   3.0901   3.3157   4.0831
     4.7920   4.9741   5.0336   5.0619   5.2737   5.2874   5.4608   5.4982
     5.5304   5.6234

          k = 0.3816 0.4918 0.4972 ( 32568 PWs)   bands (ev):

   -66.3025 -33.9323 -33.8636 -33.8285 -33.6846 -32.9759 -32.8391 -32.7073
   -15.9912 -15.9598 -15.9249 -15.9226 -15.8925 -15.8811 -15.8567 -15.8475
   -15.8346 -15.7697 -15.7539 -15.7262 -13.3677 -13.3605 -13.2612 -13.2339
   -13.2196  -7.8200  -7.5338  -7.4513  -7.3567  -7.2746  -7.0823  -7.0352
    -6.9383  -6.8751  -6.8585  -6.6389  -4.6888  -3.7046  -3.1588  -3.1481
    -3.0123  -2.9332  -2.8879  -2.8564  -2.7794  -2.7083  -2.6408  -2.5944
    -2.5268  -2.4976  -2.4449  -2.4094  -2.3366  -2.2697  -2.2168  -2.1333
    -2.0375  -2.0225  -1.9615  -1.9336  -1.8749  -1.8008  -1.7602  -1.7139
    -1.6824  -1.6081  -1.5184  -1.4794  -1.4147  -1.3784  -1.3235  -1.2616
    -1.2144  -0.8037   1.9426   2.0588   2.6602   3.0988   3.3178   4.1021
     4.8503   4.9803   5.1056   5.2404   5.2954   5.4258   5.4710   5.5642
     5.5870   5.6013

     the Fermi energy is     1.9865 ev

!    total energy              =    -899.04842306 Ry
     estimated scf accuracy    <       0.00000015 Ry
     smearing contrib. (-TS)   =      -0.00947896 Ry
     internal energy E=F+TS    =    -899.03894410 Ry

     The total energy is F=E-TS. E is the sum of the following terms:
     one-electron contribution =    -503.39303058 Ry
     hartree contribution      =     288.88188457 Ry
     xc contribution           =    -236.17914423 Ry
     ewald contribution        =    -280.02629950 Ry
     one-center paw contrib.   =    -168.32235437 Ry

     convergence has been achieved in  14 iterations

     negative rho (up, down):  1.110E-08 0.000E+00

     Forces acting on atoms (cartesian axes, Ry/au):

     atom    1 type  4   force =     0.00127100    0.00126928   -0.00072176
     atom    2 type  4   force =    -0.00114745    0.00031914   -0.00163938
     atom    3 type  2   force =    -0.00468976    0.00493835    0.00270721
     atom    4 type  4   force =     0.00111774    0.00179251   -0.00174242
     atom    5 type  5   force =    -0.00355789   -0.00172186    0.00147575
     atom    6 type  5   force =    -0.00332885    0.00957104   -0.00152252
     atom    7 type  5   force =     0.00213901    0.00486542    0.00571506
     atom    8 type  5   force =    -0.00097296    0.00087861    0.00032599
     atom    9 type  1   force =     0.00295382    0.00222810   -0.00443977
     atom   10 type  1   force =     0.00386022   -0.00223950   -0.00351699
     atom   11 type  1   force =     0.00118579    0.00237816    0.00408006
     atom   12 type  1   force =     0.00267612   -0.00392446   -0.00159384
     atom   13 type  1   force =    -0.00537956    0.00396543   -0.00096259
     atom   14 type  6   force =    -0.00464420   -0.04003560    0.00673635
     atom   15 type  1   force =     0.00089574   -0.00115037    0.00029304
     atom   16 type  1   force =    -0.00082501   -0.00023271   -0.00025329
     atom   17 type  1   force =    -0.00092738    0.00115637    0.00426311
     atom   18 type  1   force =     0.00180292   -0.00361966   -0.00065237
     atom   19 type  1   force =     0.00371731    0.00332704   -0.00446221
     atom   20 type  1   force =    -0.00335748    0.00124747    0.00128851
     atom   21 type  3   force =    -0.00083563    0.00056688    0.00003984
     atom   22 type  3   force =     0.00581543    0.00051482   -0.00252658
     atom   23 type  3   force =     0.00467430    0.00146690   -0.00126399
     atom   24 type  3   force =     0.00357424    0.00247418   -0.00602416
     atom   25 type  3   force =    -0.00073852   -0.00249211   -0.00453186
     atom   26 type  3   force =     0.00602134   -0.00111284   -0.00217631
     atom   27 type  3   force =     0.00299236    0.00187976   -0.00111136
     atom   28 type  3   force =    -0.00033868   -0.00144831    0.00128671
     atom   29 type  3   force =    -0.00247550    0.00233546    0.00187846
     atom   30 type  3   force =     0.00265728   -0.00139786   -0.00442933
     atom   31 type  3   force =     0.00450665   -0.00054386   -0.00085889
     atom   32 type  3   force =    -0.00114808   -0.00243924   -0.00125119
     atom   33 type  3   force =     0.00002727    0.00346416    0.00387472
     atom   34 type  3   force =    -0.00102645   -0.00708971   -0.00162569
     atom   35 type  3   force =     0.00162472    0.00051445    0.00270519
     atom   36 type  3   force =    -0.00034920   -0.00337585    0.00236962
     atom   37 type  3   force =     0.00205215   -0.00164851    0.00089726
     atom   38 type  3   force =    -0.00037065    0.01130810   -0.00442777
     atom   39 type  3   force =    -0.00048738   -0.00191737    0.00147280
     atom   40 type  3   force =     0.00310392    0.00238046   -0.00063895
     atom   41 type  3   force =    -0.00150752   -0.00326279    0.00387907
     atom   42 type  3   force =    -0.00942187    0.00096868   -0.00437680
     atom   43 type  3   force =     0.00071497    0.00133734    0.00153742
     atom   44 type  3   force =     0.00131179   -0.00121069    0.00233279
     atom   45 type  3   force =     0.00475802    0.00247856   -0.00187386
     atom   46 type  3   force =    -0.00620838    0.02041756   -0.00195135
     atom   47 type  3   force =    -0.00160939   -0.00181270   -0.00370621
     atom   48 type  3   force =    -0.00225239    0.00206997    0.00329305
     atom   49 type  3   force =    -0.00242707    0.00093051   -0.00408903
     atom   50 type  3   force =    -0.01023300    0.00218381    0.01194655
     atom   51 type  3   force =     0.00640344    0.00448967   -0.00300786
     atom   52 type  3   force =    -0.00057765   -0.00288782   -0.00203095
     atom   53 type  3   force =     0.00111453   -0.00048900    0.00082330
     atom   54 type  3   force =    -0.00168356    0.00355042   -0.00086992
     atom   55 type  3   force =    -0.00319945   -0.00646123    0.00465392
     atom   56 type  3   force =    -0.00059684    0.00127590    0.00056392
     atom   57 type  3   force =     0.00004942   -0.00209337   -0.00030286
     atom   58 type  3   force =     0.00288895    0.00109749   -0.00190624
     atom   59 type  3   force =     0.00328256    0.00079693   -0.00360249
     atom   60 type  3   force =    -0.00030021    0.00168325    0.00127051
     atom   61 type  3   force =     0.00150688    0.00296239    0.00006684
     atom   62 type  3   force =    -0.00065797   -0.00733947    0.00205930
     atom   63 type  3   force =    -0.00286729    0.00250600    0.00412024
     atom   64 type  3   force =     0.00259891   -0.00315678   -0.00088564
     atom   65 type  3   force =    -0.00260339   -0.00141550    0.00312092
     atom   66 type  3   force =    -0.00032392   -0.00376499   -0.00169582
     atom   67 type  3   force =    -0.00068683   -0.00141139   -0.00042767
     atom   68 type  3   force =     0.00045856   -0.00189503    0.00202243

     Total force =     0.064020     Total SCF correction =     0.000469


     Computing stress (Cartesian axis) and pressure


     negative rho (up, down):  1.110E-08 0.000E+00
          total   stress  (Ry/bohr**3)                   (kbar)     P=       -0.23
  -0.00001316   0.00000411   0.00000439           -1.94        0.60        0.65
   0.00000411   0.00001180  -0.00000298            0.60        1.74       -0.44
   0.00000439  -0.00000298  -0.00000333            0.65       -0.44       -0.49

     Energy error            =      7.1E-03
     Gradient error          =      4.0E-02
     Cell gradient error     =      1.3E-05


     number of scf cycles    =  13
     number of bfgs steps    =  12

     enthalpy old            =    -899.0413163795 Ry
     enthalpy new            =    -899.0484230566 Ry

     CASE: enthalpy_new < enthalpy_old

     new trust radius        =       0.1648851764 bohr
     new conv_thr            =       0.0000004004 Ry

     new unit-cell volume =   5493.76423 a.u.^3 (   814.09187 Ang^3 )
     density =      0.13870 g/cm^3

CELL_PARAMETERS (angstrom)
  -0.028872449  -0.331343425  -8.308523119
   0.120119496  -8.520542332  -0.337981036
 -11.520614609   0.184804501  -0.042019283

ATOMIC_POSITIONS (angstrom)
K            -8.6817467467       -8.0436819624       -4.9236223401
K            -3.0059605768       -0.3992092451       -3.8337676450
Ga           -2.5302095435       -4.1180244225       -8.2411365159
K            -8.1727172926       -4.2558772038       -0.4518077575
Sr           -5.5706122366       -8.4826613809       -8.2713092393
Sr          -11.3848624709       -0.2566010757       -0.5081574657
Sr          -11.4224925380       -3.9793759712       -4.6404443892
Sr           -5.6158290107       -4.4875691398       -3.9831310376
B            -8.8305564096       -4.0223222098       -3.7118713047
B            -2.9962116411       -4.5847457317       -4.9621951005
B            -2.8773102718       -8.2652505461       -0.9035786648
B            -8.8243394971       -0.3900457483       -7.7330206594
B            -5.3564407343       -2.9370750924       -1.6427419934
Ta          -12.1110488570       -5.8133921584       -7.3659244470
B           -11.0653692153       -7.1225885569       -3.1411920017
B            -5.3821841308       -1.4952573834       -5.6190881288
B            -6.1451278509       -5.9585526930       -6.8400465896
B            -0.4241877319       -2.9176404666       -1.7850333830
B            -0.4380747864       -1.5584959122       -5.8762712234
B            -6.1181045331       -7.0504375015       -2.7820639417
H            -9.6752693369       -4.2357269670       -2.8582436655
H            -3.9294903515       -4.3723531551       -5.7309819319
H            -3.8536597645       -8.4184782669       -1.6383895902
H            -9.7793284648       -0.1973775691       -6.9851975530
H            -8.7914805659       -4.9657827346       -4.4785785122
H            -2.8325630499       -3.6185265889       -4.2187227763
H            -2.9412214756       -1.0361444856       -8.1122994336
H            -8.5304977704       -7.6729676834       -0.5749149315
H            -9.0791041201       -2.9894038913       -4.3271854824
H            -3.1763012286       -5.6080906224       -4.3042288342
H            -3.0508914963       -7.5346936397       -8.5528098722
H            -8.9808045257       -1.1210211253       -0.0310606807
H            -7.7734594432       -3.8815211781       -3.1522477644
H            -1.9956044708       -4.7082436451       -5.7222702547
H            -1.9400760291       -8.1674341863       -1.6744033245
H            -7.8566779933       -0.5107660633       -7.0054952023
H            -5.3080148143       -2.2805418576       -0.6079714952
H           -11.1488140179       -6.9057397706       -8.4579426520
H           -10.8697088188       -6.4904341172       -4.1667075894
H            -5.2505774324       -2.0443158523       -4.5394008471
H            -4.3318873602       -2.8340260960       -2.3349442387
H           -10.5875186394       -5.5129906286       -6.4340564554
H           -10.0318647432       -7.1141189116       -2.4734516449
H            -4.3389050705       -1.5013562191       -6.2620045950
H            -5.5750295309       -4.1273999123       -1.3814834297
H           -11.6273541511       -4.1411344530       -7.2698297814
H           -11.3227479231       -8.2953691346       -3.4250031715
H            -5.7009410835       -0.3309035849       -5.3932411310
H            -6.2794754227       -2.5041599134       -2.3253817343
H            -0.9463333928       -6.7700866035       -5.7818935014
H            -0.4956117802       -6.8497685758       -2.4727634377
H            -6.2559140730       -2.0385663787       -6.2783967506
H            -5.8377737565       -6.4975735982       -5.7879594050
H            -0.2305140023       -2.3204894583       -2.8285090579
H            -0.1047136089       -2.2434190088       -6.8433757715
H            -5.8630177947       -6.3667381738       -1.7919803041
H            -7.1161822155       -6.5582345836       -7.2980951281
H            -1.4105583123       -2.3889397260       -1.2453880074
H            -1.4602695154       -2.0164142533       -5.3704350203
H            -7.0843376664       -6.5435725375       -3.3426076206
H            -6.4585231859       -4.7865774383       -6.6600383926
H            -0.6716464525       -4.0962616704       -1.9819582930
H            -0.6158018483       -0.3974426477       -6.2617374359
H            -6.4060611705       -8.1971950784       -2.4778246289
H            -5.2030742780       -6.0167516972       -7.6340351263
H           -10.9559188117       -2.6116435981       -1.1151680427
H           -11.0356241611       -1.4205503925       -5.1043474142
H            -5.1591818812       -7.0083575979       -3.5448877090



     Writing output data file ./tmp/K3Sr4TaGaB11H48.save/
     NEW-OLD atomic charge density approx. for the potential

     negative rho (up, down):  7.091E-07 0.000E+00
     extrapolated charge  148.97277, renormalised to  150.00000

     total cpu time spent up to now is     9252.5 secs

     Self-consistent Calculation

     iteration #  1     ecut=    50.00 Ry     beta= 0.70
     CG style diagonalization
     c_bands:  1 eigenvalues not converged
     ethr =  1.00E-06,  avg # of iterations = 22.6

     negative rho (up, down):  4.107E-08 0.000E+00

     total cpu time spent up to now is    10556.2 secs

     total energy              =    -899.00407009 Ry
     estimated scf accuracy    <       0.07255306 Ry

     iteration #  2     ecut=    50.00 Ry     beta= 0.70
     CG style diagonalization
     ethr =  4.84E-05,  avg # of iterations =  4.3

     total cpu time spent up to now is    10791.6 secs

     total energy              =    -899.02534576 Ry
     estimated scf accuracy    <       0.18289900 Ry

     iteration #  3     ecut=    50.00 Ry     beta= 0.70
     CG style diagonalization
     ethr =  4.84E-05,  avg # of iterations =  3.9

     negative rho (up, down):  1.155E-08 0.000E+00

     total cpu time spent up to now is    10997.5 secs

     total energy              =    -899.05220730 Ry
     estimated scf accuracy    <       0.01106903 Ry

     iteration #  4     ecut=    50.00 Ry     beta= 0.70
     CG style diagonalization
     ethr =  7.38E-06,  avg # of iterations =  4.3

     total cpu time spent up to now is    11230.2 secs

     total energy              =    -899.05479967 Ry
     estimated scf accuracy    <       0.02227399 Ry

     iteration #  5     ecut=    50.00 Ry     beta= 0.70
     CG style diagonalization
     ethr =  7.38E-06,  avg # of iterations =  3.2

     negative rho (up, down):  1.203E-08 0.000E+00

     total cpu time spent up to now is    11394.7 secs

     total energy              =    -899.05668963 Ry
     estimated scf accuracy    <       0.00782893 Ry

     iteration #  6     ecut=    50.00 Ry     beta= 0.70
     CG style diagonalization
     ethr =  5.22E-06,  avg # of iterations =  3.1

     negative rho (up, down):  1.652E-08 0.000E+00

     total cpu time spent up to now is    11553.1 secs

     total energy              =    -899.05642581 Ry
     estimated scf accuracy    <       0.00433794 Ry

     iteration #  7     ecut=    50.00 Ry     beta= 0.70
     CG style diagonalization
     ethr =  2.89E-06,  avg # of iterations =  3.4

     negative rho (up, down):  1.658E-08 0.000E+00

     total cpu time spent up to now is    11730.0 secs

     total energy              =    -899.05705689 Ry
     estimated scf accuracy    <       0.00237864 Ry

     iteration #  8     ecut=    50.00 Ry     beta= 0.70
     CG style diagonalization
     ethr =  1.59E-06,  avg # of iterations =  3.4

     negative rho (up, down):  1.562E-08 0.000E+00

     total cpu time spent up to now is    11904.6 secs

     total energy              =    -899.05681841 Ry
     estimated scf accuracy    <       0.00144533 Ry

     iteration #  9     ecut=    50.00 Ry     beta= 0.70
     CG style diagonalization
     ethr =  9.64E-07,  avg # of iterations =  3.2

     negative rho (up, down):  1.616E-08 0.000E+00

     total cpu time spent up to now is    12066.2 secs

     total energy              =    -899.05696258 Ry
     estimated scf accuracy    <       0.00018601 Ry

     iteration # 10     ecut=    50.00 Ry     beta= 0.70
     CG style diagonalization
     ethr =  1.24E-07,  avg # of iterations =  4.0

     negative rho (up, down):  1.653E-08 0.000E+00

     total cpu time spent up to now is    12279.4 secs

     total energy              =    -899.05704355 Ry
     estimated scf accuracy    <       0.00009226 Ry

     iteration # 11     ecut=    50.00 Ry     beta= 0.70
     CG style diagonalization
     ethr =  6.15E-08,  avg # of iterations =  3.9

     negative rho (up, down):  1.612E-08 0.000E+00

     total cpu time spent up to now is    12485.4 secs

     total energy              =    -899.05703558 Ry
     estimated scf accuracy    <       0.00071278 Ry

     iteration # 12     ecut=    50.00 Ry     beta= 0.70
     CG style diagonalization
     ethr =  6.15E-08,  avg # of iterations =  3.4

     negative rho (up, down):  1.644E-08 0.000E+00

     total cpu time spent up to now is    12659.7 secs

     total energy              =    -899.05709731 Ry
     estimated scf accuracy    <       0.00001136 Ry

     iteration # 13     ecut=    50.00 Ry     beta= 0.70
     CG style diagonalization
     c_bands:  1 eigenvalues not converged
     ethr =  7.57E-09,  avg # of iterations =  5.8

     negative rho (up, down):  1.653E-08 0.000E+00

     total cpu time spent up to now is    12978.5 secs

     total energy              =    -899.05711409 Ry
     estimated scf accuracy    <       0.00000350 Ry

     iteration # 14     ecut=    50.00 Ry     beta= 0.70
     CG style diagonalization
     ethr =  2.33E-09,  avg # of iterations =  4.9

     negative rho (up, down):  1.652E-08 0.000E+00

     total cpu time spent up to now is    13240.6 secs

     total energy              =    -899.05711796 Ry
     estimated scf accuracy    <       0.00000091 Ry

     iteration # 15     ecut=    50.00 Ry     beta= 0.70
     CG style diagonalization
     ethr =  6.05E-10,  avg # of iterations =  5.1

     negative rho (up, down):  1.653E-08 0.000E+00

     total cpu time spent up to now is    13512.8 secs

     End of self-consistent calculation

          k = 0.0000 0.0000 0.0000 ( 32571 PWs)   bands (ev):

   -66.3108 -33.8350 -33.8161 -33.8156 -33.6018 -32.9655 -32.8340 -32.6997
   -15.8995 -15.8819 -15.8688 -15.8663 -15.8516 -15.8419 -15.8285 -15.8202
   -15.8165 -15.6915 -15.6761 -15.6484 -13.2503 -13.2428 -13.1428 -13.1169
   -13.1022  -7.9816  -7.6030  -7.4002  -7.2786  -7.2020  -7.1032  -6.9815
    -6.8960  -6.8225  -6.7359  -6.6137  -4.5215  -3.6785  -3.3036  -3.1172
    -3.0705  -2.9807  -2.9138  -2.8902  -2.7916  -2.7417  -2.7202  -2.5713
    -2.5369  -2.4887  -2.4262  -2.3595  -2.3141  -2.2719  -2.2468  -2.1522
    -2.1121  -2.0714  -2.0013  -1.9644  -1.8477  -1.7427  -1.6859  -1.6257
    -1.5090  -1.5013  -1.4464  -1.4162  -1.3313  -1.2517  -1.1546  -1.1078
    -0.9395  -0.8881   1.9649   2.0936   2.9189   3.3272   3.4430   4.2173
     4.7316   4.7478   4.8413   5.0511   5.1393   5.2018   5.3125   5.5074
     5.5919   5.7364

          k = 0.3760 0.0054-0.0015 ( 32604 PWs)   bands (ev):

   -66.3108 -33.8350 -33.8161 -33.8156 -33.6018 -32.9655 -32.8340 -32.6997
   -15.8957 -15.8853 -15.8687 -15.8665 -15.8518 -15.8418 -15.8285 -15.8202
   -15.8165 -15.6915 -15.6764 -15.6484 -13.2503 -13.2428 -13.1428 -13.1169
   -13.1022  -7.9370  -7.6502  -7.3985  -7.2903  -7.2247  -7.0595  -6.9857
    -6.9187  -6.8125  -6.7387  -6.6152  -4.5220  -3.6847  -3.1708  -3.1045
    -3.0346  -2.9929  -2.9200  -2.8652  -2.7895  -2.7352  -2.6864  -2.6646
    -2.5946  -2.5630  -2.4721  -2.4276  -2.3642  -2.2240  -2.1978  -2.1549
    -2.0901  -2.0364  -1.9764  -1.9403  -1.8018  -1.7479  -1.6405  -1.6059
    -1.5401  -1.5353  -1.4632  -1.4358  -1.3659  -1.2683  -1.1472  -1.0965
    -0.9718  -0.8839   1.9692   2.1028   2.9097   3.3366   3.4238   4.2485
     4.7078   4.8573   4.9784   5.1419   5.1550   5.2768   5.3382   5.4606
     5.6161   5.7256

          k = 0.0082 0.5092-0.0203 ( 32596 PWs)   bands (ev):

   -66.3108 -33.8350 -33.8161 -33.8156 -33.6018 -32.9655 -32.8340 -32.6997
   -15.8995 -15.8818 -15.8688 -15.8649 -15.8513 -15.8422 -15.8274 -15.8227
   -15.8163 -15.6918 -15.6762 -15.6487 -13.2503 -13.2428 -13.1427 -13.1169
   -13.1022  -7.8974  -7.6138  -7.4441  -7.1997  -7.1931  -7.1444  -7.0072
    -6.9313  -6.8632  -6.7591  -6.6019  -4.5851  -3.7708  -3.2139  -3.1283
    -3.0763  -2.9222  -2.8760  -2.8007  -2.7428  -2.7361  -2.6889  -2.5707
    -2.5637  -2.5223  -2.4807  -2.3473  -2.3000  -2.2153  -2.1405  -2.1124
    -2.0527  -2.0128  -1.9604  -1.8436  -1.8131  -1.7395  -1.7146  -1.6768
    -1.6319  -1.5501  -1.5238  -1.5056  -1.4292  -1.3331  -1.2600  -1.1031
    -0.9894  -0.7434   1.9476   2.1041   2.8092   3.2216   3.4282   4.1698
     4.7347   5.0157   5.0408   5.1410   5.2739   5.3409   5.3787   5.5043
     5.5989   5.6182

          k = 0.3843 0.5146-0.0219 ( 32564 PWs)   bands (ev):

   -66.3108 -33.8350 -33.8161 -33.8156 -33.6018 -32.9655 -32.8340 -32.6997
   -15.8957 -15.8853 -15.8687 -15.8650 -15.8515 -15.8421 -15.8274 -15.8226
   -15.8163 -15.6918 -15.6764 -15.6487 -13.2503 -13.2428 -13.1427 -13.1169
   -13.1022  -7.8768  -7.5393  -7.4103  -7.3690  -7.2999  -7.0540  -6.9927
    -6.9206  -6.8529  -6.7536  -6.5940  -4.5867  -3.7698  -3.2161  -3.1052
    -3.0396  -2.9410  -2.8533  -2.8055  -2.7501  -2.7293  -2.6645  -2.6506
    -2.4376  -2.4188  -2.4108  -2.3489  -2.2906  -2.2650  -2.2220  -2.1539
    -2.1169  -2.0606  -2.0115  -1.9092  -1.8540  -1.7693  -1.7398  -1.6610
    -1.5300  -1.5293  -1.4907  -1.4636  -1.3890  -1.3304  -1.2915  -1.1280
    -1.0260  -0.7410   1.9524   2.1105   2.8060   3.2304   3.4255   4.1917
     4.7702   5.0137   5.0640   5.1880   5.2951   5.3178   5.4849   5.5780
     5.6634   5.6925

          k =-0.0022-0.0207 0.5221 ( 32578 PWs)   bands (ev):

   -66.3108 -33.8350 -33.8161 -33.8156 -33.6018 -32.9655 -32.8340 -32.6997
   -15.8995 -15.8818 -15.8688 -15.8649 -15.8514 -15.8428 -15.8265 -15.8230
   -15.8164 -15.6917 -15.6762 -15.6488 -13.2503 -13.2428 -13.1428 -13.1169
   -13.1022  -7.8399  -7.6459  -7.4446  -7.2112  -7.1695  -7.1462  -7.0478
    -6.9276  -6.8477  -6.7752  -6.6290  -4.5400  -3.6872  -3.1715  -3.1169
    -3.0752  -2.9871  -2.9565  -2.8695  -2.7890  -2.7256  -2.6816  -2.6196
    -2.5050  -2.4435  -2.3976  -2.3327  -2.3019  -2.2532  -2.1441  -2.1171
    -2.0683  -2.0645  -2.0083  -1.9178  -1.8340  -1.8137  -1.7301  -1.6458
    -1.5927  -1.5594  -1.4767  -1.4329  -1.3685  -1.2991  -1.2473  -1.1605
    -0.9453  -0.8276   2.0057   2.0992   2.9050   3.3301   3.3803   4.2012
     4.8112   4.9155   5.0101   5.1214   5.2571   5.3161   5.4469   5.5747
     5.6143   5.6698

          k = 0.3738-0.0154 0.5206 ( 32564 PWs)   bands (ev):

   -66.3108 -33.8350 -33.8161 -33.8156 -33.6018 -32.9655 -32.8340 -32.6997
   -15.8957 -15.8853 -15.8686 -15.8651 -15.8516 -15.8427 -15.8265 -15.8230
   -15.8164 -15.6917 -15.6764 -15.6488 -13.2503 -13.2428 -13.1428 -13.1169
   -13.1022  -7.8236  -7.5617  -7.4283  -7.3959  -7.2380  -7.0647  -7.0209
    -6.9291  -6.8345  -6.7636  -6.6370  -4.5346  -3.6846  -3.1661  -3.0954
    -3.0232  -2.9476  -2.8826  -2.8440  -2.7823  -2.7482  -2.7040  -2.6138
    -2.5440  -2.5217  -2.4098  -2.3347  -2.3106  -2.2777  -2.1751  -2.1587
    -2.1475  -2.0315  -1.9904  -1.9549  -1.8518  -1.7603  -1.6638  -1.6177
    -1.5830  -1.5490  -1.4823  -1.4140  -1.3646  -1.3219  -1.2940  -1.1361
    -0.9664  -0.8318   2.0047   2.1057   2.8958   3.3351   3.3783   4.2230
     4.8263   4.9652   5.0630   5.1971   5.2950   5.3689   5.4405   5.5472
     5.6759   5.7247

          k = 0.0060 0.4885 0.5018 ( 32544 PWs)   bands (ev):

   -66.3108 -33.8350 -33.8161 -33.8156 -33.6018 -32.9655 -32.8340 -32.6997
   -15.8995 -15.8819 -15.8691 -15.8661 -15.8518 -15.8434 -15.8261 -15.8213
   -15.8167 -15.6915 -15.6761 -15.6484 -13.2503 -13.2428 -13.1427 -13.1169
   -13.1022  -7.8006  -7.6303  -7.4411  -7.2514  -7.1701  -7.0888  -7.0563
    -6.9351  -6.8720  -6.7735  -6.6825  -4.6725  -3.6871  -3.1836  -3.1051
    -3.0624  -3.0004  -2.8614  -2.7622  -2.6863  -2.6344  -2.5766  -2.5405
    -2.5183  -2.4882  -2.3920  -2.3694  -2.3182  -2.2812  -2.2284  -2.1616
    -2.1236  -2.0426  -2.0004  -1.9016  -1.8639  -1.7603  -1.7064  -1.6365
    -1.5858  -1.5279  -1.4960  -1.4624  -1.4023  -1.3366  -1.2904  -1.2267
    -1.0710  -0.7356   1.9970   2.1102   2.7882   3.2259   3.3751   4.1385
     4.8578   5.0443   5.0595   5.1074   5.2950   5.3196   5.5068   5.5317
     5.5838   5.6499

          k = 0.3820 0.4939 0.5003 ( 32568 PWs)   bands (ev):

   -66.3108 -33.8350 -33.8161 -33.8156 -33.6018 -32.9655 -32.8340 -32.6997
   -15.8957 -15.8853 -15.8690 -15.8663 -15.8520 -15.8433 -15.8261 -15.8212
   -15.8168 -15.6915 -15.6763 -15.6484 -13.2503 -13.2428 -13.1427 -13.1169
   -13.1022  -7.7915  -7.5424  -7.4229  -7.3511  -7.2590  -7.0946  -7.0352
    -6.9190  -6.8569  -6.7903  -6.6514  -4.6690  -3.6534  -3.1276  -3.1206
    -2.9926  -2.9249  -2.8531  -2.8177  -2.7430  -2.6944  -2.6572  -2.5927
    -2.5113  -2.4765  -2.4370  -2.3884  -2.3279  -2.2435  -2.1847  -2.1522
    -2.0435  -2.0219  -1.9193  -1.8846  -1.8374  -1.7901  -1.7315  -1.6884
    -1.6697  -1.6144  -1.4552  -1.4192  -1.3781  -1.3620  -1.2985  -1.2141
    -1.0739  -0.7467   1.9945   2.1151   2.7798   3.2344   3.3767   4.1568
     4.9259   5.0433   5.1368   5.2787   5.3438   5.4405   5.5013   5.6000
     5.6262   5.6401

     the Fermi energy is     2.0427 ev

!    total energy              =    -899.05711909 Ry
     estimated scf accuracy    <       0.00000006 Ry
     smearing contrib. (-TS)   =      -0.00944672 Ry
     internal energy E=F+TS    =    -899.04767238 Ry

     The total energy is F=E-TS. E is the sum of the following terms:
     one-electron contribution =    -503.05984572 Ry
     hartree contribution      =     288.92832062 Ry
     xc contribution           =    -236.19575612 Ry
     ewald contribution        =    -280.39518106 Ry
     one-center paw contrib.   =    -168.32521011 Ry

     convergence has been achieved in  15 iterations

     negative rho (up, down):  1.653E-08 0.000E+00

     Forces acting on atoms (cartesian axes, Ry/au):

     atom    1 type  4   force =     0.00045268    0.00154539    0.00063729
     atom    2 type  4   force =    -0.00061644    0.00102396   -0.00188359
     atom    3 type  2   force =    -0.00337728    0.00168922    0.00523067
     atom    4 type  4   force =    -0.00069864    0.00184685   -0.00270327
     atom    5 type  5   force =    -0.00610910   -0.00379998    0.00292122
     atom    6 type  5   force =    -0.00020806    0.01180553   -0.00716092
     atom    7 type  5   force =     0.00053985    0.00083340    0.00733171
     atom    8 type  5   force =    -0.00323697    0.00166082   -0.00158879
     atom    9 type  1   force =     0.00504200    0.00259115   -0.00438106
     atom   10 type  1   force =     0.00579186   -0.00224854   -0.00599867
     atom   11 type  1   force =     0.00141560    0.00189079    0.00319933
     atom   12 type  1   force =     0.00267095   -0.00426080   -0.00115228
     atom   13 type  1   force =    -0.00527909    0.00491206   -0.00280712
     atom   14 type  6   force =     0.00285288   -0.03858081    0.01119461
     atom   15 type  1   force =     0.00096750   -0.00071441    0.00032155
     atom   16 type  1   force =    -0.00089104   -0.00084668   -0.00021466
     atom   17 type  1   force =    -0.00089200   -0.00022001    0.00356118
     atom   18 type  1   force =     0.00225333   -0.00176164   -0.00055720
     atom   19 type  1   force =     0.00331951    0.00137320   -0.00282033
     atom   20 type  1   force =    -0.00323455    0.00207603    0.00044816
     atom   21 type  3   force =    -0.00302794   -0.00052469    0.00328833
     atom   22 type  3   force =     0.00582079    0.00078678    0.00091636
     atom   23 type  3   force =     0.00440107    0.00283221    0.00261055
     atom   24 type  3   force =     0.00434047    0.00430964   -0.00683791
     atom   25 type  3   force =    -0.00191734   -0.00462979   -0.00830355
     atom   26 type  3   force =     0.00406200   -0.00374507   -0.00306566
     atom   27 type  3   force =     0.00251904    0.00382146   -0.00245609
     atom   28 type  3   force =    -0.00174731   -0.00051950    0.00196131
     atom   29 type  3   force =    -0.00224862    0.00406560   -0.00071482
     atom   30 type  3   force =     0.00140581    0.00115910   -0.00406072
     atom   31 type  3   force =     0.00541615   -0.00349058   -0.00346495
     atom   32 type  3   force =     0.00073491   -0.00289506   -0.00039297
     atom   33 type  3   force =     0.00472144    0.00435792    0.00666130
     atom   34 type  3   force =    -0.00184067   -0.00746792   -0.00172867
     atom   35 type  3   force =     0.00164044    0.00181220    0.00458828
     atom   36 type  3   force =    -0.00015781   -0.00510676    0.00083459
     atom   37 type  3   force =     0.00452184   -0.00350985   -0.00065317
     atom   38 type  3   force =    -0.00821351    0.01788743    0.00641983
     atom   39 type  3   force =     0.00013134   -0.00401921   -0.00113906
     atom   40 type  3   force =     0.00383910    0.00082228    0.00076045
     atom   41 type  3   force =    -0.00049469   -0.00238553    0.00794282
     atom   42 type  3   force =    -0.01132231   -0.00138486   -0.00754961
     atom   43 type  3   force =    -0.00088417    0.00134713    0.00435252
     atom   44 type  3   force =     0.00397732   -0.00111532    0.00149675
     atom   45 type  3   force =     0.00455537    0.00439984   -0.00085410
     atom   46 type  3   force =    -0.00901811    0.01474175   -0.00357852
     atom   47 type  3   force =    -0.00182257   -0.00087633   -0.00572329
     atom   48 type  3   force =    -0.00378185    0.00331257    0.00245269
     atom   49 type  3   force =    -0.00445023   -0.00058460   -0.00389227
     atom   50 type  3   force =    -0.00759153    0.00485803   -0.00004373
     atom   51 type  3   force =     0.00741854    0.00304694   -0.00007800
     atom   52 type  3   force =    -0.00222309   -0.00168022   -0.00255183
     atom   53 type  3   force =     0.00123073   -0.00080467    0.00227747
     atom   54 type  3   force =    -0.00174403    0.00525391   -0.00465399
     atom   55 type  3   force =    -0.00488069   -0.00648392    0.00544380
     atom   56 type  3   force =    -0.00052838    0.00179531    0.00164409
     atom   57 type  3   force =    -0.00245251   -0.00242558   -0.00030381
     atom   58 type  3   force =     0.00048937    0.00152375   -0.00093584
     atom   59 type  3   force =     0.00248534    0.00002572   -0.00525508
     atom   60 type  3   force =    -0.00250293    0.00281763    0.00133111
     atom   61 type  3   force =     0.00264435    0.00222588   -0.00024800
     atom   62 type  3   force =    -0.00025918   -0.00722923    0.00186551
     atom   63 type  3   force =    -0.00055857    0.00070133    0.00555556
     atom   64 type  3   force =     0.00311561   -0.00348878   -0.00087112
     atom   65 type  3   force =    -0.00086437    0.00129599    0.00250498
     atom   66 type  3   force =     0.00166487   -0.00542393    0.00079788
     atom   67 type  3   force =    -0.00037877    0.00304356   -0.00136989
     atom   68 type  3   force =     0.00301232   -0.00326808    0.00144259

     Total force =     0.069085     Total SCF correction =     0.000887


     Computing stress (Cartesian axis) and pressure


     negative rho (up, down):  1.653E-08 0.000E+00
          total   stress  (Ry/bohr**3)                   (kbar)     P=       -0.03
  -0.00000646   0.00000656   0.00000632           -0.95        0.97        0.93
   0.00000656   0.00000409  -0.00000255            0.97        0.60       -0.37
   0.00000632  -0.00000255   0.00000166            0.93       -0.37        0.24

     Energy error            =      8.7E-03
     Gradient error          =      3.9E-02
     Cell gradient error     =      6.6E-06


     number of scf cycles    =  14
     number of bfgs steps    =  13

     enthalpy old            =    -899.0484230566 Ry
     enthalpy new            =    -899.0571190948 Ry

     CASE: enthalpy_new < enthalpy_old

     new trust radius        =       0.1824948231 bohr
     new conv_thr            =       0.0000003858 Ry

     new unit-cell volume =   5460.85592 a.u.^3 (   809.21536 Ang^3 )
     density =      0.13954 g/cm^3

CELL_PARAMETERS (angstrom)
  -0.045941704  -0.308820060  -8.269919878
   0.130591779  -8.519103792  -0.315054379
 -11.505368813   0.197771789  -0.066093869

ATOMIC_POSITIONS (angstrom)
K            -8.6550068444       -8.0108523003       -4.9221724102
K            -3.0114112417       -0.3797898155       -3.8199046776
Ga           -2.5389606339       -4.0536056870       -8.1765398029
K            -8.1375252926       -4.2348261917       -0.4439936538
Sr           -5.5661671186       -8.4491741288       -8.2224964502
Sr          -11.3891217683       -0.2450147574       -0.5232921511
Sr          -11.4012319288       -3.9171056890       -4.6496491229
Sr           -5.5985876860       -4.4736980228       -3.9547201573
B            -8.8268675727       -3.9899022147       -3.7098364002
B            -2.9763619914       -4.5815947014       -4.9449579187
B            -2.8441691538       -8.2476774990       -0.8737252724
B            -8.8223811692       -0.3760909480       -7.7207593844
B            -5.3566963958       -2.9176502027       -1.6421907145
Ta          -12.1558651777       -5.8257574596       -7.3204636757
B           -11.0414617828       -7.0996196582       -3.1375744305
B            -5.3853435330       -1.4774743846       -5.5976634086
B            -6.1454079382       -5.9236122485       -6.7930234784
B            -0.4226233900       -2.9375386786       -1.7726511130
B            -0.4452506685       -1.5272424190       -5.8542454609
B            -6.1117898113       -7.0429295251       -2.7574429890
H            -9.6712694538       -4.2142405893       -2.8598380652
H            -3.9030088016       -4.3510466522       -5.7178182510
H            -3.8142724024       -8.4037623756       -1.6187590234
H            -9.7823594036       -0.1697481548       -6.9846476532
H            -8.7766269626       -4.9310605840       -4.4778036628
H            -2.7814003256       -3.6159914317       -4.2033334750
H            -2.9327144031       -1.0013723552       -8.0719361044
H            -8.4781491174       -7.6848104384       -0.5785198803
H            -9.0850769602       -2.9514350675       -4.3088415217
H            -3.1630887067       -5.6083106317       -4.2947583669
H            -3.0316334468       -7.4933158602       -8.4810493533
H            -8.9783353609       -1.1254232031       -0.0582413882
H            -7.7737155870       -3.8414588466       -3.1485008220
H            -1.9808657029       -4.7237695772       -5.7089044076
H            -1.9150083471       -8.1551086802       -1.6540814823
H            -7.8664041377       -0.5016132703       -6.9756229163
H            -5.3137068672       -2.2672014437       -0.6031718937
H           -11.1491462246       -6.8717241230       -8.4534535988
H           -10.8415966406       -6.4626963816       -4.1574025240
H            -5.2442892738       -2.0136772437       -4.5140965254
H            -4.3353494542       -2.8265819283       -2.3419234862
H           -10.6386189261       -5.4568560261       -6.4125072098
H           -10.0032349817       -7.0947312760       -2.4765261595
H            -4.3413285104       -1.4764839323       -6.2373244186
H            -5.5678091735       -4.1124936396       -1.3915644378
H           -11.7177894886       -4.1040541534       -7.2537848591
H           -11.3139913192       -8.2738116511       -3.4114382975
H            -5.7144155396       -0.3145891741       -5.3724975999
H            -6.2685953748       -2.4790198725       -2.3331600023
H            -0.9820494857       -6.7695490161       -5.6762291752
H            -0.4812727639       -6.8128980915       -2.4607399764
H            -6.2449503909       -2.0453430351       -6.2554717836
H            -5.8373857055       -6.4597110570       -5.7411929259
H            -0.2400945472       -2.3356815102       -2.8147076539
H            -0.1187202019       -2.2272396116       -6.8120586729
H            -5.8595965732       -6.3580821706       -1.7684804194
H            -7.1090974421       -6.5327581115       -7.2528758889
H            -1.3975655456       -2.3918116742       -1.2344097492
H            -1.4645530330       -1.9799656858       -5.3413797494
H            -7.0729586270       -6.5365003367       -3.3219924087
H            -6.4571571339       -4.7490047957       -6.6257562956
H            -0.6750706801       -4.1192766580       -1.9542089454
H            -0.6285598237       -0.3635525524       -6.2356883494
H            -6.3921954135       -8.1936108338       -2.4582827015
H            -5.2061393004       -6.0028759136       -7.5857478615
H           -10.9357883285       -2.6021785462       -1.1399286483
H           -11.0326353658       -1.4027928926       -5.1032005960
H            -5.1537123879       -6.9919257587       -3.5196962525



     Writing output data file ./tmp/K3Sr4TaGaB11H48.save/
     NEW-OLD atomic charge density approx. for the potential

     negative rho (up, down):  2.740E-06 0.000E+00
     extrapolated charge  149.09726, renormalised to  150.00000

     total cpu time spent up to now is    14009.8 secs

     Self-consistent Calculation

     iteration #  1     ecut=    50.00 Ry     beta= 0.70
     CG style diagonalization
     c_bands:  1 eigenvalues not converged
     c_bands:  1 eigenvalues not converged
     ethr =  1.00E-06,  avg # of iterations = 22.4

     negative rho (up, down):  6.290E-08 0.000E+00

     total cpu time spent up to now is    15304.2 secs

     total energy              =    -899.01978429 Ry
     estimated scf accuracy    <       0.07084277 Ry

     iteration #  2     ecut=    50.00 Ry     beta= 0.70
     CG style diagonalization
     ethr =  4.72E-05,  avg # of iterations =  4.2

     total cpu time spent up to now is    15527.0 secs

     total energy              =    -899.03598489 Ry
     estimated scf accuracy    <       0.14583260 Ry

     iteration #  3     ecut=    50.00 Ry     beta= 0.70
     CG style diagonalization
     ethr =  4.72E-05,  avg # of iterations =  3.7

     total cpu time spent up to now is    15721.5 secs

     total energy              =    -899.06005620 Ry
     estimated scf accuracy    <       0.01010756 Ry

     iteration #  4     ecut=    50.00 Ry     beta= 0.70
     CG style diagonalization
     ethr =  6.74E-06,  avg # of iterations =  4.3

     total cpu time spent up to now is    15948.0 secs

     total energy              =    -899.06183755 Ry
     estimated scf accuracy    <       0.02377171 Ry

     iteration #  5     ecut=    50.00 Ry     beta= 0.70
     CG style diagonalization
     ethr =  6.74E-06,  avg # of iterations =  3.2

     total cpu time spent up to now is    16106.9 secs

     total energy              =    -899.06410305 Ry
     estimated scf accuracy    <       0.00545819 Ry

     iteration #  6     ecut=    50.00 Ry     beta= 0.70
     CG style diagonalization
     ethr =  3.64E-06,  avg # of iterations =  3.2

     negative rho (up, down):  1.286E-08 0.000E+00

     total cpu time spent up to now is    16263.8 secs

     total energy              =    -899.06435258 Ry
     estimated scf accuracy    <       0.00299502 Ry

     iteration #  7     ecut=    50.00 Ry     beta= 0.70
     CG style diagonalization
     c_bands:  1 eigenvalues not converged
     ethr =  2.00E-06,  avg # of iterations =  3.4

     negative rho (up, down):  1.210E-08 0.000E+00

     total cpu time spent up to now is    16437.3 secs

     total energy              =    -899.06439313 Ry
     estimated scf accuracy    <       0.00086352 Ry

     iteration #  8     ecut=    50.00 Ry     beta= 0.70
     CG style diagonalization
     ethr =  5.76E-07,  avg # of iterations =  3.8

     negative rho (up, down):  1.141E-08 0.000E+00

     total cpu time spent up to now is    16634.3 secs

     total energy              =    -899.06446888 Ry
     estimated scf accuracy    <       0.00068222 Ry

     iteration #  9     ecut=    50.00 Ry     beta= 0.70
     CG style diagonalization
     ethr =  4.55E-07,  avg # of iterations =  3.4

     negative rho (up, down):  1.204E-08 0.000E+00

     total cpu time spent up to now is    16813.3 secs

     total energy              =    -899.06461859 Ry
     estimated scf accuracy    <       0.00004450 Ry

     iteration # 10     ecut=    50.00 Ry     beta= 0.70
     CG style diagonalization
     c_bands:  1 eigenvalues not converged
     ethr =  2.97E-08,  avg # of iterations =  6.0

     negative rho (up, down):  1.216E-08 0.000E+00

     total cpu time spent up to now is    17143.8 secs

     total energy              =    -899.06469371 Ry
     estimated scf accuracy    <       0.00002972 Ry

     iteration # 11     ecut=    50.00 Ry     beta= 0.70
     CG style diagonalization
     ethr =  1.98E-08,  avg # of iterations =  4.1

     negative rho (up, down):  1.209E-08 0.000E+00

     total cpu time spent up to now is    17358.8 secs

     total energy              =    -899.06469303 Ry
     estimated scf accuracy    <       0.00027893 Ry

     iteration # 12     ecut=    50.00 Ry     beta= 0.70
     CG style diagonalization
     ethr =  1.98E-08,  avg # of iterations =  3.4

     negative rho (up, down):  1.214E-08 0.000E+00

     total cpu time spent up to now is    17532.1 secs

     total energy              =    -899.06471626 Ry
     estimated scf accuracy    <       0.00000212 Ry

     iteration # 13     ecut=    50.00 Ry     beta= 0.70
     CG style diagonalization
     ethr =  1.41E-09,  avg # of iterations =  6.9

     negative rho (up, down):  1.215E-08 0.000E+00

     total cpu time spent up to now is    17915.5 secs

     total energy              =    -899.06472259 Ry
     estimated scf accuracy    <       0.00000142 Ry

     iteration # 14     ecut=    50.00 Ry     beta= 0.70
     CG style diagonalization
     ethr =  9.44E-10,  avg # of iterations =  3.9

     negative rho (up, down):  1.214E-08 0.000E+00

     total cpu time spent up to now is    18114.0 secs

     End of self-consistent calculation

          k =-0.0000-0.0000 0.0000 ( 32571 PWs)   bands (ev):

   -66.3221 -33.8109 -33.8074 -33.7135 -33.5274 -32.9631 -32.8261 -32.6978
   -15.8707 -15.8602 -15.8458 -15.8343 -15.8147 -15.8057 -15.7918 -15.7568
   -15.7238 -15.6209 -15.6056 -15.5791 -13.1284 -13.1207 -13.0222 -12.9978
   -12.9824  -7.9632  -7.5854  -7.3983  -7.2841  -7.1766  -7.0989  -6.9801
    -6.9020  -6.8142  -6.6623  -6.6150  -4.4991  -3.6472  -3.2700  -3.1008
    -3.0412  -2.9993  -2.8948  -2.8610  -2.7892  -2.7101  -2.6917  -2.5517
    -2.5500  -2.4656  -2.4044  -2.3594  -2.3021  -2.2486  -2.2299  -2.1410
    -2.0885  -2.0313  -2.0106  -1.9362  -1.8293  -1.7271  -1.6607  -1.6070
    -1.5024  -1.4814  -1.4102  -1.4004  -1.3238  -1.2126  -1.1251  -1.0203
    -0.8222  -0.8128   2.0192   2.1541   3.0692   3.4460   3.5473   4.2434
     4.7721   4.7819   4.8893   5.0783   5.1769   5.2473   5.3766   5.5235
     5.6308   5.7679

          k = 0.3766 0.0059-0.0023 ( 32604 PWs)   bands (ev):

   -66.3221 -33.8109 -33.8074 -33.7135 -33.5274 -32.9631 -32.8261 -32.6978
   -15.8700 -15.8601 -15.8457 -15.8342 -15.8147 -15.8057 -15.7925 -15.7569
   -15.7239 -15.6209 -15.6057 -15.5791 -13.1284 -13.1207 -13.0223 -12.9978
   -12.9825  -7.9137  -7.6470  -7.3883  -7.2945  -7.1855  -7.0749  -6.9796
    -6.9267  -6.8043  -6.6505  -6.6274  -4.4998  -3.6514  -3.1432  -3.0698
    -3.0297  -3.0034  -2.9034  -2.8460  -2.7584  -2.7306  -2.6735  -2.6267
    -2.5826  -2.5296  -2.4810  -2.4047  -2.3446  -2.2347  -2.1781  -2.1229
    -2.0473  -2.0311  -1.9777  -1.9270  -1.7900  -1.7259  -1.6101  -1.5887
    -1.5381  -1.5144  -1.4296  -1.4079  -1.3478  -1.2522  -1.0985  -1.0328
    -0.8462  -0.7998   2.0235   2.1624   3.0576   3.4466   3.5343   4.2781
     4.7553   4.9079   5.0103   5.1641   5.2024   5.2873   5.3716   5.4936
     5.6670   5.7758

          k = 0.0089 0.5093-0.0191 ( 32596 PWs)   bands (ev):

   -66.3221 -33.8109 -33.8074 -33.7135 -33.5274 -32.9631 -32.8261 -32.6978
   -15.8706 -15.8602 -15.8435 -15.8349 -15.8148 -15.8073 -15.7918 -15.7565
   -15.7236 -15.6212 -15.6057 -15.5795 -13.1284 -13.1207 -13.0222 -12.9978
   -12.9825  -7.8719  -7.6104  -7.4272  -7.2061  -7.1797  -7.1420  -6.9957
    -6.9473  -6.8555  -6.6689  -6.6136  -4.5666  -3.7372  -3.1704  -3.0992
    -3.0589  -2.9056  -2.8640  -2.7879  -2.7291  -2.7197  -2.6732  -2.5633
    -2.5370  -2.5008  -2.4705  -2.3509  -2.2755  -2.2215  -2.1355  -2.0982
    -2.0354  -1.9864  -1.9410  -1.8453  -1.7987  -1.7321  -1.6806  -1.6664
    -1.6105  -1.5183  -1.4968  -1.4752  -1.4117  -1.3177  -1.2154  -1.0084
    -0.8616  -0.6633   1.9908   2.1599   2.9592   3.3040   3.5522   4.2144
     4.7834   5.0472   5.0653   5.1858   5.2976   5.3810   5.4202   5.5312
     5.6158   5.6564

          k = 0.3854 0.5151-0.0214 ( 32564 PWs)   bands (ev):

   -66.3221 -33.8109 -33.8074 -33.7135 -33.5274 -32.9631 -32.8261 -32.6978
   -15.8699 -15.8601 -15.8434 -15.8348 -15.8148 -15.8073 -15.7925 -15.7566
   -15.7236 -15.6213 -15.6058 -15.5795 -13.1284 -13.1207 -13.0222 -12.9978
   -12.9825  -7.8490  -7.5399  -7.4013  -7.3623  -7.2825  -7.0595  -6.9863
    -6.9335  -6.8406  -6.6724  -6.5986  -4.5682  -3.7363  -3.1861  -3.0719
    -3.0189  -2.9298  -2.8258  -2.7794  -2.7551  -2.7112  -2.6345  -2.6263
    -2.4606  -2.4144  -2.4037  -2.3464  -2.2749  -2.2326  -2.1878  -2.1614
    -2.0783  -2.0425  -2.0058  -1.8870  -1.8625  -1.7576  -1.7251  -1.6293
    -1.5330  -1.5215  -1.4473  -1.4383  -1.3604  -1.2939  -1.2509  -1.0581
    -0.8799  -0.6565   1.9951   2.1659   2.9556   3.3086   3.5521   4.2379
     4.8178   5.0479   5.0931   5.2190   5.3412   5.3420   5.5275   5.6010
     5.6676   5.7353

          k =-0.0033-0.0194 0.5245 ( 32578 PWs)   bands (ev):

   -66.3221 -33.8109 -33.8074 -33.7135 -33.5274 -32.9631 -32.8261 -32.6978
   -15.8706 -15.8602 -15.8433 -15.8357 -15.8143 -15.8074 -15.7917 -15.7566
   -15.7238 -15.6211 -15.6056 -15.5795 -13.1284 -13.1207 -13.0223 -12.9978
   -12.9825  -7.7966  -7.6515  -7.4359  -7.2114  -7.1844  -7.1280  -7.0453
    -6.9189  -6.8350  -6.7170  -6.6248  -4.5205  -3.6407  -3.1415  -3.1167
    -3.0319  -2.9655  -2.9477  -2.8789  -2.7985  -2.7054  -2.6696  -2.5953
    -2.4734  -2.4266  -2.3840  -2.3212  -2.2986  -2.2295  -2.1381  -2.1210
    -2.0755  -2.0244  -1.9844  -1.8765  -1.8105  -1.7806  -1.7251  -1.5986
    -1.5759  -1.5477  -1.4205  -1.4002  -1.3680  -1.2565  -1.2244  -1.0987
    -0.8536  -0.7472   2.0627   2.1570   3.0566   3.4238   3.5103   4.2326
     4.8709   4.9651   5.0624   5.1431   5.2625   5.3355   5.4920   5.5883
     5.6355   5.7120

          k = 0.3732-0.0136 0.5222 ( 32564 PWs)   bands (ev):

   -66.3221 -33.8109 -33.8074 -33.7135 -33.5274 -32.9631 -32.8261 -32.6978
   -15.8699 -15.8601 -15.8432 -15.8356 -15.8143 -15.8074 -15.7925 -15.7566
   -15.7238 -15.6212 -15.6058 -15.5795 -13.1284 -13.1207 -13.0222 -12.9978
   -12.9824  -7.7779  -7.5751  -7.4223  -7.3905  -7.2223  -7.0644  -7.0270
    -6.9293  -6.8222  -6.6737  -6.6563  -4.5141  -3.6424  -3.1357  -3.0897
    -2.9867  -2.9300  -2.8882  -2.8306  -2.7846  -2.7256  -2.6904  -2.5916
    -2.5285  -2.4843  -2.4246  -2.3385  -2.2987  -2.2613  -2.1737  -2.1244
    -2.1228  -2.0261  -1.9615  -1.8976  -1.8552  -1.7411  -1.6228  -1.6104
    -1.5519  -1.5285  -1.4547  -1.3801  -1.3372  -1.2968  -1.2334  -1.0977
    -0.8757  -0.7476   2.0629   2.1628   3.0479   3.4201   3.5154   4.2521
     4.8916   5.0113   5.1036   5.2311   5.3289   5.3895   5.4518   5.5679
     5.7030   5.7383

          k = 0.0055 0.4898 0.5054 ( 32544 PWs)   bands (ev):

   -66.3221 -33.8109 -33.8074 -33.7135 -33.5275 -32.9631 -32.8261 -32.6978
   -15.8707 -15.8603 -15.8454 -15.8359 -15.8130 -15.8063 -15.7918 -15.7569
   -15.7242 -15.6208 -15.6055 -15.5791 -13.1284 -13.1207 -13.0222 -12.9978
   -12.9825  -7.7557  -7.6275  -7.4424  -7.2585  -7.1452  -7.0886  -7.0672
    -6.9289  -6.8627  -6.7100  -6.6805  -4.6567  -3.6353  -3.1462  -3.0922
    -3.0486  -2.9744  -2.8419  -2.7401  -2.6822  -2.6242  -2.5575  -2.5224
    -2.5068  -2.4760  -2.3839  -2.3514  -2.3245  -2.2700  -2.2217  -2.1640
    -2.1131  -2.0296  -1.9755  -1.8791  -1.8316  -1.7477  -1.6888  -1.6277
    -1.5685  -1.4882  -1.4828  -1.4140  -1.3724  -1.2748  -1.2660  -1.1681
    -0.9542  -0.6529   2.0415   2.1648   2.9348   3.3121   3.4896   4.1900
     4.9098   5.0864   5.1090   5.1475   5.3081   5.3409   5.5296   5.5667
     5.6339   5.6580

          k = 0.3821 0.4957 0.5031 ( 32568 PWs)   bands (ev):

   -66.3221 -33.8109 -33.8074 -33.7135 -33.5275 -32.9631 -32.8261 -32.6978
   -15.8700 -15.8602 -15.8453 -15.8358 -15.8129 -15.8063 -15.7925 -15.7570
   -15.7243 -15.6209 -15.6057 -15.5791 -13.1284 -13.1207 -13.0222 -12.9978
   -12.9825  -7.7449  -7.5519  -7.4043  -7.3597  -7.2427  -7.1027  -7.0373
    -6.9181  -6.8464  -6.7296  -6.6421  -4.6520  -3.6021  -3.1142  -3.0756
    -2.9757  -2.9185  -2.8347  -2.7808  -2.7197  -2.6841  -2.6555  -2.5989
    -2.4935  -2.4648  -2.4194  -2.3723  -2.3536  -2.2170  -2.1611  -2.1516
    -2.0510  -2.0168  -1.8919  -1.8516  -1.7982  -1.7836  -1.6981  -1.6728
    -1.6486  -1.6057  -1.4386  -1.3948  -1.3338  -1.2852  -1.2610  -1.1758
    -0.9511  -0.6669   2.0399   2.1694   2.9269   3.3178   3.4937   4.2067
     4.9907   5.1004   5.1574   5.3071   5.3849   5.4462   5.5217   5.6131
     5.6512   5.6877

     the Fermi energy is     2.0962 ev

!    total energy              =    -899.06472309 Ry
     estimated scf accuracy    <       0.00000017 Ry
     smearing contrib. (-TS)   =      -0.00925811 Ry
     internal energy E=F+TS    =    -899.05546498 Ry

     The total energy is F=E-TS. E is the sum of the following terms:
     one-electron contribution =    -502.44923378 Ry
     hartree contribution      =     288.82169460 Ry
     xc contribution           =    -236.20483383 Ry
     ewald contribution        =    -280.89373937 Ry
     one-center paw contrib.   =    -168.32935260 Ry

     convergence has been achieved in  14 iterations

     negative rho (up, down):  1.214E-08 0.000E+00

     Forces acting on atoms (cartesian axes, Ry/au):

     atom    1 type  4   force =    -0.00021646    0.00173523    0.00203050
     atom    2 type  4   force =    -0.00017827    0.00153573   -0.00218752
     atom    3 type  2   force =    -0.00123520   -0.00370277    0.00735466
     atom    4 type  4   force =    -0.00227497    0.00187652   -0.00342081
     atom    5 type  5   force =    -0.00746545   -0.00493579    0.00315695
     atom    6 type  5   force =     0.00291460    0.01069491   -0.01115322
     atom    7 type  5   force =    -0.00266677   -0.00233527    0.00822666
     atom    8 type  5   force =    -0.00438489    0.00184016   -0.00380707
     atom    9 type  1   force =     0.00533520    0.00170211   -0.00231030
     atom   10 type  1   force =     0.00614245   -0.00217244   -0.00644173
     atom   11 type  1   force =     0.00210753    0.00106531    0.00116191
     atom   12 type  1   force =     0.00216372   -0.00365816   -0.00100504
     atom   13 type  1   force =    -0.00354029    0.00408730   -0.00370875
     atom   14 type  6   force =     0.00595614   -0.01951100    0.01251074
     atom   15 type  1   force =     0.00145940   -0.00021190   -0.00027772
     atom   16 type  1   force =    -0.00064436   -0.00105794    0.00004982
     atom   17 type  1   force =    -0.00103045   -0.00193747    0.00194317
     atom   18 type  1   force =     0.00206495    0.00026537   -0.00120807
     atom   19 type  1   force =     0.00188201   -0.00154990    0.00016818
     atom   20 type  1   force =    -0.00172037    0.00185651   -0.00027637
     atom   21 type  3   force =    -0.00284540   -0.00108746    0.00361210
     atom   22 type  3   force =     0.00459299    0.00122796    0.00324373
     atom   23 type  3   force =     0.00317077    0.00405148    0.00573039
     atom   24 type  3   force =     0.00399857    0.00531929   -0.00637720
     atom   25 type  3   force =    -0.00220260   -0.00402733   -0.00963451
     atom   26 type  3   force =     0.00267992   -0.00594553   -0.00401490
     atom   27 type  3   force =     0.00211546    0.00415173   -0.00248904
     atom   28 type  3   force =    -0.00181163   -0.00008687    0.00205149
     atom   29 type  3   force =    -0.00130072    0.00460490   -0.00256330
     atom   30 type  3   force =    -0.00010035    0.00273615   -0.00309810
     atom   31 type  3   force =     0.00569663   -0.00393149   -0.00406755
     atom   32 type  3   force =     0.00222019   -0.00334437    0.00004983
     atom   33 type  3   force =     0.00704631    0.00438706    0.00721340
     atom   34 type  3   force =    -0.00068136   -0.00752705   -0.00203804
     atom   35 type  3   force =     0.00211113    0.00290267    0.00540010
     atom   36 type  3   force =    -0.00012043   -0.00643049   -0.00081465
     atom   37 type  3   force =     0.00552557   -0.00386021   -0.00156178
     atom   38 type  3   force =    -0.01328127    0.02050876    0.01429847
     atom   39 type  3   force =     0.00114467   -0.00517221   -0.00388646
     atom   40 type  3   force =     0.00380062   -0.00050085    0.00147366
     atom   41 type  3   force =     0.00094018   -0.00063088    0.00997156
     atom   42 type  3   force =    -0.00926076   -0.00422001   -0.00809948
     atom   43 type  3   force =    -0.00171866    0.00061534    0.00586028
     atom   44 type  3   force =     0.00493040   -0.00039408    0.00086318
     atom   45 type  3   force =     0.00297291    0.00522723    0.00030721
     atom   46 type  3   force =    -0.01318105   -0.00033539   -0.00579264
     atom   47 type  3   force =    -0.00151330    0.00053797   -0.00624859
     atom   48 type  3   force =    -0.00460606    0.00264628    0.00113156
     atom   49 type  3   force =    -0.00584468   -0.00148157   -0.00298545
     atom   50 type  3   force =    -0.00572406    0.00539095   -0.00846734
     atom   51 type  3   force =     0.00681199    0.00159779    0.00254891
     atom   52 type  3   force =    -0.00266738    0.00004696   -0.00197464
     atom   53 type  3   force =     0.00101715   -0.00080038    0.00335937
     atom   54 type  3   force =    -0.00166152    0.00481041   -0.00582650
     atom   55 type  3   force =    -0.00520382   -0.00509545    0.00418312
     atom   56 type  3   force =    -0.00052742    0.00185388    0.00250684
     atom   57 type  3   force =    -0.00430859   -0.00177207    0.00041187
     atom   58 type  3   force =    -0.00126440    0.00126694   -0.00029770
     atom   59 type  3   force =     0.00084134   -0.00046988   -0.00561147
     atom   60 type  3   force =    -0.00433552    0.00324040    0.00133893
     atom   61 type  3   force =     0.00322810    0.00081581   -0.00017725
     atom   62 type  3   force =     0.00040763   -0.00416872    0.00122777
     atom   63 type  3   force =     0.00162788   -0.00071395    0.00557419
     atom   64 type  3   force =     0.00309073   -0.00233247   -0.00095245
     atom   65 type  3   force =     0.00092414    0.00335382    0.00188583
     atom   66 type  3   force =     0.00353801   -0.00591629    0.00252731
     atom   67 type  3   force =     0.00078858    0.00703085   -0.00186413
     atom   68 type  3   force =     0.00427060   -0.00366616    0.00126605

     Total force =     0.066586     Total SCF correction =     0.000505


     Computing stress (Cartesian axis) and pressure


     negative rho (up, down):  1.214E-08 0.000E+00
          total   stress  (Ry/bohr**3)                   (kbar)     P=       -0.01
   0.00000239   0.00000802   0.00000294            0.35        1.18        0.43
   0.00000802  -0.00001296  -0.00000268            1.18       -1.91       -0.39
   0.00000294  -0.00000268   0.00001032            0.43       -0.39        1.52

     Energy error            =      7.6E-03
     Gradient error          =      2.1E-02
     Cell gradient error     =      1.3E-05


     number of scf cycles    =  15
     number of bfgs steps    =  14

     enthalpy old            =    -899.0571190948 Ry
     enthalpy new            =    -899.0647230884 Ry

     CASE: enthalpy_new < enthalpy_old

     new trust radius        =       0.1608430771 bohr
     new conv_thr            =       0.0000002051 Ry

     new unit-cell volume =   5439.99318 a.u.^3 (   806.12382 Ang^3 )
     density =      0.14007 g/cm^3

CELL_PARAMETERS (angstrom)
  -0.063706924  -0.291168424  -8.243770441
   0.138618935  -8.519759471  -0.297524208
 -11.495902821   0.208053851  -0.090303971

ATOMIC_POSITIONS (angstrom)
K            -8.6387396399       -7.9850242475       -4.9269345140
K            -3.0174371871       -0.3620368958       -3.8125507146
Ga           -2.5497203340       -4.0075596045       -8.1255193630
K            -8.1143211685       -4.2176008256       -0.4434503114
Sr           -5.5747859899       -8.4301458052       -8.1878057317
Sr          -11.3917403334       -0.2240801891       -0.5513863984
Sr          -11.3882099042       -3.8753979646       -4.6592527665
Sr           -5.5929259969       -4.4616595596       -3.9407362366
B            -8.8241601974       -3.9645070488       -3.7159594387
B            -2.9602265555       -4.5814473043       -4.9380145370
B            -2.8178428817       -8.2349960095       -0.8515356062
B            -8.8243336165       -0.3685297913       -7.7199990573
B            -5.3636946615       -2.8987668485       -1.6487065262
Ta          -12.1947571539       -5.8427073528       -7.2882993272
B           -11.0256693945       -7.0840800697       -3.1419264487
B            -5.3925650971       -1.4642607329       -5.5864586604
B            -6.1514529725       -5.8982360426       -6.7607512698
B            -0.4211656631       -2.9543699317       -1.7659181693
B            -0.4525028075       -1.5028238845       -5.8408891269
B            -6.1110692788       -7.0377920188       -2.7428358569
H            -9.6714102475       -4.1984671398       -2.8651070272
H            -3.8820089223       -4.3341272030       -5.7090916756
H            -3.7832260515       -8.3909873557       -1.6013081202
H            -9.7872101090       -0.1426300926       -6.9969742152
H            -8.7723205031       -4.9056123745       -4.4905573391
H            -2.7425778463       -3.6197559806       -4.1965314589
H            -2.9290114492       -0.9714039288       -8.0471717306
H            -8.4416229109       -7.6961551313       -0.5834714956
H            -9.0948065078       -2.9196176189       -4.3020160617
H            -3.1561110838       -5.6070462505       -4.2929521150
H            -3.0170503608       -7.4652077217       -8.4331834537
H            -8.9756877672       -1.1321791185       -0.0825582474
H            -7.7741162971       -3.8064159306       -3.1459692896
H            -1.9736874780       -4.7429844168       -5.7055311788
H            -1.8948182707       -8.1440192056       -1.6368782984
H            -7.8794103055       -0.5005409053       -6.9598975421
H            -5.3134684899       -2.2615806462       -0.6029280455
H           -11.1652861159       -6.8389976665       -8.4514375777
H           -10.8230956100       -6.4482039392       -4.1599686744
H            -5.2396642713       -1.9893369133       -4.4986035344
H            -4.3384614818       -2.8223379288       -2.3421978641
H           -10.6939035947       -5.4162347427       -6.4111327931
H            -9.9875090672       -7.0791039702       -2.4798203192
H            -4.3439492443       -1.4584812890       -6.2217490450
H            -5.5609488811       -4.0958709926       -1.4028053423
H           -11.8039713052       -4.0715921237       -7.2542763232
H           -11.3135811532       -8.2567826456       -3.4144658107
H            -5.7329387292       -0.3012692873       -5.3613694688
H            -6.2687294146       -2.4605520480       -2.3472849176
H            -1.0172845289       -6.7721620060       -5.6007652211
H            -0.4645356870       -6.7843592150       -2.4490766556
H            -6.2421451760       -2.0513623116       -6.2445812288
H            -5.8410197598       -6.4314158381       -5.7081020922
H            -0.2519307309       -2.3445435865       -2.8095942299
H            -0.1381548887       -2.2205374033       -6.7880761574
H            -5.8605849601       -6.3518988901       -1.7532963827
H            -7.1103990082       -6.5155389820       -7.2240008980
H            -1.3875672316       -2.3940511501       -1.2270106365
H            -1.4705789682       -1.9510550048       -5.3271598987
H            -7.0697297605       -6.5296703625       -3.3098809656
H            -6.4578049657       -4.7197298901       -6.6059870804
H            -0.6778756959       -4.1418492275       -1.9307709405
H            -0.6394195697       -0.3358223602       -6.2144534938
H            -6.3808281723       -8.1941752153       -2.4480465683
H            -5.2137414759       -5.9892732292       -7.5526669418
H           -10.9224190519       -2.6009218653       -1.1634515535
H           -11.0364877651       -1.3818083101       -5.1113625279
H            -5.1493985599       -6.9848933236       -3.5027419810



     Writing output data file ./tmp/K3Sr4TaGaB11H48.save/
     NEW-OLD atomic charge density approx. for the potential

     negative rho (up, down):  3.120E-07 0.000E+00
     extrapolated charge  149.42550, renormalised to  150.00000

     total cpu time spent up to now is    18607.2 secs

     Self-consistent Calculation

     iteration #  1     ecut=    50.00 Ry     beta= 0.70
     CG style diagonalization
     ethr =  1.00E-06,  avg # of iterations = 20.1

     total cpu time spent up to now is    19749.9 secs

     total energy              =    -899.04930047 Ry
     estimated scf accuracy    <       0.04255480 Ry

     iteration #  2     ecut=    50.00 Ry     beta= 0.70
     CG style diagonalization
     ethr =  2.84E-05,  avg # of iterations =  4.0

     total cpu time spent up to now is    19957.8 secs

     total energy              =    -899.05564448 Ry
     estimated scf accuracy    <       0.06784820 Ry

     iteration #  3     ecut=    50.00 Ry     beta= 0.70
     CG style diagonalization
     ethr =  2.84E-05,  avg # of iterations =  3.7

     total cpu time spent up to now is    20146.5 secs

     total energy              =    -899.06483836 Ry
     estimated scf accuracy    <       0.02554215 Ry

     iteration #  4     ecut=    50.00 Ry     beta= 0.70
     CG style diagonalization
     ethr =  1.70E-05,  avg # of iterations =  3.1

     total cpu time spent up to now is    20301.1 secs

     total energy              =    -899.06883469 Ry
     estimated scf accuracy    <       0.02910784 Ry

     iteration #  5     ecut=    50.00 Ry     beta= 0.70
     CG style diagonalization
     ethr =  1.70E-05,  avg # of iterations =  3.0

     total cpu time spent up to now is    20449.2 secs

     total energy              =    -899.07108834 Ry
     estimated scf accuracy    <       0.00216565 Ry

     iteration #  6     ecut=    50.00 Ry     beta= 0.70
     CG style diagonalization
     ethr =  1.44E-06,  avg # of iterations =  3.5

     total cpu time spent up to now is    20628.0 secs

     total energy              =    -899.07144156 Ry
     estimated scf accuracy    <       0.00140380 Ry

     iteration #  7     ecut=    50.00 Ry     beta= 0.70
     CG style diagonalization
     ethr =  9.36E-07,  avg # of iterations =  3.2

     total cpu time spent up to now is    20787.0 secs

     total energy              =    -899.07149776 Ry
     estimated scf accuracy    <       0.00011968 Ry

     iteration #  8     ecut=    50.00 Ry     beta= 0.70
     CG style diagonalization
     c_bands:  1 eigenvalues not converged
     c_bands:  1 eigenvalues not converged
     ethr =  7.98E-08,  avg # of iterations =  5.5

     total cpu time spent up to now is    21081.1 secs

     total energy              =    -899.07166960 Ry
     estimated scf accuracy    <       0.00032793 Ry

     iteration #  9     ecut=    50.00 Ry     beta= 0.70
     CG style diagonalization
     ethr =  7.98E-08,  avg # of iterations =  3.6

     total cpu time spent up to now is    21266.0 secs

     total energy              =    -899.07170506 Ry
     estimated scf accuracy    <       0.00007505 Ry

     iteration # 10     ecut=    50.00 Ry     beta= 0.70
     CG style diagonalization
     ethr =  5.00E-08,  avg # of iterations =  3.2

     total cpu time spent up to now is    21422.9 secs

     total energy              =    -899.07171361 Ry
     estimated scf accuracy    <       0.00006986 Ry

     iteration # 11     ecut=    50.00 Ry     beta= 0.70
     CG style diagonalization
     ethr =  4.66E-08,  avg # of iterations =  3.1

     total cpu time spent up to now is    21573.0 secs

     total energy              =    -899.07171343 Ry
     estimated scf accuracy    <       0.00007425 Ry

     iteration # 12     ecut=    50.00 Ry     beta= 0.70
     CG style diagonalization
     ethr =  4.66E-08,  avg # of iterations =  3.0

     total cpu time spent up to now is    21723.1 secs

     total energy              =    -899.07169059 Ry
     estimated scf accuracy    <       0.00006547 Ry

     iteration # 13     ecut=    50.00 Ry     beta= 0.70
     CG style diagonalization
     ethr =  4.36E-08,  avg # of iterations =  3.4

     total cpu time spent up to now is    21893.1 secs

     total energy              =    -899.07169586 Ry
     estimated scf accuracy    <       0.00001383 Ry

     iteration # 14     ecut=    50.00 Ry     beta= 0.70
     CG style diagonalization
     ethr =  9.22E-09,  avg # of iterations =  4.9

     total cpu time spent up to now is    22154.7 secs

     total energy              =    -899.07170672 Ry
     estimated scf accuracy    <       0.00000642 Ry

     iteration # 15     ecut=    50.00 Ry     beta= 0.70
     CG style diagonalization
     ethr =  4.28E-09,  avg # of iterations =  4.4

     total cpu time spent up to now is    22384.8 secs

     total energy              =    -899.07171109 Ry
     estimated scf accuracy    <       0.00000133 Ry

     iteration # 16     ecut=    50.00 Ry     beta= 0.70
     CG style diagonalization
     ethr =  8.90E-10,  avg # of iterations =  5.5

     total cpu time spent up to now is    22676.4 secs

     total energy              =    -899.07171288 Ry
     estimated scf accuracy    <       0.00000074 Ry

     iteration # 17     ecut=    50.00 Ry     beta= 0.70
     CG style diagonalization
     ethr =  4.91E-10,  avg # of iterations =  3.9

     total cpu time spent up to now is    22878.3 secs

     total energy              =    -899.07171308 Ry
     estimated scf accuracy    <       0.00000077 Ry

     iteration # 18     ecut=    50.00 Ry     beta= 0.70
     CG style diagonalization
     ethr =  4.91E-10,  avg # of iterations =  3.4

     total cpu time spent up to now is    23048.7 secs

     total energy              =    -899.07171322 Ry
     estimated scf accuracy    <       0.00000038 Ry

     iteration # 19     ecut=    50.00 Ry     beta= 0.70
     CG style diagonalization
     ethr =  2.55E-10,  avg # of iterations =  3.6

     total cpu time spent up to now is    23228.7 secs

     End of self-consistent calculation

          k = 0.0000 0.0000 0.0000 ( 32571 PWs)   bands (ev):

   -66.3111 -33.8059 -33.7984 -33.6511 -33.4827 -32.9490 -32.8012 -32.6829
   -15.8574 -15.8558 -15.8376 -15.8301 -15.8108 -15.7971 -15.7359 -15.6988
   -15.6675 -15.5776 -15.5614 -15.5361 -13.0252 -13.0176 -12.9221 -12.8988
   -12.8827  -7.9452  -7.5625  -7.4036  -7.2801  -7.1718  -7.0877  -6.9719
    -6.9058  -6.8106  -6.6539  -6.5905  -4.4893  -3.6181  -3.2470  -3.0846
    -3.0294  -3.0164  -2.8779  -2.8390  -2.7913  -2.6999  -2.6658  -2.5571
    -2.5419  -2.4495  -2.3841  -2.3607  -2.2972  -2.2382  -2.1985  -2.1286
    -2.0614  -2.0166  -2.0028  -1.9123  -1.8250  -1.7105  -1.6422  -1.6056
    -1.5071  -1.4712  -1.3985  -1.3670  -1.3151  -1.1897  -1.1290  -0.9922
    -0.7650  -0.7212   2.0618   2.2050   3.1969   3.4884   3.6872   4.2733
     4.7958   4.8055   4.9238   5.0963   5.1893   5.2822   5.4207   5.5429
     5.6574   5.7871

          k = 0.3769 0.0062-0.0031 ( 32604 PWs)   bands (ev):

   -66.3111 -33.8059 -33.7984 -33.6511 -33.4827 -32.9490 -32.8012 -32.6829
   -15.8573 -15.8554 -15.8375 -15.8300 -15.8108 -15.7971 -15.7364 -15.6989
   -15.6675 -15.5776 -15.5616 -15.5361 -13.0252 -13.0177 -12.9221 -12.8988
   -12.8827  -7.8896  -7.6416  -7.3798  -7.2956  -7.1636  -7.0803  -6.9704
    -6.9303  -6.7999  -6.6441  -6.6002  -4.4899  -3.6227  -3.1274  -3.0385
    -3.0319  -3.0144  -2.8975  -2.8261  -2.7512  -2.7091  -2.6638  -2.6008
    -2.5759  -2.5152  -2.4857  -2.3920  -2.3330  -2.2348  -2.1508  -2.1025
    -2.0511  -1.9914  -1.9685  -1.9064  -1.7873  -1.7127  -1.6035  -1.5683
    -1.5344  -1.5098  -1.4119  -1.3963  -1.3244  -1.2410  -1.1040  -1.0007
    -0.7827  -0.7086   2.0664   2.2125   3.1832   3.4850   3.6758   4.3101
     4.7867   4.9421   5.0323   5.1784   5.2272   5.2940   5.3940   5.5186
     5.7008   5.8050

          k = 0.0094 0.5092-0.0181 ( 32596 PWs)   bands (ev):

   -66.3111 -33.8059 -33.7984 -33.6511 -33.4827 -32.9490 -32.8012 -32.6829
   -15.8573 -15.8558 -15.8357 -15.8299 -15.8120 -15.7982 -15.7359 -15.6985
   -15.6672 -15.5779 -15.5616 -15.5365 -13.0252 -13.0177 -12.9221 -12.8988
   -12.8827  -7.8439  -7.6103  -7.4074  -7.2085  -7.1905  -7.1234  -6.9848
    -6.9552  -6.8515  -6.6368  -6.6101  -4.5613  -3.7039  -3.1349  -3.0814
    -3.0451  -2.8877  -2.8578  -2.7776  -2.7301  -2.7157  -2.6626  -2.5689
    -2.5233  -2.4839  -2.4590  -2.3514  -2.2527  -2.2277  -2.1292  -2.0869
    -2.0172  -1.9633  -1.9222  -1.8512  -1.7888  -1.7274  -1.6658  -1.6460
    -1.5913  -1.5129  -1.4790  -1.4540  -1.3970  -1.3130  -1.1945  -0.9599
    -0.7955  -0.5874   2.0245   2.2055   3.0917   3.3375   3.6846   4.2556
     4.8167   5.0672   5.0850   5.2074   5.3125   5.4070   5.4539   5.5420
     5.6364   5.6926

          k = 0.3863 0.5154-0.0212 ( 32564 PWs)   bands (ev):

   -66.3111 -33.8059 -33.7984 -33.6511 -33.4827 -32.9490 -32.8012 -32.6829
   -15.8572 -15.8554 -15.8356 -15.8299 -15.8120 -15.7982 -15.7364 -15.6986
   -15.6672 -15.5780 -15.5617 -15.5365 -13.0252 -13.0176 -12.9221 -12.8988
   -12.8827  -7.8178  -7.5390  -7.3975  -7.3618  -7.2673  -7.0583  -6.9760
    -6.9413  -6.8351  -6.6472  -6.5883  -4.5624  -3.7043  -3.1551  -3.0500
    -3.0072  -2.9194  -2.8052  -2.7724  -2.7606  -2.7013  -2.6258  -2.6105
    -2.4854  -2.4130  -2.3790  -2.3413  -2.2620  -2.2117  -2.1870  -2.1408
    -2.0553  -2.0299  -1.9775  -1.8783  -1.8691  -1.7562  -1.6996  -1.6075
    -1.5363  -1.5209  -1.4236  -1.4192  -1.3552  -1.2730  -1.2382  -1.0072
    -0.8084  -0.5794   2.0284   2.2112   3.0883   3.3398   3.6849   4.2801
     4.8497   5.0736   5.1144   5.2410   5.3553   5.3753   5.5500   5.6116
     5.6721   5.7672

          k =-0.0045-0.0184 0.5261 ( 32578 PWs)   bands (ev):

   -66.3111 -33.8059 -33.7984 -33.6511 -33.4827 -32.9490 -32.8012 -32.6829
   -15.8573 -15.8558 -15.8351 -15.8311 -15.8115 -15.7982 -15.7359 -15.6986
   -15.6674 -15.5778 -15.5615 -15.5365 -13.0253 -13.0176 -12.9221 -12.8988
   -12.8827  -7.7513  -7.6594  -7.4247  -7.2170  -7.1877  -7.1211  -7.0335
    -6.9180  -6.8270  -6.7089  -6.6050  -4.5109  -3.6083  -3.1239  -3.1151
    -3.0099  -2.9555  -2.9327  -2.8715  -2.7996  -2.6917  -2.6567  -2.5931
    -2.4560  -2.4030  -2.3732  -2.3196  -2.2918  -2.2123  -2.1440  -2.1113
    -2.0718  -1.9876  -1.9690  -1.8544  -1.7941  -1.7558  -1.7250  -1.5794
    -1.5691  -1.5362  -1.3977  -1.3804  -1.3592  -1.2396  -1.2191  -1.0666
    -0.8142  -0.6637   2.1065   2.2060   3.1890   3.4543   3.6637   4.2636
     4.9080   5.0097   5.0917   5.1606   5.2714   5.3472   5.5171   5.5867
     5.6560   5.7307

          k = 0.3724-0.0122 0.5229 ( 32564 PWs)   bands (ev):

   -66.3111 -33.8059 -33.7984 -33.6511 -33.4827 -32.9490 -32.8012 -32.6829
   -15.8572 -15.8553 -15.8350 -15.8311 -15.8115 -15.7982 -15.7364 -15.6987
   -15.6674 -15.5779 -15.5617 -15.5365 -13.0253 -13.0176 -12.9221 -12.8988
   -12.8827  -7.7288  -7.5880  -7.4153  -7.3891  -7.2140  -7.0659  -7.0211
    -6.9299  -6.8137  -6.6723  -6.6279  -4.5037  -3.6131  -3.1110  -3.0885
    -2.9670  -2.9189  -2.8860  -2.8140  -2.7834  -2.7188  -2.6804  -2.5746
    -2.5208  -2.4656  -2.4184  -2.3431  -2.2881  -2.2434  -2.1692  -2.1114
    -2.0979  -2.0176  -1.9401  -1.8591  -1.8463  -1.7295  -1.6175  -1.6085
    -1.5254  -1.5154  -1.4287  -1.3779  -1.3108  -1.2921  -1.2088  -1.0852
    -0.8338  -0.6600   2.1078   2.2109   3.1807   3.4509   3.6679   4.2806
     4.9370   5.0449   5.1344   5.2507   5.3508   5.4090   5.4592   5.5778
     5.7182   5.7559

          k = 0.0049 0.4907 0.5080 ( 32544 PWs)   bands (ev):

   -66.3111 -33.8059 -33.7984 -33.6511 -33.4827 -32.9490 -32.8012 -32.6829
   -15.8576 -15.8557 -15.8366 -15.8324 -15.8094 -15.7974 -15.7359 -15.6990
   -15.6680 -15.5775 -15.5614 -15.5361 -13.0253 -13.0176 -12.9221 -12.8988
   -12.8827  -7.7061  -7.6293  -7.4451  -7.2580  -7.1339  -7.0920  -7.0613
    -6.9271  -6.8600  -6.7190  -6.6419  -4.6510  -3.5945  -3.1151  -3.0798
    -3.0425  -2.9504  -2.8235  -2.7315  -2.6769  -2.6178  -2.5398  -2.5334
    -2.4876  -2.4638  -2.3911  -2.3402  -2.3095  -2.2781  -2.2168  -2.1580
    -2.0989  -2.0118  -1.9656  -1.8613  -1.8202  -1.7404  -1.6790  -1.6204
    -1.5583  -1.4828  -1.4471  -1.4063  -1.3386  -1.2608  -1.2374  -1.1251
    -0.9006  -0.5785   2.0757   2.2092   3.0656   3.3422   3.6262   4.2342
     4.9425   5.1113   5.1515   5.1745   5.3165   5.3535   5.5355   5.5880
     5.6509   5.6679

          k = 0.3818 0.4970 0.5049 ( 32568 PWs)   bands (ev):

   -66.3111 -33.8059 -33.7984 -33.6511 -33.4827 -32.9490 -32.8012 -32.6829
   -15.8575 -15.8553 -15.8366 -15.8323 -15.8094 -15.7974 -15.7364 -15.6991
   -15.6680 -15.5775 -15.5615 -15.5361 -13.0253 -13.0176 -12.9221 -12.8988
   -12.8827  -7.6923  -7.5620  -7.3922  -7.3683  -7.2324  -7.1067  -7.0306
    -6.9198  -6.8409  -6.7218  -6.6189  -4.6452  -3.5598  -3.1061  -3.0377
    -2.9627  -2.9068  -2.8220  -2.7660  -2.7151  -2.6806  -2.6349  -2.6034
    -2.4739  -2.4598  -2.4029  -2.3849  -2.3588  -2.2065  -2.1592  -2.1371
    -2.0550  -1.9965  -1.8724  -1.8397  -1.7807  -1.7731  -1.6769  -1.6682
    -1.6208  -1.5987  -1.4317  -1.3792  -1.3176  -1.2585  -1.2144  -1.1577
    -0.8936  -0.5912   2.0749   2.2135   3.0583   3.3463   3.6321   4.2492
     5.0335   5.1410   5.1698   5.3252   5.4142   5.4453   5.5333   5.6214
     5.6603   5.7147

     the Fermi energy is     2.1394 ev

!    total energy              =    -899.07171333 Ry
     estimated scf accuracy    <       0.00000003 Ry
     smearing contrib. (-TS)   =      -0.00900631 Ry
     internal energy E=F+TS    =    -899.06270702 Ry

     The total energy is F=E-TS. E is the sum of the following terms:
     one-electron contribution =    -501.86651705 Ry
     hartree contribution      =     288.66544539 Ry
     xc contribution           =    -236.20688441 Ry
     ewald contribution        =    -281.32173816 Ry
     one-center paw contrib.   =    -168.33301279 Ry

     convergence has been achieved in  19 iterations

     Forces acting on atoms (cartesian axes, Ry/au):

     atom    1 type  4   force =    -0.00057415    0.00172945    0.00292968
     atom    2 type  4   force =     0.00008876    0.00179792   -0.00233514
     atom    3 type  2   force =     0.00024425   -0.00810800    0.00898731
     atom    4 type  4   force =    -0.00313092    0.00183510   -0.00365844
     atom    5 type  5   force =    -0.00687025   -0.00501558    0.00204754
     atom    6 type  5   force =     0.00519121    0.00710828   -0.01197885
     atom    7 type  5   force =    -0.00578983   -0.00408031    0.00779641
     atom    8 type  5   force =    -0.00381316    0.00158656   -0.00545358
     atom    9 type  1   force =     0.00392726    0.00044216    0.00044988
     atom   10 type  1   force =     0.00500922   -0.00223469   -0.00527750
     atom   11 type  1   force =     0.00282149    0.00031687   -0.00073646
     atom   12 type  1   force =     0.00113847   -0.00251681   -0.00097801
     atom   13 type  1   force =    -0.00071470    0.00230691   -0.00329699
     atom   14 type  6   force =     0.00051053    0.00166164    0.00913404
     atom   15 type  1   force =     0.00216430    0.00049005   -0.00136576
     atom   16 type  1   force =     0.00039635   -0.00100536    0.00040805
     atom   17 type  1   force =    -0.00096354   -0.00327706    0.00012449
     atom   18 type  1   force =     0.00130855    0.00203341   -0.00159410
     atom   19 type  1   force =    -0.00010124   -0.00388734    0.00233133
     atom   20 type  1   force =     0.00051081    0.00119627   -0.00060651
     atom   21 type  3   force =    -0.00028410   -0.00092506    0.00115184
     atom   22 type  3   force =     0.00240286    0.00186691    0.00366237
     atom   23 type  3   force =     0.00111466    0.00466784    0.00694823
     atom   24 type  3   force =     0.00283908    0.00515721   -0.00497476
     atom   25 type  3   force =    -0.00149453   -0.00082006   -0.00787143
     atom   26 type  3   force =     0.00254066   -0.00637798   -0.00433659
     atom   27 type  3   force =     0.00199624    0.00270310   -0.00136146
     atom   28 type  3   force =    -0.00045806   -0.00009800    0.00142320
     atom   29 type  3   force =     0.00024950    0.00325461   -0.00275410
     atom   30 type  3   force =    -0.00147711    0.00240384   -0.00165705
     atom   31 type  3   force =     0.00525906   -0.00183272   -0.00265148
     atom   32 type  3   force =     0.00287895   -0.00358782    0.00004461
     atom   33 type  3   force =     0.00585619    0.00339402    0.00508083
     atom   34 type  3   force =     0.00161821   -0.00714052   -0.00241285
     atom   35 type  3   force =     0.00279667    0.00345984    0.00467374
     atom   36 type  3   force =    -0.00020678   -0.00695680   -0.00205818
     atom   37 type  3   force =     0.00478199   -0.00267463   -0.00195026
     atom   38 type  3   force =    -0.01409987    0.01882462    0.01721188
     atom   39 type  3   force =     0.00220947   -0.00509721   -0.00564415
     atom   40 type  3   force =     0.00295704   -0.00116246    0.00099957
     atom   41 type  3   force =     0.00209234    0.00146011    0.00933178
     atom   42 type  3   force =    -0.00350030   -0.00543973   -0.00553421
     atom   43 type  3   force =    -0.00175454   -0.00069673    0.00564752
     atom   44 type  3   force =     0.00352381    0.00067409    0.00079381
     atom   45 type  3   force =     0.00046859    0.00428503    0.00117399
     atom   46 type  3   force =    -0.01519957   -0.01399006   -0.00688226
     atom   47 type  3   force =    -0.00080052    0.00169080   -0.00526000
     atom   48 type  3   force =    -0.00440055    0.00059892   -0.00022562
     atom   49 type  3   force =    -0.00579099   -0.00152644   -0.00145100
     atom   50 type  3   force =    -0.00456024    0.00388877   -0.01116062
     atom   51 type  3   force =     0.00491946    0.00058036    0.00412867
     atom   52 type  3   force =    -0.00178765    0.00168547   -0.00055279
     atom   53 type  3   force =     0.00042312   -0.00046785    0.00332031
     atom   54 type  3   force =    -0.00132931    0.00247705   -0.00405131
     atom   55 type  3   force =    -0.00418678   -0.00260663    0.00152544
     atom   56 type  3   force =    -0.00062791    0.00124239    0.00249068
     atom   57 type  3   force =    -0.00476862   -0.00038394    0.00162209
     atom   58 type  3   force =    -0.00162958    0.00027930   -0.00011946
     atom   59 type  3   force =    -0.00119825   -0.00074350   -0.00440950
     atom   60 type  3   force =    -0.00457155    0.00264400    0.00155710
     atom   61 type  3   force =     0.00303456   -0.00073736    0.00017096
     atom   62 type  3   force =     0.00106547    0.00041291    0.00011751
     atom   63 type  3   force =     0.00304257   -0.00134088    0.00414442
     atom   64 type  3   force =     0.00250707   -0.00025317   -0.00109816
     atom   65 type  3   force =     0.00195175    0.00401669    0.00155843
     atom   66 type  3   force =     0.00409151   -0.00518521    0.00257051
     atom   67 type  3   force =     0.00248011    0.00893087   -0.00148147
     atom   68 type  3   force =     0.00367249   -0.00293346    0.00162184

     Total force =     0.062094     Total SCF correction =     0.000209


     Computing stress (Cartesian axis) and pressure

          total   stress  (Ry/bohr**3)                   (kbar)     P=       -0.28
   0.00000913   0.00000921  -0.00000325            1.34        1.35       -0.48
   0.00000921  -0.00003162  -0.00000229            1.35       -4.65       -0.34
  -0.00000325  -0.00000229   0.00001680           -0.48       -0.34        2.47

     Energy error            =      7.0E-03
     Gradient error          =      1.9E-02
     Cell gradient error     =      3.2E-05


     number of scf cycles    =  16
     number of bfgs steps    =  15

     enthalpy old            =    -899.0647230884 Ry
     enthalpy new            =    -899.0717133278 Ry

     CASE: enthalpy_new < enthalpy_old

     new trust radius        =       0.1973390404 bohr
     new conv_thr            =       0.0000001882 Ry

     new unit-cell volume =   5420.51584 a.u.^3 (   803.23758 Ang^3 )
     density =      0.14058 g/cm^3

CELL_PARAMETERS (angstrom)
  -0.085878040  -0.270983699  -8.220446311
   0.145669511  -8.515214697  -0.278560907
 -11.492519814   0.217509911  -0.120126483

ATOMIC_POSITIONS (angstrom)
K            -8.6297903208       -7.9508249651       -4.9364490883
K            -3.0260312741       -0.3394923624       -3.8082596062
Ga           -2.5637405731       -3.9620033163       -8.0676665091
K            -8.0981177873       -4.1955373541       -0.4472637711
Sr           -5.5981313638       -8.4100309500       -8.1541500772
Sr          -11.3961461498       -0.1941267830       -0.5975273100
Sr          -11.3851004186       -3.8363952716       -4.6713846476
Sr           -5.5969431172       -4.4442363801       -3.9345786009
B            -8.8250744381       -3.9346373932       -3.7272163464
B            -2.9428699623       -4.5806345431       -4.9376915949
B            -2.7904134749       -8.2159512570       -0.8288056678
B            -8.8330158213       -0.3634070334       -7.7271147897
B            -5.3779462261       -2.8738716900       -1.6619746826
Ta          -12.2504901560       -5.8571760957       -7.2578070824
B           -11.0160901448       -7.0635910424       -3.1527954714
B            -5.4050196205       -1.4504781068       -5.5789833707
B            -6.1656019573       -5.8697096440       -6.7310463113
B            -0.4199769888       -2.9695773236       -1.7610542955
B            -0.4628000034       -1.4769021792       -5.8292603012
B            -6.1162446787       -7.0276940005       -2.7310141806
H            -9.6783744148       -4.1805022627       -2.8739353285
H            -3.8613224792       -4.3112984928       -5.7001351388
H            -3.7531116095       -8.3683269145       -1.5776507449
H            -9.7984713348       -0.1082660941       -7.0217009896
H            -8.7780966806       -4.8744643994       -4.5168277850
H            -2.7018500021       -3.6278400960       -4.1947294801
H            -2.9275127181       -0.9352383043       -8.0269854151
H            -8.4090688222       -7.7055942992       -0.5901376994
H            -9.1126094438       -2.8817552862       -4.3017233786
H            -3.1548218519       -5.5994723483       -4.2956521401
H            -3.0021968534       -7.4318583409       -8.3889436136
H            -8.9748954738       -1.1439327584       -0.1105251023
H            -7.7771633574       -3.7627566515       -3.1436928552
H            -1.9686957711       -4.7670894034       -5.7093222138
H            -1.8732792996       -8.1230626418       -1.6166779966
H            -7.9010324147       -0.5068504883       -6.9511952643
H            -5.3116677566       -2.2582916476       -0.6058902613
H           -11.2078146773       -6.7885544756       -8.4429325257
H           -10.8096938382       -6.4357333095       -4.1732003537
H            -5.2369576826       -1.9623853044       -4.4851618376
H            -4.3426899457       -2.8151638122       -2.3371173917
H           -10.7695281458       -5.3726092131       -6.4221445387
H            -9.9816863553       -7.0586631414       -2.4826413185
H            -4.3486717158       -1.4379086672       -6.2090782764
H            -5.5578176551       -4.0708697169       -1.4170048923
H           -11.9198394211       -4.0398032591       -7.2673785092
H           -11.3246801980       -8.2317463177       -3.4290105500
H            -5.7628989250       -0.2872940625       -5.3553727513
H            -6.2796571688       -2.4407589690       -2.3682912629
H            -1.0618543827       -6.7707613252       -5.5328628023
H            -0.4428419885       -6.7489901818       -2.4327232488
H            -6.2461267165       -2.0561906706       -6.2385186069
H            -5.8519120838       -6.3963828788       -5.6744756662
H            -0.2686727351       -2.3512469772       -2.8100210935
H            -0.1666678966       -2.2137243620       -6.7655010004
H            -5.8684908893       -6.3417443569       -1.7381518062
H            -7.1228297293       -6.4934515198       -7.1976198679
H            -1.3790658645       -2.3954987143       -1.2194198970
H            -1.4822184593       -1.9176640910       -5.3195357656
H            -7.0759065356       -6.5171055784       -3.2994857486
H            -6.4622386306       -4.6859781934       -6.5905888120
H            -0.6816261464       -4.1641521470       -1.9048354026
H            -0.6488692810       -0.3056475812       -6.1918458506
H            -6.3723586186       -8.1909611706       -2.4408168717
H            -5.2273048568       -5.9659489751       -7.5215984335
H           -10.9132767180       -2.6049645697       -1.1909367620
H           -11.0488629404       -1.3492246911       -5.1280589643
H            -5.1467595646       -6.9773103718       -3.4864655293



     Writing output data file ./tmp/K3Sr4TaGaB11H48.save/
     NEW-OLD atomic charge density approx. for the potential

     negative rho (up, down):  9.034E-07 0.000E+00
     extrapolated charge  149.46172, renormalised to  150.00000

     total cpu time spent up to now is    23723.3 secs

     Self-consistent Calculation

     iteration #  1     ecut=    50.00 Ry     beta= 0.70
     CG style diagonalization
     ethr =  1.00E-06,  avg # of iterations = 20.4

     negative rho (up, down):  2.556E-08 0.000E+00

     total cpu time spent up to now is    24883.6 secs

     total energy              =    -899.05435623 Ry
     estimated scf accuracy    <       0.05361765 Ry

     iteration #  2     ecut=    50.00 Ry     beta= 0.70
     CG style diagonalization
     ethr =  3.57E-05,  avg # of iterations =  3.9

     total cpu time spent up to now is    25088.5 secs

     total energy              =    -899.05152974 Ry
     estimated scf accuracy    <       0.11277202 Ry

     iteration #  3     ecut=    50.00 Ry     beta= 0.70
     CG style diagonalization
     ethr =  3.57E-05,  avg # of iterations =  3.6

     total cpu time spent up to now is    25275.7 secs

     total energy              =    -899.06431385 Ry
     estimated scf accuracy    <       0.13516000 Ry

     iteration #  4     ecut=    50.00 Ry     beta= 0.70
     CG style diagonalization
     ethr =  3.57E-05,  avg # of iterations =  3.1

     total cpu time spent up to now is    25427.6 secs

     total energy              =    -899.07798123 Ry
     estimated scf accuracy    <       0.00777264 Ry

     iteration #  5     ecut=    50.00 Ry     beta= 0.70
     CG style diagonalization
     ethr =  5.18E-06,  avg # of iterations =  3.3

     total cpu time spent up to now is    25595.7 secs

     total energy              =    -899.07922709 Ry
     estimated scf accuracy    <       0.00305653 Ry

     iteration #  6     ecut=    50.00 Ry     beta= 0.70
     CG style diagonalization
     ethr =  2.04E-06,  avg # of iterations =  3.4

     total cpu time spent up to now is    25770.2 secs

     total energy              =    -899.07961971 Ry
     estimated scf accuracy    <       0.00172021 Ry

     iteration #  7     ecut=    50.00 Ry     beta= 0.70
     CG style diagonalization
     ethr =  1.15E-06,  avg # of iterations =  3.3

     total cpu time spent up to now is    25934.3 secs

     total energy              =    -899.07971264 Ry
     estimated scf accuracy    <       0.00017561 Ry

     iteration #  8     ecut=    50.00 Ry     beta= 0.70
     CG style diagonalization
     ethr =  1.17E-07,  avg # of iterations =  4.9

     total cpu time spent up to now is    26197.4 secs

     total energy              =    -899.07981993 Ry
     estimated scf accuracy    <       0.00017861 Ry

     iteration #  9     ecut=    50.00 Ry     beta= 0.70
     CG style diagonalization
     ethr =  1.17E-07,  avg # of iterations =  3.6

     total cpu time spent up to now is    26378.9 secs

     total energy              =    -899.07984078 Ry
     estimated scf accuracy    <       0.00023739 Ry

     iteration # 10     ecut=    50.00 Ry     beta= 0.70
     CG style diagonalization
     ethr =  1.17E-07,  avg # of iterations =  3.2

     total cpu time spent up to now is    26535.2 secs

     total energy              =    -899.07987030 Ry
     estimated scf accuracy    <       0.00000595 Ry

     iteration # 11     ecut=    50.00 Ry     beta= 0.70
     CG style diagonalization
     ethr =  3.97E-09,  avg # of iterations =  7.9

     total cpu time spent up to now is    26976.2 secs

     total energy              =    -899.07990067 Ry
     estimated scf accuracy    <       0.00000547 Ry

     iteration # 12     ecut=    50.00 Ry     beta= 0.70
     CG style diagonalization
     ethr =  3.65E-09,  avg # of iterations =  3.7

     total cpu time spent up to now is    27163.5 secs

     total energy              =    -899.07990171 Ry
     estimated scf accuracy    <       0.00000225 Ry

     iteration # 13     ecut=    50.00 Ry     beta= 0.70
     CG style diagonalization
     ethr =  1.50E-09,  avg # of iterations =  4.2

     total cpu time spent up to now is    27378.0 secs

     total energy              =    -899.07990261 Ry
     estimated scf accuracy    <       0.00000042 Ry

     iteration # 14     ecut=    50.00 Ry     beta= 0.70
     CG style diagonalization
     c_bands:  1 eigenvalues not converged
     ethr =  2.78E-10,  avg # of iterations =  6.1

     total cpu time spent up to now is    27701.1 secs

     total energy              =    -899.07990328 Ry
     estimated scf accuracy    <       0.00000021 Ry

     iteration # 15     ecut=    50.00 Ry     beta= 0.70
     CG style diagonalization
     ethr =  1.40E-10,  avg # of iterations =  4.5

     total cpu time spent up to now is    27936.8 secs

     total energy              =    -899.07990340 Ry
     estimated scf accuracy    <       0.00000030 Ry

     iteration # 16     ecut=    50.00 Ry     beta= 0.70
     CG style diagonalization
     ethr =  1.40E-10,  avg # of iterations =  3.4

     total cpu time spent up to now is    28108.1 secs

     End of self-consistent calculation

          k =-0.0000-0.0000 0.0000 ( 32571 PWs)   bands (ev):

   -66.2626 -33.8068 -33.7894 -33.5990 -33.4462 -32.9061 -32.7446 -32.6390
   -15.8555 -15.8441 -15.8361 -15.8239 -15.8086 -15.7909 -15.6890 -15.6502
   -15.6201 -15.5407 -15.5234 -15.4996 -12.9131 -12.9062 -12.8153 -12.7926
   -12.7764  -7.9276  -7.5294  -7.4192  -7.2628  -7.1745  -7.0659  -6.9556
    -6.9092  -6.8067  -6.6543  -6.5749  -4.5087  -3.5913  -3.2291  -3.0640
    -3.0406  -3.0041  -2.8608  -2.8133  -2.7935  -2.7151  -2.6210  -2.5544
    -2.5370  -2.4356  -2.3624  -2.3528  -2.2936  -2.2255  -2.1701  -2.1061
    -2.0282  -2.0005  -1.9852  -1.8896  -1.8271  -1.6915  -1.6312  -1.6111
    -1.5151  -1.4589  -1.3815  -1.3467  -1.2967  -1.1829  -1.1472  -0.9888
    -0.7491  -0.5983   2.1112   2.2666   3.3299   3.5314   3.8655   4.3254
     4.8151   4.8354   4.9609   5.1192   5.1887   5.3135   5.4615   5.5842
     5.6839   5.8036

          k = 0.3770 0.0066-0.0042 ( 32604 PWs)   bands (ev):

   -66.2626 -33.8068 -33.7894 -33.5990 -33.4462 -32.9061 -32.7446 -32.6390
   -15.8555 -15.8438 -15.8361 -15.8238 -15.8086 -15.7909 -15.6894 -15.6502
   -15.6201 -15.5408 -15.5235 -15.4996 -12.9131 -12.9062 -12.8153 -12.7926
   -12.7764  -7.8654  -7.6326  -7.3800  -7.2822  -7.1475  -7.0736  -6.9540
    -6.9318  -6.7950  -6.6470  -6.5823  -4.5089  -3.5969  -3.1170  -3.0487
    -3.0116  -3.0018  -2.8887  -2.8046  -2.7371  -2.6979  -2.6531  -2.5747
    -2.5612  -2.5055  -2.4845  -2.3809  -2.3307  -2.2197  -2.1188  -2.0730
    -2.0503  -1.9723  -1.9326  -1.8807  -1.7902  -1.7021  -1.6050  -1.5587
    -1.5180  -1.5093  -1.4103  -1.3740  -1.3051  -1.2363  -1.1268  -0.9895
    -0.7637  -0.5866   2.1164   2.2730   3.3134   3.5295   3.8493   4.3641
     4.8223   4.9780   5.0516   5.1957   5.2370   5.3107   5.4160   5.5530
     5.7317   5.8272

          k = 0.0098 0.5094-0.0169 ( 32596 PWs)   bands (ev):

   -66.2626 -33.8068 -33.7894 -33.5990 -33.4462 -32.9061 -32.7446 -32.6390
   -15.8555 -15.8440 -15.8354 -15.8218 -15.8108 -15.7919 -15.6890 -15.6498
   -15.6197 -15.5411 -15.5236 -15.5001 -12.9131 -12.9062 -12.8153 -12.7926
   -12.7764  -7.8137  -7.6123  -7.3794  -7.2097  -7.1958  -7.1038  -6.9741
    -6.9536  -6.8475  -6.6343  -6.5958  -4.5852  -3.6637  -3.1005  -3.0670
    -3.0258  -2.8699  -2.8547  -2.7690  -2.7556  -2.7034  -2.6533  -2.5686
    -2.5110  -2.4614  -2.4407  -2.3412  -2.2347  -2.2264  -2.1272  -2.0700
    -1.9911  -1.9439  -1.8916  -1.8480  -1.7803  -1.7244  -1.6616  -1.6180
    -1.5788  -1.5170  -1.4569  -1.4449  -1.3866  -1.3096  -1.1846  -0.9330
    -0.7727  -0.4860   2.0659   2.2596   3.2333   3.3723   3.8576   4.3156
     4.8539   5.0925   5.1031   5.2238   5.3259   5.4362   5.4900   5.5522
     5.6552   5.7302

          k = 0.3869 0.5159-0.0210 ( 32564 PWs)   bands (ev):

   -66.2626 -33.8068 -33.7894 -33.5990 -33.4462 -32.9061 -32.7446 -32.6390
   -15.8554 -15.8436 -15.8353 -15.8218 -15.8107 -15.7919 -15.6894 -15.6499
   -15.6197 -15.5412 -15.5237 -15.5001 -12.9131 -12.9062 -12.8153 -12.7926
   -12.7764  -7.7830  -7.5387  -7.3989  -7.3573  -7.2436  -7.0503  -6.9597
    -6.9458  -6.8308  -6.6415  -6.5772  -4.5857  -3.6657  -3.1187  -3.0282
    -3.0006  -2.9097  -2.8121  -2.7694  -2.7517  -2.6901  -2.6340  -2.5936
    -2.4876  -2.4081  -2.3506  -2.3312  -2.2374  -2.1999  -2.1836  -2.1161
    -2.0361  -2.0151  -1.9344  -1.8748  -1.8637  -1.7464  -1.6807  -1.5884
    -1.5391  -1.5225  -1.4169  -1.4032  -1.3526  -1.2794  -1.2228  -0.9674
    -0.7827  -0.4791   2.0694   2.2650   3.2307   3.3730   3.8564   4.3405
     4.8855   5.1047   5.1381   5.2662   5.3708   5.4071   5.5683   5.6221
     5.6836   5.8001

          k =-0.0058-0.0174 0.5275 ( 32578 PWs)   bands (ev):

   -66.2626 -33.8067 -33.7894 -33.5990 -33.4462 -32.9061 -32.7446 -32.6390
   -15.8555 -15.8439 -15.8354 -15.8227 -15.8101 -15.7918 -15.6890 -15.6499
   -15.6200 -15.5410 -15.5235 -15.5000 -12.9131 -12.9062 -12.8153 -12.7926
   -12.7764  -7.6985  -7.6738  -7.4049  -7.2157  -7.1920  -7.1176  -7.0078
    -6.9188  -6.8193  -6.7113  -6.5924  -4.5282  -3.5841  -3.1242  -3.0883
    -2.9992  -2.9488  -2.9112  -2.8501  -2.7911  -2.6762  -2.6400  -2.6086
    -2.4420  -2.3740  -2.3531  -2.3195  -2.2731  -2.1969  -2.1428  -2.0978
    -2.0540  -1.9660  -1.9416  -1.8343  -1.7777  -1.7497  -1.7122  -1.5744
    -1.5670  -1.5257  -1.3975  -1.3853  -1.3224  -1.2264  -1.2206  -1.0607
    -0.8081  -0.5536   2.1561   2.2656   3.3322   3.4903   3.8485   4.3187
     4.9427   5.0636   5.1145   5.1819   5.2920   5.3612   5.5393   5.5814
     5.6794   5.7420

          k = 0.3712-0.0108 0.5234 ( 32564 PWs)   bands (ev):

   -66.2626 -33.8067 -33.7894 -33.5990 -33.4462 -32.9061 -32.7446 -32.6390
   -15.8554 -15.8436 -15.8353 -15.8227 -15.8101 -15.7918 -15.6893 -15.6500
   -15.6200 -15.5411 -15.5236 -15.5000 -12.9131 -12.9062 -12.8153 -12.7926
   -12.7763  -7.6708  -7.6076  -7.4017  -7.3862  -7.2040  -7.0701  -6.9998
    -6.9302  -6.8048  -6.6793  -6.6096  -4.5203  -3.5914  -3.0882  -3.0756
    -2.9512  -2.9142  -2.8787  -2.7924  -2.7721  -2.7248  -2.6745  -2.5532
    -2.5152  -2.4656  -2.3816  -2.3387  -2.2732  -2.2226  -2.1570  -2.0984
    -2.0752  -2.0008  -1.9190  -1.8455  -1.8040  -1.7147  -1.6231  -1.6115
    -1.5232  -1.4943  -1.4123  -1.3849  -1.2923  -1.2853  -1.1966  -1.0948
    -0.8237  -0.5468   2.1587   2.2695   3.3239   3.4873   3.8527   4.3319
     4.9848   5.0804   5.1700   5.2698   5.3752   5.4346   5.4699   5.5838
     5.7306   5.7790

          k = 0.0040 0.4920 0.5106 ( 32544 PWs)   bands (ev):

   -66.2626 -33.8067 -33.7894 -33.5990 -33.4462 -32.9061 -32.7446 -32.6390
   -15.8557 -15.8440 -15.8360 -15.8256 -15.8071 -15.7911 -15.6890 -15.6503
   -15.6207 -15.5407 -15.5233 -15.4996 -12.9131 -12.9062 -12.8153 -12.7926
   -12.7764  -7.6449  -7.6393  -7.4447  -7.2476  -7.1256  -7.0969  -7.0416
    -6.9249  -6.8601  -6.7241  -6.6242  -4.6700  -3.5528  -3.0839  -3.0710
    -3.0390  -2.9264  -2.8004  -2.7214  -2.6700  -2.6078  -2.5570  -2.5187
    -2.4720  -2.4418  -2.3864  -2.3339  -2.2902  -2.2867  -2.2120  -2.1423
    -2.0820  -1.9838  -1.9581  -1.8443  -1.8161  -1.7297  -1.6655  -1.6125
    -1.5570  -1.4747  -1.4120  -1.4066  -1.3252  -1.2529  -1.2208  -1.0973
    -0.8832  -0.4818   2.1171   2.2617   3.2063   3.3754   3.8046   4.2983
     4.9743   5.1339   5.1984   5.2045   5.3260   5.3673   5.5427   5.6092
     5.6459   5.6942

          k = 0.3810 0.4986 0.5065 ( 32568 PWs)   bands (ev):

   -66.2626 -33.8067 -33.7894 -33.5990 -33.4462 -32.9061 -32.7446 -32.6390
   -15.8556 -15.8436 -15.8359 -15.8255 -15.8071 -15.7911 -15.6894 -15.6504
   -15.6207 -15.5407 -15.5234 -15.4996 -12.9131 -12.9062 -12.8153 -12.7926
   -12.7764  -7.6248  -7.5822  -7.3799  -7.3710  -7.2217  -7.1063  -7.0141
    -6.9216  -6.8364  -6.7229  -6.6054  -4.6629  -3.5148  -3.1064  -3.0020
    -2.9492  -2.8890  -2.8108  -2.7575  -2.7136  -2.6738  -2.6273  -2.5897
    -2.4556  -2.4448  -2.4010  -2.3842  -2.3442  -2.2052  -2.1629  -2.1155
    -2.0495  -1.9639  -1.8566  -1.8301  -1.7763  -1.7512  -1.6678  -1.6516
    -1.6080  -1.5804  -1.4121  -1.3802  -1.3145  -1.2479  -1.1893  -1.1480
    -0.8739  -0.4902   2.1171   2.2657   3.1999   3.3784   3.8119   4.3119
     5.0769   5.1713   5.1942   5.3438   5.4336   5.4502   5.5431   5.6307
     5.6600   5.7389

     the Fermi energy is     2.1908 ev

!    total energy              =    -899.07990343 Ry
     estimated scf accuracy    <       0.00000006 Ry
     smearing contrib. (-TS)   =      -0.00866856 Ry
     internal energy E=F+TS    =    -899.07123487 Ry

     The total energy is F=E-TS. E is the sum of the following terms:
     one-electron contribution =    -501.79695232 Ry
     hartree contribution      =     288.77397064 Ry
     xc contribution           =    -236.21285640 Ry
     ewald contribution        =    -281.49717707 Ry
     one-center paw contrib.   =    -168.33821972 Ry

     convergence has been achieved in  16 iterations

     Forces acting on atoms (cartesian axes, Ry/au):

     atom    1 type  4   force =    -0.00078791    0.00150283    0.00362477
     atom    2 type  4   force =     0.00025585    0.00198957   -0.00230903
     atom    3 type  2   force =     0.00099609   -0.01161136    0.00986972
     atom    4 type  4   force =    -0.00364042    0.00171992   -0.00362193
     atom    5 type  5   force =    -0.00487988   -0.00458393   -0.00025809
     atom    6 type  5   force =     0.00713497    0.00220510   -0.01016594
     atom    7 type  5   force =    -0.00845969   -0.00516975    0.00679523
     atom    8 type  5   force =    -0.00232067    0.00108769   -0.00683146
     atom    9 type  1   force =     0.00101328   -0.00062521    0.00299041
     atom   10 type  1   force =     0.00205317   -0.00254749   -0.00307807
     atom   11 type  1   force =     0.00377278   -0.00035421   -0.00221491
     atom   12 type  1   force =    -0.00026467   -0.00065909   -0.00092642
     atom   13 type  1   force =     0.00259758    0.00023598   -0.00167967
     atom   14 type  6   force =    -0.01129600    0.02219473    0.00284060
     atom   15 type  1   force =     0.00280529    0.00142627   -0.00266720
     atom   16 type  1   force =     0.00174239   -0.00054152    0.00071392
     atom   17 type  1   force =    -0.00047161   -0.00394122   -0.00166178
     atom   18 type  1   force =     0.00053686    0.00435101   -0.00090125
     atom   19 type  1   force =    -0.00215549   -0.00497718    0.00351278
     atom   20 type  1   force =     0.00284626    0.00060726   -0.00067691
     atom   21 type  3   force =     0.00418702   -0.00024354   -0.00323015
     atom   22 type  3   force =    -0.00050910    0.00285470    0.00269124
     atom   23 type  3   force =    -0.00191199    0.00491547    0.00657052
     atom   24 type  3   force =     0.00132492    0.00407781   -0.00300854
     atom   25 type  3   force =     0.00018372    0.00423841   -0.00346115
     atom   26 type  3   force =     0.00358310   -0.00517571   -0.00410982
     atom   27 type  3   force =     0.00224915   -0.00048068    0.00065677
     atom   28 type  3   force =     0.00197674   -0.00048264    0.00032798
     atom   29 type  3   force =     0.00244788    0.00020863   -0.00147369
     atom   30 type  3   force =    -0.00293579    0.00010532    0.00040872
     atom   31 type  3   force =     0.00434657    0.00287620    0.00057787
     atom   32 type  3   force =     0.00283753   -0.00366464   -0.00028318
     atom   33 type  3   force =     0.00177764    0.00129557    0.00064319
     atom   34 type  3   force =     0.00408265   -0.00624156   -0.00238240
     atom   35 type  3   force =     0.00347767    0.00359700    0.00254981
     atom   36 type  3   force =    -0.00054172   -0.00689053   -0.00308954
     atom   37 type  3   force =     0.00266820   -0.00017176   -0.00216450
     atom   38 type  3   force =    -0.01104170    0.01281653    0.01551260
     atom   39 type  3   force =     0.00327420   -0.00402536   -0.00648587
     atom   40 type  3   force =     0.00145106   -0.00143900   -0.00057900
     atom   41 type  3   force =     0.00295864    0.00384084    0.00656405
     atom   42 type  3   force =     0.00478288   -0.00514523   -0.00121980
     atom   43 type  3   force =    -0.00139327   -0.00251278    0.00388834
     atom   44 type  3   force =     0.00016025    0.00193521    0.00117004
     atom   45 type  3   force =    -0.00272399    0.00147196    0.00182382
     atom   46 type  3   force =    -0.01439798   -0.02435283   -0.00703323
     atom   47 type  3   force =     0.00039266    0.00259052   -0.00310563
     atom   48 type  3   force =    -0.00327191   -0.00246755   -0.00154885
     atom   49 type  3   force =    -0.00413550   -0.00094029    0.00090486
     atom   50 type  3   force =    -0.00380288    0.00049714   -0.00912171
     atom   51 type  3   force =     0.00239050   -0.00018530    0.00469444
     atom   52 type  3   force =     0.00026635    0.00328732    0.00162645
     atom   53 type  3   force =    -0.00058491   -0.00020921    0.00195200
     atom   54 type  3   force =    -0.00058746   -0.00087191    0.00010716
     atom   55 type  3   force =    -0.00205047    0.00029056   -0.00197953
     atom   56 type  3   force =    -0.00079470    0.00011563    0.00151168
     atom   57 type  3   force =    -0.00404244    0.00140904    0.00315890
     atom   58 type  3   force =    -0.00082785   -0.00116713   -0.00021342
     atom   59 type  3   force =    -0.00345873   -0.00110142   -0.00187602
     atom   60 type  3   force =    -0.00289549    0.00117389    0.00220131
     atom   61 type  3   force =     0.00209297   -0.00230297    0.00067511
     atom   62 type  3   force =     0.00171921    0.00575528   -0.00166155
     atom   63 type  3   force =     0.00372560   -0.00119360    0.00144413
     atom   64 type  3   force =     0.00145677    0.00221259   -0.00129695
     atom   65 type  3   force =     0.00204985    0.00338739    0.00157332
     atom   66 type  3   force =     0.00285902   -0.00356866    0.00081282
     atom   67 type  3   force =     0.00422900    0.00881051   -0.00049842
     atom   68 type  3   force =     0.00147798   -0.00123865    0.00242103

     Total force =     0.063731     Total SCF correction =     0.000615


     Computing stress (Cartesian axis) and pressure

          total   stress  (Ry/bohr**3)                   (kbar)     P=       -0.37
   0.00001492   0.00001039  -0.00001350            2.20        1.53       -1.99
   0.00001039  -0.00004713  -0.00000060            1.53       -6.93       -0.09
  -0.00001350  -0.00000060   0.00002464           -1.99       -0.09        3.62

     Energy error            =      8.2E-03
     Gradient error          =      2.4E-02
     Cell gradient error     =      4.7E-05


     number of scf cycles    =  17
     number of bfgs steps    =  16

     enthalpy old            =    -899.0717133278 Ry
     enthalpy new            =    -899.0799034261 Ry

     CASE: enthalpy_new < enthalpy_old

     new trust radius        =       0.1875742280 bohr
     new conv_thr            =       0.0000002435 Ry

     new unit-cell volume =   5405.11562 a.u.^3 (   800.95550 Ang^3 )
     density =      0.14098 g/cm^3

CELL_PARAMETERS (angstrom)
  -0.098832072  -0.252945437  -8.211444480
   0.146764207  -8.497205076  -0.263466282
 -11.495795893   0.219034231  -0.137014514

ATOMIC_POSITIONS (angstrom)
K            -8.6291701320       -7.9118562330       -4.9411143055
K            -3.0329841788       -0.3197340885       -3.8100966959
Ga           -2.5726451413       -3.9291973154       -8.0202954509
K            -8.0954887674       -4.1724009349       -0.4499187014
Sr           -5.6253229942       -8.3859596119       -8.1331639162
Sr          -11.4012151875       -0.1694752508       -0.6369226456
Sr          -11.3945560829       -3.8071871879       -4.6722754765
Sr           -5.6069926677       -4.4230667853       -3.9366581079
B            -8.8278898186       -3.9074589912       -3.7339157849
B            -2.9271630659       -4.5760171714       -4.9449136135
B            -2.7705746343       -8.1878765785       -0.8097732931
B            -8.8397041791       -0.3634824551       -7.7370738449
B            -5.3928155296       -2.8495489890       -1.6731371453
Ta          -12.3100505057       -5.8597868162       -7.2306097098
B           -11.0141206763       -7.0390964782       -3.1595329802
B            -5.4139241661       -1.4395164156       -5.5755611583
B            -6.1797280452       -5.8425085251       -6.7113659479
B            -0.4185262676       -2.9732265636       -1.7592551143
B            -0.4689138994       -1.4564738472       -5.8248085431
B            -6.1249454932       -7.0087557730       -2.7211408190
H            -9.6873573367       -4.1638782789       -2.8795816210
H            -3.8443323566       -4.2841048216       -5.6947849558
H            -3.7347295287       -8.3328494559       -1.5527426348
H            -9.8067623491       -0.0792101009       -7.0478892210
H            -8.7885353894       -4.8427037223       -4.5424306976
H            -2.6659322152       -3.6342798659       -4.1994688963
H            -2.9208814335       -0.9044145569       -8.0183446672
H            -8.3902571173       -7.7048056558       -0.5896080335
H            -9.1295115323       -2.8491467033       -4.3020518070
H            -3.1582562975       -5.5843336339       -4.3016609828
H            -2.9856764238       -7.3916607716       -8.3613853654
H            -8.9769578457       -1.1600795438       -0.1274068965
H            -7.7808088716       -3.7228687486       -3.1381664641
H            -1.9619674197       -4.7861862082       -5.7187448316
H            -1.8569158476       -8.0901336616       -1.5974358505
H            -7.9189057726       -0.5211396282       -6.9493692823
H            -5.3105023318       -2.2556091723       -0.6069756514
H           -11.2579818351       -6.7227077440       -8.4273266429
H           -10.8035035798       -6.4240905028       -4.1863265000
H            -5.2334928752       -1.9405990457       -4.4765073623
H            -4.3454214985       -2.8042807199       -2.3258103174
H           -10.8334726988       -5.3377952455       -6.4343398832
H            -9.9854859942       -7.0370669592       -2.4773937942
H            -4.3505151420       -1.4188278770       -6.2020359645
H            -5.5606803075       -4.0442685576       -1.4253662809
H           -12.0309965491       -4.0258417372       -7.2867034388
H           -11.3429014996       -8.2010708997       -3.4412940538
H            -5.7907381888       -0.2781981232       -5.3540993069
H            -6.2965017675       -2.4242374289       -2.3845248764
H            -1.1052107946       -6.7545413212       -5.4917990446
H            -0.4232656773       -6.7088547424       -2.4183933439
H            -6.2506956851       -2.0560148689       -6.2366683033
H            -5.8636486371       -6.3603592332       -5.6486601493
H            -0.2829275071       -2.3508461932       -2.8145004068
H            -0.1897554395       -2.2051780214       -6.7554221782
H            -5.8809539046       -6.3248426666       -1.7227801607
H            -7.1401238718       -6.4666605765       -7.1786666246
H            -1.3743201889       -2.3934313234       -1.2144142792
H            -1.4927822227       -1.8886546161       -5.3216364428
H            -7.0892196757       -6.4970663124       -3.2886745711
H            -6.4652330664       -4.6546536358       -6.5810772999
H            -0.6849841541       -4.1722533392       -1.8867711903
H            -0.6500626969       -0.2817563440       -6.1776148887
H            -6.3701024220       -8.1768093239       -2.4346239871
H            -5.2383031607       -5.9355932841       -7.5002052965
H           -10.9093404463       -2.6139675332       -1.2062635872
H           -11.0590954031       -1.3172641996       -5.1411927158
H            -5.1465828785       -6.9636875482       -3.4715212834



     Writing output data file ./tmp/K3Sr4TaGaB11H48.save/
     NEW-OLD atomic charge density approx. for the potential

     negative rho (up, down):  6.292E-07 0.000E+00
     extrapolated charge  149.57319, renormalised to  150.00000

     total cpu time spent up to now is    28599.3 secs

     Self-consistent Calculation

     iteration #  1     ecut=    50.00 Ry     beta= 0.70
     CG style diagonalization
     ethr =  1.00E-06,  avg # of iterations = 19.7

     negative rho (up, down):  5.853E-08 0.000E+00

     total cpu time spent up to now is    29702.4 secs

     total energy              =    -899.06688025 Ry
     estimated scf accuracy    <       0.04569287 Ry

     iteration #  2     ecut=    50.00 Ry     beta= 0.70
     CG style diagonalization
     ethr =  3.05E-05,  avg # of iterations =  3.8

     negative rho (up, down):  1.791E-08 0.000E+00

     total cpu time spent up to now is    29899.2 secs

     total energy              =    -899.05645134 Ry
     estimated scf accuracy    <       0.13590725 Ry

     iteration #  3     ecut=    50.00 Ry     beta= 0.70
     CG style diagonalization
     ethr =  3.05E-05,  avg # of iterations =  3.7

     total cpu time spent up to now is    30087.3 secs

     total energy              =    -899.07455007 Ry
     estimated scf accuracy    <       0.12884956 Ry

     iteration #  4     ecut=    50.00 Ry     beta= 0.70
     CG style diagonalization
     ethr =  3.05E-05,  avg # of iterations =  3.1

     total cpu time spent up to now is    30236.6 secs

     total energy              =    -899.08633251 Ry
     estimated scf accuracy    <       0.00499751 Ry

     iteration #  5     ecut=    50.00 Ry     beta= 0.70
     CG style diagonalization
     ethr =  3.33E-06,  avg # of iterations =  3.5

     total cpu time spent up to now is    30415.4 secs

     total energy              =    -899.08737523 Ry
     estimated scf accuracy    <       0.00240861 Ry

     iteration #  6     ecut=    50.00 Ry     beta= 0.70
     CG style diagonalization
     c_bands:  1 eigenvalues not converged
     ethr =  1.61E-06,  avg # of iterations =  3.2

     total cpu time spent up to now is    30571.4 secs

     total energy              =    -899.08769690 Ry
     estimated scf accuracy    <       0.00139662 Ry

     iteration #  7     ecut=    50.00 Ry     beta= 0.70
     CG style diagonalization
     ethr =  9.31E-07,  avg # of iterations =  3.1

     total cpu time spent up to now is    30725.1 secs

     total energy              =    -899.08773400 Ry
     estimated scf accuracy    <       0.00018912 Ry

     iteration #  8     ecut=    50.00 Ry     beta= 0.70
     CG style diagonalization
     ethr =  1.26E-07,  avg # of iterations =  4.8

     total cpu time spent up to now is    30976.9 secs

     total energy              =    -899.08784292 Ry
     estimated scf accuracy    <       0.00018905 Ry

     iteration #  9     ecut=    50.00 Ry     beta= 0.70
     CG style diagonalization
     ethr =  1.26E-07,  avg # of iterations =  3.5

     total cpu time spent up to now is    31152.8 secs

     total energy              =    -899.08787189 Ry
     estimated scf accuracy    <       0.00006283 Ry

     iteration # 10     ecut=    50.00 Ry     beta= 0.70
     CG style diagonalization
     ethr =  4.19E-08,  avg # of iterations =  4.0

     total cpu time spent up to now is    31361.2 secs

     total energy              =    -899.08789395 Ry
     estimated scf accuracy    <       0.00000666 Ry

     iteration # 11     ecut=    50.00 Ry     beta= 0.70
     CG style diagonalization
     ethr =  4.44E-09,  avg # of iterations =  6.3

     total cpu time spent up to now is    31703.2 secs

     total energy              =    -899.08791035 Ry
     estimated scf accuracy    <       0.00000191 Ry

     iteration # 12     ecut=    50.00 Ry     beta= 0.70
     CG style diagonalization
     ethr =  1.28E-09,  avg # of iterations =  5.1

     total cpu time spent up to now is    31973.7 secs

     End of self-consistent calculation

          k = 0.0000 0.0000 0.0000 ( 32571 PWs)   bands (ev):

   -66.1861 -33.8099 -33.7874 -33.5627 -33.4222 -32.8394 -32.6712 -32.5725
   -15.8558 -15.8402 -15.8372 -15.8220 -15.8088 -15.7901 -15.6554 -15.6160
   -15.5863 -15.5153 -15.4966 -15.4747 -12.8127 -12.8074 -12.7203 -12.6973
   -12.6809  -7.9203  -7.4969  -7.4446  -7.2387  -7.1739  -7.0428  -6.9393
    -6.9118  -6.8035  -6.6532  -6.5738  -4.5654  -3.5768  -3.2199  -3.0506
    -3.0308  -2.9912  -2.8547  -2.8032  -2.7897  -2.7269  -2.5776  -2.5475
    -2.5305  -2.4300  -2.3490  -2.3333  -2.2903  -2.2087  -2.1598  -2.0835
    -1.9996  -1.9872  -1.9632  -1.8757  -1.8300  -1.6803  -1.6455  -1.6031
    -1.5174  -1.4426  -1.3751  -1.3402  -1.2750  -1.1931  -1.1689  -0.9918
    -0.7618  -0.4906   2.1580   2.3254   3.4325   3.5747   4.0321   4.3917
     4.8316   4.8652   4.9909   5.1433   5.1787   5.3300   5.4897   5.6326
     5.7175   5.8139

          k = 0.3769 0.0067-0.0047 ( 32604 PWs)   bands (ev):

   -66.1861 -33.8099 -33.7874 -33.5627 -33.4222 -32.8394 -32.6712 -32.5725
   -15.8557 -15.8400 -15.8371 -15.8220 -15.8088 -15.7901 -15.6557 -15.6160
   -15.5863 -15.5154 -15.4967 -15.4747 -12.8127 -12.8074 -12.7203 -12.6974
   -12.6809  -7.8547  -7.6239  -7.3940  -7.2524  -7.1388  -7.0571  -6.9382
    -6.9317  -6.7913  -6.6462  -6.5814  -4.5656  -3.5821  -3.1136  -3.0425
    -3.0072  -2.9862  -2.8790  -2.7925  -2.7314  -2.6890  -2.6409  -2.5782
    -2.5186  -2.4944  -2.4759  -2.3752  -2.3290  -2.1990  -2.0972  -2.0446
    -2.0397  -1.9575  -1.9044  -1.8664  -1.7947  -1.6952  -1.6118  -1.5601
    -1.5131  -1.4980  -1.4041  -1.3570  -1.3013  -1.2316  -1.1583  -0.9883
    -0.7748  -0.4793   2.1640   2.3309   3.4127   3.5753   4.0097   4.4325
     4.8566   5.0122   5.0622   5.2092   5.2342   5.3320   5.4337   5.5896
     5.7559   5.8506

          k = 0.0099 0.5104-0.0158 ( 32596 PWs)   bands (ev):

   -66.1861 -33.8099 -33.7874 -33.5627 -33.4222 -32.8394 -32.6712 -32.5725
   -15.8557 -15.8396 -15.8371 -15.8192 -15.8117 -15.7910 -15.6554 -15.6156
   -15.5857 -15.5156 -15.4969 -15.4752 -12.8127 -12.8074 -12.7203 -12.6973
   -12.6810  -7.7985  -7.6152  -7.3526  -7.2170  -7.1814  -7.0913  -6.9679
    -6.9436  -6.8446  -6.6354  -6.5928  -4.6435  -3.6268  -3.0791  -3.0608
    -3.0062  -2.8654  -2.8602  -2.7771  -2.7688  -2.6865  -2.6482  -2.5595
    -2.4961  -2.4440  -2.4203  -2.3160  -2.2346  -2.2093  -2.1269  -2.0571
    -1.9650  -1.9342  -1.8623  -1.8349  -1.7681  -1.7249  -1.6589  -1.5967
    -1.5853  -1.5149  -1.4530  -1.4466  -1.3792  -1.3040  -1.1849  -0.9290
    -0.7808  -0.3947   2.1077   2.3109   3.3401   3.4184   4.0229   4.3857
     4.8883   5.1108   5.1199   5.2416   5.3327   5.4561   5.5145   5.5677
     5.6707   5.7584

          k = 0.3869 0.5170-0.0206 ( 32564 PWs)   bands (ev):

   -66.1861 -33.8099 -33.7874 -33.5627 -33.4222 -32.8394 -32.6712 -32.5725
   -15.8557 -15.8393 -15.8370 -15.8191 -15.8117 -15.7910 -15.6557 -15.6157
   -15.5858 -15.5157 -15.4970 -15.4752 -12.8127 -12.8074 -12.7203 -12.6973
   -12.6809  -7.7647  -7.5394  -7.4060  -7.3456  -7.2151  -7.0393  -6.9523
    -6.9394  -6.8284  -6.6409  -6.5755  -4.6439  -3.6288  -3.0912  -3.0182
    -2.9984  -2.9025  -2.8355  -2.7815  -2.7329  -2.6792  -2.6448  -2.5752
    -2.4674  -2.4022  -2.3329  -2.3140  -2.2092  -2.1919  -2.1705  -2.1029
    -2.0246  -1.9981  -1.8983  -1.8750  -1.8451  -1.7364  -1.6711  -1.5741
    -1.5433  -1.5182  -1.4385  -1.3942  -1.3503  -1.2919  -1.2111  -0.9532
    -0.7888  -0.3888   2.1110   2.3161   3.3381   3.4181   4.0204   4.4107
     4.9198   5.1305   5.1588   5.2919   5.3821   5.4280   5.5815   5.6270
     5.7031   5.8218

          k =-0.0066-0.0165 0.5280 ( 32578 PWs)   bands (ev):

   -66.1861 -33.8099 -33.7874 -33.5627 -33.4222 -32.8394 -32.6712 -32.5725
   -15.8557 -15.8394 -15.8373 -15.8201 -15.8109 -15.7909 -15.6554 -15.6157
   -15.5860 -15.5156 -15.4969 -15.4751 -12.8127 -12.8074 -12.7203 -12.6974
   -12.6809  -7.7105  -7.6441  -7.3806  -7.2057  -7.2000  -7.1136  -6.9785
    -6.9207  -6.8157  -6.7121  -6.5915  -4.5811  -3.5735  -3.1174  -3.0600
    -2.9985  -2.9474  -2.8885  -2.8301  -2.7779  -2.6641  -2.6302  -2.6269
    -2.4368  -2.3557  -2.3414  -2.2998  -2.2528  -2.1883  -2.1356  -2.0814
    -2.0285  -1.9623  -1.9148  -1.8180  -1.7706  -1.7496  -1.6896  -1.5811
    -1.5672  -1.5142  -1.4153  -1.3890  -1.2951  -1.2391  -1.2076  -1.0729
    -0.8224  -0.4553   2.2033   2.3220   3.4455   3.5280   4.0174   4.3953
     4.9710   5.1128   5.1304   5.1978   5.3180   5.3751   5.5549   5.5813
     5.6982   5.7522

          k = 0.3703-0.0098 0.5233 ( 32564 PWs)   bands (ev):

   -66.1861 -33.8099 -33.7874 -33.5627 -33.4222 -32.8394 -32.6712 -32.5725
   -15.8557 -15.8391 -15.8372 -15.8201 -15.8109 -15.7909 -15.6557 -15.6157
   -15.5860 -15.5157 -15.4970 -15.4751 -12.8127 -12.8074 -12.7203 -12.6974
   -12.6809  -7.6666  -7.5925  -7.3879  -7.3794  -7.1927  -7.0720  -6.9749
    -6.9304  -6.7996  -6.6796  -6.6089  -4.5729  -3.5816  -3.0676  -3.0513
    -2.9413  -2.9176  -2.8722  -2.7750  -2.7609  -2.7345  -2.6764  -2.5360
    -2.5084  -2.4645  -2.3491  -2.3241  -2.2577  -2.2113  -2.1446  -2.0839
    -2.0575  -1.9831  -1.9031  -1.8236  -1.7711  -1.6957  -1.6347  -1.6102
    -1.5226  -1.4931  -1.4154  -1.4030  -1.2888  -1.2707  -1.1888  -1.1146
    -0.8354  -0.4474   2.2070   2.3252   3.4373   3.5248   4.0222   4.4043
     5.0241   5.1106   5.2000   5.2855   5.3985   5.4591   5.4824   5.5889
     5.7321   5.7687

          k = 0.0033 0.4939 0.5122 ( 32544 PWs)   bands (ev):

   -66.1861 -33.8099 -33.7874 -33.5627 -33.4222 -32.8394 -32.6712 -32.5725
   -15.8559 -15.8396 -15.8377 -15.8236 -15.8073 -15.7903 -15.6554 -15.6161
   -15.5868 -15.5153 -15.4965 -15.4746 -12.8127 -12.8074 -12.7203 -12.6973
   -12.6810  -7.6692  -7.5898  -7.4327  -7.2322  -7.1211  -7.0981  -7.0207
    -6.9227  -6.8634  -6.7222  -6.6243  -4.7190  -3.5220  -3.0812  -3.0608
    -3.0353  -2.9086  -2.7811  -2.7097  -2.6626  -2.5969  -2.5734  -2.5029
    -2.4600  -2.4157  -2.3841  -2.3311  -2.2905  -2.2730  -2.2023  -2.1240
    -2.0669  -1.9569  -1.9493  -1.8311  -1.8115  -1.7230  -1.6509  -1.6015
    -1.5609  -1.4712  -1.4227  -1.3774  -1.3265  -1.2558  -1.2083  -1.1030
    -0.8892  -0.3935   2.1593   2.3116   3.3086   3.4254   3.9720   4.3764
     4.9971   5.1450   5.2348   5.2388   5.3359   5.3814   5.5477   5.6243
     5.6432   5.7181

          k = 0.3803 0.5006 0.5075 ( 32568 PWs)   bands (ev):

   -66.1861 -33.8099 -33.7874 -33.5627 -33.4222 -32.8394 -32.6712 -32.5725
   -15.8559 -15.8393 -15.8377 -15.8236 -15.8073 -15.7903 -15.6557 -15.6162
   -15.5869 -15.5154 -15.4966 -15.4746 -12.8127 -12.8074 -12.7203 -12.6973
   -12.6809  -7.6270  -7.5528  -7.3716  -7.3617  -7.2128  -7.1010  -6.9957
    -6.9233  -6.8344  -6.7234  -6.6046  -4.7111  -3.4792  -3.1180  -2.9858
    -2.9345  -2.8810  -2.8027  -2.7508  -2.7089  -2.6739  -2.6272  -2.5654
    -2.4508  -2.4198  -2.3927  -2.3669  -2.3244  -2.2094  -2.1697  -2.0933
    -2.0340  -1.9322  -1.8545  -1.8203  -1.7710  -1.7308  -1.6663  -1.6432
    -1.5986  -1.5598  -1.3986  -1.3854  -1.3220  -1.2364  -1.1941  -1.1561
    -0.8806  -0.3984   2.1597   2.3155   3.3041   3.4262   3.9803   4.3898
     5.1088   5.1808   5.2323   5.3601   5.4333   5.4695   5.5535   5.6364
     5.6644   5.7515

     the Fermi energy is     2.2403 ev

!    total energy              =    -899.08791283 Ry
     estimated scf accuracy    <       0.00000023 Ry
     smearing contrib. (-TS)   =      -0.00837362 Ry
     internal energy E=F+TS    =    -899.07953920 Ry

     The total energy is F=E-TS. E is the sum of the following terms:
     one-electron contribution =    -502.58788700 Ry
     hartree contribution      =     289.29554940 Ry
     xc contribution           =    -236.22462079 Ry
     ewald contribution        =    -281.21852702 Ry
     one-center paw contrib.   =    -168.34405379 Ry

     convergence has been achieved in  12 iterations

     Forces acting on atoms (cartesian axes, Ry/au):

     atom    1 type  4   force =    -0.00080077    0.00104334    0.00372964
     atom    2 type  4   force =     0.00038974    0.00217438   -0.00189925
     atom    3 type  2   force =    -0.00069872   -0.01251685    0.00872491
     atom    4 type  4   force =    -0.00371622    0.00156019   -0.00334029
     atom    5 type  5   force =    -0.00222454   -0.00413532   -0.00275010
     atom    6 type  5   force =     0.00836448   -0.00138589   -0.00646373
     atom    7 type  5   force =    -0.00904240   -0.00628809    0.00529729
     atom    8 type  5   force =    -0.00070823    0.00080467   -0.00708905
     atom    9 type  1   force =    -0.00191458   -0.00115236    0.00365543
     atom   10 type  1   force =    -0.00148421   -0.00316034   -0.00080881
     atom   11 type  1   force =     0.00419244   -0.00044080   -0.00225840
     atom   12 type  1   force =    -0.00135452    0.00080914   -0.00082814
     atom   13 type  1   force =     0.00474260   -0.00116550    0.00019971
     atom   14 type  6   force =    -0.02152947    0.03244533   -0.00309952
     atom   15 type  1   force =     0.00273309    0.00231209   -0.00354385
     atom   16 type  1   force =     0.00282690    0.00016213    0.00073333
     atom   17 type  1   force =     0.00056237   -0.00340076   -0.00247498
     atom   18 type  1   force =    -0.00037678    0.00554674    0.00072929
     atom   19 type  1   force =    -0.00328827   -0.00434050    0.00333886
     atom   20 type  1   force =     0.00429200    0.00035682   -0.00026550
     atom   21 type  3   force =     0.00808987    0.00039680   -0.00684406
     atom   22 type  3   force =    -0.00290601    0.00388478    0.00098312
     atom   23 type  3   force =    -0.00433248    0.00490397    0.00528420
     atom   24 type  3   force =     0.00025262    0.00259484   -0.00140219
     atom   25 type  3   force =     0.00218344    0.00830933    0.00148400
     atom   26 type  3   force =     0.00525645   -0.00306582   -0.00357677
     atom   27 type  3   force =     0.00283801   -0.00361887    0.00225968
     atom   28 type  3   force =     0.00437716   -0.00094782   -0.00074769
     atom   29 type  3   force =     0.00407225   -0.00230015    0.00027895
     atom   30 type  3   force =    -0.00393769   -0.00285551    0.00205577
     atom   31 type  3   force =     0.00367062    0.00773817    0.00395498
     atom   32 type  3   force =     0.00215712   -0.00321156   -0.00055689
     atom   33 type  3   force =    -0.00276003   -0.00101071   -0.00386666
     atom   34 type  3   force =     0.00470440   -0.00459275   -0.00134661
     atom   35 type  3   force =     0.00338747    0.00328243    0.00002327
     atom   36 type  3   force =    -0.00090967   -0.00625023   -0.00343339
     atom   37 type  3   force =     0.00027200    0.00255056   -0.00226079
     atom   38 type  3   force =    -0.00554951    0.00430512    0.00991864
     atom   39 type  3   force =     0.00381248   -0.00251558   -0.00569014
     atom   40 type  3   force =     0.00009180   -0.00149027   -0.00235018
     atom   41 type  3   force =     0.00292563    0.00548891    0.00320070
     atom   42 type  3   force =     0.00951224   -0.00371489    0.00185566
     atom   43 type  3   force =    -0.00091799   -0.00390591    0.00119508
     atom   44 type  3   force =    -0.00339474    0.00275524    0.00173080
     atom   45 type  3   force =    -0.00501747   -0.00182475    0.00188012
     atom   46 type  3   force =    -0.01082049   -0.02605824   -0.00582058
     atom   47 type  3   force =     0.00157552    0.00277424   -0.00075589
     atom   48 type  3   force =    -0.00174397   -0.00450399   -0.00225822
     atom   49 type  3   force =    -0.00120936    0.00000648    0.00327931
     atom   50 type  3   force =    -0.00329357   -0.00379846   -0.00342026
     atom   51 type  3   force =     0.00067106   -0.00051168    0.00384320
     atom   52 type  3   force =     0.00236998    0.00374907    0.00337547
     atom   53 type  3   force =    -0.00155489   -0.00039638   -0.00027537
     atom   54 type  3   force =     0.00039327   -0.00298780    0.00431235
     atom   55 type  3   force =     0.00020496    0.00227533   -0.00431998
     atom   56 type  3   force =    -0.00085002   -0.00093742   -0.00006029
     atom   57 type  3   force =    -0.00238750    0.00261638    0.00423260
     atom   58 type  3   force =     0.00046992   -0.00206581   -0.00006084
     atom   59 type  3   force =    -0.00433480   -0.00136086    0.00071257
     atom   60 type  3   force =    -0.00004005   -0.00026530    0.00285941
     atom   61 type  3   force =     0.00072959   -0.00282770    0.00103238
     atom   62 type  3   force =     0.00212932    0.00913594   -0.00345907
     atom   63 type  3   force =     0.00342475   -0.00018566   -0.00148124
     atom   64 type  3   force =     0.00042223    0.00357033   -0.00141493
     atom   65 type  3   force =     0.00097850    0.00169889    0.00202814
     atom   66 type  3   force =     0.00069783   -0.00151451   -0.00149091
     atom   67 type  3   force =     0.00461853    0.00672673    0.00023369
     atom   68 type  3   force =    -0.00129368    0.00072666    0.00329201

     Total force =     0.069493     Total SCF correction =     0.001077


     Computing stress (Cartesian axis) and pressure

          total   stress  (Ry/bohr**3)                   (kbar)     P=       -0.01
   0.00001744   0.00000957  -0.00002309            2.57        1.41       -3.40
   0.00000957  -0.00004835   0.00000117            1.41       -7.11        0.17
  -0.00002309   0.00000117   0.00003063           -3.40        0.17        4.51

     Energy error            =      8.0E-03
     Gradient error          =      3.2E-02
     Cell gradient error     =      4.8E-05


     number of scf cycles    =  18
     number of bfgs steps    =  17

     enthalpy old            =    -899.0799034261 Ry
     enthalpy new            =    -899.0879128252 Ry

     CASE: enthalpy_new < enthalpy_old

     new trust radius        =       0.2193528603 bohr
     new conv_thr            =       0.0000003245 Ry

     new unit-cell volume =   5390.18114 a.u.^3 (   798.74244 Ang^3 )
     density =      0.14137 g/cm^3

CELL_PARAMETERS (angstrom)
  -0.098671598  -0.233294225  -8.218215833
   0.141211637  -8.458516260  -0.249365433
 -11.505319301   0.211202812  -0.135658562

ATOMIC_POSITIONS (angstrom)
K            -8.6330925080       -7.8588689032       -4.9363486594
K            -3.0374887685       -0.2999965525       -3.8187165524
Ga           -2.5755871308       -3.9018421273       -7.9766999676
K            -8.1055353905       -4.1429145753       -0.4472358167
Sr           -5.6540308392       -8.3490433901       -8.1222025834
Sr          -11.4069921518       -0.1503531116       -0.6644200972
Sr          -11.4166500766       -3.7796662668       -4.6548031283
Sr           -5.6204459574       -4.3930976102       -3.9445580135
B            -8.8318791206       -3.8775367592       -3.7321719249
B            -2.9088023278       -4.5656276738       -4.9602204044
B            -2.7541482505       -8.1421333226       -0.7885439343
B            -8.8399302663       -0.3684508252       -7.7483372216
B            -5.4075632246       -2.8220825901       -1.6790233905
Ta          -12.3857329111       -5.8466240740       -7.1967166347
B           -11.0168626666       -7.0035156009       -3.1568604340
B            -5.4158003670       -1.4285312192       -5.5735537466
B            -6.1908855434       -5.8094145374       -6.6962189226
B            -0.4159551078       -2.9636613426       -1.7592586429
B            -0.4681091646       -1.4370347768       -5.8284131547
B            -6.1360932864       -6.9747535739       -2.7070926726
H            -9.6957049712       -4.1445449060       -2.8795291060
H            -3.8254391691       -4.2449345265       -5.6936638702
H            -3.7251617928       -8.2742710220       -1.5214240668
H            -9.8079616528       -0.0525086511       -7.0755028599
H            -8.7996459010       -4.8018722943       -4.5639801434
H            -2.6228121561       -3.6370427764       -4.2116335059
H            -2.9007312562       -0.8754123476       -8.0195030186
H            -8.3793903482       -7.6914420928       -0.5763524431
H            -9.1440990264       -2.8166993301       -4.2967817983
H            -3.1643540900       -5.5594565421       -4.3109228286
H            -2.9586110477       -7.3299325957       -8.3439568984
H            -8.9829326033       -1.1838784010       -0.1307231006
H            -7.7855146427       -3.6808147579       -3.1262323568
H            -1.9476214226       -4.8012586280       -5.7341087402
H            -1.8423197509       -8.0365989345       -1.5753784930
H            -7.9306612452       -0.5458459756       -6.9506739506
H            -5.3118015035       -2.2498465953       -0.6027615996
H           -11.3135436747       -6.6284485971       -8.4019252919
H           -10.8000924271       -6.4073960846       -4.1942610674
H            -5.2257167318       -1.9200174131       -4.4700254533
H            -4.3461956553       -2.7859673187       -2.3060684176
H           -10.8883331004       -5.3044194379       -6.4419109479
H            -9.9959561337       -7.0101983112       -2.4587325626
H            -4.3473788469       -1.3964809422       -6.1980847767
H            -5.5702982595       -4.0133167255       -1.4257578491
H           -12.1520764790       -4.0307444130       -7.3102588040
H           -11.3677011128       -8.1577721203       -3.4438917442
H            -5.8158900002       -0.2731654486       -5.3547179601
H            -6.3177476374       -2.4068844919       -2.3931076547
H            -1.1542757280       -6.7175216711       -5.4651357223
H            -0.4024611482       -6.6529948032       -2.4061197654
H            -6.2506943251       -2.0499895848       -6.2356726191
H            -5.8745481263       -6.3154516274       -5.6251250507
H            -0.2939482414       -2.3425211564       -2.8212561512
H            -0.2047875496       -2.1910158823       -6.7592552661
H            -5.8987163773       -6.2959446030       -1.7009862993
H            -7.1599217732       -6.4273338270       -7.1604950891
H            -1.3710911891       -2.3865517972       -1.2109755945
H            -1.4999674705       -1.8587446530       -5.3329629885
H            -7.1083292428       -6.4643333750       -3.2707214177
H            -6.4635988865       -4.6185538879       -6.5727070196
H            -0.6877543071       -4.1633642269       -1.8757701665
H            -0.6404156581       -0.2589840004       -6.1726934477
H            -6.3730328071       -8.1454215689       -2.4246284113
H            -5.2442176457       -5.8928965959       -7.4826433708
H           -10.9087330383       -2.6280003906       -1.2061839340
H           -11.0630457272       -1.2839487111       -5.1464600449
H            -5.1486971309       -6.9366539391       -3.4516854589



     Writing output data file ./tmp/K3Sr4TaGaB11H48.save/
     NEW-OLD atomic charge density approx. for the potential

     negative rho (up, down):  1.424E-06 0.000E+00
     extrapolated charge  149.58495, renormalised to  150.00000

     total cpu time spent up to now is    32469.4 secs

     Self-consistent Calculation

     iteration #  1     ecut=    50.00 Ry     beta= 0.70
     CG style diagonalization
     ethr =  1.00E-06,  avg # of iterations = 20.4

     negative rho (up, down):  5.502E-08 0.000E+00

     total cpu time spent up to now is    33626.7 secs

     total energy              =    -899.07195183 Ry
     estimated scf accuracy    <       0.05866744 Ry

     iteration #  2     ecut=    50.00 Ry     beta= 0.70
     CG style diagonalization
     ethr =  3.91E-05,  avg # of iterations =  3.7

     total cpu time spent up to now is    33814.9 secs

     total energy              =    -899.05751285 Ry
     estimated scf accuracy    <       0.16536705 Ry

     iteration #  3     ecut=    50.00 Ry     beta= 0.70
     CG style diagonalization
     ethr =  3.91E-05,  avg # of iterations =  3.7

     total cpu time spent up to now is    34002.5 secs

     total energy              =    -899.08104251 Ry
     estimated scf accuracy    <       0.15852250 Ry

     iteration #  4     ecut=    50.00 Ry     beta= 0.70
     CG style diagonalization
     ethr =  3.91E-05,  avg # of iterations =  3.0

     total cpu time spent up to now is    34151.1 secs

     total energy              =    -899.09551034 Ry
     estimated scf accuracy    <       0.00647654 Ry

     iteration #  5     ecut=    50.00 Ry     beta= 0.70
     CG style diagonalization
     ethr =  4.32E-06,  avg # of iterations =  3.4

     total cpu time spent up to now is    34324.1 secs

     total energy              =    -899.09680433 Ry
     estimated scf accuracy    <       0.00299874 Ry

     iteration #  6     ecut=    50.00 Ry     beta= 0.70
     CG style diagonalization
     c_bands:  1 eigenvalues not converged
     ethr =  2.00E-06,  avg # of iterations =  3.3

     total cpu time spent up to now is    34490.7 secs

     total energy              =    -899.09718890 Ry
     estimated scf accuracy    <       0.00164419 Ry

     iteration #  7     ecut=    50.00 Ry     beta= 0.70
     CG style diagonalization
     ethr =  1.10E-06,  avg # of iterations =  3.2

     total cpu time spent up to now is    34647.8 secs

     total energy              =    -899.09727986 Ry
     estimated scf accuracy    <       0.00020092 Ry

     iteration #  8     ecut=    50.00 Ry     beta= 0.70
     CG style diagonalization
     ethr =  1.34E-07,  avg # of iterations =  5.1

     total cpu time spent up to now is    34919.9 secs

     total energy              =    -899.09744860 Ry
     estimated scf accuracy    <       0.00015624 Ry

     iteration #  9     ecut=    50.00 Ry     beta= 0.70
     CG style diagonalization
     ethr =  1.04E-07,  avg # of iterations =  3.8

     total cpu time spent up to now is    35115.4 secs

     total energy              =    -899.09748090 Ry
     estimated scf accuracy    <       0.00010867 Ry

     iteration # 10     ecut=    50.00 Ry     beta= 0.70
     CG style diagonalization
     ethr =  7.24E-08,  avg # of iterations =  3.5

     total cpu time spent up to now is    35289.1 secs

     total energy              =    -899.09750553 Ry
     estimated scf accuracy    <       0.00001326 Ry

     iteration # 11     ecut=    50.00 Ry     beta= 0.70
     CG style diagonalization
     ethr =  8.84E-09,  avg # of iterations =  5.7

     total cpu time spent up to now is    35600.5 secs

     total energy              =    -899.09752968 Ry
     estimated scf accuracy    <       0.00000183 Ry

     iteration # 12     ecut=    50.00 Ry     beta= 0.70
     CG style diagonalization
     ethr =  1.22E-09,  avg # of iterations =  6.0

     total cpu time spent up to now is    35921.7 secs

     total energy              =    -899.09753356 Ry
     estimated scf accuracy    <       0.00000062 Ry

     iteration # 13     ecut=    50.00 Ry     beta= 0.70
     CG style diagonalization
     ethr =  4.15E-10,  avg # of iterations =  4.9

     total cpu time spent up to now is    36175.3 secs

     End of self-consistent calculation

          k =-0.0000-0.0000 0.0000 ( 32571 PWs)   bands (ev):

   -66.0806 -33.8203 -33.7964 -33.5241 -33.3977 -32.7448 -32.5805 -32.4783
   -15.8628 -15.8471 -15.8446 -15.8290 -15.8166 -15.7989 -15.6190 -15.5794
   -15.5492 -15.4898 -15.4695 -15.4481 -12.7080 -12.7048 -12.6185 -12.5953
   -12.5772  -7.9322  -7.4854  -7.4637  -7.2106  -7.1592  -7.0190  -6.9244
    -6.9160  -6.8046  -6.6539  -6.5756  -4.6773  -3.5794  -3.2155  -3.0462
    -2.9963  -2.9767  -2.8630  -2.8067  -2.7888  -2.7211  -2.5671  -2.5180
    -2.5086  -2.4301  -2.3399  -2.3053  -2.2818  -2.1889  -2.1576  -2.0730
    -1.9910  -1.9706  -1.9237  -1.8699  -1.8274  -1.6792  -1.6694  -1.5883
    -1.5096  -1.4282  -1.3843  -1.3459  -1.2506  -1.2094  -1.1860  -0.9772
    -0.7761  -0.3962   2.2101   2.3911   3.5336   3.6183   4.2154   4.4833
     4.8519   4.9006   5.0186   5.1393   5.1920   5.3354   5.5128   5.6708
     5.7651   5.8161

          k = 0.3766 0.0064-0.0047 ( 32604 PWs)   bands (ev):

   -66.0806 -33.8203 -33.7964 -33.5241 -33.3977 -32.7448 -32.5805 -32.4783
   -15.8627 -15.8469 -15.8444 -15.8289 -15.8166 -15.7989 -15.6193 -15.5795
   -15.5492 -15.4899 -15.4695 -15.4481 -12.7080 -12.7048 -12.6185 -12.5953
   -12.5772  -7.8705  -7.6153  -7.4172  -7.2090  -7.1289  -7.0335  -6.9339
    -6.9237  -6.7932  -6.6454  -6.5844  -4.6777  -3.5822  -3.1149  -3.0206
    -3.0015  -2.9816  -2.8723  -2.7931  -2.7352  -2.6674  -2.6271  -2.5856
    -2.4948  -2.4832  -2.4394  -2.3685  -2.3236  -2.1731  -2.0831  -2.0392
    -2.0109  -1.9377  -1.8821  -1.8609  -1.7982  -1.6904  -1.6294  -1.5618
    -1.5102  -1.4841  -1.4078  -1.3382  -1.3084  -1.2149  -1.1965  -0.9733
    -0.7868  -0.3851   2.2171   2.3956   3.5104   3.6212   4.1860   4.5290
     4.8921   5.0478   5.0703   5.2072   5.2385   5.3517   5.4527   5.6325
     5.7762   5.8836

          k = 0.0096 0.5126-0.0147 ( 32596 PWs)   bands (ev):

   -66.0806 -33.8203 -33.7964 -33.5241 -33.3977 -32.7448 -32.5805 -32.4783
   -15.8627 -15.8463 -15.8446 -15.8257 -15.8199 -15.7998 -15.6190 -15.5790
   -15.5486 -15.4900 -15.4699 -15.4487 -12.7080 -12.7048 -12.6185 -12.5953
   -12.5772  -7.8174  -7.6121  -7.3288  -7.2192  -7.1518  -7.0855  -6.9605
    -6.9345  -6.8459  -6.6396  -6.5932  -4.7530  -3.5966  -3.0672  -3.0587
    -2.9945  -2.8789  -2.8700  -2.7945  -2.7718  -2.6624  -2.6471  -2.5476
    -2.4797  -2.4269  -2.3923  -2.2704  -2.2382  -2.1873  -2.1249  -2.0515
    -1.9482  -1.9235  -1.8334  -1.8127  -1.7541  -1.7296  -1.6596  -1.5976
    -1.5701  -1.5175  -1.4618  -1.4514  -1.3727  -1.2961  -1.1930  -0.9252
    -0.7926  -0.3134   2.1561   2.3682   3.4371   3.4822   4.2103   4.4829
     4.9277   5.1210   5.1390   5.2686   5.3307   5.4640   5.5283   5.5903
     5.6825   5.7809

          k = 0.3862 0.5191-0.0194 ( 32564 PWs)   bands (ev):

   -66.0806 -33.8203 -33.7964 -33.5241 -33.3977 -32.7448 -32.5805 -32.4783
   -15.8627 -15.8461 -15.8445 -15.8257 -15.8199 -15.7998 -15.6193 -15.5791
   -15.5486 -15.4901 -15.4699 -15.4487 -12.7080 -12.7048 -12.6185 -12.5953
   -12.5772  -7.7845  -7.5316  -7.4158  -7.3267  -7.1775  -7.0259  -6.9535
    -6.9274  -6.8303  -6.6448  -6.5760  -4.7537  -3.5953  -3.0742  -3.0309
    -2.9917  -2.8918  -2.8634  -2.8066  -2.7225  -2.6719  -2.6474  -2.5429
    -2.4405  -2.3942  -2.3362  -2.2754  -2.1875  -2.1740  -2.1475  -2.0975
    -2.0204  -1.9708  -1.8808  -1.8626  -1.8183  -1.7324  -1.6643  -1.5677
    -1.5422  -1.5018  -1.4719  -1.3980  -1.3589  -1.2929  -1.2080  -0.9428
    -0.7980  -0.3081   2.1594   2.3731   3.4346   3.4814   4.2079   4.5072
     4.9616   5.1520   5.1774   5.3198   5.3830   5.4433   5.5897   5.6260
     5.7325   5.8279

          k =-0.0065-0.0157 0.5275 ( 32578 PWs)   bands (ev):

   -66.0806 -33.8203 -33.7964 -33.5241 -33.3977 -32.7448 -32.5805 -32.4784
   -15.8627 -15.8460 -15.8449 -15.8267 -15.8191 -15.7998 -15.6190 -15.5791
   -15.5489 -15.4900 -15.4699 -15.4485 -12.7081 -12.7048 -12.6185 -12.5953
   -12.5772  -7.7722  -7.5980  -7.3497  -7.2128  -7.1836  -7.1082  -6.9470
    -6.9242  -6.8211  -6.7106  -6.5930  -4.6873  -3.5765  -3.1098  -3.0255
    -3.0040  -2.9482  -2.8614  -2.8121  -2.7585  -2.6629  -2.6484  -2.6200
    -2.4410  -2.3528  -2.3275  -2.2708  -2.2385  -2.1804  -2.1232  -2.0633
    -2.0028  -1.9689  -1.8893  -1.8029  -1.7621  -1.7405  -1.6639  -1.5886
    -1.5740  -1.4935  -1.4424  -1.4029  -1.2818  -1.2384  -1.2019  -1.0838
    -0.8296  -0.3673   2.2578   2.3835   3.5379   3.5881   4.1958   4.5144
     4.9982   5.1343   5.1728   5.2118   5.3465   5.3914   5.5558   5.5851
     5.7083   5.7752

          k = 0.3701-0.0092 0.5228 ( 32564 PWs)   bands (ev):

   -66.0806 -33.8203 -33.7964 -33.5241 -33.3977 -32.7448 -32.5805 -32.4783
   -15.8627 -15.8458 -15.8448 -15.8267 -15.8190 -15.7998 -15.6193 -15.5791
   -15.5489 -15.4901 -15.4700 -15.4485 -12.7081 -12.7048 -12.6185 -12.5953
   -12.5772  -7.7358  -7.5349  -7.3808  -7.3615  -7.1795  -7.0663  -6.9515
    -6.9301  -6.8026  -6.6764  -6.6121  -4.6794  -3.5835  -3.0435  -3.0252
    -2.9452  -2.9084  -2.8704  -2.7684  -2.7555  -2.7327  -2.6814  -2.5308
    -2.4954  -2.4627  -2.3318  -2.2935  -2.2414  -2.2181  -2.1347  -2.0687
    -2.0343  -1.9701  -1.8806  -1.7984  -1.7433  -1.6707  -1.6474  -1.5974
    -1.5246  -1.4969  -1.4445  -1.4200  -1.2940  -1.2524  -1.1926  -1.1173
    -0.8407  -0.3593   2.2624   2.3861   3.5360   3.5780   4.2026   4.5173
     5.0628   5.1416   5.2268   5.2987   5.4126   5.4800   5.5075   5.5945
     5.7331   5.7561

          k = 0.0031 0.4970 0.5129 ( 32544 PWs)   bands (ev):

   -66.0806 -33.8203 -33.7964 -33.5241 -33.3977 -32.7448 -32.5805 -32.4783
   -15.8629 -15.8464 -15.8453 -15.8306 -15.8150 -15.7991 -15.6190 -15.5796
   -15.5498 -15.4898 -15.4693 -15.4480 -12.7081 -12.7048 -12.6185 -12.5953
   -12.5772  -7.7343  -7.5443  -7.3971  -7.2125  -7.1225  -7.0913  -7.0015
    -6.9216  -6.8743  -6.7172  -6.6292  -4.8140  -3.5066  -3.1019  -3.0656
    -3.0225  -2.8894  -2.7676  -2.6903  -2.6559  -2.6044  -2.5675  -2.4961
    -2.4437  -2.3947  -2.3815  -2.3264  -2.2904  -2.2526  -2.1867  -2.1042
    -2.0556  -1.9371  -1.9289  -1.8163  -1.7996  -1.7228  -1.6487  -1.5811
    -1.5539  -1.4848  -1.4280  -1.3600  -1.3376  -1.2785  -1.1689  -1.1271
    -0.8934  -0.3123   2.2088   2.3676   3.3811   3.5138   4.1542   4.4892
     5.0128   5.1485   5.2692   5.2791   5.3448   5.3986   5.5473   5.6297
     5.6440   5.7417

          k = 0.3797 0.5034 0.5082 ( 32568 PWs)   bands (ev):

   -66.0806 -33.8203 -33.7964 -33.5241 -33.3977 -32.7448 -32.5805 -32.4783
   -15.8629 -15.8462 -15.8452 -15.8305 -15.8150 -15.7991 -15.6193 -15.5796
   -15.5498 -15.4899 -15.4694 -15.4480 -12.7081 -12.7048 -12.6185 -12.5953
   -12.5772  -7.7029  -7.4831  -7.3548  -7.3468  -7.2060  -7.0894  -6.9784
    -6.9281  -6.8376  -6.7245  -6.6060  -4.8058  -3.4588  -3.1382  -2.9894
    -2.9176  -2.8877  -2.7967  -2.7446  -2.6957  -2.6831  -2.6174  -2.5400
    -2.4449  -2.4028  -2.3679  -2.3462  -2.2959  -2.2213  -2.1668  -2.0748
    -2.0074  -1.9051  -1.8607  -1.8083  -1.7604  -1.7175  -1.6698  -1.6419
    -1.5781  -1.5395  -1.4235  -1.3695  -1.3292  -1.2589  -1.1800  -1.1621
    -0.8874  -0.3152   2.2093   2.3715   3.3796   3.5106   4.1630   4.5041
     5.1344   5.1886   5.2724   5.3744   5.4315   5.4845   5.5594   5.6374
     5.6752   5.7597

     the Fermi energy is     2.2960 ev

!    total energy              =    -899.09753403 Ry
     estimated scf accuracy    <       0.00000011 Ry
     smearing contrib. (-TS)   =      -0.00808071 Ry
     internal energy E=F+TS    =    -899.08945333 Ry

     The total energy is F=E-TS. E is the sum of the following terms:
     one-electron contribution =    -504.63823454 Ry
     hartree contribution      =     290.44603823 Ry
     xc contribution           =    -236.24200407 Ry
     ewald contribution        =    -280.30208290 Ry
     one-center paw contrib.   =    -168.35317005 Ry

     convergence has been achieved in  13 iterations

     Forces acting on atoms (cartesian axes, Ry/au):

     atom    1 type  4   force =    -0.00069876    0.00026401    0.00322741
     atom    2 type  4   force =     0.00063574    0.00244758   -0.00100931
     atom    3 type  2   force =    -0.00442170   -0.00939029    0.00432712
     atom    4 type  4   force =    -0.00353180    0.00134221   -0.00289715
     atom    5 type  5   force =     0.00074310   -0.00405107   -0.00494433
     atom    6 type  5   force =     0.00845307   -0.00395915   -0.00107891
     atom    7 type  5   force =    -0.00640277   -0.00792005    0.00332218
     atom    8 type  5   force =     0.00042485    0.00099339   -0.00625067
     atom    9 type  1   force =    -0.00416987   -0.00102858    0.00232171
     atom   10 type  1   force =    -0.00515057   -0.00381508    0.00158412
     atom   11 type  1   force =     0.00345173    0.00038945   -0.00054998
     atom   12 type  1   force =    -0.00188204    0.00142984   -0.00071140
     atom   13 type  1   force =     0.00540116   -0.00247544    0.00205794
     atom   14 type  6   force =    -0.02449568    0.02758346   -0.00773149
     atom   15 type  1   force =     0.00185970    0.00281320   -0.00367385
     atom   16 type  1   force =     0.00305351    0.00116956    0.00045844
     atom   17 type  1   force =     0.00167500   -0.00155712   -0.00230438
     atom   18 type  1   force =    -0.00156635    0.00512346    0.00274074
     atom   19 type  1   force =    -0.00337789   -0.00204993    0.00210780
     atom   20 type  1   force =     0.00450147    0.00022588    0.00067593
     atom   21 type  3   force =     0.01057243    0.00062852   -0.00892938
     atom   22 type  3   force =    -0.00455798    0.00487189   -0.00082755
     atom   23 type  3   force =    -0.00561275    0.00496401    0.00399174
     atom   24 type  3   force =    -0.00032457    0.00082680   -0.00023876
     atom   25 type  3   force =     0.00430541    0.01046480    0.00625543
     atom   26 type  3   force =     0.00695203   -0.00098206   -0.00327625
     atom   27 type  3   force =     0.00364434   -0.00565607    0.00273669
     atom   28 type  3   force =     0.00650329   -0.00151331   -0.00163044
     atom   29 type  3   force =     0.00464066   -0.00332327    0.00195037
     atom   30 type  3   force =    -0.00454334   -0.00561393    0.00286550
     atom   31 type  3   force =     0.00357582    0.01159088    0.00681940
     atom   32 type  3   force =     0.00084663   -0.00197245   -0.00063246
     atom   33 type  3   force =    -0.00660063   -0.00335937   -0.00780102
     atom   34 type  3   force =     0.00268154   -0.00099744    0.00163371
     atom   35 type  3   force =     0.00184183    0.00259171   -0.00239198
     atom   36 type  3   force =    -0.00123344   -0.00501615   -0.00316612
     atom   37 type  3   force =    -0.00214309    0.00538336   -0.00219545
     atom   38 type  3   force =     0.00066457   -0.00500181    0.00224796
     atom   39 type  3   force =     0.00374487   -0.00058400   -0.00317686
     atom   40 type  3   force =    -0.00087207   -0.00157165   -0.00386405
     atom   41 type  3   force =     0.00194052    0.00641721   -0.00031586
     atom   42 type  3   force =     0.00767751   -0.00221600    0.00256463
     atom   43 type  3   force =    -0.00035937   -0.00466274   -0.00245845
     atom   44 type  3   force =    -0.00637838    0.00314924    0.00222808
     atom   45 type  3   force =    -0.00621201   -0.00493546    0.00129210
     atom   46 type  3   force =    -0.00430052   -0.01816553   -0.00326407
     atom   47 type  3   force =     0.00267154    0.00237978    0.00168195
     atom   48 type  3   force =     0.00002039   -0.00495187   -0.00245998
     atom   49 type  3   force =     0.00274957    0.00135821    0.00551308
     atom   50 type  3   force =    -0.00252945   -0.00836707    0.00368647
     atom   51 type  3   force =    -0.00011082   -0.00047494    0.00148703
     atom   52 type  3   force =     0.00415363    0.00276647    0.00443013
     atom   53 type  3   force =    -0.00232452   -0.00124281   -0.00299708
     atom   54 type  3   force =     0.00151490   -0.00326301    0.00806547
     atom   55 type  3   force =     0.00238449    0.00355799   -0.00508490
     atom   56 type  3   force =    -0.00058759   -0.00165075   -0.00181654
     atom   57 type  3   force =     0.00005297    0.00312302    0.00469943
     atom   58 type  3   force =     0.00170242   -0.00196510    0.00079240
     atom   59 type  3   force =    -0.00338204   -0.00145273    0.00307856
     atom   60 type  3   force =     0.00348164   -0.00128482    0.00321265
     atom   61 type  3   force =    -0.00100988   -0.00216743    0.00119704
     atom   62 type  3   force =     0.00221757    0.00993445   -0.00527068
     atom   63 type  3   force =     0.00230125    0.00124719   -0.00448489
     atom   64 type  3   force =    -0.00055406    0.00350972   -0.00140039
     atom   65 type  3   force =    -0.00104347   -0.00093165    0.00277029
     atom   66 type  3   force =    -0.00167467    0.00115031   -0.00350422
     atom   67 type  3   force =     0.00313785    0.00293424    0.00029266
     atom   68 type  3   force =    -0.00412693    0.00293835    0.00402267

     Total force =     0.068469     Total SCF correction =     0.001237


     Computing stress (Cartesian axis) and pressure

          total   stress  (Ry/bohr**3)                   (kbar)     P=        0.27
   0.00001331   0.00000524  -0.00003065            1.96        0.77       -4.51
   0.00000524  -0.00003732   0.00000252            0.77       -5.49        0.37
  -0.00003065   0.00000252   0.00002947           -4.51        0.37        4.34

     Energy error            =      9.6E-03
     Gradient error          =      2.8E-02
     Cell gradient error     =      3.7E-05


     number of scf cycles    =  19
     number of bfgs steps    =  18

     enthalpy old            =    -899.0879128252 Ry
     enthalpy new            =    -899.0975340328 Ry

     CASE: enthalpy_new < enthalpy_old

     new trust radius        =       0.1865402405 bohr
     new conv_thr            =       0.0000002758 Ry

     new unit-cell volume =   5377.41221 a.u.^3 (   796.85028 Ang^3 )
     density =      0.14170 g/cm^3

CELL_PARAMETERS (angstrom)
  -0.079502218  -0.217713706  -8.239055761
   0.131142164  -8.408704350  -0.240184325
 -11.514818274   0.196391770  -0.108699973

ATOMIC_POSITIONS (angstrom)
K            -8.6338789629       -7.8066160938       -4.9172528855
K            -3.0353192300       -0.2868764389       -3.8302233832
Ga           -2.5695242790       -3.8843523366       -7.9521301295
K            -8.1220558347       -4.1149567935       -0.4351746884
Sr           -5.6650950873       -8.3068175609       -8.1232830683
Sr          -11.4090035204       -0.1470125815       -0.6580525968
Sr          -11.4382789830       -3.7590245965       -4.6167928869
Sr           -5.6267789943       -4.3623572465       -3.9513065003
B            -8.8325836717       -3.8529426674       -3.7170813887
B            -2.8914367057       -4.5517682299       -4.9758565110
B            -2.7446300676       -8.0899295841       -0.7684857110
B            -8.8263062563       -0.3755737535       -7.7519807905
B            -5.4128034906       -2.8012017572       -1.6719921685
Ta          -12.4475773122       -5.8222559344       -7.1591788333
B           -11.0180654399       -6.9652230935       -3.1382889622
B            -5.4044648666       -1.4192520167       -5.5701927147
B            -6.1883313417       -5.7777282346       -6.6863257539
B            -0.4124198286       -2.9430362744       -1.7594768995
B            -0.4566813032       -1.4232190030       -5.8388716257
B            -6.1416057006       -6.9342285125       -2.6879098228
H            -9.6943737944       -4.1270219638       -2.8695725153
H            -3.8069461013       -4.2036012970       -5.6971249620
H            -3.7255143669       -8.2079865099       -1.4922194072
H            -9.7945148564       -0.0381303817       -7.0889835810
H            -8.7992013752       -4.7621503271       -4.5648690289
H            -2.5796256238       -3.6323399894       -4.2263923533
H            -2.8659015707       -0.8585360648       -8.0278679985
H            -8.3742306875       -7.6678683143       -0.5492833323
H            -9.1457410760       -2.7938366247       -4.2803481710
H            -3.1671830227       -5.5336332900       -4.3181483061
H            -2.9221612130       -7.2596205129       -8.3376133092
H            -8.9901800036       -1.2064698162       -0.1143698021
H            -7.7877592520       -3.6507904213       -3.1091972161
H            -1.9257693518       -4.8036360357       -5.7463551290
H            -1.8331748069       -7.9777978693       -1.5569268448
H            -7.9256344991       -0.5714251180       -6.9492724674
H            -5.3164289037       -2.2386851529       -0.5909019971
H           -11.3419747508       -6.5357801744       -8.3736038391
H           -10.7942849305       -6.3860048437       -4.1853453432
H            -5.2120943553       -1.9066884632       -4.4653816582
H            -4.3432578784       -2.7640281806       -2.2842794613
H           -10.9086930001       -5.2809097339       -6.4337025364
H           -10.0031010401       -6.9857053807       -2.4286919273
H            -4.3370888542       -1.3762292461       -6.1955432698
H            -5.5822889045       -3.9897935622       -1.4143802545
H           -12.2350827917       -4.0520797408       -7.3222524314
H           -11.3838088258       -8.1138762968       -3.4249021183
H            -5.8234510369       -0.2734102805       -5.3529756393
H            -6.3295665378       -2.3921576794       -2.3846225999
H            -1.1908535150       -6.6702134186       -5.4532522527
H            -0.3865579135       -6.5960214185       -2.4023142833
H            -6.2385829232       -2.0396292533       -6.2310422126
H            -5.8755722123       -6.2746870173       -5.6089641296
H            -0.2944415835       -2.3282916693       -2.8242209982
H            -0.1996078239       -2.1732127767       -6.7766252944
H            -5.9124171421       -6.2621146583       -1.6758118490
H            -7.1676784106       -6.3849870866       -7.1434173773
H            -1.3684568702       -2.3759288603       -1.2091666390
H            -1.4961066629       -1.8371104416       -5.3468396678
H            -7.1207037035       -6.4277319569       -3.2457943893
H            -6.4529580213       -4.5867829097       -6.5632480012
H            -0.6876364418       -4.1374718085       -1.8772924616
H            -0.6206988202       -0.2432713253       -6.1809091839
H            -6.3774204294       -8.1037919023       -2.4094654183
H            -5.2374312230       -5.8523715163       -7.4701327077
H           -10.9080349835       -2.6390505721       -1.1848391733
H           -11.0522813435       -1.2633398585       -5.1347718015
H            -5.1507951187       -6.8996358335       -3.4288126036



     Writing output data file ./tmp/K3Sr4TaGaB11H48.save/
     NEW-OLD atomic charge density approx. for the potential

     negative rho (up, down):  1.191E-06 0.000E+00
     extrapolated charge  149.64429, renormalised to  150.00000

     total cpu time spent up to now is    36669.8 secs

     Self-consistent Calculation

     iteration #  1     ecut=    50.00 Ry     beta= 0.70
     CG style diagonalization
     ethr =  1.00E-06,  avg # of iterations = 19.3

     negative rho (up, down):  2.930E-08 0.000E+00

     total cpu time spent up to now is    37757.7 secs

     total energy              =    -899.08612807 Ry
     estimated scf accuracy    <       0.04398865 Ry

     iteration #  2     ecut=    50.00 Ry     beta= 0.70
     CG style diagonalization
     ethr =  2.93E-05,  avg # of iterations =  3.7

     total cpu time spent up to now is    37948.4 secs

     total energy              =    -899.07626976 Ry
     estimated scf accuracy    <       0.11933379 Ry

     iteration #  3     ecut=    50.00 Ry     beta= 0.70
     CG style diagonalization
     ethr =  2.93E-05,  avg # of iterations =  3.6

     total cpu time spent up to now is    38131.2 secs

     total energy              =    -899.09260934 Ry
     estimated scf accuracy    <       0.12162999 Ry

     iteration #  4     ecut=    50.00 Ry     beta= 0.70
     CG style diagonalization
     ethr =  2.93E-05,  avg # of iterations =  3.1

     total cpu time spent up to now is    38281.8 secs

     total energy              =    -899.10408528 Ry
     estimated scf accuracy    <       0.00502841 Ry

     iteration #  5     ecut=    50.00 Ry     beta= 0.70
     CG style diagonalization
     ethr =  3.35E-06,  avg # of iterations =  3.4

     total cpu time spent up to now is    38449.7 secs

     total energy              =    -899.10506214 Ry
     estimated scf accuracy    <       0.00239670 Ry

     iteration #  6     ecut=    50.00 Ry     beta= 0.70
     CG style diagonalization
     ethr =  1.60E-06,  avg # of iterations =  3.1

     total cpu time spent up to now is    38604.9 secs

     total energy              =    -899.10536963 Ry
     estimated scf accuracy    <       0.00137134 Ry

     iteration #  7     ecut=    50.00 Ry     beta= 0.70
     CG style diagonalization
     c_bands:  1 eigenvalues not converged
     ethr =  9.14E-07,  avg # of iterations =  3.2

     total cpu time spent up to now is    38761.9 secs

     total energy              =    -899.10544290 Ry
     estimated scf accuracy    <       0.00018576 Ry

     iteration #  8     ecut=    50.00 Ry     beta= 0.70
     CG style diagonalization
     ethr =  1.24E-07,  avg # of iterations =  5.2

     total cpu time spent up to now is    39040.7 secs

     total energy              =    -899.10560436 Ry
     estimated scf accuracy    <       0.00011643 Ry

     iteration #  9     ecut=    50.00 Ry     beta= 0.70
     CG style diagonalization
     ethr =  7.76E-08,  avg # of iterations =  3.9

     total cpu time spent up to now is    39241.5 secs

     total energy              =    -899.10563528 Ry
     estimated scf accuracy    <       0.00004250 Ry

     iteration # 10     ecut=    50.00 Ry     beta= 0.70
     CG style diagonalization
     ethr =  2.83E-08,  avg # of iterations =  4.3

     total cpu time spent up to now is    39472.4 secs

     total energy              =    -899.10565879 Ry
     estimated scf accuracy    <       0.00001177 Ry

     iteration # 11     ecut=    50.00 Ry     beta= 0.70
     CG style diagonalization
     ethr =  7.85E-09,  avg # of iterations =  4.8

     total cpu time spent up to now is    39728.5 secs

     total energy              =    -899.10566977 Ry
     estimated scf accuracy    <       0.00000101 Ry

     iteration # 12     ecut=    50.00 Ry     beta= 0.70
     CG style diagonalization
     ethr =  6.75E-10,  avg # of iterations =  6.7

     total cpu time spent up to now is    40097.9 secs

     End of self-consistent calculation

          k = 0.0000 0.0000 0.0000 ( 32571 PWs)   bands (ev):

   -65.9937 -33.8341 -33.8101 -33.4858 -33.3723 -32.6634 -32.5141 -32.3963
   -15.8742 -15.8588 -15.8553 -15.8405 -15.8279 -15.8116 -15.5834 -15.5434
   -15.5123 -15.4657 -15.4437 -15.4194 -12.6408 -12.6378 -12.5524 -12.5292
   -12.5083  -7.9656  -7.5214  -7.4433  -7.1924  -7.1386  -7.0043  -6.9234
    -6.9151  -6.8155  -6.6544  -6.5686  -4.7958  -3.6022  -3.2166  -3.0518
    -2.9747  -2.9490  -2.8786  -2.8022  -2.7899  -2.7135  -2.5813  -2.4972
    -2.4798  -2.4270  -2.3440  -2.2863  -2.2635  -2.1840  -2.1488  -2.0852
    -1.9995  -1.9587  -1.9164  -1.8561  -1.8111  -1.6908  -1.6748  -1.5772
    -1.4939  -1.4313  -1.3920  -1.3720  -1.2371  -1.2101  -1.1799  -0.9225
    -0.7625  -0.3533   2.2513   2.4423   3.6037   3.6525   4.3523   4.5659
     4.8717   4.9335   5.0375   5.1153   5.2244   5.3379   5.5307   5.6975
     5.7952   5.8185

          k = 0.3763 0.0060-0.0038 ( 32604 PWs)   bands (ev):

   -65.9937 -33.8341 -33.8101 -33.4858 -33.3723 -32.6634 -32.5141 -32.3963
   -15.8741 -15.8586 -15.8552 -15.8404 -15.8279 -15.8116 -15.5837 -15.5435
   -15.5123 -15.4658 -15.4437 -15.4194 -12.6408 -12.6378 -12.5524 -12.5292
   -12.5083  -7.9133  -7.6106  -7.4330  -7.1780  -7.1176  -7.0142  -6.9405
    -6.9170  -6.8062  -6.6433  -6.5787  -4.7966  -3.6015  -3.1200  -3.0211
    -2.9935  -2.9648  -2.8716  -2.7964  -2.7355  -2.6495  -2.6250  -2.5845
    -2.5059  -2.4656  -2.4194  -2.3412  -2.3195  -2.1542  -2.0845  -2.0389
    -2.0026  -1.9347  -1.8643  -1.8523  -1.7997  -1.6892  -1.6461  -1.5603
    -1.5040  -1.4787  -1.4273  -1.3249  -1.3148  -1.2128  -1.1914  -0.9204
    -0.7715  -0.3422   2.2589   2.4460   3.5849   3.6494   4.3196   4.6190
     4.9157   5.0567   5.0945   5.2061   5.2506   5.3639   5.4750   5.6645
     5.7888   5.8850

          k = 0.0089 0.5156-0.0137 ( 32596 PWs)   bands (ev):

   -65.9937 -33.8341 -33.8101 -33.4858 -33.3723 -32.6634 -32.5141 -32.3963
   -15.8741 -15.8584 -15.8548 -15.8369 -15.8317 -15.8125 -15.5834 -15.5430
   -15.5117 -15.4658 -15.4442 -15.4201 -12.6408 -12.6378 -12.5524 -12.5292
   -12.5083  -7.8691  -7.6012  -7.3209  -7.2104  -7.1246  -7.0859  -6.9599
    -6.9299  -6.8559  -6.6423  -6.5884  -4.8674  -3.5968  -3.0645  -3.0575
    -2.9962  -2.8866  -2.8764  -2.8214  -2.7655  -2.6556  -2.6340  -2.5450
    -2.4728  -2.4143  -2.3618  -2.2480  -2.2286  -2.1759  -2.1120  -2.0427
    -1.9566  -1.9104  -1.8166  -1.7937  -1.7606  -1.7282  -1.6637  -1.6029
    -1.5507  -1.5183  -1.4815  -1.4405  -1.3635  -1.2959  -1.2012  -0.8910
    -0.7794  -0.2763   2.1945   2.4124   3.4913   3.5500   4.3522   4.5775
     4.9604   5.1297   5.1462   5.2984   5.3236   5.4638   5.5340   5.6141
     5.6887   5.7964

          k = 0.3852 0.5216-0.0175 ( 32564 PWs)   bands (ev):

   -65.9937 -33.8341 -33.8101 -33.4858 -33.3723 -32.6634 -32.5141 -32.3963
   -15.8740 -15.8582 -15.8547 -15.8369 -15.8317 -15.8125 -15.5837 -15.5430
   -15.5117 -15.4659 -15.4442 -15.4201 -12.6408 -12.6378 -12.5524 -12.5292
   -12.5083  -7.8408  -7.5125  -7.4245  -7.3106  -7.1496  -7.0153  -6.9596
    -6.9222  -6.8394  -6.6486  -6.5707  -4.8689  -3.5902  -3.0767  -3.0436
    -2.9897  -2.8843  -2.8789  -2.8224  -2.7208  -2.6739  -2.6407  -2.5049
    -2.4388  -2.3874  -2.3496  -2.2424  -2.1812  -2.1466  -2.1276  -2.0975
    -2.0212  -1.9412  -1.8839  -1.8443  -1.8043  -1.7395  -1.6558  -1.5796
    -1.5440  -1.4854  -1.4699  -1.4020  -1.3767  -1.2879  -1.2098  -0.9080
    -0.7822  -0.2709   2.1979   2.4171   3.4905   3.5464   4.3526   4.6006
     4.9974   5.1631   5.1907   5.3422   5.3700   5.4564   5.5967   5.6255
     5.7621   5.8337

          k =-0.0052-0.0151 0.5261 ( 32578 PWs)   bands (ev):

   -65.9937 -33.8341 -33.8101 -33.4858 -33.3723 -32.6634 -32.5141 -32.3964
   -15.8741 -15.8583 -15.8549 -15.8378 -15.8309 -15.8124 -15.5834 -15.5430
   -15.5120 -15.4658 -15.4443 -15.4198 -12.6408 -12.6378 -12.5525 -12.5292
   -12.5083  -7.8454  -7.5703  -7.3306  -7.2222  -7.1627  -7.1029  -6.9275
    -6.9271  -6.8391  -6.7041  -6.5868  -4.8011  -3.5947  -3.1089  -3.0152
    -2.9888  -2.9499  -2.8481  -2.7986  -2.7390  -2.6806  -2.6420  -2.6226
    -2.4488  -2.3532  -2.3241  -2.2665  -2.2436  -2.1662  -2.1134  -2.0544
    -2.0023  -1.9736  -1.8785  -1.7857  -1.7669  -1.7128  -1.6540  -1.5879
    -1.5748  -1.4693  -1.4540  -1.4188  -1.2974  -1.2174  -1.1897  -1.0600
    -0.8062  -0.3260   2.3023   2.4303   3.5664   3.6721   4.3252   4.6340
     5.0186   5.1395   5.2015   5.2346   5.3697   5.4098   5.5579   5.5869
     5.7200   5.7914

          k = 0.3711-0.0091 0.5224 ( 32564 PWs)   bands (ev):

   -65.9937 -33.8341 -33.8101 -33.4858 -33.3723 -32.6634 -32.5141 -32.3963
   -15.8740 -15.8581 -15.8549 -15.8378 -15.8309 -15.8124 -15.5836 -15.5431
   -15.5120 -15.4659 -15.4443 -15.4198 -12.6408 -12.6378 -12.5524 -12.5292
   -12.5083  -7.8167  -7.4937  -7.3810  -7.3493  -7.1703  -7.0534  -6.9457
    -6.9256  -6.8178  -6.6702  -6.6057  -4.7942  -3.5996  -3.0456  -2.9989
    -2.9458  -2.8926  -2.8741  -2.7705  -2.7560  -2.7267  -2.6706  -2.5385
    -2.4920  -2.4604  -2.3303  -2.2710  -2.2381  -2.2278  -2.1385  -2.0671
    -2.0092  -1.9751  -1.8708  -1.7892  -1.7310  -1.6491  -1.6372  -1.5862
    -1.5236  -1.4887  -1.4674  -1.4223  -1.3092  -1.2442  -1.1936  -1.0731
    -0.8163  -0.3186   2.3073   2.4326   3.5679   3.6575   4.3346   4.6299
     5.0895   5.1674   5.2463   5.3061   5.4114   5.4915   5.5402   5.6061
     5.7248   5.7644

          k = 0.0037 0.5005 0.5124 ( 32544 PWs)   bands (ev):

   -65.9937 -33.8341 -33.8101 -33.4858 -33.3723 -32.6634 -32.5141 -32.3963
   -15.8743 -15.8584 -15.8556 -15.8419 -15.8265 -15.8117 -15.5834 -15.5436
   -15.5129 -15.4657 -15.4435 -15.4193 -12.6408 -12.6378 -12.5524 -12.5292
   -12.5083  -7.8122  -7.5210  -7.3592  -7.2039  -7.1192  -7.0856  -6.9911
    -6.9259  -6.8908  -6.7120  -6.6251  -4.9163  -3.5217  -3.1206  -3.0774
    -3.0187  -2.8720  -2.7624  -2.6659  -2.6520  -2.6160  -2.5634  -2.5011
    -2.4400  -2.3932  -2.3705  -2.3238  -2.2716  -2.2348  -2.1805  -2.0913
    -2.0489  -1.9294  -1.9196  -1.8058  -1.7780  -1.7280  -1.6641  -1.5702
    -1.5202  -1.4981  -1.4369  -1.3697  -1.3430  -1.2952  -1.1482  -1.0902
    -0.8727  -0.2737   2.2482   2.4119   3.4123   3.6045   4.2866   4.5981
     5.0183   5.1492   5.2936   5.3051   5.3565   5.4138   5.5564   5.6287
     5.6502   5.7595

          k = 0.3800 0.5065 0.5086 ( 32568 PWs)   bands (ev):

   -65.9937 -33.8341 -33.8101 -33.4858 -33.3723 -32.6634 -32.5141 -32.3963
   -15.8743 -15.8582 -15.8556 -15.8419 -15.8265 -15.8117 -15.5836 -15.5436
   -15.5129 -15.4658 -15.4435 -15.4193 -12.6408 -12.6378 -12.5524 -12.5292
   -12.5083  -7.7878  -7.4374  -7.3493  -7.3237  -7.2042  -7.0770  -6.9680
    -6.9394  -6.8476  -6.7232  -6.5996  -4.9087  -3.4751  -3.1460  -3.0040
    -2.9120  -2.8922  -2.8019  -2.7416  -2.6967  -2.6672  -2.6066  -2.5286
    -2.4462  -2.3984  -2.3547  -2.3313  -2.2702  -2.2249  -2.1485  -2.0676
    -1.9830  -1.9084  -1.8513  -1.7978  -1.7573  -1.7226  -1.6801  -1.6350
    -1.5696  -1.5167  -1.4387  -1.3771  -1.3293  -1.2884  -1.1825  -1.0931
    -0.8679  -0.2766   2.2484   2.4157   3.4119   3.5988   4.2954   4.6151
     5.1481   5.1961   5.3008   5.3830   5.4371   5.4904   5.5630   5.6439
     5.6956   5.7690

     the Fermi energy is     2.3399 ev

!    total energy              =    -899.10567342 Ry
     estimated scf accuracy    <       0.00000019 Ry
     smearing contrib. (-TS)   =      -0.00787772 Ry
     internal energy E=F+TS    =    -899.09779569 Ry

     The total energy is F=E-TS. E is the sum of the following terms:
     one-electron contribution =    -507.12513728 Ry
     hartree contribution      =     291.78711985 Ry
     xc contribution           =    -236.26691626 Ry
     ewald contribution        =    -279.13067238 Ry
     one-center paw contrib.   =    -168.36218963 Ry

     convergence has been achieved in  12 iterations

     Forces acting on atoms (cartesian axes, Ry/au):

     atom    1 type  4   force =    -0.00056623   -0.00047624    0.00234230
     atom    2 type  4   force =     0.00106884    0.00283214   -0.00000179
     atom    3 type  2   force =    -0.01067615   -0.00557205    0.00056896
     atom    4 type  4   force =    -0.00326313    0.00113251   -0.00258624
     atom    5 type  5   force =     0.00235257   -0.00432747   -0.00574252
     atom    6 type  5   force =     0.00837504   -0.00416266    0.00233599
     atom    7 type  5   force =    -0.00221439   -0.00995863    0.00152742
     atom    8 type  5   force =     0.00018970    0.00154715   -0.00456140
     atom    9 type  1   force =    -0.00341169    0.00004182   -0.00044922
     atom   10 type  1   force =    -0.00748222   -0.00310877    0.00295156
     atom   11 type  1   force =     0.00207909    0.00216247    0.00246574
     atom   12 type  1   force =    -0.00109089    0.00102439   -0.00088301
     atom   13 type  1   force =     0.00386573   -0.00331313    0.00277045
     atom   14 type  6   force =    -0.01667698    0.00374319   -0.00966937
     atom   15 type  1   force =     0.00054656    0.00231998   -0.00240540
     atom   16 type  1   force =     0.00206661    0.00171200    0.00019910
     atom   17 type  1   force =     0.00189662    0.00057969   -0.00117733
     atom   18 type  1   force =    -0.00217846    0.00363898    0.00367359
     atom   19 type  1   force =    -0.00213658    0.00082796    0.00015087
     atom   20 type  1   force =     0.00299526    0.00024203    0.00160619
     atom   21 type  3   force =     0.00935536   -0.00005431   -0.00757583
     atom   22 type  3   force =    -0.00440471    0.00510336   -0.00125977
     atom   23 type  3   force =    -0.00469438    0.00533385    0.00401956
     atom   24 type  3   force =    -0.00006405   -0.00013532   -0.00016067
     atom   25 type  3   force =     0.00518251    0.00863411    0.00739022
     atom   26 type  3   force =     0.00704140   -0.00048481   -0.00353933
     atom   27 type  3   force =     0.00420852   -0.00459433    0.00117864
     atom   28 type  3   force =     0.00691564   -0.00199726   -0.00158645
     atom   29 type  3   force =     0.00344252   -0.00147908    0.00222530
     atom   30 type  3   force =    -0.00442456   -0.00620302    0.00214397
     atom   31 type  3   force =     0.00437860    0.01147772    0.00712821
     atom   32 type  3   force =    -0.00049507   -0.00058221   -0.00048829
     atom   33 type  3   force =    -0.00659300   -0.00426237   -0.00841831
     atom   34 type  3   force =    -0.00092949    0.00360023    0.00529549
     atom   35 type  3   force =    -0.00104156    0.00194391   -0.00294980
     atom   36 type  3   force =    -0.00099874   -0.00383039   -0.00234428
     atom   37 type  3   force =    -0.00289115    0.00675933   -0.00179228
     atom   38 type  3   force =     0.00241958   -0.00938346   -0.00128373
     atom   39 type  3   force =     0.00304126    0.00082926   -0.00028373
     atom   40 type  3   force =    -0.00059580   -0.00167103   -0.00401605
     atom   41 type  3   force =     0.00075488    0.00607353   -0.00185580
     atom   42 type  3   force =    -0.00109345   -0.00173474    0.00087397
     atom   43 type  3   force =     0.00022854   -0.00413478   -0.00492106
     atom   44 type  3   force =    -0.00643607    0.00299460    0.00216640
     atom   45 type  3   force =    -0.00531468   -0.00574225    0.00038031
     atom   46 type  3   force =     0.00286135   -0.00162200   -0.00071599
     atom   47 type  3   force =     0.00290560    0.00138718    0.00263633
     atom   48 type  3   force =     0.00092432   -0.00279067   -0.00209918
     atom   49 type  3   force =     0.00535112    0.00251354    0.00603242
     atom   50 type  3   force =    -0.00114456   -0.01043243    0.00633389
     atom   51 type  3   force =     0.00055603   -0.00003611   -0.00128122
     atom   52 type  3   force =     0.00421048    0.00043453    0.00376577
     atom   53 type  3   force =    -0.00222087   -0.00239821   -0.00440519
     atom   54 type  3   force =     0.00208781   -0.00084695    0.00881306
     atom   55 type  3   force =     0.00310494    0.00380697   -0.00355155
     atom   56 type  3   force =     0.00016877   -0.00136234   -0.00235292
     atom   57 type  3   force =     0.00180247    0.00249471    0.00397894
     atom   58 type  3   force =     0.00196985   -0.00059321    0.00217740
     atom   59 type  3   force =    -0.00071754   -0.00124660    0.00368673
     atom   60 type  3   force =     0.00539985   -0.00095416    0.00270544
     atom   61 type  3   force =    -0.00210019   -0.00029918    0.00100907
     atom   62 type  3   force =     0.00177510    0.00681500   -0.00615667
     atom   63 type  3   force =     0.00102221    0.00222745   -0.00593625
     atom   64 type  3   force =    -0.00087203    0.00158334   -0.00120309
     atom   65 type  3   force =    -0.00266062   -0.00296566    0.00315766
     atom   66 type  3   force =    -0.00262898    0.00314084   -0.00352685
     atom   67 type  3   force =     0.00033160   -0.00041854   -0.00047417
     atom   68 type  3   force =    -0.00485810    0.00421661    0.00396380

     Total force =     0.057436     Total SCF correction =     0.000870


     Computing stress (Cartesian axis) and pressure

          total   stress  (Ry/bohr**3)                   (kbar)     P=        0.86
   0.00000850  -0.00000151  -0.00002917            1.25       -0.22       -4.29
  -0.00000151  -0.00001392   0.00000288           -0.22       -2.05        0.42
  -0.00002917   0.00000288   0.00002288           -4.29        0.42        3.37

     Energy error            =      8.1E-03
     Gradient error          =      1.7E-02
     Cell gradient error     =      2.9E-05


     number of scf cycles    =  20
     number of bfgs steps    =  19

     enthalpy old            =    -899.0975340328 Ry
     enthalpy new            =    -899.1056734172 Ry

     CASE: enthalpy_new < enthalpy_old

     new trust radius        =       0.1087858790 bohr
     new conv_thr            =       0.0000001668 Ry

     new unit-cell volume =   5372.73543 a.u.^3 (   796.15725 Ang^3 )
     density =      0.14183 g/cm^3

CELL_PARAMETERS (angstrom)
  -0.052019071  -0.209636350  -8.264317559
   0.123126553  -8.368625685  -0.236953809
 -11.523144182   0.183949644  -0.071234176

ATOMIC_POSITIONS (angstrom)
K            -8.6307036587       -7.7706481971       -4.8941347139
K            -3.0281931422       -0.2799330281       -3.8397443623
Ga           -2.5627801207       -3.8790205686       -7.9480227984
K            -8.1387894035       -4.0949949239       -0.4195991852
Sr           -5.6582023956       -8.2767024607       -8.1333084645
Sr          -11.4060438892       -0.1531154696       -0.6295340209
Sr          -11.4516352233       -3.7521057999       -4.5757278661
Sr           -5.6260788586       -4.3394343394       -3.9560013956
B            -8.8309391099       -3.8376151434       -3.6980694415
B            -2.8803356635       -4.5409842567       -4.9868360636
B            -2.7399997704       -8.0490682917       -0.7531210777
B            -8.8069703817       -0.3808781811       -7.7501939488
B            -5.4098959287       -2.7913637309       -1.6575488109
Ta          -12.4829314829       -5.8042024098       -7.1316652028
B           -11.0172870461       -6.9357652100       -3.1140934029
B            -5.3871890976       -1.4127372301       -5.5670222408
B            -6.1756642023       -5.7556778977       -6.6825699829
B            -0.4091612767       -2.9221141874       -1.7594703567
B            -0.4405855488       -1.4161902128       -5.8523074447
B            -6.1402657298       -6.9024404851       -2.6696918485
H            -9.6850493535       -4.1152903258       -2.8560900958
H            -3.7930626522       -4.1718689206       -5.7032035315
H            -3.7308958081       -8.1555739347       -1.4706992164
H            -9.7751948538       -0.0339221857       -7.0895191060
H            -8.7890128487       -4.7325150144       -4.5504069124
H            -2.5451288394       -3.6258401902       -4.2401904056
H            -2.8285732013       -0.8543517579       -8.0396452304
H            -8.3711102350       -7.6463210385       -0.5200863685
H            -9.1380914900       -2.7817963918       -4.2602178495
H            -3.1664927593       -5.5172761833       -4.3223301472
H            -2.8850096887       -7.2033216074       -8.3394018822
H            -8.9974705777       -1.2202221972       -0.0887750517
H            -7.7890625374       -3.6369809358       -3.0951142797
H            -1.9046621673       -4.7962556883       -5.7524944289
H            -1.8296087315       -7.9335868595       -1.5471079969
H            -7.9111405908       -0.5903416294       -6.9467553740
H            -5.3226515302       -2.2248221751       -0.5772974515
H           -11.3434157994       -6.4754698075       -8.3509140070
H           -10.7866233501       -6.3674170507       -4.1668903782
H            -5.1978300384       -1.9016089901       -4.4638809790
H            -4.3385222433       -2.7444380999       -2.2676942914
H           -10.9060793454       -5.2698494517       -6.4183583645
H           -10.0055835655       -6.9701954583       -2.4004577886
H            -4.3254950579       -1.3621093827       -6.1947010585
H            -5.5929008501       -3.9786514481       -1.3985199026
H           -12.2677044011       -4.0711798486       -7.3217591407
H           -11.3880845556       -8.0819223151       -3.3959738375
H            -5.8172726031       -0.2761153197       -5.3506508379
H            -6.3298093865       -2.3817830484       -2.3658012285
H            -1.2058299224       -6.6367629590       -5.4527229327
H            -0.3755529733       -6.5561200904       -2.4061703968
H            -6.2198900270       -2.0305076940       -6.2246692535
H            -5.8690262786       -6.2495937685       -5.6030936542
H            -0.2864660756       -2.3150133896       -2.8225549334
H            -0.1806766013       -2.1580610212       -6.7992005947
H            -5.9186490546       -6.2358376315       -1.6554713937
H            -7.1623007577       -6.3532471985       -7.1308912236
H            -1.3654514779       -2.3663420036       -1.2075812437
H            -1.4840674083       -1.8271489233       -5.3582832133
H            -7.1221539218       -6.3998794472       -3.2223153006
H            -6.4388056756       -4.5662935706       -6.5559160240
H            -0.6842621425       -4.1092719616       -1.8879172976
H            -0.5988158988       -0.2352635260       -6.1980115261
H            -6.3800973355       -8.0691497400       -2.3951107670
H            -5.2233590370       -5.8268239652       -7.4639763452
H           -10.9091711370       -2.6422643772       -1.1553692353
H           -11.0367178074       -1.2552426357       -5.1153906781
H            -5.1519809459       -6.8667776349       -3.4096163403



     Writing output data file ./tmp/K3Sr4TaGaB11H48.save/
     NEW-OLD atomic charge density approx. for the potential

     negative rho (up, down):  4.838E-06 0.000E+00
     extrapolated charge  149.86960, renormalised to  150.00000

     total cpu time spent up to now is    40593.1 secs

     Self-consistent Calculation

     iteration #  1     ecut=    50.00 Ry     beta= 0.70
     CG style diagonalization
     ethr =  1.00E-06,  avg # of iterations = 16.6

     negative rho (up, down):  1.301E-07 0.000E+00

     total cpu time spent up to now is    41535.5 secs

     total energy              =    -899.10355289 Ry
     estimated scf accuracy    <       0.02187053 Ry

     iteration #  2     ecut=    50.00 Ry     beta= 0.70
     CG style diagonalization
     ethr =  1.46E-05,  avg # of iterations =  3.3

     negative rho (up, down):  1.225E-08 0.000E+00

     total cpu time spent up to now is    41701.6 secs

     total energy              =    -899.10123720 Ry
     estimated scf accuracy    <       0.03055077 Ry

     iteration #  3     ecut=    50.00 Ry     beta= 0.70
     CG style diagonalization
     ethr =  1.46E-05,  avg # of iterations =  3.4

     total cpu time spent up to now is    41870.0 secs

     total energy              =    -899.10449817 Ry
     estimated scf accuracy    <       0.07002225 Ry

     iteration #  4     ecut=    50.00 Ry     beta= 0.70
     CG style diagonalization
     ethr =  1.46E-05,  avg # of iterations =  3.1

     total cpu time spent up to now is    42020.4 secs

     total energy              =    -899.11050442 Ry
     estimated scf accuracy    <       0.00231155 Ry

     iteration #  5     ecut=    50.00 Ry     beta= 0.70
     CG style diagonalization
     ethr =  1.54E-06,  avg # of iterations =  3.3

     total cpu time spent up to now is    42182.4 secs

     total energy              =    -899.11097644 Ry
     estimated scf accuracy    <       0.00128234 Ry

     iteration #  6     ecut=    50.00 Ry     beta= 0.70
     CG style diagonalization
     ethr =  8.55E-07,  avg # of iterations =  3.1

     total cpu time spent up to now is    42334.4 secs

     total energy              =    -899.11111791 Ry
     estimated scf accuracy    <       0.00062582 Ry

     iteration #  7     ecut=    50.00 Ry     beta= 0.70
     CG style diagonalization
     ethr =  4.17E-07,  avg # of iterations =  3.2

     total cpu time spent up to now is    42493.8 secs

     total energy              =    -899.11117610 Ry
     estimated scf accuracy    <       0.00008900 Ry

     iteration #  8     ecut=    50.00 Ry     beta= 0.70
     CG style diagonalization
     ethr =  5.93E-08,  avg # of iterations =  4.7

     total cpu time spent up to now is    42740.3 secs

     total energy              =    -899.11124271 Ry
     estimated scf accuracy    <       0.00002348 Ry

     iteration #  9     ecut=    50.00 Ry     beta= 0.70
     CG style diagonalization
     ethr =  1.57E-08,  avg # of iterations =  4.8

     total cpu time spent up to now is    42992.6 secs

     total energy              =    -899.11125905 Ry
     estimated scf accuracy    <       0.00003171 Ry

     iteration # 10     ecut=    50.00 Ry     beta= 0.70
     CG style diagonalization
     ethr =  1.57E-08,  avg # of iterations =  3.4

     total cpu time spent up to now is    43164.4 secs

     total energy              =    -899.11126305 Ry
     estimated scf accuracy    <       0.00001035 Ry

     iteration # 11     ecut=    50.00 Ry     beta= 0.70
     CG style diagonalization
     ethr =  6.90E-09,  avg # of iterations =  3.7

     total cpu time spent up to now is    43352.8 secs

     total energy              =    -899.11126417 Ry
     estimated scf accuracy    <       0.00000681 Ry

     iteration # 12     ecut=    50.00 Ry     beta= 0.70
     CG style diagonalization
     ethr =  4.54E-09,  avg # of iterations =  3.8

     total cpu time spent up to now is    43546.5 secs

     total energy              =    -899.11126620 Ry
     estimated scf accuracy    <       0.00000370 Ry

     iteration # 13     ecut=    50.00 Ry     beta= 0.70
     CG style diagonalization
     ethr =  2.46E-09,  avg # of iterations =  3.9

     total cpu time spent up to now is    43741.7 secs

     total energy              =    -899.11126763 Ry
     estimated scf accuracy    <       0.00000019 Ry

     iteration # 14     ecut=    50.00 Ry     beta= 0.70
     CG style diagonalization
     c_bands:  1 eigenvalues not converged
     c_bands:  1 eigenvalues not converged
     c_bands:  1 eigenvalues not converged
     c_bands:  1 eigenvalues not converged
     c_bands:  1 eigenvalues not converged
     ethr =  1.28E-10,  avg # of iterations =  7.6

     total cpu time spent up to now is    44157.0 secs

     End of self-consistent calculation

          k =-0.0000-0.0000 0.0000 ( 32571 PWs)   bands (ev):

   -65.9559 -33.8554 -33.8305 -33.4659 -33.3568 -32.6244 -32.4895 -32.3565
   -15.8942 -15.8779 -15.8727 -15.8597 -15.8462 -15.8300 -15.5654 -15.5237
   -15.4911 -15.4524 -15.4281 -15.4013 -12.6143 -12.6099 -12.5243 -12.5016
   -12.4786  -7.9921  -7.5429  -7.4349  -7.1857  -7.1289  -7.0056  -6.9354
    -6.9131  -6.8381  -6.6563  -6.5636  -4.8575  -3.6188  -3.2217  -3.0654
    -2.9708  -2.9218  -2.8869  -2.7951  -2.7896  -2.7130  -2.5920  -2.4944
    -2.4730  -2.4219  -2.3557  -2.2822  -2.2487  -2.1928  -2.1408  -2.1047
    -2.0062  -1.9660  -1.9364  -1.8521  -1.7927  -1.7058  -1.6762  -1.5744
    -1.4842  -1.4469  -1.4126  -1.3906  -1.2284  -1.2126  -1.1718  -0.8588
    -0.7375  -0.3511   2.2727   2.4672   3.6137   3.6977   4.4148   4.6074
     4.8776   4.9554   5.0429   5.0959   5.2402   5.3358   5.5329   5.7086
     5.8008   5.8174

          k = 0.3760 0.0056-0.0025 ( 32604 PWs)   bands (ev):

   -65.9559 -33.8554 -33.8305 -33.4659 -33.3568 -32.6244 -32.4895 -32.3565
   -15.8941 -15.8778 -15.8726 -15.8597 -15.8462 -15.8300 -15.5656 -15.5237
   -15.4911 -15.4525 -15.4281 -15.4013 -12.6143 -12.6099 -12.5244 -12.5016
   -12.4786  -7.9452  -7.6141  -7.4387  -7.1681  -7.1108  -7.0086  -6.9544
    -6.9183  -6.8301  -6.6436  -6.5744  -4.8586  -3.6157  -3.1275  -3.0351
    -2.9911  -2.9424  -2.8753  -2.7964  -2.7330  -2.6522  -2.6224  -2.5830
    -2.5185  -2.4591  -2.4278  -2.3248  -2.3102  -2.1515  -2.0943  -2.0377
    -2.0076  -1.9543  -1.8666  -1.8419  -1.8016  -1.6973  -1.6554  -1.5617
    -1.5118  -1.4837  -1.4494  -1.3285  -1.3154  -1.2095  -1.1819  -0.8576
    -0.7460  -0.3398   2.2804   2.4704   3.6096   3.6784   4.3813   4.6724
     4.9195   5.0535   5.1006   5.2094   5.2580   5.3628   5.4869   5.6772
     5.7875   5.9065

          k = 0.0084 0.5180-0.0132 ( 32596 PWs)   bands (ev):

   -65.9559 -33.8554 -33.8305 -33.4659 -33.3568 -32.6244 -32.4895 -32.3565
   -15.8941 -15.8776 -15.8720 -15.8562 -15.8502 -15.8307 -15.5654 -15.5232
   -15.4906 -15.4524 -15.4286 -15.4020 -12.6143 -12.6099 -12.5243 -12.5016
   -12.4786  -7.9068  -7.5952  -7.3226  -7.2029  -7.1114  -7.0942  -6.9722
    -6.9286  -6.8765  -6.6470  -6.5868  -4.9279  -3.6063  -3.0704  -3.0560
    -2.9952  -2.8949  -2.8759  -2.8419  -2.7590  -2.6621  -2.6198  -2.5505
    -2.4720  -2.4123  -2.3406  -2.2551  -2.2200  -2.1867  -2.0883  -2.0319
    -1.9728  -1.9152  -1.8109  -1.7909  -1.7776  -1.7333  -1.6680  -1.6110
    -1.5655  -1.5276  -1.4800  -1.4245  -1.3610  -1.3072  -1.2113  -0.8451
    -0.7549  -0.2733   2.2136   2.4332   3.5001   3.6071   4.4136   4.6350
     4.9750   5.1314   5.1396   5.2910   5.3347   5.4584   5.5312   5.6239
     5.6856   5.7963

          k = 0.3843 0.5237-0.0157 ( 32564 PWs)   bands (ev):

   -65.9559 -33.8554 -33.8305 -33.4659 -33.3568 -32.6244 -32.4895 -32.3565
   -15.8940 -15.8775 -15.8720 -15.8562 -15.8502 -15.8307 -15.5656 -15.5232
   -15.4906 -15.4526 -15.4286 -15.4020 -12.6143 -12.6099 -12.5243 -12.5016
   -12.4786  -7.8809  -7.4979  -7.4356  -7.3058  -7.1373  -7.0134  -6.9733
    -6.9249  -6.8572  -6.6541  -6.5688  -4.9297  -3.5964  -3.0856  -3.0460
    -2.9948  -2.9003  -2.8692  -2.8232  -2.7201  -2.6803  -2.6360  -2.4765
    -2.4469  -2.3926  -2.3667  -2.2308  -2.1783  -2.1485  -2.1157  -2.1018
    -2.0200  -1.9271  -1.8897  -1.8342  -1.8105  -1.7565  -1.6513  -1.5971
    -1.5615  -1.4844  -1.4516  -1.4095  -1.3882  -1.2917  -1.2152  -0.8627
    -0.7570  -0.2675   2.2170   2.4376   3.5003   3.6017   4.4163   4.6588
     5.0151   5.1620   5.1933   5.3412   5.3561   5.4629   5.5921   5.6244
     5.7684   5.8340

          k =-0.0035-0.0149 0.5245 ( 32578 PWs)   bands (ev):

   -65.9559 -33.8554 -33.8305 -33.4659 -33.3568 -32.6244 -32.4895 -32.3565
   -15.8941 -15.8776 -15.8721 -15.8568 -15.8496 -15.8306 -15.5653 -15.5233
   -15.4909 -15.4524 -15.4287 -15.4017 -12.6143 -12.6099 -12.5244 -12.5016
   -12.4786  -7.8916  -7.5606  -7.3277  -7.2293  -7.1542  -7.1008  -6.9333
    -6.9264  -6.8653  -6.7001  -6.5831  -4.8605  -3.6087  -3.1138  -3.0118
    -2.9810  -2.9427  -2.8508  -2.7935  -2.7304  -2.6881  -2.6345  -2.6279
    -2.4570  -2.3582  -2.3326  -2.2843  -2.2560  -2.1574  -2.1125  -2.0555
    -2.0108  -1.9827  -1.8874  -1.7920  -1.7682  -1.6984  -1.6684  -1.5979
    -1.5506  -1.4612  -1.4463  -1.4367  -1.3117  -1.2167  -1.1808  -1.0192
    -0.7686  -0.3223   2.3251   2.4526   3.5643   3.7340   4.3843   4.7043
     5.0235   5.1343   5.2041   5.2512   5.3722   5.4255   5.5574   5.5851
     5.7215   5.7985

          k = 0.3725-0.0093 0.5220 ( 32564 PWs)   bands (ev):

   -65.9559 -33.8554 -33.8305 -33.4659 -33.3568 -32.6244 -32.4895 -32.3565
   -15.8940 -15.8774 -15.8721 -15.8568 -15.8496 -15.8306 -15.5656 -15.5233
   -15.4909 -15.4526 -15.4288 -15.4017 -12.6143 -12.6099 -12.5243 -12.5016
   -12.4786  -7.8659  -7.4735  -7.3889  -7.3526  -7.1653  -7.0439  -6.9513
    -6.9313  -6.8415  -6.6674  -6.6012  -4.8545  -3.6113  -3.0601  -2.9810
    -2.9472  -2.8851  -2.8700  -2.7679  -2.7584  -2.7257  -2.6606  -2.5491
    -2.5033  -2.4566  -2.3418  -2.2662  -2.2519  -2.2305  -2.1527  -2.0780
    -2.0008  -1.9866  -1.8796  -1.8000  -1.7341  -1.6411  -1.6202  -1.5944
    -1.5152  -1.4864  -1.4680  -1.4250  -1.3238  -1.2476  -1.1948  -1.0219
    -0.7775  -0.3159   2.3302   2.4548   3.5663   3.7185   4.3960   4.6959
     5.0971   5.1774   5.2514   5.3043   5.4001   5.4942   5.5557   5.6135
     5.7191   5.7694

          k = 0.0049 0.5031 0.5113 ( 32544 PWs)   bands (ev):

   -65.9559 -33.8554 -33.8305 -33.4659 -33.3568 -32.6244 -32.4895 -32.3565
   -15.8943 -15.8777 -15.8730 -15.8609 -15.8451 -15.8300 -15.5653 -15.5238
   -15.4918 -15.4524 -15.4278 -15.4012 -12.6143 -12.6099 -12.5243 -12.5016
   -12.4786  -7.8610  -7.5139  -7.3385  -7.2099  -7.1113  -7.0882  -6.9954
    -6.9417  -6.9060  -6.7114  -6.6227  -4.9704  -3.5430  -3.1191  -3.0896
    -3.0258  -2.8611  -2.7612  -2.6584  -2.6455  -2.6123  -2.5715  -2.5093
    -2.4466  -2.4017  -2.3763  -2.3220  -2.2495  -2.2261  -2.1912  -2.0902
    -2.0459  -1.9420  -1.9225  -1.8159  -1.7597  -1.7320  -1.6793  -1.5626
    -1.5215  -1.4944  -1.4558  -1.3766  -1.3492  -1.3066  -1.1630  -1.0218
    -0.8385  -0.2697   2.2664   2.4338   3.4149   3.6679   4.3404   4.6626
     5.0123   5.1446   5.2976   5.3021   5.3703   5.4178   5.5608   5.6243
     5.6552   5.7641

          k = 0.3808 0.5087 0.5088 ( 32568 PWs)   bands (ev):

   -65.9559 -33.8554 -33.8305 -33.4659 -33.3568 -32.6244 -32.4895 -32.3565
   -15.8943 -15.8775 -15.8729 -15.8609 -15.8450 -15.8300 -15.5656 -15.5238
   -15.4918 -15.4525 -15.4278 -15.4012 -12.6143 -12.6099 -12.5243 -12.5016
   -12.4786  -7.8392  -7.4158  -7.3563  -7.3115  -7.2080  -7.0705  -6.9696
    -6.9555  -6.8645  -6.7234  -6.5970  -4.9635  -3.4981  -3.1378  -3.0190
    -2.9137  -2.8909  -2.8109  -2.7436  -2.7076  -2.6426  -2.6019  -2.5310
    -2.4552  -2.4065  -2.3590  -2.3237  -2.2582  -2.2238  -2.1332  -2.0728
    -1.9753  -1.9194  -1.8467  -1.8025  -1.7575  -1.7389  -1.6948  -1.6345
    -1.5800  -1.5017  -1.4512  -1.3897  -1.3444  -1.2866  -1.1932  -1.0236
    -0.8335  -0.2736   2.2662   2.4376   3.4150   3.6608   4.3497   4.6813
     5.1484   5.1937   5.3034   5.3807   5.4418   5.4854   5.5669   5.6482
     5.7081   5.7729

     the Fermi energy is     2.3613 ev

!    total energy              =    -899.11126881 Ry
     estimated scf accuracy    <       0.00000006 Ry
     smearing contrib. (-TS)   =      -0.00779581 Ry
     internal energy E=F+TS    =    -899.10347299 Ry

     The total energy is F=E-TS. E is the sum of the following terms:
     one-electron contribution =    -508.83421807 Ry
     hartree contribution      =     292.67097118 Ry
     xc contribution           =    -236.28383079 Ry
     ewald contribution        =    -278.28875155 Ry
     one-center paw contrib.   =    -168.36764376 Ry

     convergence has been achieved in  14 iterations

     Forces acting on atoms (cartesian axes, Ry/au):

     atom    1 type  4   force =    -0.00053312   -0.00098957    0.00151652
     atom    2 type  4   force =     0.00153803    0.00309485    0.00069959
     atom    3 type  2   force =    -0.01460566   -0.00067653   -0.00243545
     atom    4 type  4   force =    -0.00301808    0.00089554   -0.00246581
     atom    5 type  5   force =     0.00242533   -0.00447092   -0.00508512
     atom    6 type  5   force =     0.00706195   -0.00296930    0.00303977
     atom    7 type  5   force =     0.00119142   -0.01092165    0.00065799
     atom    8 type  5   force =    -0.00084376    0.00192135   -0.00288892
     atom    9 type  1   force =    -0.00072127    0.00198316   -0.00308179
     atom   10 type  1   force =    -0.00721756   -0.00165742    0.00293913
     atom   11 type  1   force =     0.00100222    0.00403292    0.00505461
     atom   12 type  1   force =     0.00034781    0.00004723   -0.00074893
     atom   13 type  1   force =     0.00162625   -0.00303537    0.00263935
     atom   14 type  6   force =    -0.00553983   -0.02083760   -0.00610066
     atom   15 type  1   force =    -0.00057631    0.00118857   -0.00048970
     atom   16 type  1   force =     0.00036061    0.00153016    0.00031391
     atom   17 type  1   force =     0.00106842    0.00213557    0.00034290
     atom   18 type  1   force =    -0.00208644    0.00163595    0.00324084
     atom   19 type  1   force =    -0.00050125    0.00277082   -0.00213273
     atom   20 type  1   force =     0.00070218    0.00022352    0.00206369
     atom   21 type  3   force =     0.00524365   -0.00137408   -0.00390225
     atom   22 type  3   force =    -0.00341487    0.00448585   -0.00049192
     atom   23 type  3   force =    -0.00229420    0.00585353    0.00525977
     atom   24 type  3   force =     0.00100102   -0.00036791   -0.00100599
     atom   25 type  3   force =     0.00472688    0.00386987    0.00462516
     atom   26 type  3   force =     0.00546300   -0.00098896   -0.00356881
     atom   27 type  3   force =     0.00429096   -0.00146681   -0.00119828
     atom   28 type  3   force =     0.00593309   -0.00211368   -0.00110310
     atom   29 type  3   force =     0.00125336    0.00167341    0.00133941
     atom   30 type  3   force =    -0.00399667   -0.00495444    0.00052861
     atom   31 type  3   force =     0.00551053    0.00829013    0.00554979
     atom   32 type  3   force =    -0.00157850    0.00040677   -0.00030863
     atom   33 type  3   force =    -0.00279213   -0.00361900   -0.00590626
     atom   34 type  3   force =    -0.00392342    0.00588879    0.00697882
     atom   35 type  3   force =    -0.00370184    0.00139663   -0.00171827
     atom   36 type  3   force =    -0.00035088   -0.00305353   -0.00132950
     atom   37 type  3   force =    -0.00221425    0.00622565   -0.00138565
     atom   38 type  3   force =     0.00052675   -0.00976079   -0.00092571
     atom   39 type  3   force =     0.00208521    0.00151707    0.00172441
     atom   40 type  3   force =     0.00053366   -0.00165209   -0.00297781
     atom   41 type  3   force =    -0.00035459    0.00467748   -0.00137101
     atom   42 type  3   force =    -0.01019420   -0.00209791   -0.00099567
     atom   43 type  3   force =     0.00110590   -0.00288707   -0.00532919
     atom   44 type  3   force =    -0.00396749    0.00260494    0.00151469
     atom   45 type  3   force =    -0.00317713   -0.00464261   -0.00032575
     atom   46 type  3   force =     0.00700697    0.01277279    0.00033261
     atom   47 type  3   force =     0.00220386    0.00007364    0.00216463
     atom   48 type  3   force =     0.00079164    0.00041944   -0.00143831
     atom   49 type  3   force =     0.00564107    0.00301948    0.00478331
     atom   50 type  3   force =     0.00028930   -0.00969965    0.00350728
     atom   51 type  3   force =     0.00179699    0.00055699   -0.00342284
     atom   52 type  3   force =     0.00265950   -0.00213233    0.00188296
     atom   53 type  3   force =    -0.00137504   -0.00320897   -0.00394524
     atom   54 type  3   force =     0.00203853    0.00265547    0.00636732
     atom   55 type  3   force =     0.00238023    0.00356387   -0.00091948
     atom   56 type  3   force =     0.00115714   -0.00045622   -0.00131153
     atom   57 type  3   force =     0.00190198    0.00109968    0.00233417
     atom   58 type  3   force =     0.00113937    0.00112409    0.00350716
     atom   59 type  3   force =     0.00199794   -0.00076592    0.00268548
     atom   60 type  3   force =     0.00496914    0.00023527    0.00153007
     atom   61 type  3   force =    -0.00223558    0.00146736    0.00065612
     atom   62 type  3   force =     0.00095324    0.00206948   -0.00596960
     atom   63 type  3   force =     0.00001744    0.00230563   -0.00577419
     atom   64 type  3   force =    -0.00067934   -0.00097954   -0.00090393
     atom   65 type  3   force =    -0.00302104   -0.00380830    0.00284965
     atom   66 type  3   force =    -0.00173502    0.00386456   -0.00171444
     atom   67 type  3   force =    -0.00189294   -0.00232525   -0.00112238
     atom   68 type  3   force =    -0.00340015    0.00433589    0.00316516

     Total force =     0.055161     Total SCF correction =     0.000280


     Computing stress (Cartesian axis) and pressure

          total   stress  (Ry/bohr**3)                   (kbar)     P=        1.22
   0.00000540  -0.00000691  -0.00002023            0.80       -1.02       -2.98
  -0.00000691   0.00000564   0.00000293           -1.02        0.83        0.43
  -0.00002023   0.00000293   0.00001381           -2.98        0.43        2.03

     Energy error            =      5.6E-03
     Gradient error          =      2.1E-02
     Cell gradient error     =      2.0E-05


     number of scf cycles    =  21
     number of bfgs steps    =  20

     enthalpy old            =    -899.1056734172 Ry
     enthalpy new            =    -899.1112688068 Ry

     CASE: enthalpy_new < enthalpy_old

     new trust radius        =       0.0980736985 bohr
     new conv_thr            =       0.0000002084 Ry

     new unit-cell volume =   5370.45622 a.u.^3 (   795.81951 Ang^3 )
     density =      0.14189 g/cm^3

CELL_PARAMETERS (angstrom)
  -0.028837862  -0.200713647  -8.281815839
   0.122117745  -8.338163589  -0.231557481
 -11.534995864   0.180985061  -0.040895360

ATOMIC_POSITIONS (angstrom)
K            -8.6242411940       -7.7358028992       -4.8749968793
K            -3.0208851165       -0.2671639719       -3.8437365950
Ga           -2.5641947315       -3.8659339225       -7.9386813792
K            -8.1525587196       -4.0725544491       -0.4037081460
Sr           -5.6460988524       -8.2514804255       -8.1380286529
Sr          -11.4028349331       -0.1564252187       -0.6044759570
Sr          -11.4609272026       -3.7452390002       -4.5444533348
Sr           -5.6239406102       -4.3164791580       -3.9576843297
B            -8.8328437404       -3.8159634214       -3.6823002919
B            -2.8711247241       -4.5330587735       -4.9924270287
B            -2.7276096266       -8.0115675665       -0.7334856853
B            -8.7934885696       -0.3797605127       -7.7470051801
B            -5.4063458545       -2.7819744171       -1.6432085892
Ta          -12.5259540794       -5.7946019463       -7.1072206862
B           -11.0164003435       -6.9039513480       -3.0929524905
B            -5.3733583388       -1.4029893906       -5.5609808344
B            -6.1631295851       -5.7306118026       -6.6735761131
B            -0.4066524071       -2.9075095457       -1.7561099543
B            -0.4276270949       -1.4049866470       -5.8627125437
B            -6.1365044431       -6.8758374150       -2.6493643111
H            -9.6764537429       -4.1010806792       -2.8449276217
H            -3.7792906851       -4.1393560444       -5.7066546724
H            -3.7297796836       -8.1071492298       -1.4448380574
H            -9.7633743019       -0.0234420264       -7.0887220969
H            -8.7763558705       -4.6966973969       -4.5350205765
H            -2.5037104576       -3.6222019083       -4.2517237049
H            -2.7917395007       -0.8461507927       -8.0453947923
H            -8.3563075375       -7.6313789951       -0.4958925415
H            -9.1342074775       -2.7622758575       -4.2394602584
H            -3.1655843116       -5.5073034521       -4.3240635625
H            -2.8428098449       -7.1475229347       -8.3281716946
H            -9.0085753971       -1.2279680782       -0.0691045692
H            -7.7946185135       -3.6193501568       -3.0873490885
H            -1.8840065148       -4.7879208473       -5.7544676519
H            -1.8229403720       -7.8949879752       -1.5393922016
H            -7.9035206712       -0.6045161667       -6.9416402039
H            -5.3331672233       -2.2050611554       -0.5660407431
H           -11.3490470197       -6.4315504309       -8.3261314405
H           -10.7753165652       -6.3448529250       -4.1493698401
H            -5.1863280202       -1.8930418140       -4.4598387812
H            -4.3357359112       -2.7213855079       -2.2570728439
H           -10.9233793817       -5.2495413171       -6.4026074400
H           -10.0061780673       -6.9542402738       -2.3797123146
H            -4.3188935491       -1.3434897408       -6.1915507736
H            -5.6060544455       -3.9689719421       -1.3866645080
H           -12.3069034470       -4.0715137197       -7.3151588703
H           -11.3910399339       -8.0489089133       -3.3669128776
H            -5.8157151077       -0.2748221635       -5.3478563208
H            -6.3251671345       -2.3660337428       -2.3466136482
H            -1.2137807009       -6.6218288762       -5.4407741036
H            -0.3604660244       -6.5204048141       -2.4092804185
H            -6.2003502844       -2.0251576533       -6.2138322273
H            -5.8647492883       -6.2239041560       -5.5934001597
H            -0.2776380547       -2.3085066092       -2.8170250752
H            -0.1623843394       -2.1392155066       -6.8176259763
H            -5.9234778621       -6.2138765016       -1.6347433414
H            -7.1540013757       -6.3217889981       -7.1118461945
H            -1.3600589280       -2.3595802468       -1.2007611325
H            -1.4727700543       -1.8136731827       -5.3620009201
H            -7.1180310718       -6.3765120096       -3.1980905881
H            -6.4281958174       -4.5426608664       -6.5451980497
H            -0.6797024527       -4.0882053249       -1.8965836761
H            -0.5783811570       -0.2225893123       -6.2152187195
H            -6.3811055778       -8.0402360058       -2.3801568219
H            -5.2108806967       -5.8056486762       -7.4518423063
H           -10.9140244401       -2.6358495135       -1.1334763676
H           -11.0301859540       -1.2413787184       -5.0991318826
H            -5.1532050491       -6.8343983770       -3.3893630884



     Writing output data file ./tmp/K3Sr4TaGaB11H48.save/
     NEW-OLD atomic charge density approx. for the potential

     negative rho (up, down):  1.112E-06 0.000E+00
     extrapolated charge  149.93642, renormalised to  150.00000

     total cpu time spent up to now is    44650.6 secs

     Self-consistent Calculation

     iteration #  1     ecut=    50.00 Ry     beta= 0.70
     CG style diagonalization
     c_bands:  1 eigenvalues not converged
     ethr =  1.00E-06,  avg # of iterations = 16.3

     negative rho (up, down):  6.003E-08 0.000E+00

     total cpu time spent up to now is    45569.7 secs

     total energy              =    -899.11039478 Ry
     estimated scf accuracy    <       0.02042559 Ry

     iteration #  2     ecut=    50.00 Ry     beta= 0.70
     CG style diagonalization
     ethr =  1.36E-05,  avg # of iterations =  3.2

     negative rho (up, down):  1.101E-08 0.000E+00

     total cpu time spent up to now is    45737.2 secs

     total energy              =    -899.11058846 Ry
     estimated scf accuracy    <       0.01676873 Ry

     iteration #  3     ecut=    50.00 Ry     beta= 0.70
     CG style diagonalization
     ethr =  1.12E-05,  avg # of iterations =  3.4

     total cpu time spent up to now is    45913.1 secs

     total energy              =    -899.11135683 Ry
     estimated scf accuracy    <       0.05554680 Ry

     iteration #  4     ecut=    50.00 Ry     beta= 0.70
     CG style diagonalization
     ethr =  1.12E-05,  avg # of iterations =  3.1

     total cpu time spent up to now is    46068.8 secs

     total energy              =    -899.11608380 Ry
     estimated scf accuracy    <       0.00195791 Ry

     iteration #  5     ecut=    50.00 Ry     beta= 0.70
     CG style diagonalization
     ethr =  1.31E-06,  avg # of iterations =  3.3

     total cpu time spent up to now is    46239.0 secs

     total energy              =    -899.11651481 Ry
     estimated scf accuracy    <       0.00119431 Ry

     iteration #  6     ecut=    50.00 Ry     beta= 0.70
     CG style diagonalization
     c_bands:  1 eigenvalues not converged
     ethr =  7.96E-07,  avg # of iterations =  3.1

     total cpu time spent up to now is    46401.8 secs

     total energy              =    -899.11664628 Ry
     estimated scf accuracy    <       0.00044027 Ry

     iteration #  7     ecut=    50.00 Ry     beta= 0.70
     CG style diagonalization
     ethr =  2.94E-07,  avg # of iterations =  3.2

     total cpu time spent up to now is    46571.0 secs

     total energy              =    -899.11669107 Ry
     estimated scf accuracy    <       0.00003183 Ry

     iteration #  8     ecut=    50.00 Ry     beta= 0.70
     CG style diagonalization
     ethr =  2.12E-08,  avg # of iterations =  5.4

     total cpu time spent up to now is    46879.9 secs

     total energy              =    -899.11673463 Ry
     estimated scf accuracy    <       0.00001499 Ry

     iteration #  9     ecut=    50.00 Ry     beta= 0.70
     CG style diagonalization
     ethr =  9.99E-09,  avg # of iterations =  4.3

     total cpu time spent up to now is    47116.3 secs

     total energy              =    -899.11674025 Ry
     estimated scf accuracy    <       0.00001979 Ry

     iteration # 10     ecut=    50.00 Ry     beta= 0.70
     CG style diagonalization
     ethr =  9.99E-09,  avg # of iterations =  3.4

     total cpu time spent up to now is    47298.1 secs

     total energy              =    -899.11674248 Ry
     estimated scf accuracy    <       0.00000718 Ry

     iteration # 11     ecut=    50.00 Ry     beta= 0.70
     CG style diagonalization
     ethr =  4.79E-09,  avg # of iterations =  3.5

     total cpu time spent up to now is    47486.8 secs

     total energy              =    -899.11674263 Ry
     estimated scf accuracy    <       0.00000608 Ry

     iteration # 12     ecut=    50.00 Ry     beta= 0.70
     CG style diagonalization
     ethr =  4.05E-09,  avg # of iterations =  3.5

     total cpu time spent up to now is    47672.9 secs

     total energy              =    -899.11674372 Ry
     estimated scf accuracy    <       0.00000242 Ry

     iteration # 13     ecut=    50.00 Ry     beta= 0.70
     CG style diagonalization
     ethr =  1.61E-09,  avg # of iterations =  4.6

     total cpu time spent up to now is    47930.1 secs

     total energy              =    -899.11674529 Ry
     estimated scf accuracy    <       0.00000091 Ry

     iteration # 14     ecut=    50.00 Ry     beta= 0.70
     CG style diagonalization
     ethr =  6.04E-10,  avg # of iterations =  4.3

     total cpu time spent up to now is    48163.9 secs

     End of self-consistent calculation

          k = 0.0000 0.0000 0.0000 ( 32571 PWs)   bands (ev):

   -65.9547 -33.8831 -33.8502 -33.4510 -33.3408 -32.6185 -32.4895 -32.3455
   -15.9208 -15.8979 -15.8949 -15.8838 -15.8656 -15.8483 -15.5528 -15.5081
   -15.4738 -15.4389 -15.4120 -15.3837 -12.5822 -12.5757 -12.4917 -12.4691
   -12.4442  -8.0113  -7.5603  -7.4289  -7.1872  -7.1306  -7.0103  -6.9502
    -6.9101  -6.8649  -6.6619  -6.5581  -4.8896  -3.6290  -3.2309  -3.0848
    -2.9770  -2.9007  -2.8782  -2.8097  -2.7774  -2.7121  -2.5988  -2.5027
    -2.4786  -2.4235  -2.3650  -2.2806  -2.2380  -2.2008  -2.1483  -2.1056
    -2.0115  -1.9786  -1.9565  -1.8557  -1.7796  -1.7263  -1.6694  -1.5772
    -1.4828  -1.4658  -1.4435  -1.3960  -1.2342  -1.2059  -1.1669  -0.8031
    -0.7069  -0.3069   2.2916   2.4903   3.6168   3.7786   4.4639   4.6279
     4.8754   4.9756   5.0402   5.0836   5.2531   5.3352   5.5305   5.7063
     5.7952   5.8220

          k = 0.3756 0.0055-0.0014 ( 32604 PWs)   bands (ev):

   -65.9547 -33.8831 -33.8502 -33.4510 -33.3408 -32.6185 -32.4895 -32.3455
   -15.9208 -15.8978 -15.8948 -15.8838 -15.8656 -15.8482 -15.5530 -15.5081
   -15.4738 -15.4391 -15.4120 -15.3837 -12.5823 -12.5757 -12.4917 -12.4691
   -12.4442  -7.9671  -7.6224  -7.4406  -7.1679  -7.1129  -7.0066  -6.9731
    -6.9191  -6.8559  -6.6497  -6.5682  -4.8908  -3.6248  -3.1371  -3.0617
    -2.9930  -2.9162  -2.8777  -2.7948  -2.7272  -2.6642  -2.6166  -2.5882
    -2.5324  -2.4602  -2.4386  -2.3310  -2.2930  -2.1509  -2.1003  -2.0374
    -2.0127  -1.9794  -1.8746  -1.8346  -1.8075  -1.7066  -1.6549  -1.5679
    -1.5353  -1.4906  -1.4670  -1.3378  -1.3138  -1.2036  -1.1775  -0.8016
    -0.7162  -0.2954   2.2994   2.4929   3.6173   3.7534   4.4286   4.7047
     4.9168   5.0473   5.1009   5.2144   5.2678   5.3550   5.4989   5.6826
     5.7840   5.8473

          k = 0.0082 0.5199-0.0126 ( 32596 PWs)   bands (ev):

   -65.9547 -33.8831 -33.8502 -33.4511 -33.3408 -32.6185 -32.4895 -32.3455
   -15.9208 -15.8967 -15.8953 -15.8813 -15.8686 -15.8488 -15.5528 -15.5076
   -15.4733 -15.4389 -15.4126 -15.3844 -12.5822 -12.5757 -12.4917 -12.4691
   -12.4442  -7.9310  -7.5960  -7.3252  -7.2002  -7.1140  -7.1023  -6.9900
    -6.9253  -6.8991  -6.6557  -6.5841  -4.9607  -3.6121  -3.0842  -3.0532
    -2.9912  -2.9140  -2.8786  -2.8409  -2.7518  -2.6740  -2.6095  -2.5603
    -2.4686  -2.4135  -2.3260  -2.2646  -2.2233  -2.2017  -2.0759  -2.0247
    -1.9838  -1.9265  -1.8192  -1.8051  -1.7799  -1.7410  -1.6718  -1.6230
    -1.5890  -1.5505  -1.4635  -1.4085  -1.3705  -1.3151  -1.2174  -0.7974
    -0.7286  -0.2235   2.2278   2.4509   3.5041   3.6882   4.4619   4.6767
     4.9820   5.1297   5.1327   5.2690   5.3495   5.4521   5.5254   5.6249
     5.6828   5.7934

          k = 0.3838 0.5255-0.0141 ( 32564 PWs)   bands (ev):

   -65.9547 -33.8831 -33.8502 -33.4511 -33.3408 -32.6185 -32.4895 -32.3455
   -15.9207 -15.8966 -15.8953 -15.8813 -15.8686 -15.8488 -15.5530 -15.5076
   -15.4733 -15.4391 -15.4126 -15.3844 -12.5822 -12.5757 -12.4917 -12.4691
   -12.4442  -7.9065  -7.4900  -7.4473  -7.3112  -7.1283  -7.0206  -6.9911
    -6.9282  -6.8754  -6.6617  -6.5678  -4.9628  -3.6001  -3.0985  -3.0421
    -3.0030  -2.9143  -2.8716  -2.8114  -2.7175  -2.6868  -2.6300  -2.4577
    -2.4523  -2.4068  -2.3872  -2.2267  -2.1820  -2.1644  -2.1204  -2.0942
    -2.0195  -1.9267  -1.8917  -1.8292  -1.8255  -1.7727  -1.6526  -1.6082
    -1.5814  -1.4958  -1.4492  -1.4069  -1.3917  -1.3020  -1.2151  -0.8155
    -0.7306  -0.2172   2.2313   2.4549   3.5045   3.6828   4.4668   4.7020
     5.0266   5.1576   5.1917   5.3220   5.3528   5.4684   5.5830   5.6199
     5.7699   5.8388

          k =-0.0021-0.0146 0.5233 ( 32578 PWs)   bands (ev):

   -65.9547 -33.8831 -33.8502 -33.4510 -33.3408 -32.6185 -32.4895 -32.3455
   -15.9208 -15.8962 -15.8958 -15.8815 -15.8684 -15.8487 -15.5528 -15.5077
   -15.4736 -15.4389 -15.4127 -15.3840 -12.5823 -12.5758 -12.4917 -12.4691
   -12.4442  -7.9213  -7.5586  -7.3327  -7.2321  -7.1553  -7.1052  -6.9426
    -6.9300  -6.8896  -6.7017  -6.5799  -4.8907  -3.6200  -3.1284  -2.9981
    -2.9933  -2.9244  -2.8599  -2.7927  -2.7295  -2.6874  -2.6329  -2.6186
    -2.4618  -2.3766  -2.3358  -2.3096  -2.2740  -2.1491  -2.1231  -2.0622
    -2.0197  -1.9920  -1.8954  -1.8107  -1.7696  -1.6927  -1.6902  -1.5997
    -1.5284  -1.4713  -1.4479  -1.4395  -1.3128  -1.2337  -1.1749  -0.9721
    -0.7298  -0.2758   2.3427   2.4744   3.5711   3.8155   4.4309   4.7547
     5.0224   5.1222   5.1973   5.2668   5.3609   5.4403   5.5525   5.5851
     5.7214   5.8017

          k = 0.3735-0.0090 0.5219 ( 32564 PWs)   bands (ev):

   -65.9547 -33.8831 -33.8502 -33.4510 -33.3408 -32.6185 -32.4895 -32.3455
   -15.9207 -15.8961 -15.8958 -15.8815 -15.8684 -15.8487 -15.5530 -15.5077
   -15.4736 -15.4391 -15.4127 -15.3840 -12.5823 -12.5758 -12.4917 -12.4691
   -12.4442  -7.8970  -7.4601  -7.4020  -7.3635  -7.1623  -7.0412  -6.9600
    -6.9419  -6.8638  -6.6719  -6.5955  -4.8854  -3.6206  -3.0861  -2.9697
    -2.9562  -2.8760  -2.8551  -2.7614  -2.7526  -2.7278  -2.6555  -2.5550
    -2.5182  -2.4551  -2.3646  -2.2850  -2.2533  -2.2383  -2.1688  -2.0898
    -2.0177  -1.9781  -1.8873  -1.8201  -1.7393  -1.6501  -1.6140  -1.5943
    -1.5122  -1.4883  -1.4648  -1.4286  -1.3282  -1.2554  -1.2005  -0.9712
    -0.7363  -0.2712   2.3479   2.4762   3.5737   3.8004   4.4432   4.7435
     5.0979   5.1801   5.2480   5.2970   5.3827   5.4981   5.5661   5.6173
     5.7147   5.7678

          k = 0.0061 0.5053 0.5107 ( 32544 PWs)   bands (ev):

   -65.9547 -33.8831 -33.8502 -33.4510 -33.3408 -32.6185 -32.4895 -32.3455
   -15.9210 -15.8971 -15.8959 -15.8844 -15.8650 -15.8482 -15.5528 -15.5082
   -15.4745 -15.4389 -15.4118 -15.3835 -12.5823 -12.5758 -12.4917 -12.4691
   -12.4442  -7.8915  -7.5163  -7.3217  -7.2228  -7.1086  -7.0968  -7.0041
    -6.9661  -6.9124  -6.7184  -6.6193  -4.9985  -3.5587  -3.1103  -3.0994
    -3.0345  -2.8541  -2.7624  -2.6793  -2.6400  -2.5904  -2.5719  -2.5198
    -2.4537  -2.4159  -2.3864  -2.3231  -2.2332  -2.2256  -2.2073  -2.0943
    -2.0459  -1.9563  -1.9318  -1.8324  -1.7597  -1.7213  -1.6902  -1.5596
    -1.5347  -1.5057  -1.4705  -1.3936  -1.3548  -1.3001  -1.1747  -0.9641
    -0.8015  -0.2178   2.2771   2.4533   3.4231   3.7459   4.3850   4.7071
     5.0002   5.1392   5.2870   5.3018   5.3793   5.4155   5.5568   5.6205
     5.6626   5.7671

          k = 0.3817 0.5109 0.5093 ( 32568 PWs)   bands (ev):

   -65.9547 -33.8831 -33.8502 -33.4510 -33.3408 -32.6185 -32.4895 -32.3455
   -15.9209 -15.8970 -15.8958 -15.8844 -15.8650 -15.8482 -15.5530 -15.5082
   -15.4745 -15.4391 -15.4118 -15.3835 -12.5823 -12.5758 -12.4917 -12.4691
   -12.4442  -7.8707  -7.4044  -7.3696  -7.3091  -7.2105  -7.0699  -6.9887
    -6.9621  -6.8802  -6.7277  -6.5958  -4.9922  -3.5140  -3.1278  -3.0345
    -2.9177  -2.8833  -2.8165  -2.7455  -2.7207  -2.6395  -2.5830  -2.5427
    -2.4625  -2.4212  -2.3729  -2.3160  -2.2572  -2.2195  -2.1253  -2.0870
    -1.9799  -1.9276  -1.8484  -1.8125  -1.7550  -1.7438  -1.7127  -1.6428
    -1.5938  -1.4966  -1.4655  -1.4023  -1.3739  -1.2674  -1.2004  -0.9648
    -0.7961  -0.2227   2.2768   2.4567   3.4240   3.7385   4.3945   4.7278
     5.1397   5.1880   5.2947   5.3705   5.4475   5.4746   5.5731   5.6520
     5.7023   5.7783

     the Fermi energy is     2.3793 ev

!    total energy              =    -899.11674583 Ry
     estimated scf accuracy    <       0.00000005 Ry
     smearing contrib. (-TS)   =      -0.00761427 Ry
     internal energy E=F+TS    =    -899.10913155 Ry

     The total energy is F=E-TS. E is the sum of the following terms:
     one-electron contribution =    -510.04339688 Ry
     hartree contribution      =     293.28580646 Ry
     xc contribution           =    -236.28861852 Ry
     ewald contribution        =    -277.69097298 Ry
     one-center paw contrib.   =    -168.37194964 Ry

     convergence has been achieved in  14 iterations

     Forces acting on atoms (cartesian axes, Ry/au):

     atom    1 type  4   force =    -0.00062607   -0.00134895    0.00111782
     atom    2 type  4   force =     0.00194421    0.00320980    0.00111319
     atom    3 type  2   force =    -0.01777414    0.00174905   -0.00412673
     atom    4 type  4   force =    -0.00283793    0.00064487   -0.00255991
     atom    5 type  5   force =     0.00164542   -0.00418518   -0.00390111
     atom    6 type  5   force =     0.00481635   -0.00150472    0.00217720
     atom    7 type  5   force =     0.00308541   -0.01072757    0.00083060
     atom    8 type  5   force =    -0.00199157    0.00222184   -0.00155018
     atom    9 type  1   force =     0.00217114    0.00396801   -0.00465332
     atom   10 type  1   force =    -0.00527138    0.00012415    0.00184296
     atom   11 type  1   force =     0.00062478    0.00542977    0.00637753
     atom   12 type  1   force =     0.00191464   -0.00079888   -0.00010837
     atom   13 type  1   force =    -0.00021347   -0.00162105    0.00231932
     atom   14 type  6   force =     0.00435361   -0.03243984   -0.00136988
     atom   15 type  1   force =    -0.00113690   -0.00027982    0.00117375
     atom   16 type  1   force =    -0.00155874    0.00134429    0.00063807
     atom   17 type  1   force =    -0.00024147    0.00285595    0.00172293
     atom   18 type  1   force =    -0.00146839   -0.00007600    0.00199533
     atom   19 type  1   force =     0.00092652    0.00359323   -0.00381488
     atom   20 type  1   force =    -0.00136559    0.00018979    0.00208953
     atom   21 type  3   force =     0.00053043   -0.00266967   -0.00005536
     atom   22 type  3   force =    -0.00176460    0.00334298    0.00154690
     atom   23 type  3   force =     0.00050697    0.00667282    0.00736058
     atom   24 type  3   force =     0.00320485   -0.00039155   -0.00252816
     atom   25 type  3   force =     0.00357926   -0.00186128   -0.00015219
     atom   26 type  3   force =     0.00243880   -0.00231474   -0.00342224
     atom   27 type  3   force =     0.00408834    0.00213569   -0.00331160
     atom   28 type  3   force =     0.00420050   -0.00229152   -0.00022140
     atom   29 type  3   force =    -0.00108496    0.00491074   -0.00006220
     atom   30 type  3   force =    -0.00383115   -0.00257870   -0.00112929
     atom   31 type  3   force =     0.00651817    0.00440884    0.00358048
     atom   32 type  3   force =    -0.00247291    0.00119866   -0.00022973
     atom   33 type  3   force =     0.00297087   -0.00216902   -0.00192076
     atom   34 type  3   force =    -0.00696888    0.00667713    0.00824507
     atom   35 type  3   force =    -0.00550611    0.00093515    0.00041877
     atom   36 type  3   force =     0.00017845   -0.00242400   -0.00056805
     atom   37 type  3   force =    -0.00081755    0.00440860   -0.00123129
     atom   38 type  3   force =    -0.00254475   -0.00836026    0.00078051
     atom   39 type  3   force =     0.00098949    0.00176060    0.00296361
     atom   40 type  3   force =     0.00195393   -0.00130976   -0.00165027
     atom   41 type  3   force =    -0.00152354    0.00278566    0.00037952
     atom   42 type  3   force =    -0.01662202   -0.00388496   -0.00251752
     atom   43 type  3   force =     0.00220624   -0.00142162   -0.00450525
     atom   44 type  3   force =    -0.00066600    0.00227286    0.00066115
     atom   45 type  3   force =    -0.00054955   -0.00256952   -0.00062558
     atom   46 type  3   force =     0.00963594    0.01595928    0.00047172
     atom   47 type  3   force =     0.00114562   -0.00093165    0.00104925
     atom   48 type  3   force =     0.00036194    0.00297619   -0.00076651
     atom   49 type  3   force =     0.00447399    0.00305459    0.00269677
     atom   50 type  3   force =     0.00125750   -0.00740364   -0.00211352
     atom   51 type  3   force =     0.00306321    0.00108516   -0.00497327
     atom   52 type  3   force =     0.00054214   -0.00410453   -0.00030768
     atom   53 type  3   force =    -0.00021967   -0.00365426   -0.00263301
     atom   54 type  3   force =     0.00159466    0.00624341    0.00294713
     atom   55 type  3   force =     0.00104039    0.00304796    0.00157836
     atom   56 type  3   force =     0.00227173    0.00060998    0.00065326
     atom   57 type  3   force =     0.00074940   -0.00047250    0.00017732
     atom   58 type  3   force =    -0.00003098    0.00256367    0.00434497
     atom   59 type  3   force =     0.00433477   -0.00005340    0.00066666
     atom   60 type  3   force =     0.00300609    0.00176612    0.00005711
     atom   61 type  3   force =    -0.00170670    0.00255156    0.00027190
     atom   62 type  3   force =     0.00010607   -0.00208704   -0.00521993
     atom   63 type  3   force =    -0.00080941    0.00178077   -0.00487554
     atom   64 type  3   force =    -0.00022622   -0.00321607   -0.00066496
     atom   65 type  3   force =    -0.00254311   -0.00377983    0.00214985
     atom   66 type  3   force =    -0.00010106    0.00368487    0.00076836
     atom   67 type  3   force =    -0.00309817   -0.00312152   -0.00150182
     atom   68 type  3   force =    -0.00085885    0.00388899    0.00210401

     Total force =     0.061059     Total SCF correction =     0.000395


     Computing stress (Cartesian axis) and pressure

          total   stress  (Ry/bohr**3)                   (kbar)     P=        1.18
   0.00000539  -0.00001072  -0.00001009            0.79       -1.58       -1.48
  -0.00001072   0.00001175   0.00000452           -1.58        1.73        0.67
  -0.00001009   0.00000452   0.00000696           -1.48        0.67        1.02

     Energy error            =      5.5E-03
     Gradient error          =      3.2E-02
     Cell gradient error     =      1.2E-05


     number of scf cycles    =  22
     number of bfgs steps    =  21

     enthalpy old            =    -899.1112688068 Ry
     enthalpy new            =    -899.1167458277 Ry

     CASE: enthalpy_new < enthalpy_old

     new trust radius        =       0.1469877066 bohr
     new conv_thr            =       0.0000003244 Ry

     new unit-cell volume =   5377.69062 a.u.^3 (   796.89153 Ang^3 )
     density =      0.14170 g/cm^3

CELL_PARAMETERS (angstrom)
   0.013292582  -0.192548949  -8.319633472
   0.123695045  -8.294532943  -0.228475353
 -11.557973561   0.180639493   0.014034436

ATOMIC_POSITIONS (angstrom)
K            -8.6136263736       -7.6871922526       -4.8459994337
K            -3.0056448121       -0.2464404179       -3.8524363084
Ga           -2.5772679728       -3.8553668211       -7.9402055707
K            -8.1812325794       -4.0368120721       -0.3808431496
Sr           -5.6213420345       -8.2245607467       -8.1591409176
Sr          -11.3941839298       -0.1557215417       -0.5598677819
Sr          -11.4729859307       -3.7505557664       -4.4903764721
Sr           -5.6225172188       -4.2802029645       -3.9680871310
B            -8.8328170301       -3.7816998568       -3.6620422313
B            -2.8593646323       -4.5228860562       -5.0054169008
B            -2.7072043939       -7.9534125482       -0.7033489597
B            -8.7682448417       -0.3794899332       -7.7462160181
B            -5.4007429539       -2.7692880564       -1.6189751740
Ta          -12.5823667737       -5.7962892661       -7.0750876331
B           -11.0154645446       -6.8570802291       -3.0597673055
B            -5.3511944129       -1.3880754340       -5.5561692212
B            -6.1399133619       -5.6949513393       -6.6672050946
B            -0.4020080038       -2.8843940880       -1.7541107686
B            -0.4024025815       -1.3904496271       -5.8895745939
B            -6.1289708562       -6.8364344486       -2.6200880121
H            -9.6596026016       -4.0812697486       -2.8277068814
H            -3.7579996257       -4.0900338554       -5.7163113996
H            -3.7282199285       -8.0295503884       -1.4023350060
H            -9.7391451026       -0.0072220606       -7.0920060900
H            -8.7530820664       -4.6455579711       -4.5128287837
H            -2.4396594856       -3.6210840952       -4.2779390242
H            -2.7276580788       -0.8377661398       -8.0665411151
H            -8.3344115230       -7.6082328365       -0.4559059959
H            -9.1271378476       -2.7306600702       -4.2090806570
H            -3.1649989152       -5.4959860075       -4.3326879709
H            -2.7656661515       -7.0660692158       -8.3230229802
H            -9.0294538847       -1.2349363051       -0.0321223331
H            -7.7998350126       -3.5964679406       -3.0761503935
H            -1.8552130105       -4.7722821519       -5.7590574310
H            -1.8157102077       -7.8378448974       -1.5317392298
H            -7.8885078703       -0.6295413368       -6.9393932101
H            -5.3479241324       -2.1715596341       -0.5491884394
H           -11.3534760969       -6.3769117575       -8.2921291671
H           -10.7573650176       -6.3118992092       -4.1212810675
H            -5.1647672799       -1.8833168922       -4.4602932974
H            -4.3309892170       -2.6845978392       -2.2377938638
H           -10.9563317218       -5.2275847639       -6.3859144786
H           -10.0071575110       -6.9308993917       -2.3486668526
H            -4.3064950081       -1.3166945190       -6.1912466317
H            -5.6248543096       -3.9558378298       -1.3670949066
H           -12.3475091988       -4.0636351948       -7.3083057753
H           -11.3927221240       -7.9993471229       -3.3240430225
H            -5.8106848232       -0.2721568643       -5.3477559446
H            -6.3163321235       -2.3407500545       -2.3146857594
H            -1.2177464895       -6.6114585650       -5.4373853113
H            -0.3300786322       -6.4710499486       -2.4220983349
H            -6.1679060842       -2.0192908700       -6.2023705314
H            -5.8537264586       -6.1934115365       -5.5891131500
H            -0.2598008109       -2.2921796609       -2.8098757394
H            -0.1281311792       -2.1147873508       -6.8534380310
H            -5.9272225898       -6.1804259382       -1.6054884504
H            -7.1359087174       -6.2782003984       -7.0910087529
H            -1.3500549828       -2.3474091132       -1.1895585380
H            -1.4468294594       -1.7988636788       -5.3758578585
H            -7.1075474459       -6.3388830969       -3.1634163976
H            -6.4087028564       -4.5089884309       -6.5361329656
H            -0.6689889564       -4.0563875370       -1.9188245338
H            -0.5436090463       -0.2055973719       -6.2526562407
H            -6.3794607029       -7.9991107846       -2.3615559835
H            -5.1886366553       -5.7794501684       -7.4409484632
H           -10.9255865199       -2.6212104803       -1.0932936422
H           -11.0225670006       -1.2203952648       -5.0746604913
H            -5.1529287104       -6.7851778876       -3.3604408794



     Writing output data file ./tmp/K3Sr4TaGaB11H48.save/
     NEW-OLD atomic charge density approx. for the potential

     negative rho (up, down):  7.023E-06 0.000E+00
     extrapolated charge  150.20152, renormalised to  150.00000

     total cpu time spent up to now is    48663.5 secs

     Self-consistent Calculation

     iteration #  1     ecut=    50.00 Ry     beta= 0.70
     CG style diagonalization
     c_bands:  1 eigenvalues not converged
     ethr =  1.00E-06,  avg # of iterations = 20.4

     negative rho (up, down):  1.222E-07 0.000E+00

     total cpu time spent up to now is    49885.5 secs

     total energy              =    -899.10159902 Ry
     estimated scf accuracy    <       0.07091657 Ry

     iteration #  2     ecut=    50.00 Ry     beta= 0.70
     CG style diagonalization
     ethr =  4.73E-05,  avg # of iterations =  3.1

     negative rho (up, down):  2.221E-08 0.000E+00

     total cpu time spent up to now is    50048.9 secs

     total energy              =    -899.11021082 Ry
     estimated scf accuracy    <       0.03534278 Ry

     iteration #  3     ecut=    50.00 Ry     beta= 0.70
     CG style diagonalization
     ethr =  2.36E-05,  avg # of iterations =  3.2

     negative rho (up, down):  2.026E-08 0.000E+00

     total cpu time spent up to now is    50217.3 secs

     total energy              =    -899.10921605 Ry
     estimated scf accuracy    <       0.12907318 Ry

     iteration #  4     ecut=    50.00 Ry     beta= 0.70
     CG style diagonalization
     ethr =  2.36E-05,  avg # of iterations =  3.2

     negative rho (up, down):  1.736E-08 0.000E+00

     total cpu time spent up to now is    50383.8 secs

     total energy              =    -899.12165741 Ry
     estimated scf accuracy    <       0.00597932 Ry

     iteration #  5     ecut=    50.00 Ry     beta= 0.70
     CG style diagonalization
     ethr =  3.99E-06,  avg # of iterations =  3.4

     negative rho (up, down):  1.777E-08 0.000E+00

     total cpu time spent up to now is    50569.1 secs

     total energy              =    -899.12356018 Ry
     estimated scf accuracy    <       0.00367986 Ry

     iteration #  6     ecut=    50.00 Ry     beta= 0.70
     CG style diagonalization
     ethr =  2.45E-06,  avg # of iterations =  3.2

     negative rho (up, down):  1.533E-08 0.000E+00

     total cpu time spent up to now is    50742.4 secs

     total energy              =    -899.12484843 Ry
     estimated scf accuracy    <       0.00269282 Ry

     iteration #  7     ecut=    50.00 Ry     beta= 0.70
     CG style diagonalization
     ethr =  1.80E-06,  avg # of iterations =  3.4

     negative rho (up, down):  1.484E-08 0.000E+00

     total cpu time spent up to now is    50928.5 secs

     total energy              =    -899.12476448 Ry
     estimated scf accuracy    <       0.00391608 Ry

     iteration #  8     ecut=    50.00 Ry     beta= 0.70
     CG style diagonalization
     ethr =  1.80E-06,  avg # of iterations =  3.1

     negative rho (up, down):  1.480E-08 0.000E+00

     total cpu time spent up to now is    51087.5 secs

     total energy              =    -899.12449714 Ry
     estimated scf accuracy    <       0.00139971 Ry

     iteration #  9     ecut=    50.00 Ry     beta= 0.70
     CG style diagonalization
     ethr =  9.33E-07,  avg # of iterations =  3.2

     negative rho (up, down):  1.518E-08 0.000E+00

     total cpu time spent up to now is    51243.9 secs

     total energy              =    -899.12444060 Ry
     estimated scf accuracy    <       0.00058281 Ry

     iteration # 10     ecut=    50.00 Ry     beta= 0.70
     CG style diagonalization
     ethr =  3.89E-07,  avg # of iterations =  3.7

     negative rho (up, down):  1.504E-08 0.000E+00

     total cpu time spent up to now is    51433.0 secs

     total energy              =    -899.12472223 Ry
     estimated scf accuracy    <       0.00018278 Ry

     iteration # 11     ecut=    50.00 Ry     beta= 0.70
     CG style diagonalization
     ethr =  1.22E-07,  avg # of iterations =  4.1

     negative rho (up, down):  1.513E-08 0.000E+00

     total cpu time spent up to now is    51650.4 secs

     total energy              =    -899.12485066 Ry
     estimated scf accuracy    <       0.00012387 Ry

     iteration # 12     ecut=    50.00 Ry     beta= 0.70
     CG style diagonalization
     ethr =  8.26E-08,  avg # of iterations =  3.5

     negative rho (up, down):  1.513E-08 0.000E+00

     total cpu time spent up to now is    51825.7 secs

     total energy              =    -899.12486944 Ry
     estimated scf accuracy    <       0.00006499 Ry

     iteration # 13     ecut=    50.00 Ry     beta= 0.70
     CG style diagonalization
     ethr =  4.33E-08,  avg # of iterations =  3.7

     negative rho (up, down):  1.493E-08 0.000E+00

     total cpu time spent up to now is    52016.7 secs

     total energy              =    -899.12488774 Ry
     estimated scf accuracy    <       0.00002849 Ry

     iteration # 14     ecut=    50.00 Ry     beta= 0.70
     CG style diagonalization
     c_bands:  1 eigenvalues not converged
     ethr =  1.90E-08,  avg # of iterations =  4.2

     negative rho (up, down):  1.501E-08 0.000E+00

     total cpu time spent up to now is    52236.9 secs

     total energy              =    -899.12490890 Ry
     estimated scf accuracy    <       0.00001815 Ry

     iteration # 15     ecut=    50.00 Ry     beta= 0.70
     CG style diagonalization
     ethr =  1.21E-08,  avg # of iterations =  3.3

     negative rho (up, down):  1.504E-08 0.000E+00

     total cpu time spent up to now is    52403.6 secs

     total energy              =    -899.12491246 Ry
     estimated scf accuracy    <       0.00000318 Ry

     iteration # 16     ecut=    50.00 Ry     beta= 0.70
     CG style diagonalization
     c_bands:  1 eigenvalues not converged
     ethr =  2.12E-09,  avg # of iterations =  4.6

     negative rho (up, down):  1.505E-08 0.000E+00

     total cpu time spent up to now is    52647.1 secs

     total energy              =    -899.12491532 Ry
     estimated scf accuracy    <       0.00000071 Ry

     iteration # 17     ecut=    50.00 Ry     beta= 0.70
     CG style diagonalization
     ethr =  4.72E-10,  avg # of iterations =  4.8

     negative rho (up, down):  1.505E-08 0.000E+00

     total cpu time spent up to now is    52905.4 secs

     End of self-consistent calculation

          k = 0.0000-0.0000 0.0000 ( 32571 PWs)   bands (ev):

   -65.9734 -33.9368 -33.8944 -33.4573 -33.3324 -32.6241 -32.5023 -32.3463
   -15.9731 -15.9440 -15.9379 -15.9331 -15.9072 -15.8879 -15.5610 -15.5092
   -15.4712 -15.4341 -15.4035 -15.3735 -12.5302 -12.5212 -12.4381 -12.4152
   -12.3890  -8.0253  -7.5860  -7.4218  -7.2028  -7.1548  -7.0246  -6.9743
    -6.9138  -6.8976  -6.6792  -6.5774  -4.8695  -3.6289  -3.2520  -3.1184
    -2.9930  -2.9078  -2.8423  -2.8349  -2.7795  -2.7057  -2.6170  -2.5309
    -2.4970  -2.4527  -2.3746  -2.2900  -2.2284  -2.2076  -2.1761  -2.1036
    -2.0218  -1.9991  -1.9867  -1.8630  -1.7810  -1.7670  -1.6584  -1.5894
    -1.5177  -1.4865  -1.4713  -1.4126  -1.2687  -1.2031  -1.1681  -0.7643
    -0.6665  -0.2204   2.3164   2.5208   3.6271   3.9227   4.5012   4.6291
     4.8567   4.9944   5.0164   5.0635   5.2593   5.3178   5.5053   5.6791
     5.7627   5.8201

          k = 0.3748 0.0056 0.0005 ( 32604 PWs)   bands (ev):

   -65.9734 -33.9368 -33.8944 -33.4573 -33.3324 -32.6241 -32.5023 -32.3463
   -15.9731 -15.9440 -15.9378 -15.9331 -15.9071 -15.8878 -15.5612 -15.5092
   -15.4712 -15.4342 -15.4035 -15.3735 -12.5302 -12.5212 -12.4381 -12.4152
   -12.3890  -7.9806  -7.6445  -7.4405  -7.1940  -7.1214  -7.0139  -7.0029
    -6.9300  -6.8842  -6.6676  -6.5876  -4.8706  -3.6239  -3.1518  -3.1154
    -3.0080  -2.8920  -2.8722  -2.7947  -2.7286  -2.6857  -2.6201  -2.6086
    -2.5614  -2.4838  -2.4453  -2.3476  -2.2998  -2.1422  -2.1054  -2.0533
    -2.0299  -2.0135  -1.8864  -1.8381  -1.8238  -1.7204  -1.6588  -1.5904
    -1.5676  -1.5084  -1.4944  -1.3622  -1.3312  -1.2195  -1.1668  -0.7622
    -0.6769  -0.2085   2.3241   2.5225   3.6290   3.8933   4.4647   4.7291
     4.8929   5.0257   5.0821   5.2119   5.2802   5.3296   5.4981   5.6674
     5.7609   5.7932

          k = 0.0082 0.5226-0.0121 ( 32596 PWs)   bands (ev):

   -65.9734 -33.9368 -33.8944 -33.4573 -33.3324 -32.6241 -32.5023 -32.3463
   -15.9731 -15.9430 -15.9382 -15.9315 -15.9094 -15.8883 -15.5610 -15.5088
   -15.4708 -15.4340 -15.4039 -15.3741 -12.5302 -12.5212 -12.4381 -12.4152
   -12.3890  -7.9467  -7.6069  -7.3326  -7.1947  -7.1470  -7.1205  -7.0191
    -6.9506  -6.9034  -6.6805  -6.6068  -4.9457  -3.6065  -3.1114  -3.0582
    -2.9946  -2.9543  -2.8826  -2.8240  -2.7485  -2.7009  -2.6151  -2.5724
    -2.4689  -2.4223  -2.3240  -2.2821  -2.2433  -2.2231  -2.0749  -2.0463
    -1.9880  -1.9485  -1.8475  -1.8401  -1.7923  -1.7260  -1.6844  -1.6478
    -1.6220  -1.5909  -1.4558  -1.4227  -1.3795  -1.3287  -1.2389  -0.7541
    -0.7018  -0.1287   2.2427   2.4738   3.5156   3.8279   4.4949   4.7153
     4.9730   5.1071   5.1161   5.2157   5.3556   5.4266   5.5110   5.5999
     5.6715   5.7684

          k = 0.3830 0.5282-0.0116 ( 32564 PWs)   bands (ev):

   -65.9734 -33.9368 -33.8944 -33.4573 -33.3324 -32.6241 -32.5023 -32.3463
   -15.9730 -15.9430 -15.9381 -15.9315 -15.9093 -15.8882 -15.5612 -15.5088
   -15.4708 -15.4342 -15.4039 -15.3741 -12.5302 -12.5212 -12.4381 -12.4152
   -12.3890  -7.9219  -7.4949  -7.4613  -7.3337  -7.1191  -7.0458  -7.0246
    -6.9484  -6.8874  -6.6846  -6.5922  -4.9477  -3.5932  -3.1226  -3.0420
    -3.0246  -2.9300  -2.8881  -2.7878  -2.7238  -2.7048  -2.6245  -2.4651
    -2.4640  -2.4255  -2.4090  -2.2373  -2.2066  -2.1933  -2.1370  -2.0854
    -2.0351  -1.9399  -1.8874  -1.8719  -1.8439  -1.7632  -1.6799  -1.6166
    -1.6010  -1.5334  -1.4743  -1.4137  -1.3897  -1.3303  -1.2225  -0.7718
    -0.7045  -0.1216   2.2460   2.4769   3.5158   3.8226   4.5027   4.7471
     5.0291   5.1314   5.1772   5.2745   5.3459   5.4496   5.5585   5.6081
     5.7185   5.8084

          k = 0.0004-0.0143 0.5209 ( 32578 PWs)   bands (ev):

   -65.9734 -33.9368 -33.8944 -33.4573 -33.3324 -32.6241 -32.5023 -32.3463
   -15.9731 -15.9430 -15.9383 -15.9315 -15.9093 -15.8882 -15.5610 -15.5088
   -15.4710 -15.4340 -15.4041 -15.3738 -12.5302 -12.5212 -12.4382 -12.4152
   -12.3891  -7.9440  -7.5685  -7.3553  -7.2269  -7.1708  -7.1209  -6.9711
    -6.9475  -6.9096  -6.7148  -6.6016  -4.8682  -3.6260  -3.1691  -3.0207
    -2.9780  -2.9275  -2.8550  -2.8064  -2.7233  -2.6955  -2.6448  -2.5973
    -2.4707  -2.4215  -2.3619  -2.3237  -2.3053  -2.1617  -2.1419  -2.0879
    -2.0257  -1.9998  -1.9236  -1.8386  -1.7875  -1.7299  -1.6990  -1.5978
    -1.5224  -1.5061  -1.4555  -1.4469  -1.3074  -1.2674  -1.1849  -0.9275
    -0.6865  -0.1890   2.3629   2.5043   3.5859   3.9558   4.4698   4.7970
     5.0076   5.0898   5.1735   5.2700   5.3271   5.4516   5.5228   5.5893
     5.7035   5.7920

          k = 0.3752-0.0088 0.5214 ( 32564 PWs)   bands (ev):

   -65.9734 -33.9368 -33.8944 -33.4573 -33.3324 -32.6241 -32.5023 -32.3463
   -15.9730 -15.9430 -15.9382 -15.9315 -15.9093 -15.8882 -15.5612 -15.5088
   -15.4710 -15.4342 -15.4041 -15.3738 -12.5302 -12.5212 -12.4381 -12.4152
   -12.3890  -7.9193  -7.4532  -7.4300  -7.3920  -7.1585  -7.0475  -6.9820
    -6.9646  -6.8899  -6.6870  -6.6168  -4.8637  -3.6226  -3.1410  -2.9808
    -2.9713  -2.8575  -2.8340  -2.7719  -2.7355  -2.7282  -2.6643  -2.5595
    -2.5449  -2.4612  -2.4046  -2.3330  -2.2582  -2.2549  -2.1959  -2.1114
    -2.0471  -1.9713  -1.9101  -1.8436  -1.7541  -1.6728  -1.6532  -1.5753
    -1.5388  -1.5045  -1.4647  -1.4295  -1.3365  -1.2855  -1.2062  -0.9247
    -0.6900  -0.1871   2.3681   2.5054   3.5894   3.9427   4.4830   4.7857
     5.0747   5.1714   5.2310   5.2732   5.3456   5.4945   5.5620   5.6057
     5.6913   5.7531

          k = 0.0086 0.5083 0.5088 ( 32544 PWs)   bands (ev):

   -65.9734 -33.9368 -33.8944 -33.4573 -33.3324 -32.6241 -32.5023 -32.3463
   -15.9732 -15.9438 -15.9387 -15.9331 -15.9068 -15.8878 -15.5610 -15.5093
   -15.4717 -15.4341 -15.4033 -15.3734 -12.5301 -12.5212 -12.4381 -12.4152
   -12.3890  -7.9140  -7.5337  -7.3077  -7.2417  -7.1246  -7.1062  -7.0277
    -7.0128  -6.9103  -6.7370  -6.6456  -4.9786  -3.5720  -3.1525  -3.0658
    -3.0416  -2.8598  -2.7686  -2.7226  -2.6500  -2.5937  -2.5461  -2.5344
    -2.4744  -2.4349  -2.4058  -2.3281  -2.2535  -2.2262  -2.2114  -2.1133
    -2.0526  -1.9831  -1.9489  -1.8593  -1.7829  -1.7299  -1.6813  -1.5783
    -1.5621  -1.5337  -1.4904  -1.4433  -1.3590  -1.2846  -1.2158  -0.9056
    -0.7596  -0.1224   2.2849   2.4790   3.4416   3.8792   4.4163   4.7342
     4.9754   5.1164   5.2553   5.2826   5.3830   5.4020   5.5228   5.5971
     5.6777   5.7458

          k = 0.3834 0.5139 0.5093 ( 32568 PWs)   bands (ev):

   -65.9734 -33.9368 -33.8944 -33.4573 -33.3324 -32.6241 -32.5023 -32.3463
   -15.9732 -15.9438 -15.9386 -15.9331 -15.9068 -15.8878 -15.5612 -15.5093
   -15.4717 -15.4342 -15.4033 -15.3734 -12.5302 -12.5212 -12.4381 -12.4152
   -12.3890  -7.8929  -7.4055  -7.3998  -7.3236  -7.2005  -7.0788  -7.0313
    -6.9750  -6.8965  -6.7468  -6.6215  -4.9731  -3.5227  -3.1348  -3.0480
    -2.9325  -2.8744  -2.8281  -2.7560  -2.7387  -2.6636  -2.5707  -2.5577
    -2.4766  -2.4245  -2.3967  -2.3201  -2.2732  -2.2199  -2.1362  -2.1043
    -1.9994  -1.9490  -1.8727  -1.8213  -1.7677  -1.7546  -1.7183  -1.6698
    -1.6119  -1.5252  -1.4882  -1.4304  -1.4052  -1.2758  -1.2084  -0.9055
    -0.7536  -0.1283   2.2844   2.4815   3.4434   3.8721   4.4270   4.7628
     5.1070   5.1660   5.2656   5.3412   5.4401   5.4584   5.5765   5.6484
     5.6770   5.7757

     the Fermi energy is     2.4014 ev

!    total energy              =    -899.12491588 Ry
     estimated scf accuracy    <       0.00000025 Ry
     smearing contrib. (-TS)   =      -0.00724727 Ry
     internal energy E=F+TS    =    -899.11766861 Ry

     The total energy is F=E-TS. E is the sum of the following terms:
     one-electron contribution =    -510.79084002 Ry
     hartree contribution      =     293.60864679 Ry
     xc contribution           =    -236.27179934 Ry
     ewald contribution        =    -277.29096937 Ry
     one-center paw contrib.   =    -168.37270665 Ry

     convergence has been achieved in  17 iterations

     negative rho (up, down):  1.505E-08 0.000E+00

     Forces acting on atoms (cartesian axes, Ry/au):

     atom    1 type  4   force =    -0.00067003   -0.00199108    0.00020560
     atom    2 type  4   force =     0.00254910    0.00304952    0.00164362
     atom    3 type  2   force =    -0.01807914    0.00343701   -0.00513315
     atom    4 type  4   force =    -0.00222711    0.00010046   -0.00254128
     atom    5 type  5   force =     0.00060657   -0.00269465   -0.00179037
     atom    6 type  5   force =    -0.00057651   -0.00022336    0.00073202
     atom    7 type  5   force =     0.00463912   -0.00870747    0.00084133
     atom    8 type  5   force =    -0.00311135    0.00205870    0.00081489
     atom    9 type  1   force =     0.00591832    0.00528275   -0.00512604
     atom   10 type  1   force =    -0.00110599    0.00238878    0.00032643
     atom   11 type  1   force =     0.00060435    0.00707913    0.00668963
     atom   12 type  1   force =     0.00418119   -0.00230768    0.00074943
     atom   13 type  1   force =    -0.00248901    0.00135350    0.00133044
     atom   14 type  6   force =     0.01392265   -0.03058274    0.00503706
     atom   15 type  1   force =    -0.00024416   -0.00213889    0.00245476
     atom   16 type  1   force =    -0.00348044    0.00068453    0.00063189
     atom   17 type  1   force =    -0.00255884    0.00253483    0.00316272
     atom   18 type  1   force =    -0.00020683   -0.00204137   -0.00025110
     atom   19 type  1   force =     0.00311481    0.00347679   -0.00503028
     atom   20 type  1   force =    -0.00343464    0.00015195    0.00199544
     atom   21 type  3   force =    -0.00564797   -0.00424458    0.00450518
     atom   22 type  3   force =     0.00022479    0.00127241    0.00432753
     atom   23 type  3   force =     0.00466664    0.00787068    0.01047331
     atom   24 type  3   force =     0.00618122   -0.00051751   -0.00416616
     atom   25 type  3   force =     0.00161603   -0.00936642   -0.00726657
     atom   26 type  3   force =    -0.00289887   -0.00315716   -0.00154089
     atom   27 type  3   force =     0.00350893    0.00689711   -0.00507657
     atom   28 type  3   force =     0.00183636   -0.00213269    0.00058737
     atom   29 type  3   force =    -0.00445390    0.00949539   -0.00227177
     atom   30 type  3   force =    -0.00358799    0.00135106   -0.00364564
     atom   31 type  3   force =     0.00697414   -0.00132682    0.00076369
     atom   32 type  3   force =    -0.00391344    0.00221262   -0.00027765
     atom   33 type  3   force =     0.01127406    0.00049498    0.00374495
     atom   34 type  3   force =    -0.00920798    0.00395875    0.00544676
     atom   35 type  3   force =    -0.00691875    0.00031449    0.00349947
     atom   36 type  3   force =     0.00141173   -0.00139621    0.00108974
     atom   37 type  3   force =     0.00113362    0.00085739   -0.00090268
     atom   38 type  3   force =    -0.00674539   -0.00678728    0.00302131
     atom   39 type  3   force =    -0.00071894    0.00216231    0.00483591
     atom   40 type  3   force =     0.00396191   -0.00039385    0.00078580
     atom   41 type  3   force =    -0.00350110   -0.00040434    0.00290447
     atom   42 type  3   force =    -0.02152490   -0.00635758   -0.00210449
     atom   43 type  3   force =     0.00420746    0.00083784   -0.00311952
     atom   44 type  3   force =     0.00368942    0.00198654   -0.00043633
     atom   45 type  3   force =     0.00325017    0.00083598   -0.00087195
     atom   46 type  3   force =     0.00925358    0.00913300    0.00070404
     atom   47 type  3   force =    -0.00100975   -0.00280609   -0.00050680
     atom   48 type  3   force =    -0.00046353    0.00625005    0.00023737
     atom   49 type  3   force =     0.00222115    0.00282113   -0.00084922
     atom   50 type  3   force =     0.00244398   -0.00485471   -0.00891554
     atom   51 type  3   force =     0.00376351    0.00229619   -0.00663915
     atom   52 type  3   force =    -0.00269847   -0.00676928   -0.00347649
     atom   53 type  3   force =     0.00149646   -0.00344278    0.00017240
     atom   54 type  3   force =     0.00078964    0.01056838   -0.00263094
     atom   55 type  3   force =    -0.00089542    0.00239842    0.00421211
     atom   56 type  3   force =     0.00370203    0.00160374    0.00373399
     atom   57 type  3   force =    -0.00142831   -0.00253974   -0.00314695
     atom   58 type  3   force =    -0.00131520    0.00374770    0.00488734
     atom   59 type  3   force =     0.00680816    0.00140604   -0.00257115
     atom   60 type  3   force =    -0.00078350    0.00383813   -0.00231654
     atom   61 type  3   force =    -0.00071182    0.00388880   -0.00018062
     atom   62 type  3   force =    -0.00134694   -0.00743800   -0.00369944
     atom   63 type  3   force =    -0.00200225    0.00147330   -0.00366871
     atom   64 type  3   force =     0.00023812   -0.00583090   -0.00031172
     atom   65 type  3   force =    -0.00148116   -0.00336129    0.00080605
     atom   66 type  3   force =     0.00232635    0.00292198    0.00435901
     atom   67 type  3   force =    -0.00394610   -0.00385907   -0.00179823
     atom   68 type  3   force =     0.00287015    0.00318116    0.00055089

     Total force =     0.070227     Total SCF correction =     0.000340


     Computing stress (Cartesian axis) and pressure


     negative rho (up, down):  1.505E-08 0.000E+00
          total   stress  (Ry/bohr**3)                   (kbar)     P=        0.49
   0.00000642  -0.00001366   0.00000714            0.94       -2.01        1.05
  -0.00001366   0.00000816   0.00000609           -2.01        1.20        0.90
   0.00000714   0.00000609  -0.00000451            1.05        0.90       -0.66

     Energy error            =      8.2E-03
     Gradient error          =      3.1E-02
     Cell gradient error     =      1.4E-05


     number of scf cycles    =  23
     number of bfgs steps    =  22

     enthalpy old            =    -899.1167458277 Ry
     enthalpy new            =    -899.1249158753 Ry

     CASE: enthalpy_new < enthalpy_old

     new trust radius        =       0.1938799517 bohr
     new conv_thr            =       0.0000003058 Ry

     new unit-cell volume =   5383.42973 a.u.^3 (   797.74198 Ang^3 )
     density =      0.14155 g/cm^3

CELL_PARAMETERS (angstrom)
   0.038363210  -0.179215776  -8.342870266
   0.135447027  -8.256237280  -0.219525606
 -11.591486277   0.195156133   0.044366309

ATOMIC_POSITIONS (angstrom)
K            -8.6059351857       -7.6259363437       -4.8325242103
K            -2.9952590528       -0.2108365158       -3.8551637100
Ga           -2.6116647814       -3.8271282334       -7.9196580292
K            -8.2096256143       -3.9887015684       -0.3661050398
Sr           -5.6093895790       -8.1962926006       -8.1692718235
Sr          -11.3930180034       -0.1382455177       -0.5478924954
Sr          -11.4893933613       -3.7484321755       -4.4587160964
Sr           -5.6303043841       -4.2355942255       -3.9804410136
B            -8.8415290616       -3.7279581504       -3.6560027406
B            -2.8466312596       -4.5131519797       -5.0177272424
B            -2.6708128300       -7.8877915899       -0.6657785568
B            -8.7609440994       -0.3721555497       -7.7518288241
B            -5.4047711513       -2.7445883258       -1.6051869400
Ta          -12.6765743654       -5.7967674186       -7.0468045381
B           -11.0192611500       -6.7978561205       -3.0427240347
B            -5.3443185471       -1.3660736139       -5.5503596295
B            -6.1309288112       -5.6468905747       -6.6519288301
B            -0.3981494800       -2.8707083982       -1.7491508938
B            -0.3869910882       -1.3650262688       -5.9116922047
B            -6.1267284644       -6.7956148794       -2.5916398214
H            -9.6557604939       -4.0523462578       -2.8206664031
H            -3.7357261994       -4.0319458470       -5.7196757042
H            -3.7122763248       -7.9423951763       -1.3456312673
H            -9.7338026427        0.0278191364       -7.1110253418
H            -8.7393813832       -4.5789386000       -4.5122039626
H            -2.3638191802       -3.6270322606       -4.3038875205
H            -2.6699676805       -0.8118336143       -8.0796669605
H            -8.2960777027       -7.5905588338       -0.4303185962
H            -9.1398657497       -2.6747007986       -4.1876900957
H            -3.1713574323       -5.4831906325       -4.3445537018
H            -2.6828985480       -6.9770048733       -8.2966533852
H            -9.0595207046       -1.2369815717       -0.0155029700
H            -7.8102665168       -3.5522422666       -3.0739674622
H            -1.8327243280       -4.7638096906       -5.7662297218
H            -1.8009185020       -7.7752747066       -1.5217356789
H            -7.8968315959       -0.6536305831       -6.9384033978
H            -5.3670131043       -2.1322884374       -0.5412307881
H           -11.3987224727       -6.3228535221       -8.2524838030
H           -10.7403737772       -6.2695093702       -4.1088194121
H            -5.1495527176       -1.8611655603       -4.4571928178
H            -4.3336745655       -2.6407911381       -2.2225312562
H           -11.0497697618       -5.1833373379       -6.3820077927
H           -10.0125797054       -6.8956177155       -2.3328697030
H            -4.3049933019       -1.2784237085       -6.1890119928
H            -5.6484048245       -3.9310718852       -1.3606919783
H           -12.4425563130       -4.0335409068       -7.3079866811
H           -11.4076678738       -7.9358934022       -3.2990610261
H            -5.8294482921       -0.2600964493       -5.3508680065
H            -6.3139868557       -2.3027761273       -2.2960425023
H            -1.2286081659       -6.6202128504       -5.4169488373
H            -0.2874604589       -6.4137617583       -2.4298431091
H            -6.1458674560       -2.0193237200       -6.1909238028
H            -5.8556167187       -6.1492205311       -5.5744583878
H            -0.2493593959       -2.2811685971       -2.8044731363
H            -0.1108115162       -2.0843721033       -6.8784978519
H            -5.9359065194       -6.1454837909       -1.5746427150
H            -7.1306037640       -6.2268310248       -7.0636760077
H            -1.3376953130       -2.3375981646       -1.1701915705
H            -1.4297425865       -1.7694739658       -5.3843752701
H            -7.1022830803       -6.2972347587       -3.1326161614
H            -6.4011700755       -4.4603718792       -6.5256024882
H            -0.6599392385       -4.0387736362       -1.9319791072
H            -0.5152849367       -0.1764298425       -6.2842824660
H            -6.3780028054       -7.9605033111       -2.3468545164
H            -5.1792161319       -5.7465198138       -7.4204267642
H           -10.9450306063       -2.5965653323       -1.0747987792
H           -11.0399374196       -1.1778977852       -5.0677262211
H            -5.1536130463       -6.7324415941       -3.3312787519



     Writing output data file ./tmp/K3Sr4TaGaB11H48.save/
     NEW-OLD atomic charge density approx. for the potential

     negative rho (up, down):  1.253E-06 0.000E+00
     extrapolated charge  150.15970, renormalised to  150.00000

     total cpu time spent up to now is    53396.8 secs

     Self-consistent Calculation

     iteration #  1     ecut=    50.00 Ry     beta= 0.70
     CG style diagonalization
     c_bands:  1 eigenvalues not converged
     ethr =  1.00E-06,  avg # of iterations = 20.9

     negative rho (up, down):  2.938E-08 0.000E+00

     total cpu time spent up to now is    54586.3 secs

     total energy              =    -899.10098655 Ry
     estimated scf accuracy    <       0.09626950 Ry

     iteration #  2     ecut=    50.00 Ry     beta= 0.70
     CG style diagonalization
     ethr =  6.42E-05,  avg # of iterations =  3.1

     total cpu time spent up to now is    54741.3 secs

     total energy              =    -899.10751238 Ry
     estimated scf accuracy    <       0.05591862 Ry

     iteration #  3     ecut=    50.00 Ry     beta= 0.70
     CG style diagonalization
     ethr =  3.73E-05,  avg # of iterations =  3.2

     total cpu time spent up to now is    54902.2 secs

     total energy              =    -899.10794897 Ry
     estimated scf accuracy    <       0.18989852 Ry

     iteration #  4     ecut=    50.00 Ry     beta= 0.70
     CG style diagonalization
     ethr =  3.73E-05,  avg # of iterations =  3.2

     total cpu time spent up to now is    55063.2 secs

     total energy              =    -899.12784103 Ry
     estimated scf accuracy    <       0.00749883 Ry

     iteration #  5     ecut=    50.00 Ry     beta= 0.70
     CG style diagonalization
     ethr =  5.00E-06,  avg # of iterations =  3.5

     total cpu time spent up to now is    55241.9 secs

     total energy              =    -899.13074946 Ry
     estimated scf accuracy    <       0.00623011 Ry

     iteration #  6     ecut=    50.00 Ry     beta= 0.70
     CG style diagonalization
     ethr =  4.15E-06,  avg # of iterations =  3.2

     total cpu time spent up to now is    55399.4 secs

     total energy              =    -899.13158141 Ry
     estimated scf accuracy    <       0.00432200 Ry

     iteration #  7     ecut=    50.00 Ry     beta= 0.70
     CG style diagonalization
     ethr =  2.88E-06,  avg # of iterations =  3.2

     total cpu time spent up to now is    55560.1 secs

     total energy              =    -899.13218072 Ry
     estimated scf accuracy    <       0.00110966 Ry

     iteration #  8     ecut=    50.00 Ry     beta= 0.70
     CG style diagonalization
     c_bands:  1 eigenvalues not converged
     ethr =  7.40E-07,  avg # of iterations =  3.8

     total cpu time spent up to now is    55755.6 secs

     total energy              =    -899.13245781 Ry
     estimated scf accuracy    <       0.00158715 Ry

     iteration #  9     ecut=    50.00 Ry     beta= 0.70
     CG style diagonalization
     ethr =  7.40E-07,  avg # of iterations =  3.2

     total cpu time spent up to now is    55913.6 secs

     total energy              =    -899.13231913 Ry
     estimated scf accuracy    <       0.00081699 Ry

     iteration # 10     ecut=    50.00 Ry     beta= 0.70
     CG style diagonalization
     ethr =  5.45E-07,  avg # of iterations =  3.2

     total cpu time spent up to now is    56069.9 secs

     total energy              =    -899.13227798 Ry
     estimated scf accuracy    <       0.00043554 Ry

     iteration # 11     ecut=    50.00 Ry     beta= 0.70
     CG style diagonalization
     ethr =  2.90E-07,  avg # of iterations =  3.8

     total cpu time spent up to now is    56265.5 secs

     total energy              =    -899.13249937 Ry
     estimated scf accuracy    <       0.00010845 Ry

     iteration # 12     ecut=    50.00 Ry     beta= 0.70
     CG style diagonalization
     ethr =  7.23E-08,  avg # of iterations =  4.8

     total cpu time spent up to now is    56516.0 secs

     total energy              =    -899.13263273 Ry
     estimated scf accuracy    <       0.00012176 Ry

     iteration # 13     ecut=    50.00 Ry     beta= 0.70
     CG style diagonalization
     ethr =  7.23E-08,  avg # of iterations =  3.2

     total cpu time spent up to now is    56675.8 secs

     total energy              =    -899.13263496 Ry
     estimated scf accuracy    <       0.00003587 Ry

     iteration # 14     ecut=    50.00 Ry     beta= 0.70
     CG style diagonalization
     ethr =  2.39E-08,  avg # of iterations =  3.8

     total cpu time spent up to now is    56871.2 secs

     total energy              =    -899.13265412 Ry
     estimated scf accuracy    <       0.00000321 Ry

     iteration # 15     ecut=    50.00 Ry     beta= 0.70
     CG style diagonalization
     c_bands:  1 eigenvalues not converged
     c_bands:  1 eigenvalues not converged
     ethr =  2.14E-09,  avg # of iterations =  5.6

     total cpu time spent up to now is    57172.7 secs

     total energy              =    -899.13266436 Ry
     estimated scf accuracy    <       0.00000250 Ry

     iteration # 16     ecut=    50.00 Ry     beta= 0.70
     CG style diagonalization
     ethr =  1.67E-09,  avg # of iterations =  3.5

     total cpu time spent up to now is    57347.4 secs

     End of self-consistent calculation

          k =-0.0000 0.0000 0.0000 ( 32571 PWs)   bands (ev):

   -65.9775 -33.9797 -33.9258 -33.4643 -33.3276 -32.6265 -32.4983 -32.3283
   -16.0152 -15.9826 -15.9728 -15.9682 -15.9370 -15.9169 -15.5714 -15.5113
   -15.4699 -15.4321 -15.3982 -15.3672 -12.4336 -12.4207 -12.3403 -12.3167
   -12.2882  -8.0481  -7.6139  -7.4190  -7.2237  -7.1930  -7.0346  -6.9785
    -6.9424  -6.8662  -6.6990  -6.6052  -4.8525  -3.6471  -3.2810  -3.1656
    -3.0122  -2.9326  -2.8608  -2.8171  -2.7882  -2.7017  -2.6375  -2.5627
    -2.5127  -2.4901  -2.3907  -2.3009  -2.2362  -2.2186  -2.1600  -2.1095
    -2.0252  -2.0224  -1.9850  -1.8507  -1.8117  -1.7636  -1.6448  -1.5978
    -1.5418  -1.5130  -1.4782  -1.4269  -1.3027  -1.2050  -1.1679  -0.7410
    -0.6387  -0.0606   2.3568   2.5795   3.6753   4.1157   4.5414   4.6306
     4.8501   4.9861   5.0268   5.0576   5.2850   5.3050   5.4939   5.6520
     5.7221   5.8239

          k = 0.3738 0.0061 0.0016 ( 32604 PWs)   bands (ev):

   -65.9775 -33.9797 -33.9258 -33.4643 -33.3276 -32.6265 -32.4983 -32.3283
   -16.0152 -15.9825 -15.9728 -15.9680 -15.9369 -15.9169 -15.5716 -15.5113
   -15.4699 -15.4322 -15.3982 -15.3672 -12.4336 -12.4207 -12.3404 -12.3167
   -12.2882  -8.0051  -7.6659  -7.4467  -7.2269  -7.1449  -7.0319  -6.9922
    -6.9553  -6.8595  -6.6895  -6.6150  -4.8535  -3.6423  -3.1953  -3.1633
    -3.0346  -2.8963  -2.8515  -2.7906  -2.7459  -2.6990  -2.6384  -2.6268
    -2.5923  -2.5067  -2.4503  -2.3679  -2.3258  -2.1468  -2.1051  -2.0600
    -2.0528  -1.9916  -1.8911  -1.8510  -1.8192  -1.7203  -1.6645  -1.6117
    -1.5697  -1.5261  -1.5114  -1.3868  -1.3515  -1.2294  -1.1604  -0.7396
    -0.6485  -0.0493   2.3640   2.5800   3.6785   4.0803   4.5132   4.7405
     4.8729   5.0080   5.0821   5.2147   5.3021   5.3302   5.5086   5.6429
     5.7382   5.7584

          k = 0.0088 0.5250-0.0112 ( 32596 PWs)   bands (ev):

   -65.9775 -33.9797 -33.9258 -33.4643 -33.3276 -32.6265 -32.4983 -32.3283
   -16.0152 -15.9819 -15.9714 -15.9685 -15.9386 -15.9173 -15.5714 -15.5109
   -15.4697 -15.4320 -15.3986 -15.3678 -12.4336 -12.4207 -12.3404 -12.3167
   -12.2882  -7.9718  -7.6237  -7.3441  -7.2072  -7.1674  -7.1431  -7.0301
    -6.9760  -6.8698  -6.7100  -6.6352  -4.9334  -3.6123  -3.1503  -3.0731
    -3.0448  -2.9779  -2.8747  -2.8045  -2.7556  -2.7242  -2.6419  -2.5814
    -2.4689  -2.4234  -2.3416  -2.2938  -2.2663  -2.2388  -2.0931  -2.0481
    -2.0005  -1.9550  -1.8731  -1.8529  -1.8138  -1.7361  -1.6703  -1.6442
    -1.6358  -1.6201  -1.4693  -1.4345  -1.3785  -1.3405  -1.2503  -0.7112
    -0.6932   0.0395   2.2708   2.5213   3.5564   4.0234   4.5547   4.7700
     4.9638   5.0935   5.1006   5.1670   5.3507   5.3905   5.5144   5.5734
     5.6790   5.7618

          k = 0.3826 0.5311-0.0097 ( 32564 PWs)   bands (ev):

   -65.9775 -33.9797 -33.9258 -33.4643 -33.3276 -32.6265 -32.4983 -32.3283
   -16.0151 -15.9819 -15.9714 -15.9683 -15.9386 -15.9173 -15.5716 -15.5109
   -15.4697 -15.4321 -15.3986 -15.3678 -12.4336 -12.4207 -12.3403 -12.3167
   -12.2882  -7.9479  -7.5143  -7.4684  -7.3620  -7.1105  -7.0641  -7.0539
    -6.9635  -6.8666  -6.7072  -6.6248  -4.9353  -3.5985  -3.1621  -3.0665
    -3.0518  -2.9376  -2.9128  -2.7666  -2.7442  -2.7116  -2.6224  -2.5087
    -2.4792  -2.4282  -2.4153  -2.2591  -2.2408  -2.2002  -2.1522  -2.0696
    -2.0628  -1.9418  -1.9227  -1.8685  -1.8643  -1.7383  -1.6977  -1.6289
    -1.5880  -1.5659  -1.4986  -1.4261  -1.3783  -1.3554  -1.2278  -0.7270
    -0.6950   0.0463   2.2740   2.5230   3.5564   4.0183   4.5705   4.8035
     5.0415   5.0999   5.1688   5.2367   5.3414   5.4180   5.5327   5.6103
     5.6583   5.7890

          k = 0.0018-0.0138 0.5195 ( 32578 PWs)   bands (ev):

   -65.9775 -33.9797 -33.9258 -33.4643 -33.3276 -32.6265 -32.4983 -32.3283
   -16.0152 -15.9820 -15.9715 -15.9684 -15.9386 -15.9173 -15.5714 -15.5109
   -15.4698 -15.4320 -15.3988 -15.3675 -12.4336 -12.4207 -12.3404 -12.3167
   -12.2882  -7.9753  -7.5855  -7.3832  -7.2134  -7.1887  -7.1488  -6.9957
    -6.9514  -6.8898  -6.7320  -6.6330  -4.8480  -3.6500  -3.2339  -3.0446
    -2.9842  -2.9515  -2.8445  -2.8168  -2.7127  -2.7078  -2.6601  -2.5758
    -2.4761  -2.4630  -2.4089  -2.3305  -2.3029  -2.2029  -2.1473  -2.1098
    -2.0279  -1.9947  -1.9343  -1.8546  -1.7988  -1.7567  -1.7113  -1.5988
    -1.5448  -1.5162  -1.4841  -1.4230  -1.3038  -1.2911  -1.1971  -0.8809
    -0.6598  -0.0294   2.3969   2.5635   3.6388   4.1405   4.5309   4.8452
     5.0020   5.0581   5.1426   5.2827   5.2946   5.4602   5.4879   5.6162
     5.6884   5.7903

          k = 0.3755-0.0077 0.5210 ( 32564 PWs)   bands (ev):

   -65.9775 -33.9797 -33.9258 -33.4643 -33.3276 -32.6265 -32.4983 -32.3283
   -16.0151 -15.9819 -15.9715 -15.9683 -15.9386 -15.9173 -15.5716 -15.5109
   -15.4698 -15.4321 -15.3988 -15.3675 -12.4336 -12.4207 -12.3403 -12.3167
   -12.2882  -7.9515  -7.4761  -7.4435  -7.4123  -7.1598  -7.0631  -6.9890
    -6.9800  -6.8764  -6.7061  -6.6484  -4.8443  -3.6429  -3.2180  -3.0131
    -2.9857  -2.8455  -2.8175  -2.7899  -2.7426  -2.7127  -2.6781  -2.5814
    -2.5524  -2.4807  -2.4332  -2.3660  -2.2703  -2.2654  -2.2066  -2.1210
    -2.0570  -1.9654  -1.9324  -1.8494  -1.7661  -1.6962  -1.6817  -1.5700
    -1.5634  -1.5198  -1.4641  -1.4239  -1.3477  -1.3058  -1.2062  -0.8799
    -0.6607  -0.0289   2.4021   2.5638   3.6431   4.1333   4.5417   4.8392
     5.0489   5.1732   5.2187   5.2446   5.3049   5.5016   5.5471   5.5814
     5.6714   5.7496

          k = 0.0106 0.5113 0.5082 ( 32544 PWs)   bands (ev):

   -65.9775 -33.9797 -33.9258 -33.4643 -33.3276 -32.6265 -32.4983 -32.3283
   -16.0153 -15.9826 -15.9735 -15.9679 -15.9368 -15.9169 -15.5714 -15.5114
   -15.4704 -15.4321 -15.3980 -15.3672 -12.4336 -12.4207 -12.3403 -12.3167
   -12.2882  -7.9445  -7.5601  -7.3075  -7.2496  -7.1549  -7.1144  -7.0584
    -7.0116  -6.8846  -6.7616  -6.6833  -4.9604  -3.5937  -3.2168  -3.0735
    -3.0096  -2.8816  -2.7981  -2.7542  -2.6654  -2.6159  -2.5585  -2.5441
    -2.4829  -2.4464  -2.4000  -2.3177  -2.2824  -2.2347  -2.1973  -2.1367
    -2.0472  -1.9971  -1.9618  -1.8837  -1.8019  -1.7525  -1.6620  -1.6064
    -1.5848  -1.5349  -1.4968  -1.4882  -1.3647  -1.2707  -1.2573  -0.8553
    -0.7293   0.0490   2.3048   2.5296   3.4918   4.0630   4.4899   4.7446
     4.9560   5.1053   5.2318   5.2791   5.3803   5.4002   5.4810   5.5724
     5.7133   5.7136

          k = 0.3843 0.5173 0.5098 ( 32568 PWs)   bands (ev):

   -65.9775 -33.9797 -33.9258 -33.4643 -33.3276 -32.6265 -32.4983 -32.3283
   -16.0153 -15.9826 -15.9735 -15.9678 -15.9367 -15.9169 -15.5716 -15.5114
   -15.4704 -15.4322 -15.3980 -15.3672 -12.4336 -12.4207 -12.3403 -12.3167
   -12.2882  -7.9242  -7.4405  -7.4138  -7.3423  -7.1776  -7.0830  -7.0637
    -6.9869  -6.8800  -6.7715  -6.6572  -4.9553  -3.5421  -3.1931  -3.0484
    -2.9488  -2.8641  -2.8447  -2.7857  -2.7457  -2.6880  -2.6019  -2.5640
    -2.4924  -2.4310  -2.3860  -2.3281  -2.2845  -2.2182  -2.1681  -2.0953
    -2.0091  -1.9768  -1.8858  -1.8263  -1.7861  -1.7732  -1.7143  -1.6599
    -1.6256  -1.5578  -1.5070  -1.4666  -1.4000  -1.3150  -1.2014  -0.8549
    -0.7241   0.0436   2.3047   2.5306   3.4940   4.0588   4.5010   4.7831
     5.0746   5.1604   5.2366   5.3147   5.4116   5.4726   5.5916   5.6249
     5.6601   5.7509

     the Fermi energy is     2.4439 ev

!    total energy              =    -899.13266488 Ry
     estimated scf accuracy    <       0.00000027 Ry
     smearing contrib. (-TS)   =      -0.00642122 Ry
     internal energy E=F+TS    =    -899.12624366 Ry

     The total energy is F=E-TS. E is the sum of the following terms:
     one-electron contribution =    -511.82110750 Ry
     hartree contribution      =     294.10182904 Ry
     xc contribution           =    -236.24481064 Ry
     ewald contribution        =    -276.78572047 Ry
     one-center paw contrib.   =    -168.37643408 Ry

     convergence has been achieved in  16 iterations

     Forces acting on atoms (cartesian axes, Ry/au):

     atom    1 type  4   force =    -0.00057256   -0.00275352   -0.00025581
     atom    2 type  4   force =     0.00266826    0.00231458    0.00206541
     atom    3 type  2   force =    -0.01952080    0.00229922   -0.00594941
     atom    4 type  4   force =    -0.00146981   -0.00043267   -0.00259311
     atom    5 type  5   force =     0.00016638   -0.00048743   -0.00020258
     atom    6 type  5   force =    -0.00687023   -0.00018394    0.00057320
     atom    7 type  5   force =     0.00470490   -0.00566769    0.00143902
     atom    8 type  5   force =    -0.00310078    0.00188335    0.00286029
     atom    9 type  1   force =     0.00740673    0.00398414   -0.00378391
     atom   10 type  1   force =     0.00159020    0.00521832   -0.00065182
     atom   11 type  1   force =     0.00117810    0.00726475    0.00500329
     atom   12 type  1   force =     0.00606880   -0.00223054    0.00112747
     atom   13 type  1   force =    -0.00360953    0.00380157    0.00062127
     atom   14 type  6   force =     0.02188894   -0.01910702    0.00890441
     atom   15 type  1   force =     0.00154562   -0.00400873    0.00256248
     atom   16 type  1   force =    -0.00496312    0.00091161   -0.00010963
     atom   17 type  1   force =    -0.00447927    0.00115635    0.00327320
     atom   18 type  1   force =     0.00135142   -0.00246145   -0.00269926
     atom   19 type  1   force =     0.00375147    0.00331894   -0.00428053
     atom   20 type  1   force =    -0.00393805    0.00015228    0.00152545
     atom   21 type  3   force =    -0.00708376   -0.00426305    0.00449512
     atom   22 type  3   force =     0.00273412   -0.00073986    0.00749452
     atom   23 type  3   force =     0.00740830    0.00902978    0.01308803
     atom   24 type  3   force =     0.00925481   -0.00100741   -0.00499838
     atom   25 type  3   force =    -0.00013661   -0.01195243   -0.01045176
     atom   26 type  3   force =    -0.00927255   -0.00454990   -0.00004707
     atom   27 type  3   force =     0.00283617    0.00947427   -0.00474165
     atom   28 type  3   force =    -0.00027307   -0.00287402    0.00190213
     atom   29 type  3   force =    -0.00618733    0.01087661   -0.00302747
     atom   30 type  3   force =    -0.00352313    0.00475268   -0.00503944
     atom   31 type  3   force =     0.00357881   -0.00534458   -0.00257791
     atom   32 type  3   force =    -0.00509789    0.00285477   -0.00076692
     atom   33 type  3   force =     0.01522506    0.00247919    0.00659567
     atom   34 type  3   force =    -0.01075561    0.00211807    0.00417560
     atom   35 type  3   force =    -0.00653252    0.00007441    0.00551283
     atom   36 type  3   force =     0.00168517   -0.00014471    0.00198603
     atom   37 type  3   force =     0.00240517   -0.00227148   -0.00018323
     atom   38 type  3   force =    -0.00945363   -0.00503447    0.00327389
     atom   39 type  3   force =    -0.00221991    0.00273056    0.00601122
     atom   40 type  3   force =     0.00510245    0.00124275    0.00206167
     atom   41 type  3   force =    -0.00482112   -0.00293688    0.00441515
     atom   42 type  3   force =    -0.02007062   -0.00914534   -0.00043173
     atom   43 type  3   force =     0.00577920    0.00250660   -0.00248231
     atom   44 type  3   force =     0.00527486    0.00205179   -0.00070494
     atom   45 type  3   force =     0.00597640    0.00348833   -0.00065799
     atom   46 type  3   force =     0.01047322   -0.00521178    0.00099437
     atom   47 type  3   force =    -0.00245848   -0.00338058   -0.00119972
     atom   48 type  3   force =    -0.00031231    0.00600159    0.00069450
     atom   49 type  3   force =     0.00000236    0.00273013   -0.00378465
     atom   50 type  3   force =     0.00200839   -0.00174224   -0.01421137
     atom   51 type  3   force =     0.00375571    0.00321265   -0.00771965
     atom   52 type  3   force =    -0.00381408   -0.00733818   -0.00475243
     atom   53 type  3   force =     0.00252807   -0.00280123    0.00210073
     atom   54 type  3   force =    -0.00012118    0.01252620   -0.00480383
     atom   55 type  3   force =    -0.00172145    0.00119470    0.00432116
     atom   56 type  3   force =     0.00458616    0.00166040    0.00570779
     atom   57 type  3   force =    -0.00310127   -0.00357978   -0.00561548
     atom   58 type  3   force =    -0.00114969    0.00350930    0.00407459
     atom   59 type  3   force =     0.00787339    0.00266208   -0.00523306
     atom   60 type  3   force =    -0.00353830    0.00497206   -0.00377359
     atom   61 type  3   force =     0.00026877    0.00383639   -0.00043676
     atom   62 type  3   force =    -0.00221685   -0.00896870   -0.00215860
     atom   63 type  3   force =    -0.00303403    0.00096848   -0.00284881
     atom   64 type  3   force =     0.00054768   -0.00639792   -0.00027546
     atom   65 type  3   force =    -0.00098825   -0.00281610   -0.00002367
     atom   66 type  3   force =     0.00303390    0.00192008    0.00612652
     atom   67 type  3   force =    -0.00312183   -0.00419897   -0.00152844
     atom   68 type  3   force =     0.00487064    0.00285361    0.00001534

     Total force =     0.077951     Total SCF correction =     0.000980


     Computing stress (Cartesian axis) and pressure

          total   stress  (Ry/bohr**3)                   (kbar)     P=       -0.76
   0.00000816  -0.00001345   0.00001818            1.20       -1.98        2.67
  -0.00001345  -0.00001064   0.00000954           -1.98       -1.57        1.40
   0.00001818   0.00000954  -0.00001310            2.67        1.40       -1.93

     Energy error            =      7.7E-03
     Gradient error          =      2.2E-02
     Cell gradient error     =      1.8E-05


     number of scf cycles    =  24
     number of bfgs steps    =  23

     enthalpy old            =    -899.1249158753 Ry
     enthalpy new            =    -899.1326648827 Ry

     CASE: enthalpy_new < enthalpy_old

     new trust radius        =       0.1682409719 bohr
     new conv_thr            =       0.0000002189 Ry

     new unit-cell volume =   5408.26119 a.u.^3 (   801.42162 Ang^3 )
     density =      0.14090 g/cm^3

CELL_PARAMETERS (angstrom)
   0.081390147  -0.187238318  -8.396590703
   0.143851144  -8.217992600  -0.231521188
 -11.626058849   0.205834079   0.099679631

ATOMIC_POSITIONS (angstrom)
K            -8.6036016234       -7.5898350627       -4.8168599422
K            -2.9758727232       -0.1904481479       -3.8683980866
Ga           -2.6609015660       -3.8407075994       -7.9578923825
K            -8.2557663092       -3.9508360393       -0.3602850802
Sr           -5.5851874391       -8.1933338539       -8.2218844665
Sr          -11.3880868805       -0.1208696154       -0.5101132548
Sr          -11.5014704559       -3.7873445492       -4.4065626593
Sr           -5.6413705621       -4.1980325087       -4.0108825909
B            -8.8360091892       -3.6931924258       -3.6552591159
B            -2.8443347493       -4.5028171137       -5.0420835530
B            -2.6513138913       -7.8258310239       -0.6449228947
B            -8.7351108637       -0.3779646712       -7.7644537992
B            -5.4063626303       -2.7297504074       -1.5864973403
Ta          -12.7045242050       -5.8173687475       -7.0387270438
B           -11.0227163650       -6.7573100725       -3.0233101492
B            -5.3323212462       -1.3531816265       -5.5605218056
B            -6.1136581810       -5.6204766300       -6.6672777578
B            -0.3919321857       -2.8468711694       -1.7574594420
B            -0.3562775455       -1.3590166783       -5.9585146430
B            -6.1225062117       -6.7573564132       -2.5781239415
H            -9.6419503568       -4.0373924000       -2.8131800049
H            -3.7217730901       -3.9902600352       -5.7338393543
H            -3.7099074707       -7.8563346685       -1.2997073169
H            -9.7027206256        0.0412347408       -7.1326517836
H            -8.7202596541       -4.5453989039       -4.5114571413
H            -2.3223796359       -3.6354354882       -4.3455933022
H            -2.6061384102       -0.8105623209       -8.1267793754
H            -8.2848304345       -7.5623024237       -0.3985189716
H            -9.1422675780       -2.6358995993       -4.1754931531
H            -3.1805596445       -5.4725232330       -4.3714740491
H            -2.5982177199       -6.9178660294       -8.3249824561
H            -9.0914345163       -1.2280508419        0.0225156105
H            -7.8025278414       -3.5363718921       -3.0679235548
H            -1.8255973098       -4.7449681644       -5.7783290754
H            -1.8052606989       -7.7231865030       -1.5245245219
H            -7.8837816174       -0.6832240076       -6.9528857112
H            -5.3748743729       -2.0985604938       -0.5333201860
H           -11.4135275194       -6.2999596874       -8.2355565808
H           -10.7331159832       -6.2390536550       -4.0901834866
H            -5.1246403091       -1.8582988263       -4.4746490821
H            -4.3345157417       -2.6065345323       -2.1980693808
H           -11.1058264000       -5.1863733509       -6.3918208884
H           -10.0167094716       -6.8686552943       -2.3178510216
H            -4.2933954439       -1.2588869915       -6.2006998033
H            -5.6598644412       -3.9156084222       -1.3463587148
H           -12.4390487065       -4.0212835700       -7.3184161974
H           -11.4123422341       -7.8895130002       -3.2810116281
H            -5.8272760161       -0.2544023407       -5.3635046958
H            -6.3101118124       -2.2758456256       -2.2725613080
H            -1.2167634628       -6.6343094311       -5.4610783752
H            -0.2455609078       -6.3769889944       -2.4625396547
H            -6.1238012798       -2.0209688135       -6.1996193721
H            -5.8412968634       -6.1386987523       -5.5975795258
H            -0.2287244753       -2.2443865831       -2.8064494436
H            -0.0764837418       -2.0746925311       -6.9223811189
H            -5.9317181599       -6.1111853799       -1.5591934059
H            -7.1156992340       -6.1969722354       -7.0747036699
H            -1.3272495788       -2.3203641145       -1.1594560898
H            -1.3909170114       -1.7682548570       -5.4193397090
H            -7.0936966571       -6.2514638739       -3.1187761711
H            -6.3841240346       -4.4330078340       -6.5400249899
H            -0.6453842254       -4.0133340463       -1.9721517705
H            -0.4847635379       -0.1691096778       -6.3394548367
H            -6.3726797310       -7.9275232880       -2.3487981996
H            -5.1618718712       -5.7332944443       -7.4329088706
H           -10.9676602549       -2.5710451105       -1.0318904834
H           -11.0479605937       -1.1589690263       -5.0567135468
H            -5.1492868353       -6.6852407116       -3.3170741012



     Writing output data file ./tmp/K3Sr4TaGaB11H48.save/
     NEW-OLD atomic charge density approx. for the potential

     negative rho (up, down):  8.396E-06 0.000E+00
     extrapolated charge  150.68780, renormalised to  150.00000

     total cpu time spent up to now is    57840.6 secs

     Self-consistent Calculation

     iteration #  1     ecut=    50.00 Ry     beta= 0.70
     CG style diagonalization
     c_bands:  1 eigenvalues not converged
     ethr =  1.00E-06,  avg # of iterations = 23.7

     negative rho (up, down):  1.447E-07 0.000E+00

     total cpu time spent up to now is    59196.2 secs

     total energy              =    -899.05857566 Ry
     estimated scf accuracy    <       0.17597062 Ry

     iteration #  2     ecut=    50.00 Ry     beta= 0.70
     CG style diagonalization
     ethr =  1.17E-04,  avg # of iterations =  3.4

     negative rho (up, down):  1.585E-08 0.000E+00

     total cpu time spent up to now is    59371.1 secs

     total energy              =    -899.09079931 Ry
     estimated scf accuracy    <       0.13323839 Ry

     iteration #  3     ecut=    50.00 Ry     beta= 0.70
     CG style diagonalization
     ethr =  8.88E-05,  avg # of iterations =  3.3

     total cpu time spent up to now is    59534.6 secs

     total energy              =    -899.10509840 Ry
     estimated scf accuracy    <       0.12750382 Ry

     iteration #  4     ecut=    50.00 Ry     beta= 0.70
     CG style diagonalization
     ethr =  8.50E-05,  avg # of iterations =  3.2

     total cpu time spent up to now is    59692.2 secs

     total energy              =    -899.12875072 Ry
     estimated scf accuracy    <       0.02923078 Ry

     iteration #  5     ecut=    50.00 Ry     beta= 0.70
     CG style diagonalization
     ethr =  1.95E-05,  avg # of iterations =  3.3

     total cpu time spent up to now is    59857.3 secs

     total energy              =    -899.13688515 Ry
     estimated scf accuracy    <       0.01602755 Ry

     iteration #  6     ecut=    50.00 Ry     beta= 0.70
     CG style diagonalization
     ethr =  1.07E-05,  avg # of iterations =  3.3

     total cpu time spent up to now is    60019.6 secs

     total energy              =    -899.13939533 Ry
     estimated scf accuracy    <       0.01579212 Ry

     iteration #  7     ecut=    50.00 Ry     beta= 0.70
     CG style diagonalization
     ethr =  1.05E-05,  avg # of iterations =  3.2

     total cpu time spent up to now is    60175.5 secs

     total energy              =    -899.14179388 Ry
     estimated scf accuracy    <       0.00841413 Ry

     iteration #  8     ecut=    50.00 Ry     beta= 0.70
     CG style diagonalization
     ethr =  5.61E-06,  avg # of iterations =  3.2

     total cpu time spent up to now is    60337.5 secs

     total energy              =    -899.14464951 Ry
     estimated scf accuracy    <       0.00981421 Ry

     iteration #  9     ecut=    50.00 Ry     beta= 0.70
     CG style diagonalization
     ethr =  5.61E-06,  avg # of iterations =  3.3

     total cpu time spent up to now is    60502.0 secs

     total energy              =    -899.14404982 Ry
     estimated scf accuracy    <       0.02727693 Ry

     iteration # 10     ecut=    50.00 Ry     beta= 0.70
     CG style diagonalization
     ethr =  5.61E-06,  avg # of iterations =  3.1

     total cpu time spent up to now is    60656.2 secs

     total energy              =    -899.13941747 Ry
     estimated scf accuracy    <       0.01926172 Ry

     iteration # 11     ecut=    50.00 Ry     beta= 0.70
     CG style diagonalization
     ethr =  5.61E-06,  avg # of iterations =  3.2

     total cpu time spent up to now is    60815.1 secs

     total energy              =    -899.13824897 Ry
     estimated scf accuracy    <       0.00650648 Ry

     iteration # 12     ecut=    50.00 Ry     beta= 0.70
     CG style diagonalization
     ethr =  4.34E-06,  avg # of iterations =  3.2

     total cpu time spent up to now is    60976.2 secs

     total energy              =    -899.13944617 Ry
     estimated scf accuracy    <       0.00089031 Ry

     iteration # 13     ecut=    50.00 Ry     beta= 0.70
     CG style diagonalization
     c_bands:  1 eigenvalues not converged
     ethr =  5.94E-07,  avg # of iterations =  4.8

     total cpu time spent up to now is    61226.2 secs

     total energy              =    -899.14094983 Ry
     estimated scf accuracy    <       0.00075392 Ry

     iteration # 14     ecut=    50.00 Ry     beta= 0.70
     CG style diagonalization
     ethr =  5.03E-07,  avg # of iterations =  3.2

     total cpu time spent up to now is    61384.7 secs

     total energy              =    -899.14094100 Ry
     estimated scf accuracy    <       0.00034337 Ry

     iteration # 15     ecut=    50.00 Ry     beta= 0.70
     CG style diagonalization
     ethr =  2.29E-07,  avg # of iterations =  3.6

     total cpu time spent up to now is    61568.4 secs

     total energy              =    -899.14103114 Ry
     estimated scf accuracy    <       0.00004338 Ry

     iteration # 16     ecut=    50.00 Ry     beta= 0.70
     CG style diagonalization
     ethr =  2.89E-08,  avg # of iterations =  5.6

     total cpu time spent up to now is    61869.6 secs

     total energy              =    -899.14117728 Ry
     estimated scf accuracy    <       0.00002039 Ry

     iteration # 17     ecut=    50.00 Ry     beta= 0.70
     CG style diagonalization
     c_bands:  1 eigenvalues not converged
     ethr =  1.36E-08,  avg # of iterations =  3.8

     total cpu time spent up to now is    62061.9 secs

     total energy              =    -899.14118982 Ry
     estimated scf accuracy    <       0.00002884 Ry

     iteration # 18     ecut=    50.00 Ry     beta= 0.70
     CG style diagonalization
     ethr =  1.36E-08,  avg # of iterations =  3.1

     total cpu time spent up to now is    62216.6 secs

     total energy              =    -899.14118688 Ry
     estimated scf accuracy    <       0.00001558 Ry

     iteration # 19     ecut=    50.00 Ry     beta= 0.70
     CG style diagonalization
     ethr =  1.04E-08,  avg # of iterations =  3.2

     total cpu time spent up to now is    62377.1 secs

     total energy              =    -899.14118886 Ry
     estimated scf accuracy    <       0.00000075 Ry

     iteration # 20     ecut=    50.00 Ry     beta= 0.70
     CG style diagonalization
     c_bands:  1 eigenvalues not converged
     c_bands:  1 eigenvalues not converged
     ethr =  5.00E-10,  avg # of iterations =  6.8

     total cpu time spent up to now is    62742.8 secs

     total energy              =    -899.14119243 Ry
     estimated scf accuracy    <       0.00000132 Ry

     iteration # 21     ecut=    50.00 Ry     beta= 0.70
     CG style diagonalization
     ethr =  5.00E-10,  avg # of iterations =  3.5

     total cpu time spent up to now is    62916.5 secs

     total energy              =    -899.14119214 Ry
     estimated scf accuracy    <       0.00000113 Ry

     iteration # 22     ecut=    50.00 Ry     beta= 0.70
     CG style diagonalization
     ethr =  5.00E-10,  avg # of iterations =  3.3

     total cpu time spent up to now is    63079.9 secs

     End of self-consistent calculation

          k = 0.0000 0.0000 0.0000 ( 32571 PWs)   bands (ev):

   -65.9536 -34.0269 -33.9811 -33.5351 -33.3569 -32.5953 -32.4670 -32.2988
   -16.0622 -16.0262 -16.0216 -16.0183 -15.9889 -15.9653 -15.6377 -15.5729
   -15.5251 -15.4615 -15.4274 -15.3965 -12.4070 -12.3966 -12.3110 -12.2852
   -12.2603  -8.0281  -7.6305  -7.4296  -7.2693  -7.2439  -7.0444  -7.0056
    -6.9658  -6.8550  -6.7254  -6.6713  -4.6737  -3.6181  -3.3148  -3.1860
    -3.0261  -2.9601  -2.8737  -2.8439  -2.7918  -2.7239  -2.6740  -2.5960
    -2.5396  -2.5358  -2.4180  -2.3232  -2.2740  -2.2534  -2.1443  -2.1262
    -2.0740  -2.0428  -1.9633  -1.8806  -1.8174  -1.7722  -1.6438  -1.6143
    -1.5688  -1.5542  -1.5022  -1.4309  -1.3578  -1.2341  -1.2008  -0.7915
    -0.6392  -0.0017   2.3906   2.6203   3.7307   4.2336   4.5295   4.5838
     4.8269   4.9446   5.0075   5.0676   5.2494   5.2756   5.4477   5.5880
     5.6573   5.7748

          k = 0.3727 0.0064 0.0035 ( 32604 PWs)   bands (ev):

   -65.9536 -34.0269 -33.9811 -33.5351 -33.3569 -32.5953 -32.4670 -32.2988
   -16.0622 -16.0261 -16.0215 -16.0182 -15.9889 -15.9653 -15.6379 -15.5729
   -15.5251 -15.4616 -15.4274 -15.3965 -12.4070 -12.3966 -12.3110 -12.2852
   -12.2603  -7.9751  -7.6973  -7.4538  -7.2933  -7.1732  -7.0473  -6.9980
    -6.9920  -6.8459  -6.7239  -6.6784  -4.6738  -3.6141  -3.2517  -3.1584
    -3.0598  -2.9168  -2.8657  -2.8060  -2.7572  -2.7169  -2.6807  -2.6493
    -2.6211  -2.5408  -2.4716  -2.4090  -2.3605  -2.1865  -2.1244  -2.1000
    -2.0577  -1.9544  -1.9103  -1.8819  -1.8179  -1.7302  -1.6851  -1.6432
    -1.5607  -1.5502  -1.5370  -1.4397  -1.3883  -1.2698  -1.1786  -0.7903
    -0.6482   0.0097   2.3976   2.6204   3.7331   4.1846   4.5086   4.7518
     4.8197   4.9690   5.0500   5.1957   5.2606   5.3442   5.4637   5.5978
     5.6634   5.7166

          k = 0.0092 0.5275-0.0117 ( 32596 PWs)   bands (ev):

   -65.9536 -34.0269 -33.9811 -33.5351 -33.3569 -32.5953 -32.4670 -32.2988
   -16.0622 -16.0247 -16.0223 -16.0169 -15.9910 -15.9657 -15.6377 -15.5727
   -15.5250 -15.4614 -15.4277 -15.3970 -12.4070 -12.3966 -12.3110 -12.2852
   -12.2603  -7.9421  -7.6512  -7.3558  -7.2503  -7.2034  -7.1709  -7.0350
    -7.0045  -6.8624  -6.7578  -6.6926  -4.7691  -3.5789  -3.1901  -3.0992
    -3.0662  -2.9826  -2.8805  -2.7935  -2.7686  -2.7458  -2.6666  -2.6214
    -2.4982  -2.4317  -2.3713  -2.3263  -2.2874  -2.2699  -2.1384  -2.0747
    -2.0297  -1.9861  -1.9005  -1.8573  -1.8228  -1.7657  -1.6866  -1.6618
    -1.6415  -1.6045  -1.5078  -1.4616  -1.4343  -1.3642  -1.2870  -0.7397
    -0.7065   0.1038   2.2910   2.5586   3.6180   4.1404   4.5481   4.7745
     4.9256   5.0316   5.0623   5.1102   5.3019   5.3582   5.4881   5.5213
     5.6412   5.6589

          k = 0.3819 0.5340-0.0082 ( 32564 PWs)   bands (ev):

   -65.9536 -34.0269 -33.9811 -33.5351 -33.3569 -32.5953 -32.4670 -32.2988
   -16.0622 -16.0247 -16.0221 -16.0169 -15.9910 -15.9656 -15.6378 -15.5727
   -15.5250 -15.4615 -15.4277 -15.3970 -12.4070 -12.3967 -12.3110 -12.2852
   -12.2603  -7.9133  -7.5517  -7.4793  -7.4032  -7.1333  -7.1017  -7.0642
    -6.9826  -6.8738  -6.7357  -6.6926  -4.7697  -3.5668  -3.2000  -3.0858
    -3.0721  -2.9400  -2.9215  -2.7781  -2.7698  -2.7156  -2.6357  -2.5464
    -2.4917  -2.4598  -2.4249  -2.3141  -2.2767  -2.2280  -2.1860  -2.1152
    -2.0739  -1.9696  -1.9616  -1.8977  -1.8384  -1.7445  -1.6990  -1.6403
    -1.5978  -1.5865  -1.5467  -1.4730  -1.4066  -1.3785  -1.2638  -0.7498
    -0.7137   0.1108   2.2942   2.5599   3.6173   4.1317   4.5652   4.8241
     5.0263   5.0397   5.1445   5.1727   5.3202   5.3783   5.4626   5.5656
     5.6261   5.7361

          k = 0.0042-0.0145 0.5162 ( 32578 PWs)   bands (ev):

   -65.9536 -34.0269 -33.9811 -33.5351 -33.3569 -32.5953 -32.4670 -32.2988
   -16.0622 -16.0247 -16.0223 -16.0169 -15.9909 -15.9656 -15.6376 -15.5727
   -15.5250 -15.4614 -15.4279 -15.3967 -12.4070 -12.3967 -12.3110 -12.2852
   -12.2603  -7.9508  -7.6186  -7.4124  -7.2404  -7.2100  -7.1768  -7.0288
    -6.9631  -6.8784  -6.7587  -6.7002  -4.6677  -3.6289  -3.2849  -3.0632
    -3.0123  -2.9648  -2.8730  -2.8123  -2.7355  -2.7276  -2.6807  -2.5766
    -2.5138  -2.4982  -2.4515  -2.3489  -2.2931  -2.2453  -2.1779  -2.1316
    -2.0578  -1.9744  -1.9526  -1.8723  -1.8184  -1.7992  -1.7340  -1.6298
    -1.5820  -1.5315  -1.5031  -1.4194  -1.3497  -1.3219  -1.2351  -0.9076
    -0.6599   0.0261   2.4239   2.6066   3.6886   4.2448   4.5332   4.8248
     4.9791   5.0301   5.1190   5.2363   5.2639   5.4206   5.4444   5.6054
     5.6498   5.7731

          k = 0.3769-0.0080 0.5197 ( 32564 PWs)   bands (ev):

   -65.9536 -34.0269 -33.9811 -33.5351 -33.3569 -32.5953 -32.4670 -32.2988
   -16.0621 -16.0247 -16.0222 -16.0169 -15.9909 -15.9656 -15.6378 -15.5727
   -15.5250 -15.4615 -15.4279 -15.3967 -12.4070 -12.3967 -12.3110 -12.2852
   -12.2603  -7.9220  -7.5265  -7.4545  -7.4513  -7.1807  -7.0829  -7.0233
    -6.9860  -6.8656  -6.7335  -6.7211  -4.6641  -3.6177  -3.2707  -3.0393
    -2.9979  -2.8556  -2.8352  -2.8204  -2.7617  -2.7236  -2.6955  -2.6243
    -2.5691  -2.5027  -2.4577  -2.3960  -2.3084  -2.2646  -2.2357  -2.1304
    -2.0563  -1.9944  -1.9592  -1.8573  -1.7990  -1.7224  -1.7070  -1.5945
    -1.5832  -1.5311  -1.5090  -1.4340  -1.3835  -1.3494  -1.2260  -0.9065
    -0.6599   0.0256   2.4287   2.6064   3.6940   4.2391   4.5495   4.8490
     5.0010   5.1418   5.1873   5.2229   5.2584   5.4823   5.4979   5.5345
     5.6257   5.7171

          k = 0.0134 0.5131 0.5045 ( 32544 PWs)   bands (ev):

   -65.9536 -34.0269 -33.9811 -33.5351 -33.3569 -32.5953 -32.4670 -32.2988
   -16.0623 -16.0258 -16.0227 -16.0180 -15.9887 -15.9653 -15.6376 -15.5731
   -15.5255 -15.4614 -15.4273 -15.3965 -12.4070 -12.3967 -12.3110 -12.2852
   -12.2603  -7.9176  -7.5985  -7.3332  -7.2691  -7.1760  -7.1503  -7.0938
    -7.0050  -6.8717  -6.7959  -6.7627  -4.7961  -3.5821  -3.2575  -3.0986
    -2.9867  -2.9096  -2.8239  -2.7407  -2.6891  -2.6464  -2.5852  -2.5753
    -2.5222  -2.4701  -2.4028  -2.3197  -2.3059  -2.2512  -2.2126  -2.1610
    -2.0548  -2.0227  -1.9864  -1.9273  -1.8243  -1.7848  -1.6872  -1.6392
    -1.5793  -1.5485  -1.5284  -1.4992  -1.4143  -1.3249  -1.2949  -0.8682
    -0.7304   0.1094   2.3193   2.5684   3.5542   4.1721   4.4780   4.7117
     4.9223   5.0822   5.1958   5.2229   5.3585   5.3920   5.4087   5.5245
     5.6554   5.7321

          k = 0.3861 0.5195 0.5080 ( 32568 PWs)   bands (ev):

   -65.9536 -34.0269 -33.9811 -33.5351 -33.3569 -32.5953 -32.4670 -32.2988
   -16.0623 -16.0258 -16.0226 -16.0179 -15.9887 -15.9653 -15.6378 -15.5731
   -15.5255 -15.4615 -15.4273 -15.3965 -12.4070 -12.3967 -12.3110 -12.2852
   -12.2603  -7.8929  -7.5003  -7.4288  -7.3786  -7.1732  -7.1052  -7.0886
    -6.9995  -6.8875  -6.8038  -6.7255  -4.7911  -3.5179  -3.2316  -3.0694
    -2.9751  -2.8700  -2.8543  -2.8141  -2.7765  -2.6732  -2.6320  -2.5755
    -2.5118  -2.4602  -2.4078  -2.3490  -2.3149  -2.2272  -2.2058  -2.0923
    -2.0249  -2.0169  -1.9110  -1.8566  -1.8062  -1.8058  -1.7491  -1.6478
    -1.6407  -1.5697  -1.5326  -1.5054  -1.4157  -1.4062  -1.2234  -0.8685
    -0.7256   0.1041   2.3189   2.5688   3.5562   4.1653   4.4953   4.7731
     5.0228   5.1303   5.1975   5.2704   5.3676   5.4587   5.5385   5.5865
     5.6467   5.6960

     the Fermi energy is     2.4764 ev

!    total energy              =    -899.14119227 Ry
     estimated scf accuracy    <       0.00000001 Ry
     smearing contrib. (-TS)   =      -0.00583008 Ry
     internal energy E=F+TS    =    -899.13536219 Ry

     The total energy is F=E-TS. E is the sum of the following terms:
     one-electron contribution =    -510.40924480 Ry
     hartree contribution      =     293.26428890 Ry
     xc contribution           =    -236.20700247 Ry
     ewald contribution        =    -277.42294496 Ry
     one-center paw contrib.   =    -168.36045885 Ry

     convergence has been achieved in  22 iterations

     Forces acting on atoms (cartesian axes, Ry/au):

     atom    1 type  4   force =    -0.00025882   -0.00355416   -0.00168838
     atom    2 type  4   force =     0.00283282    0.00133975    0.00228645
     atom    3 type  2   force =    -0.00814259   -0.00119212   -0.00280826
     atom    4 type  4   force =    -0.00020068   -0.00107800   -0.00199499
     atom    5 type  5   force =     0.00046383    0.00258574    0.00149203
     atom    6 type  5   force =    -0.01435907   -0.00108832    0.00155903
     atom    7 type  5   force =     0.00201188   -0.00117504   -0.00032619
     atom    8 type  5   force =    -0.00180564    0.00014999    0.00487028
     atom    9 type  1   force =     0.00847410    0.00130043   -0.00051946
     atom   10 type  1   force =     0.00586500    0.00309794   -0.00171223
     atom   11 type  1   force =     0.00217123    0.00748280    0.00378802
     atom   12 type  1   force =     0.00559001   -0.00449889    0.00076702
     atom   13 type  1   force =    -0.00427952    0.00602855   -0.00115690
     atom   14 type  6   force =     0.01304829    0.00590414    0.01192752
     atom   15 type  1   force =     0.00410440   -0.00467328    0.00180925
     atom   16 type  1   force =    -0.00332490   -0.00141297   -0.00150974
     atom   17 type  1   force =    -0.00586920   -0.00137283    0.00242080
     atom   18 type  1   force =     0.00228348   -0.00279283   -0.00497543
     atom   19 type  1   force =     0.00441843    0.00204550   -0.00191672
     atom   20 type  1   force =    -0.00316489    0.00024925    0.00050621
     atom   21 type  3   force =    -0.00548986   -0.00295170    0.00199375
     atom   22 type  3   force =     0.00170503   -0.00142033    0.00638111
     atom   23 type  3   force =     0.00779262    0.00904513    0.01286038
     atom   24 type  3   force =     0.00844644   -0.00069535   -0.00320923
     atom   25 type  3   force =    -0.00197684   -0.01044085   -0.01054357
     atom   26 type  3   force =    -0.01129535    0.00056911    0.00686368
     atom   27 type  3   force =     0.00189941    0.00939787   -0.00176823
     atom   28 type  3   force =     0.00039606   -0.00035184   -0.00029861
     atom   29 type  3   force =    -0.00598755    0.00861148   -0.00229240
     atom   30 type  3   force =    -0.00322417    0.00610256   -0.00561754
     atom   31 type  3   force =    -0.00137923   -0.00923715   -0.00630903
     atom   32 type  3   force =    -0.00572924    0.00226727   -0.00128498
     atom   33 type  3   force =     0.01333985    0.00437530    0.00597776
     atom   34 type  3   force =    -0.00821685   -0.00694340   -0.00699870
     atom   35 type  3   force =    -0.00337513    0.00049382    0.00448029
     atom   36 type  3   force =     0.00404107    0.00021041    0.00451634
     atom   37 type  3   force =     0.00270373   -0.00494877    0.00172268
     atom   38 type  3   force =    -0.00726544   -0.00632274    0.00103801
     atom   39 type  3   force =    -0.00234745    0.00346062    0.00545893
     atom   40 type  3   force =     0.00534785    0.00338067    0.00320896
     atom   41 type  3   force =    -0.00484862   -0.00498646    0.00392312
     atom   42 type  3   force =    -0.01039708   -0.00786265    0.00613778
     atom   43 type  3   force =     0.00766179    0.00382149   -0.00167057
     atom   44 type  3   force =     0.00493719    0.00215747   -0.00060173
     atom   45 type  3   force =     0.00718797    0.00532839   -0.00018484
     atom   46 type  3   force =    -0.00046486   -0.01775466    0.00053729
     atom   47 type  3   force =    -0.00435471   -0.00494461   -0.00126248
     atom   48 type  3   force =    -0.00093351    0.00630548    0.00126520
     atom   49 type  3   force =    -0.00225746    0.00242485   -0.00661981
     atom   50 type  3   force =     0.00260655   -0.00179517   -0.01101805
     atom   51 type  3   force =     0.00199915    0.00460548   -0.00719495
     atom   52 type  3   force =    -0.00405577   -0.00706422   -0.00491121
     atom   53 type  3   force =     0.00271697   -0.00049891    0.00482106
     atom   54 type  3   force =    -0.00097984    0.01141621   -0.00586973
     atom   55 type  3   force =    -0.00166849    0.00000821    0.00194041
     atom   56 type  3   force =     0.00419813    0.00031530    0.00635936
     atom   57 type  3   force =    -0.00411852   -0.00374457   -0.00702442
     atom   58 type  3   force =     0.00089373    0.00108605    0.00156615
     atom   59 type  3   force =     0.00606436    0.00395223   -0.00664485
     atom   60 type  3   force =    -0.00503033    0.00473016   -0.00404101
     atom   61 type  3   force =     0.00121668    0.00335535   -0.00043503
     atom   62 type  3   force =    -0.00286094   -0.00762060    0.00018438
     atom   63 type  3   force =    -0.00328469    0.00210993   -0.00255145
     atom   64 type  3   force =     0.00043436   -0.00495044   -0.00021322
     atom   65 type  3   force =    -0.00071088   -0.00181255   -0.00098645
     atom   66 type  3   force =     0.00260942    0.00041963    0.00653990
     atom   67 type  3   force =    -0.00097659   -0.00339175   -0.00106159
     atom   68 type  3   force =     0.00517290    0.00244255    0.00001885

     Total force =     0.071848     Total SCF correction =     0.000388


     Computing stress (Cartesian axis) and pressure

          total   stress  (Ry/bohr**3)                   (kbar)     P=       -1.94
   0.00000832  -0.00000691   0.00003013            1.22       -1.02        4.43
  -0.00000691  -0.00002839   0.00000766           -1.02       -4.18        1.13
   0.00003013   0.00000766  -0.00001939            4.43        1.13       -2.85

     Energy error            =      8.5E-03
     Gradient error          =      1.8E-02
     Cell gradient error     =      3.0E-05


     number of scf cycles    =  25
     number of bfgs steps    =  24

     enthalpy old            =    -899.1326648827 Ry
     enthalpy new            =    -899.1411922658 Ry

     CASE: enthalpy_new < enthalpy_old

     new trust radius        =       0.1815363180 bohr
     new conv_thr            =       0.0000001775 Ry

     new unit-cell volume =   5399.92866 a.u.^3 (   800.18687 Ang^3 )
     density =      0.14111 g/cm^3

CELL_PARAMETERS (angstrom)
   0.069846716  -0.176893687  -8.387658110
   0.160891310  -8.195440610  -0.222881301
 -11.652478207   0.230565710   0.080817789

ATOMIC_POSITIONS (angstrom)
K            -8.6044197133       -7.5395972735       -4.8322256808
K            -2.9773322531       -0.1573436849       -3.8624842485
Ga           -2.7151362395       -3.8049531024       -7.9256304400
K            -8.2686664699       -3.9082440712       -0.3703801488
Sr           -5.5973223950       -8.1674000870       -8.2159629080
Sr          -11.4073779152       -0.0913677206       -0.5437325407
Sr          -11.5139884902       -3.7711300292       -4.4188829665
Sr           -5.6575349669       -4.1620425572       -4.0181617810
B            -8.8453355488       -3.6413485932       -3.6727239624
B            -2.8363928325       -4.4919227563       -5.0486720237
B            -2.6140613525       -7.7716233756       -0.6192908754
B            -8.7499157916       -0.3699431956       -7.7750181328
B            -5.4232781284       -2.6965596778       -1.5949662800
Ta          -12.7848488969       -5.8107611473       -7.0258949637
B           -11.0262392443       -6.7102391619       -3.0378191705
B            -5.3513636510       -1.3333566823       -5.5588412353
B            -6.1321836261       -5.5783431792       -6.6500534048
B            -0.3895868147       -2.8492342047       -1.7553961917
B            -0.3597582741       -1.3321220512       -5.9631529761
B            -6.1301766510       -6.7267889522       -2.5688622205
H            -9.6563434776       -4.0088087032       -2.8274419724
H            -3.7099186301       -3.9497333098       -5.7257270028
H            -3.6799431053       -7.7883652792       -1.2536241433
H            -9.7170211515        0.0778515562       -7.1636382560
H            -8.7266971473       -4.4961647103       -4.5435279604
H            -2.2818722500       -3.6419869999       -4.3544909587
H            -2.5879193460       -0.7746238196       -8.1224742144
H            -8.2468250820       -7.5504993098       -0.4076724948
H            -9.1762689560       -2.5736215303       -4.1795626581
H            -3.1952906126       -5.4554254561       -4.3866880386
H            -2.5579811219       -6.8642973129       -8.2921087704
H            -9.1201934818       -1.2193614739        0.0006929458
H            -7.8067611957       -3.4851473814       -3.0767888135
H            -1.8307518340       -4.7488255142       -5.7868502657
H            -1.7918249632       -7.6779489227       -1.5162682549
H            -7.9135541026       -0.6936630339       -6.9513146822
H            -5.3865917067       -2.0729385426       -0.5405272248
H           -11.4847773846       -6.2681061380       -8.2200315783
H           -10.7291336784       -6.1975391588       -4.1025118202
H            -5.1219428795       -1.8294031332       -4.4694008885
H            -4.3483121917       -2.5784982768       -2.1944897824
H           -11.2252986007       -5.1399674322       -6.4048480357
H           -10.0178450085       -6.8273061103       -2.3348209053
H            -4.3057113097       -1.2259435795       -6.1963774263
H            -5.6702430035       -3.8829403889       -1.3614945072
H           -12.5471497331       -3.9882767798       -7.3309049195
H           -11.4370711917       -7.8367944854       -3.2961935536
H            -5.8652222629       -0.2348199818       -5.3677386644
H            -6.3188999619       -2.2378223541       -2.2861758839
H            -1.2356865436       -6.6520715767       -5.4330934529
H            -0.2108300268       -6.3291554205       -2.4677197535
H            -6.1293780165       -2.0294175972       -6.1979234009
H            -5.8561261056       -6.0969979957       -5.5791248816
H            -0.2346035426       -2.2337204210       -2.8068466701
H            -0.0913750732       -2.0549018107       -6.9182090908
H            -5.9377495021       -6.0845128803       -1.5431917778
H            -7.1329062465       -6.1589620051       -7.0614808005
H            -1.3166700100       -2.3146416760       -1.1423411548
H            -1.3902927674       -1.7349824354       -5.4207836766
H            -7.1008296910       -6.2150566468       -3.1147971513
H            -6.3958693097       -4.3859044701       -6.5351001228
H            -0.6454559805       -4.0204755809       -1.9689786691
H            -0.4867586677       -0.1406390098       -6.3468118961
H            -6.3713010638       -7.9048267745       -2.3509838285
H            -5.1767638541       -5.7066453470       -7.4127976509
H           -10.9836828833       -2.5440719792       -1.0500383698
H           -11.0852280500       -1.1171388393       -5.0767365469
H            -5.1491940618       -6.6459649692       -3.3045557204



     Writing output data file ./tmp/K3Sr4TaGaB11H48.save/
     NEW-OLD atomic charge density approx. for the potential

     negative rho (up, down):  2.016E-07 0.000E+00
     extrapolated charge  149.76884, renormalised to  150.00000

     total cpu time spent up to now is    63575.6 secs

     Self-consistent Calculation

     iteration #  1     ecut=    50.00 Ry     beta= 0.70
     CG style diagonalization
     ethr =  1.00E-06,  avg # of iterations = 20.3

     total cpu time spent up to now is    64726.4 secs

     total energy              =    -899.12386222 Ry
     estimated scf accuracy    <       0.06865494 Ry

     iteration #  2     ecut=    50.00 Ry     beta= 0.70
     CG style diagonalization
     ethr =  4.58E-05,  avg # of iterations =  3.4

     total cpu time spent up to now is    64899.6 secs

     total energy              =    -899.11599506 Ry
     estimated scf accuracy    <       0.10409521 Ry

     iteration #  3     ecut=    50.00 Ry     beta= 0.70
     CG style diagonalization
     ethr =  4.58E-05,  avg # of iterations =  3.5

     total cpu time spent up to now is    65075.4 secs

     total energy              =    -899.13447246 Ry
     estimated scf accuracy    <       0.09446846 Ry

     iteration #  4     ecut=    50.00 Ry     beta= 0.70
     CG style diagonalization
     ethr =  4.58E-05,  avg # of iterations =  3.1

     total cpu time spent up to now is    65224.7 secs

     total energy              =    -899.14554845 Ry
     estimated scf accuracy    <       0.00731372 Ry

     iteration #  5     ecut=    50.00 Ry     beta= 0.70
     CG style diagonalization
     ethr =  4.88E-06,  avg # of iterations =  3.4

     total cpu time spent up to now is    65395.4 secs

     total energy              =    -899.14716037 Ry
     estimated scf accuracy    <       0.00398396 Ry

     iteration #  6     ecut=    50.00 Ry     beta= 0.70
     CG style diagonalization
     ethr =  2.66E-06,  avg # of iterations =  3.3

     total cpu time spent up to now is    65557.9 secs

     total energy              =    -899.14793696 Ry
     estimated scf accuracy    <       0.00199901 Ry

     iteration #  7     ecut=    50.00 Ry     beta= 0.70
     CG style diagonalization
     ethr =  1.33E-06,  avg # of iterations =  3.2

     total cpu time spent up to now is    65717.6 secs

     total energy              =    -899.14807941 Ry
     estimated scf accuracy    <       0.00034650 Ry

     iteration #  8     ecut=    50.00 Ry     beta= 0.70
     CG style diagonalization
     ethr =  2.31E-07,  avg # of iterations =  4.5

     total cpu time spent up to now is    65951.8 secs

     total energy              =    -899.14835539 Ry
     estimated scf accuracy    <       0.00010445 Ry

     iteration #  9     ecut=    50.00 Ry     beta= 0.70
     CG style diagonalization
     ethr =  6.96E-08,  avg # of iterations =  4.7

     total cpu time spent up to now is    66206.2 secs

     total energy              =    -899.14840721 Ry
     estimated scf accuracy    <       0.00041192 Ry

     iteration # 10     ecut=    50.00 Ry     beta= 0.70
     CG style diagonalization
     ethr =  6.96E-08,  avg # of iterations =  3.9

     total cpu time spent up to now is    66406.2 secs

     total energy              =    -899.14846690 Ry
     estimated scf accuracy    <       0.00005839 Ry

     iteration # 11     ecut=    50.00 Ry     beta= 0.70
     CG style diagonalization
     ethr =  3.89E-08,  avg # of iterations =  3.6

     total cpu time spent up to now is    66588.1 secs

     total energy              =    -899.14846943 Ry
     estimated scf accuracy    <       0.00004415 Ry

     iteration # 12     ecut=    50.00 Ry     beta= 0.70
     CG style diagonalization
     ethr =  2.94E-08,  avg # of iterations =  3.4

     total cpu time spent up to now is    66764.5 secs

     total energy              =    -899.14847706 Ry
     estimated scf accuracy    <       0.00000198 Ry

     iteration # 13     ecut=    50.00 Ry     beta= 0.70
     CG style diagonalization
     c_bands:  1 eigenvalues not converged
     c_bands:  1 eigenvalues not converged
     c_bands:  2 eigenvalues not converged
     c_bands:  1 eigenvalues not converged
     c_bands:  1 eigenvalues not converged
     c_bands:  1 eigenvalues not converged
     ethr =  1.32E-09,  avg # of iterations =  7.4

     total cpu time spent up to now is    67196.4 secs

     total energy              =    -899.14849193 Ry
     estimated scf accuracy    <       0.00000186 Ry

     iteration # 14     ecut=    50.00 Ry     beta= 0.70
     CG style diagonalization
     ethr =  1.24E-09,  avg # of iterations =  3.5

     total cpu time spent up to now is    67380.4 secs

     total energy              =    -899.14849226 Ry
     estimated scf accuracy    <       0.00000020 Ry

     iteration # 15     ecut=    50.00 Ry     beta= 0.70
     CG style diagonalization
     c_bands:  1 eigenvalues not converged
     ethr =  1.32E-10,  avg # of iterations =  5.9

     total cpu time spent up to now is    67715.6 secs

     End of self-consistent calculation

          k =-0.0000 0.0000 0.0000 ( 32571 PWs)   bands (ev):

   -65.8990 -34.0061 -33.9614 -33.5363 -33.3445 -32.5658 -32.4067 -32.2400
   -16.0422 -16.0082 -16.0037 -15.9990 -15.9706 -15.9495 -15.6397 -15.5740
   -15.5240 -15.4473 -15.4167 -15.3837 -12.3141 -12.3019 -12.2181 -12.1927
   -12.1654  -8.0439  -7.6368  -7.4330  -7.2726  -7.2563  -7.0245  -6.9836
    -6.9445  -6.8284  -6.7321  -6.6779  -4.6523  -3.6512  -3.3427  -3.2106
    -3.0229  -2.9769  -2.8822  -2.8453  -2.7878  -2.7359  -2.6811  -2.5976
    -2.5437  -2.5215  -2.4249  -2.3210  -2.2866  -2.2370  -2.1489  -2.1010
    -2.0660  -2.0360  -1.9402  -1.8787  -1.7879  -1.7514  -1.6219  -1.6079
    -1.5615  -1.5430  -1.4979  -1.4226  -1.3545  -1.2321  -1.2009  -0.7865
    -0.6646   0.1238   2.4360   2.6967   3.8183   4.3262   4.5362   4.6139
     4.8648   4.9534   5.0079   5.1232   5.2576   5.3307   5.4835   5.5967
     5.6522   5.7944

          k = 0.3719 0.0072 0.0029 ( 32604 PWs)   bands (ev):

   -65.8990 -34.0061 -33.9614 -33.5363 -33.3445 -32.5658 -32.4067 -32.2400
   -16.0422 -16.0082 -16.0036 -15.9989 -15.9706 -15.9495 -15.6399 -15.5740
   -15.5240 -15.4474 -15.4167 -15.3837 -12.3141 -12.3019 -12.2181 -12.1927
   -12.1654  -7.9958  -7.6938  -7.4682  -7.2927  -7.1870  -7.0268  -6.9720
    -6.9687  -6.8208  -6.7343  -6.6820  -4.6522  -3.6499  -3.3086  -3.1500
    -3.0696  -2.9178  -2.8737  -2.8074  -2.7661  -2.7267  -2.6866  -2.6420
    -2.6147  -2.5337  -2.4776  -2.4091  -2.3729  -2.1931  -2.1278  -2.0729
    -2.0366  -1.9232  -1.9062  -1.8727  -1.7800  -1.7361  -1.6828  -1.6190
    -1.5547  -1.5380  -1.5293  -1.4397  -1.3736  -1.2626  -1.1812  -0.7856
    -0.6723   0.1342   2.4428   2.6961   3.8216   4.2699   4.5383   4.7806
     4.8312   4.9802   5.0692   5.2188   5.2810   5.4215   5.4858   5.6006
     5.6801   5.7394

          k = 0.0104 0.5290-0.0111 ( 32596 PWs)   bands (ev):

   -65.8990 -34.0061 -33.9614 -33.5363 -33.3445 -32.5658 -32.4067 -32.2400
   -16.0422 -16.0069 -16.0042 -15.9974 -15.9729 -15.9499 -15.6397 -15.5737
   -15.5239 -15.4472 -15.4170 -15.3841 -12.3141 -12.3019 -12.2181 -12.1927
   -12.1654  -7.9606  -7.6547  -7.3562  -7.2743  -7.1950  -7.1523  -7.0103
    -6.9827  -6.8486  -6.7665  -6.6938  -4.7492  -3.5934  -3.2495  -3.1052
    -3.0906  -2.9761  -2.8866  -2.7887  -2.7546  -2.7230  -2.6698  -2.6405
    -2.4997  -2.4141  -2.3692  -2.3345  -2.2844  -2.2723  -2.1313  -2.0611
    -2.0346  -1.9893  -1.9034  -1.8687  -1.7966  -1.7558  -1.6696  -1.6609
    -1.6214  -1.5772  -1.4949  -1.4598  -1.4195  -1.3628  -1.2935  -0.7365
    -0.7171   0.2351   2.3273   2.6255   3.6968   4.2452   4.6232   4.8343
     4.9369   5.0318   5.0645   5.1280   5.3017   5.3656   5.5109   5.5212
     5.6482   5.6765

          k = 0.3823 0.5362-0.0081 ( 32564 PWs)   bands (ev):

   -65.8990 -34.0061 -33.9614 -33.5363 -33.3445 -32.5658 -32.4066 -32.2400
   -16.0421 -16.0068 -16.0041 -15.9974 -15.9729 -15.9499 -15.6399 -15.5738
   -15.5239 -15.4473 -15.4170 -15.3841 -12.3141 -12.3019 -12.2181 -12.1927
   -12.1654  -7.9345  -7.5469  -7.4939  -7.4022  -7.1292  -7.0997  -7.0330
    -6.9565  -6.8719  -6.7317  -6.7005  -4.7497  -3.5839  -3.2585  -3.0988
    -3.0810  -2.9460  -2.9133  -2.7773  -2.7639  -2.7105  -2.6240  -2.5565
    -2.5019  -2.4493  -2.4129  -2.3204  -2.2842  -2.2201  -2.1857  -2.1210
    -2.0665  -1.9852  -1.9424  -1.8927  -1.8203  -1.7290  -1.6864  -1.6388
    -1.5801  -1.5710  -1.5300  -1.4604  -1.4002  -1.3707  -1.2746  -0.7455
    -0.7217   0.2410   2.3306   2.6257   3.6954   4.2368   4.6455   4.8790
     5.0332   5.0510   5.1721   5.1830   5.3144   5.3953   5.4597   5.5488
     5.6548   5.7492

          k = 0.0033-0.0140 0.5167 ( 32578 PWs)   bands (ev):

   -65.8990 -34.0061 -33.9614 -33.5363 -33.3445 -32.5658 -32.4067 -32.2400
   -16.0421 -16.0069 -16.0042 -15.9974 -15.9728 -15.9499 -15.6397 -15.5737
   -15.5239 -15.4473 -15.4172 -15.3839 -12.3141 -12.3020 -12.2181 -12.1927
   -12.1654  -7.9724  -7.6225  -7.4142  -7.2495  -7.2142  -7.1564  -7.0069
    -6.9400  -6.8585  -6.7594  -6.7104  -4.6439  -3.6622  -3.3307  -3.0623
    -3.0430  -2.9641  -2.8779  -2.8041  -2.7459  -2.7290  -2.6879  -2.5615
    -2.5169  -2.4884  -2.4426  -2.3446  -2.2931  -2.2432  -2.1847  -2.1163
    -2.0629  -1.9492  -1.9296  -1.8607  -1.8069  -1.7935  -1.7275  -1.6378
    -1.5780  -1.5354  -1.4737  -1.4046  -1.3471  -1.3144  -1.2389  -0.8884
    -0.6834   0.1531   2.4652   2.6843   3.7803   4.3090   4.6089   4.8627
     4.9881   5.0531   5.1248   5.2454   5.2859   5.4210   5.4735   5.6143
     5.6549   5.8336

          k = 0.3752-0.0068 0.5196 ( 32564 PWs)   bands (ev):

   -65.8990 -34.0061 -33.9614 -33.5363 -33.3445 -32.5658 -32.4067 -32.2400
   -16.0421 -16.0069 -16.0041 -15.9974 -15.9728 -15.9499 -15.6399 -15.5737
   -15.5239 -15.4473 -15.4172 -15.3839 -12.3141 -12.3020 -12.2181 -12.1927
   -12.1654  -7.9464  -7.5271  -7.4696  -7.4425  -7.1725  -7.0827  -7.0031
    -6.9531  -6.8498  -6.7377  -6.7286  -4.6405  -3.6508  -3.3187  -3.0492
    -3.0023  -2.8613  -2.8463  -2.8283  -2.7835  -2.7253  -2.6786  -2.6248
    -2.5749  -2.4853  -2.4590  -2.3921  -2.3041  -2.2594  -2.2244  -2.1057
    -2.0413  -1.9748  -1.9503  -1.8606  -1.7895  -1.7334  -1.6945  -1.5884
    -1.5620  -1.5173  -1.5144  -1.4255  -1.3687  -1.3453  -1.2279  -0.8886
    -0.6838   0.1530   2.4702   2.6834   3.7863   4.3057   4.6231   4.8999
     5.0175   5.1540   5.2052   5.2326   5.2656   5.4839   5.5115   5.5253
     5.6381   5.7323

          k = 0.0137 0.5150 0.5056 ( 32544 PWs)   bands (ev):

   -65.8990 -34.0061 -33.9614 -33.5363 -33.3445 -32.5658 -32.4066 -32.2400
   -16.0423 -16.0079 -16.0045 -15.9989 -15.9704 -15.9495 -15.6397 -15.5741
   -15.5243 -15.4473 -15.4167 -15.3837 -12.3141 -12.3020 -12.2181 -12.1927
   -12.1654  -7.9378  -7.6078  -7.3276  -7.2807  -7.1687  -7.1349  -7.0791
    -6.9628  -6.8716  -6.8055  -6.7678  -4.7726  -3.6008  -3.3118  -3.1022
    -2.9807  -2.9398  -2.8342  -2.7430  -2.6765  -2.6419  -2.5886  -2.5856
    -2.5190  -2.4649  -2.3795  -2.3155  -2.2908  -2.2495  -2.2092  -2.1383
    -2.0464  -2.0397  -1.9780  -1.9222  -1.8171  -1.7823  -1.6960  -1.6332
    -1.5453  -1.5345  -1.5313  -1.4768  -1.4210  -1.3341  -1.2907  -0.8511
    -0.7469   0.2449   2.3515   2.6363   3.6399   4.2518   4.5830   4.7305
     4.9186   5.1010   5.2086   5.2572   5.3638   5.4030   5.4206   5.5381
     5.6401   5.7771

          k = 0.3856 0.5222 0.5086 ( 32568 PWs)   bands (ev):

   -65.8990 -34.0061 -33.9614 -33.5363 -33.3445 -32.5658 -32.4067 -32.2400
   -16.0423 -16.0079 -16.0044 -15.9989 -15.9704 -15.9494 -15.6399 -15.5741
   -15.5243 -15.4474 -15.4167 -15.3837 -12.3141 -12.3020 -12.2181 -12.1927
   -12.1654  -7.9159  -7.4988  -7.4542  -7.3702  -7.1518  -7.0897  -7.0712
    -6.9656  -6.9026  -6.7997  -6.7342  -4.7675  -3.5392  -3.2912  -3.0778
    -2.9779  -2.8814  -2.8521  -2.8237  -2.7728  -2.6642  -2.6398  -2.5824
    -2.4947  -2.4453  -2.4114  -2.3415  -2.3082  -2.2240  -2.2114  -2.0701
    -2.0214  -2.0075  -1.8863  -1.8680  -1.8111  -1.8066  -1.7464  -1.6411
    -1.6112  -1.5622  -1.5149  -1.5008  -1.4218  -1.3907  -1.2333  -0.8517
    -0.7439   0.2405   2.3519   2.6354   3.6412   4.2457   4.6054   4.7930
     5.0231   5.1507   5.2027   5.2824   5.3610   5.4782   5.5380   5.6162
     5.6526   5.7201

     the Fermi energy is     2.5325 ev

!    total energy              =    -899.14849263 Ry
     estimated scf accuracy    <       0.00000011 Ry
     smearing contrib. (-TS)   =      -0.00464557 Ry
     internal energy E=F+TS    =    -899.14384706 Ry

     The total energy is F=E-TS. E is the sum of the following terms:
     one-electron contribution =    -510.71368203 Ry
     hartree contribution      =     293.50126842 Ry
     xc contribution           =    -236.20532599 Ry
     ewald contribution        =    -277.36383134 Ry
     one-center paw contrib.   =    -168.36227612 Ry

     convergence has been achieved in  15 iterations

     Forces acting on atoms (cartesian axes, Ry/au):

     atom    1 type  4   force =     0.00001150   -0.00414502   -0.00161815
     atom    2 type  4   force =     0.00188522    0.00006470    0.00296092
     atom    3 type  2   force =    -0.00780575   -0.00445521   -0.00316194
     atom    4 type  4   force =     0.00026337   -0.00124089   -0.00196301
     atom    5 type  5   force =     0.00121232    0.00417083    0.00143690
     atom    6 type  5   force =    -0.01555422   -0.00280628    0.00403434
     atom    7 type  5   force =    -0.00000087    0.00066187    0.00044806
     atom    8 type  5   force =    -0.00009877    0.00017760    0.00515243
     atom    9 type  1   force =     0.00530228   -0.00150287    0.00100206
     atom   10 type  1   force =     0.00303419    0.00381017   -0.00074098
     atom   11 type  1   force =     0.00335738    0.00520126    0.00146467
     atom   12 type  1   force =     0.00403168   -0.00259416    0.00013509
     atom   13 type  1   force =    -0.00315020    0.00531607   -0.00161015
     atom   14 type  6   force =     0.01157823    0.01551834    0.00888487
     atom   15 type  1   force =     0.00387035   -0.00428346    0.00084088
     atom   16 type  1   force =    -0.00217893   -0.00100956   -0.00189504
     atom   17 type  1   force =    -0.00466873   -0.00360608    0.00006932
     atom   18 type  1   force =     0.00324907    0.00012443   -0.00452054
     atom   19 type  1   force =     0.00259086    0.00156692    0.00039388
     atom   20 type  1   force =    -0.00089233    0.00089619   -0.00037219
     atom   21 type  3   force =     0.00112300   -0.00026671   -0.00392145
     atom   22 type  3   force =     0.00219162   -0.00092625    0.00651113
     atom   23 type  3   force =     0.00425785    0.00873967    0.01159766
     atom   24 type  3   force =     0.00816901   -0.00064316   -0.00165612
     atom   25 type  3   force =    -0.00238306   -0.00307438   -0.00455599
     atom   26 type  3   force =    -0.01317199    0.00038211    0.00743921
     atom   27 type  3   force =     0.00155514    0.00574749    0.00196140
     atom   28 type  3   force =     0.00089225   -0.00114086    0.00006666
     atom   29 type  3   force =    -0.00260454    0.00132797    0.00044702
     atom   30 type  3   force =    -0.00375381    0.00516502   -0.00348841
     atom   31 type  3   force =    -0.00976394   -0.00768028   -0.01009449
     atom   32 type  3   force =    -0.00491653    0.00119028   -0.00184888
     atom   33 type  3   force =     0.00622367    0.00406631    0.00168038
     atom   34 type  3   force =    -0.00549866   -0.00597631   -0.00618135
     atom   35 type  3   force =     0.00021380    0.00145694    0.00178779
     atom   36 type  3   force =     0.00249852    0.00052336    0.00309933
     atom   37 type  3   force =     0.00187510   -0.00467214    0.00305011
     atom   38 type  3   force =    -0.00582320   -0.00474120   -0.00014547
     atom   39 type  3   force =    -0.00147177    0.00348886    0.00281979
     atom   40 type  3   force =     0.00363184    0.00496971    0.00102073
     atom   41 type  3   force =    -0.00286419   -0.00398189    0.00204083
     atom   42 type  3   force =     0.00173910   -0.00642183    0.00948400
     atom   43 type  3   force =     0.00672006    0.00317278   -0.00205967
     atom   44 type  3   force =     0.00090120    0.00243598    0.00020411
     atom   45 type  3   force =     0.00532796    0.00416955    0.00060234
     atom   46 type  3   force =     0.00144952   -0.02566744   -0.00000811
     atom   47 type  3   force =    -0.00313503   -0.00286220    0.00000110
     atom   48 type  3   force =     0.00054687    0.00100343    0.00027112
     atom   49 type  3   force =    -0.00281167    0.00251494   -0.00613291
     atom   50 type  3   force =     0.00144764   -0.00083247   -0.00784386
     atom   51 type  3   force =     0.00176405    0.00347959   -0.00594686
     atom   52 type  3   force =    -0.00072246   -0.00317166   -0.00176972
     atom   53 type  3   force =     0.00115896    0.00063621    0.00360682
     atom   54 type  3   force =    -0.00116674    0.00763596   -0.00209349
     atom   55 type  3   force =    -0.00023874   -0.00112631   -0.00201209
     atom   56 type  3   force =     0.00285798   -0.00152983    0.00399764
     atom   57 type  3   force =    -0.00351320   -0.00248540   -0.00584096
     atom   58 type  3   force =     0.00277394   -0.00155377   -0.00077280
     atom   59 type  3   force =     0.00267834    0.00362021   -0.00567363
     atom   60 type  3   force =    -0.00296930    0.00305373   -0.00209387
     atom   61 type  3   force =     0.00138718    0.00089219   -0.00030885
     atom   62 type  3   force =    -0.00206721   -0.00266436    0.00056237
     atom   63 type  3   force =    -0.00248136    0.00217745   -0.00275768
     atom   64 type  3   force =     0.00022222   -0.00145311   -0.00071040
     atom   65 type  3   force =    -0.00200191   -0.00088474   -0.00014104
     atom   66 type  3   force =    -0.00056281   -0.00048356    0.00364494
     atom   67 type  3   force =     0.00183987   -0.00200706   -0.00035665
     atom   68 type  3   force =     0.00243878    0.00253232    0.00157683

     Total force =     0.063173     Total SCF correction =     0.000785


     Computing stress (Cartesian axis) and pressure

          total   stress  (Ry/bohr**3)                   (kbar)     P=       -2.24
   0.00001299   0.00000177   0.00002440            1.91        0.26        3.59
   0.00000177  -0.00004577   0.00001001            0.26       -6.73        1.47
   0.00002440   0.00001001  -0.00001288            3.59        1.47       -1.89

     Energy error            =      7.3E-03
     Gradient error          =      2.6E-02
     Cell gradient error     =      4.6E-05


     number of scf cycles    =  26
     number of bfgs steps    =  25

     enthalpy old            =    -899.1411922658 Ry
     enthalpy new            =    -899.1484926302 Ry

     CASE: enthalpy_new < enthalpy_old

     new trust radius        =       0.0735399672 bohr
     new conv_thr            =       0.0000002567 Ry

     new unit-cell volume =   5393.99678 a.u.^3 (   799.30786 Ang^3 )
     density =      0.14127 g/cm^3

CELL_PARAMETERS (angstrom)
   0.056450301  -0.188280172  -8.384120924
   0.164333823  -8.186359350  -0.233859687
 -11.658319433   0.238612085   0.062468923

ATOMIC_POSITIONS (angstrom)
K            -8.6159161833       -7.5397212959       -4.8521271037
K            -2.9793931561       -0.1589215833       -3.8610081227
Ga           -2.7565382901       -3.8128008437       -7.9468129547
K            -8.2763175432       -3.9012454484       -0.3951022224
Sr           -5.6086012529       -8.1640599428       -8.2320029219
Sr          -11.4330747838       -0.0818064261       -0.5579343896
Sr          -11.5179731546       -3.7778830189       -4.4347984910
Sr           -5.6696411859       -4.1563373169       -4.0255479407
B            -8.8403340613       -3.6357251331       -3.6936184091
B            -2.8449399942       -4.4827279076       -5.0545508836
B            -2.6129421417       -7.7505132851       -0.6271202565
B            -8.7562643320       -0.3784102345       -7.7841493708
B            -5.4362705235       -2.6839537560       -1.6073131059
Ta          -12.7636562294       -5.8121763192       -7.0392979611
B           -11.0287510544       -6.7086313624       -3.0580979914
B            -5.3697590402       -1.3342980317       -5.5703845340
B            -6.1522015220       -5.5776414258       -6.6625744688
B            -0.3879147648       -2.8485096152       -1.7652866502
B            -0.3616897425       -1.3327387173       -5.9681681356
B            -6.1395718621       -6.7160963933       -2.5863232588
H            -9.6657440377       -4.0052186313       -2.8473096410
H            -3.7193474063       -3.9517915429       -5.7224795245
H            -3.6723495589       -7.7644640911       -1.2496474454
H            -9.7158244402        0.0734210639       -7.1796068151
H            -8.7391981498       -4.5063060440       -4.5701120462
H            -2.3158926647       -3.6394191846       -4.3527545799
H            -2.6005216235       -0.7717507976       -8.1283965177
H            -8.2526614512       -7.5357277617       -0.4279704372
H            -9.1942428788       -2.5608070258       -4.1990777580
H            -3.2106870147       -5.4429377305       -4.4038916490
H            -2.5773133193       -6.8775116762       -8.3150116642
H            -9.1342926571       -1.2043320450       -0.0168249945
H            -7.7954047564       -3.4791963514       -3.0848331413
H            -1.8603349955       -4.7484281037       -5.7952155046
H            -1.8019182715       -7.6696770138       -1.5234040163
H            -7.9212489847       -0.6941135435       -6.9571678405
H            -5.3815514982       -2.0742645473       -0.5491747407
H           -11.5045937991       -6.2837900211       -8.2468081862
H           -10.7449273249       -6.1833397838       -4.1151797057
H            -5.1225180756       -1.8252294180       -4.4787971834
H            -4.3599108289       -2.5826391370       -2.1959226623
H           -11.2505480547       -5.1517690376       -6.4200554271
H           -10.0133714228       -6.8097284066       -2.3618074757
H            -4.3134334120       -1.2275328285       -6.2012590003
H            -5.6594285544       -3.8710416041       -1.3732532231
H           -12.5321975497       -3.9959911084       -7.3497723257
H           -11.4482109592       -7.8313285101       -3.3257810299
H            -5.8746496345       -0.2289247525       -5.3744706223
H            -6.3282453853       -2.2289254463       -2.3067669369
H            -1.2355204149       -6.6576048244       -5.4576234736
H            -0.2079429407       -6.3212022010       -2.4873337042
H            -6.1475963724       -2.0377267298       -6.2143898581
H            -5.8601637936       -6.0995717559       -5.5935745800
H            -0.2399384762       -2.2092324663       -2.8130792370
H            -0.1027986258       -2.0644039837       -6.9131652994
H            -5.9308910951       -6.0755379305       -1.5552090360
H            -7.1494577413       -6.1616822561       -7.0906907412
H            -1.3145341986       -2.3089725722       -1.1447539703
H            -1.3866285837       -1.7366653209       -5.4333085538
H            -7.1108963953       -6.1967259206       -3.1395069180
H            -6.4069592560       -4.3804296504       -6.5508434439
H            -0.6498406838       -4.0263545460       -1.9769285474
H            -0.5061294387       -0.1439304538       -6.3509725466
H            -6.3725208426       -7.9011837448       -2.3721535404
H            -5.1942777742       -5.7099169083       -7.4261734377
H           -10.9907842847       -2.5322547055       -1.0611233857
H           -11.1013226951       -1.1228549326       -5.0947420725
H            -5.1487378068       -6.6342442337       -3.3180133997



     Writing output data file ./tmp/K3Sr4TaGaB11H48.save/
     NEW-OLD atomic charge density approx. for the potential

     negative rho (up, down):  1.042E-07 0.000E+00
     extrapolated charge  149.83526, renormalised to  150.00000

     total cpu time spent up to now is    68216.5 secs

     Self-consistent Calculation

     iteration #  1     ecut=    50.00 Ry     beta= 0.70
     CG style diagonalization
     ethr =  1.00E-06,  avg # of iterations = 18.7

     negative rho (up, down):  2.409E-08 0.000E+00

     total cpu time spent up to now is    69349.7 secs

     total energy              =    -899.14406592 Ry
     estimated scf accuracy    <       0.02773525 Ry

     iteration #  2     ecut=    50.00 Ry     beta= 0.70
     CG style diagonalization
     ethr =  1.85E-05,  avg # of iterations =  3.6

     negative rho (up, down):  1.804E-08 0.000E+00

     total cpu time spent up to now is    69543.7 secs

     total energy              =    -899.13921687 Ry
     estimated scf accuracy    <       0.05598226 Ry

     iteration #  3     ecut=    50.00 Ry     beta= 0.70
     CG style diagonalization
     ethr =  1.85E-05,  avg # of iterations =  3.5

     negative rho (up, down):  1.393E-08 0.000E+00

     total cpu time spent up to now is    69730.1 secs

     total energy              =    -899.14937818 Ry
     estimated scf accuracy    <       0.03771553 Ry

     iteration #  4     ecut=    50.00 Ry     beta= 0.70
     CG style diagonalization
     ethr =  1.85E-05,  avg # of iterations =  3.0

     negative rho (up, down):  1.713E-08 0.000E+00

     total cpu time spent up to now is    69885.5 secs

     total energy              =    -899.15353944 Ry
     estimated scf accuracy    <       0.00236564 Ry

     iteration #  5     ecut=    50.00 Ry     beta= 0.70
     CG style diagonalization
     ethr =  1.58E-06,  avg # of iterations =  3.4

     negative rho (up, down):  1.806E-08 0.000E+00

     total cpu time spent up to now is    70061.7 secs

     total energy              =    -899.15403817 Ry
     estimated scf accuracy    <       0.00174387 Ry

     iteration #  6     ecut=    50.00 Ry     beta= 0.70
     CG style diagonalization
     ethr =  1.16E-06,  avg # of iterations =  3.1

     negative rho (up, down):  2.187E-08 0.000E+00

     total cpu time spent up to now is    70217.2 secs

     total energy              =    -899.15431080 Ry
     estimated scf accuracy    <       0.00105807 Ry

     iteration #  7     ecut=    50.00 Ry     beta= 0.70
     CG style diagonalization
     ethr =  7.05E-07,  avg # of iterations =  3.1

     negative rho (up, down):  2.081E-08 0.000E+00

     total cpu time spent up to now is    70376.8 secs

     total energy              =    -899.15438023 Ry
     estimated scf accuracy    <       0.00013801 Ry

     iteration #  8     ecut=    50.00 Ry     beta= 0.70
     CG style diagonalization
     ethr =  9.20E-08,  avg # of iterations =  4.2

     negative rho (up, down):  2.064E-08 0.000E+00

     total cpu time spent up to now is    70606.6 secs

     total energy              =    -899.15444082 Ry
     estimated scf accuracy    <       0.00004645 Ry

     iteration #  9     ecut=    50.00 Ry     beta= 0.70
     CG style diagonalization
     ethr =  3.10E-08,  avg # of iterations =  4.2

     negative rho (up, down):  2.086E-08 0.000E+00

     total cpu time spent up to now is    70833.1 secs

     total energy              =    -899.15445214 Ry
     estimated scf accuracy    <       0.00020141 Ry

     iteration # 10     ecut=    50.00 Ry     beta= 0.70
     CG style diagonalization
     ethr =  3.10E-08,  avg # of iterations =  3.6

     negative rho (up, down):  2.063E-08 0.000E+00

     total cpu time spent up to now is    71043.3 secs

     total energy              =    -899.15447895 Ry
     estimated scf accuracy    <       0.00000932 Ry

     iteration # 11     ecut=    50.00 Ry     beta= 0.70
     CG style diagonalization
     ethr =  6.21E-09,  avg # of iterations =  5.2

     negative rho (up, down):  2.059E-08 0.000E+00

     total cpu time spent up to now is    71363.4 secs

     total energy              =    -899.15448704 Ry
     estimated scf accuracy    <       0.00000952 Ry

     iteration # 12     ecut=    50.00 Ry     beta= 0.70
     CG style diagonalization
     ethr =  6.21E-09,  avg # of iterations =  3.4

     negative rho (up, down):  2.082E-08 0.000E+00

     total cpu time spent up to now is    71543.4 secs

     total energy              =    -899.15448731 Ry
     estimated scf accuracy    <       0.00000435 Ry

     iteration # 13     ecut=    50.00 Ry     beta= 0.70
     CG style diagonalization
     ethr =  2.90E-09,  avg # of iterations =  4.5

     negative rho (up, down):  2.067E-08 0.000E+00

     total cpu time spent up to now is    71790.5 secs

     total energy              =    -899.15448807 Ry
     estimated scf accuracy    <       0.00001149 Ry

     iteration # 14     ecut=    50.00 Ry     beta= 0.70
     CG style diagonalization
     ethr =  2.90E-09,  avg # of iterations =  3.5

     negative rho (up, down):  2.066E-08 0.000E+00

     total cpu time spent up to now is    71975.4 secs

     total energy              =    -899.15448908 Ry
     estimated scf accuracy    <       0.00000034 Ry

     iteration # 15     ecut=    50.00 Ry     beta= 0.70
     CG style diagonalization
     c_bands:  1 eigenvalues not converged
     c_bands:  1 eigenvalues not converged
     c_bands:  1 eigenvalues not converged
     ethr =  2.30E-10,  avg # of iterations =  6.3

     negative rho (up, down):  2.065E-08 0.000E+00

     total cpu time spent up to now is    72323.7 secs

     End of self-consistent calculation

          k = 0.0000 0.0000 0.0000 ( 32571 PWs)   bands (ev):

   -65.8311 -33.9684 -33.9382 -33.5569 -33.3223 -32.5105 -32.3380 -32.1913
   -16.0056 -15.9833 -15.9745 -15.9647 -15.9480 -15.9292 -15.6535 -15.5930
   -15.5418 -15.4214 -15.3970 -15.3650 -12.3488 -12.3399 -12.2529 -12.2279
   -12.2028  -8.0187  -7.6175  -7.4275  -7.2698  -7.2400  -6.9938  -6.9665
    -6.9247  -6.8201  -6.7448  -6.6915  -4.5643  -3.6138  -3.3156  -3.1885
    -3.0049  -2.9686  -2.8644  -2.8518  -2.8012  -2.7586  -2.6761  -2.5866
    -2.5214  -2.4948  -2.4153  -2.3039  -2.2942  -2.2197  -2.1512  -2.0848
    -2.0626  -2.0262  -1.9300  -1.8607  -1.7879  -1.7499  -1.6293  -1.5911
    -1.5392  -1.5240  -1.4790  -1.4262  -1.3430  -1.2397  -1.2143  -0.8338
    -0.7275   0.0634   2.4500   2.7154   3.8757   4.3076   4.5532   4.6245
     4.8786   4.9586   5.0130   5.1573   5.2657   5.3368   5.4706   5.6022
     5.6742   5.8070

          k = 0.3717 0.0074 0.0023 ( 32604 PWs)   bands (ev):

   -65.8311 -33.9684 -33.9382 -33.5569 -33.3223 -32.5105 -32.3380 -32.1914
   -16.0056 -15.9831 -15.9745 -15.9647 -15.9480 -15.9292 -15.6537 -15.5930
   -15.5418 -15.4215 -15.3970 -15.3650 -12.3488 -12.3399 -12.2529 -12.2279
   -12.2028  -7.9679  -7.6763  -7.4706  -7.2739  -7.1787  -6.9964  -6.9631
    -6.9400  -6.8147  -6.7458  -6.6961  -4.5637  -3.6153  -3.2731  -3.1239
    -3.0616  -2.9097  -2.8845  -2.7936  -2.7845  -2.7349  -2.6781  -2.6300
    -2.5847  -2.5182  -2.4779  -2.4051  -2.3587  -2.1943  -2.1238  -2.0429
    -2.0151  -1.9171  -1.9093  -1.8561  -1.7729  -1.7335  -1.6886  -1.5929
    -1.5491  -1.5335  -1.5128  -1.4375  -1.3646  -1.2644  -1.1932  -0.8299
    -0.7361   0.0737   2.4577   2.7155   3.8768   4.2507   4.5573   4.8052
     4.8365   4.9901   5.0785   5.2377   5.2859   5.4079   5.4791   5.6271
     5.6827   5.7511

          k = 0.0108 0.5296-0.0118 ( 32596 PWs)   bands (ev):

   -65.8311 -33.9684 -33.9382 -33.5569 -33.3223 -32.5105 -32.3380 -32.1914
   -16.0055 -15.9831 -15.9731 -15.9623 -15.9518 -15.9297 -15.6535 -15.5928
   -15.5417 -15.4214 -15.3972 -15.3654 -12.3488 -12.3399 -12.2529 -12.2279
   -12.2028  -7.9299  -7.6440  -7.3424  -7.2681  -7.1782  -7.1293  -6.9931
    -6.9695  -6.8407  -6.7764  -6.7064  -4.6656  -3.5629  -3.2131  -3.1004
    -3.0782  -2.9629  -2.8944  -2.7689  -2.7357  -2.7090  -2.6574  -2.6313
    -2.4939  -2.4112  -2.3552  -2.3380  -2.2729  -2.2628  -2.1237  -2.0538
    -2.0359  -1.9797  -1.8982  -1.8784  -1.7861  -1.7386  -1.6526  -1.6477
    -1.5927  -1.5756  -1.4715  -1.4506  -1.4170  -1.3887  -1.3170  -0.7984
    -0.7536   0.1743   2.3394   2.6455   3.7571   4.2205   4.6377   4.8487
     4.9491   5.0333   5.0707   5.1479   5.3213   5.3942   5.5024   5.5372
     5.6615   5.6927

          k = 0.3825 0.5370-0.0095 ( 32564 PWs)   bands (ev):

   -65.8311 -33.9684 -33.9382 -33.5569 -33.3223 -32.5105 -32.3380 -32.1914
   -16.0055 -15.9829 -15.9731 -15.9623 -15.9517 -15.9297 -15.6537 -15.5928
   -15.5417 -15.4215 -15.3972 -15.3654 -12.3488 -12.3399 -12.2529 -12.2279
   -12.2028  -7.9026  -7.5234  -7.4986  -7.3890  -7.1105  -7.0811  -7.0140
    -6.9441  -6.8683  -6.7384  -6.7129  -4.6651  -3.5595  -3.2203  -3.0945
    -3.0664  -2.9451  -2.8980  -2.7548  -2.7424  -2.7040  -2.6152  -2.5491
    -2.5040  -2.4395  -2.4000  -2.3115  -2.2668  -2.2221  -2.1768  -2.1215
    -2.0764  -1.9760  -1.9256  -1.8896  -1.8123  -1.7194  -1.6805  -1.6267
    -1.5743  -1.5414  -1.5150  -1.4459  -1.4132  -1.3753  -1.2983  -0.8095
    -0.7559   0.1798   2.3429   2.6467   3.7554   4.2082   4.6640   4.8986
     5.0423   5.0567   5.1756   5.2025   5.3278   5.4221   5.4672   5.5715
     5.6613   5.7616

          k = 0.0025-0.0147 0.5169 ( 32578 PWs)   bands (ev):

   -65.8311 -33.9684 -33.9382 -33.5569 -33.3223 -32.5106 -32.3380 -32.1914
   -16.0055 -15.9831 -15.9732 -15.9623 -15.9517 -15.9297 -15.6535 -15.5928
   -15.5416 -15.4214 -15.3974 -15.3652 -12.3488 -12.3399 -12.2529 -12.2279
   -12.2028  -7.9428  -7.6135  -7.3942  -7.2498  -7.1965  -7.1372  -6.9768
    -6.9337  -6.8527  -6.7694  -6.7199  -4.5558  -3.6271  -3.2961  -3.0459
    -3.0312  -2.9625  -2.8714  -2.8016  -2.7643  -2.7239  -2.6853  -2.5578
    -2.5086  -2.4614  -2.4157  -2.3283  -2.2770  -2.2462  -2.1773  -2.1023
    -2.0711  -1.9453  -1.9028  -1.8485  -1.7994  -1.7839  -1.7118  -1.6291
    -1.5663  -1.5239  -1.4632  -1.4179  -1.3462  -1.3011  -1.2555  -0.9434
    -0.7443   0.0923   2.4783   2.7039   3.8343   4.2881   4.6268   4.8741
     4.9991   5.0590   5.1580   5.2471   5.3010   5.4358   5.4894   5.6272
     5.6569   5.8291

          k = 0.3741-0.0073 0.5193 ( 32564 PWs)   bands (ev):

   -65.8311 -33.9684 -33.9382 -33.5569 -33.3223 -32.5106 -32.3380 -32.1913
   -16.0055 -15.9829 -15.9732 -15.9623 -15.9517 -15.9297 -15.6536 -15.5928
   -15.5416 -15.4215 -15.3974 -15.3652 -12.3488 -12.3399 -12.2529 -12.2279
   -12.2028  -7.9155  -7.5025  -7.4755  -7.4300  -7.1528  -7.0694  -6.9750
    -6.9395  -6.8493  -6.7445  -6.7410  -4.5518  -3.6160  -3.2787  -3.0293
    -2.9790  -2.8811  -2.8614  -2.8380  -2.7942  -2.7105  -2.6585  -2.6060
    -2.5656  -2.4672  -2.4460  -2.3826  -2.2958  -2.2471  -2.2228  -2.0845
    -2.0334  -1.9643  -1.9376  -1.8615  -1.7616  -1.7344  -1.6751  -1.5753
    -1.5388  -1.5256  -1.5011  -1.4294  -1.3798  -1.3431  -1.2360  -0.9414
    -0.7463   0.0933   2.4841   2.7032   3.8409   4.2779   4.6413   4.9231
     5.0236   5.1588   5.2018   5.2558   5.3093   5.4843   5.5159   5.5346
     5.6507   5.7461

          k = 0.0132 0.5149 0.5051 ( 32544 PWs)   bands (ev):

   -65.8311 -33.9684 -33.9382 -33.5569 -33.3223 -32.5105 -32.3380 -32.1914
   -16.0058 -15.9831 -15.9749 -15.9652 -15.9475 -15.9291 -15.6534 -15.5931
   -15.5420 -15.4214 -15.3970 -15.3651 -12.3488 -12.3399 -12.2529 -12.2279
   -12.2028  -7.9069  -7.5980  -7.3112  -7.2762  -7.1423  -7.1132  -7.0526
    -6.9579  -6.8723  -6.8192  -6.7771  -4.6925  -3.5774  -3.2709  -3.0976
    -2.9733  -2.9313  -2.8053  -2.7511  -2.6443  -2.6255  -2.5904  -2.5819
    -2.5061  -2.4458  -2.3570  -2.3274  -2.2870  -2.2309  -2.2048  -2.1308
    -2.0539  -2.0274  -1.9770  -1.9062  -1.8130  -1.7729  -1.6984  -1.6184
    -1.5469  -1.5168  -1.4911  -1.4754  -1.4279  -1.3439  -1.2991  -0.8992
    -0.8094   0.1827   2.3652   2.6550   3.6968   4.2306   4.5919   4.7409
     4.9361   5.1023   5.2206   5.2722   5.3732   5.4167   5.4300   5.5556
     5.6521   5.8033

          k = 0.3849 0.5223 0.5075 ( 32568 PWs)   bands (ev):

   -65.8311 -33.9684 -33.9382 -33.5569 -33.3223 -32.5105 -32.3380 -32.1914
   -16.0057 -15.9830 -15.9749 -15.9651 -15.9475 -15.9291 -15.6536 -15.5931
   -15.5420 -15.4215 -15.3970 -15.3651 -12.3488 -12.3399 -12.2529 -12.2279
   -12.2028  -7.8839  -7.4744  -7.4619  -7.3552  -7.1246  -7.0682  -7.0443
    -6.9597  -6.9131  -6.8101  -6.7414  -4.6869  -3.5084  -3.2497  -3.0797
    -2.9792  -2.8704  -2.8457  -2.8026  -2.7605  -2.6626  -2.6222  -2.5685
    -2.4605  -2.4286  -2.4029  -2.3432  -2.2999  -2.2394  -2.2016  -2.0611
    -2.0189  -1.9949  -1.8771  -1.8663  -1.8083  -1.8052  -1.7394  -1.6253
    -1.5942  -1.5385  -1.5003  -1.4896  -1.4200  -1.3988  -1.2550  -0.9011
    -0.8064   0.1788   2.3655   2.6550   3.6978   4.2182   4.6205   4.8143
     5.0294   5.1533   5.2330   5.2903   5.3719   5.4962   5.5351   5.6298
     5.6743   5.7325

     the Fermi energy is     2.5493 ev

!    total energy              =    -899.15449019 Ry
     estimated scf accuracy    <       0.00000004 Ry
     smearing contrib. (-TS)   =      -0.00442965 Ry
     internal energy E=F+TS    =    -899.15006054 Ry

     The total energy is F=E-TS. E is the sum of the following terms:
     one-electron contribution =    -508.59721372 Ry
     hartree contribution      =     292.49293596 Ry
     xc contribution           =    -236.22701031 Ry
     ewald contribution        =    -278.46840390 Ry
     one-center paw contrib.   =    -168.35036856 Ry

     convergence has been achieved in  15 iterations

     negative rho (up, down):  2.065E-08 0.000E+00

     Forces acting on atoms (cartesian axes, Ry/au):

     atom    1 type  4   force =     0.00005822   -0.00413985   -0.00191764
     atom    2 type  4   force =     0.00155480   -0.00009053    0.00282291
     atom    3 type  2   force =    -0.00048306   -0.00748651   -0.00021092
     atom    4 type  4   force =     0.00034568   -0.00110277   -0.00140743
     atom    5 type  5   force =     0.00102073    0.00397048    0.00092841
     atom    6 type  5   force =    -0.01189660   -0.00434278    0.00601723
     atom    7 type  5   force =    -0.00333030    0.00185391   -0.00048686
     atom    8 type  5   force =     0.00210686   -0.00051800    0.00342774
     atom    9 type  1   force =     0.00063373   -0.00269469    0.00133289
     atom   10 type  1   force =    -0.00041032   -0.00113118    0.00022594
     atom   11 type  1   force =     0.00367125   -0.00068374   -0.00031145
     atom   12 type  1   force =     0.00103259   -0.00268952   -0.00155688
     atom   13 type  1   force =    -0.00120069    0.00321485   -0.00172515
     atom   14 type  6   force =    -0.01791221    0.01619831   -0.01161920
     atom   15 type  1   force =     0.00271104   -0.00131749   -0.00066534
     atom   16 type  1   force =     0.00182133   -0.00182317   -0.00146278
     atom   17 type  1   force =    -0.00248071   -0.00467763   -0.00159198
     atom   18 type  1   force =     0.00250101    0.00227914   -0.00261166
     atom   19 type  1   force =     0.00165392    0.00023770    0.00160544
     atom   20 type  1   force =     0.00178423    0.00133768   -0.00060048
     atom   21 type  3   force =     0.00743141    0.00170724   -0.00742620
     atom   22 type  3   force =    -0.00244375    0.00266729    0.00096205
     atom   23 type  3   force =    -0.00300605    0.00700233    0.00593434
     atom   24 type  3   force =     0.00221822    0.00132402    0.00208762
     atom   25 type  3   force =    -0.00105115    0.00518164    0.00221993
     atom   26 type  3   force =    -0.00608978    0.00583312    0.01112682
     atom   27 type  3   force =     0.00164455   -0.00043462    0.00630458
     atom   28 type  3   force =     0.00473159    0.00119502   -0.00284003
     atom   29 type  3   force =     0.00234441   -0.00617430    0.00318888
     atom   30 type  3   force =    -0.00480965   -0.00016281    0.00014171
     atom   31 type  3   force =    -0.00414231    0.00548143    0.00111807
     atom   32 type  3   force =    -0.00277926   -0.00166825   -0.00175903
     atom   33 type  3   force =    -0.00370579    0.00295757   -0.00447149
     atom   34 type  3   force =     0.00036282   -0.00641346   -0.00884567
     atom   35 type  3   force =     0.00525351    0.00311438   -0.00412134
     atom   36 type  3   force =     0.00256122   -0.00123423    0.00213383
     atom   37 type  3   force =    -0.00005537   -0.00209042    0.00404022
     atom   38 type  3   force =     0.00031919   -0.00550667   -0.00218480
     atom   39 type  3   force =     0.00132926    0.00268415   -0.00185980
     atom   40 type  3   force =     0.00107063    0.00488495   -0.00112683
     atom   41 type  3   force =     0.00062288   -0.00115600   -0.00145844
     atom   42 type  3   force =     0.01709774   -0.00079109    0.01573721
     atom   43 type  3   force =     0.00420612    0.00121716   -0.00188626
     atom   44 type  3   force =    -0.00330046    0.00242397    0.00042011
     atom   45 type  3   force =     0.00114289    0.00140503    0.00114415
     atom   46 type  3   force =    -0.00318511   -0.02271713   -0.00079989
     atom   47 type  3   force =    -0.00117547   -0.00123141    0.00156329
     atom   48 type  3   force =     0.00051752   -0.00214697   -0.00086462
     atom   49 type  3   force =    -0.00202253    0.00237701   -0.00365853
     atom   50 type  3   force =     0.00158940   -0.00449107    0.00563362
     atom   51 type  3   force =     0.00085124    0.00201621   -0.00244630
     atom   52 type  3   force =     0.00261396    0.00035306    0.00188346
     atom   53 type  3   force =    -0.00167983    0.00201606    0.00152829
     atom   54 type  3   force =    -0.00056051    0.00159250    0.00197292
     atom   55 type  3   force =     0.00149207   -0.00123011   -0.00579158
     atom   56 type  3   force =     0.00003763   -0.00346810   -0.00001056
     atom   57 type  3   force =    -0.00127327   -0.00043579   -0.00246195
     atom   58 type  3   force =     0.00401981   -0.00433055   -0.00249383
     atom   59 type  3   force =    -0.00282729    0.00234109   -0.00234129
     atom   60 type  3   force =     0.00114897    0.00036872    0.00135821
     atom   61 type  3   force =     0.00103083   -0.00159372   -0.00017501
     atom   62 type  3   force =    -0.00047224    0.00351878    0.00036484
     atom   63 type  3   force =    -0.00013752    0.00319717   -0.00319614
     atom   64 type  3   force =    -0.00019112    0.00272423   -0.00120508
     atom   65 type  3   force =    -0.00268140    0.00001949    0.00031685
     atom   66 type  3   force =    -0.00379510   -0.00136739   -0.00055826
     atom   67 type  3   force =     0.00385609    0.00025319   -0.00017153
     atom   68 type  3   force =    -0.00129049    0.00239303    0.00278065

     Total force =     0.060341     Total SCF correction =     0.000465


     Computing stress (Cartesian axis) and pressure


     negative rho (up, down):  2.065E-08 0.000E+00
          total   stress  (Ry/bohr**3)                   (kbar)     P=       -1.40
   0.00001420   0.00000922   0.00000812            2.09        1.36        1.19
   0.00000922  -0.00004346   0.00000649            1.36       -6.39        0.95
   0.00000812   0.00000649   0.00000065            1.19        0.95        0.10

     Energy error            =      6.0E-03
     Gradient error          =      2.3E-02
     Cell gradient error     =      4.3E-05


     number of scf cycles    =  27
     number of bfgs steps    =  26

     enthalpy old            =    -899.1484926302 Ry
     enthalpy new            =    -899.1544901909 Ry

     CASE: enthalpy_new < enthalpy_old

     new trust radius        =       0.1210583691 bohr
     new conv_thr            =       0.0000002272 Ry

     new unit-cell volume =   5373.80636 a.u.^3 (   796.31595 Ang^3 )
     density =      0.14180 g/cm^3

CELL_PARAMETERS (angstrom)
   0.064199071  -0.181791217  -8.390079973
   0.163493825  -8.140191352  -0.231445634
 -11.672081615   0.238705117   0.072119768

ATOMIC_POSITIONS (angstrom)
K            -8.6181677958       -7.4942297290       -4.8486193645
K            -2.9768387725       -0.1463512430       -3.8618846093
Ga           -2.7889210138       -3.7918788386       -7.9359155160
K            -8.2900650686       -3.8697614454       -0.3976971110
Sr           -5.6122113823       -8.1186227018       -8.2365002647
Sr          -11.4570528734       -0.0800709004       -0.5491514767
Sr          -11.5343442983       -3.7561047190       -4.4176390346
Sr           -5.6752095387       -4.1250648295       -4.0259551428
B            -8.8403212007       -3.6043627332       -3.6928112434
B            -2.8383788104       -4.4630591823       -5.0626851102
B            -2.5965273268       -7.6909427657       -0.6097486074
B            -8.7497642626       -0.3834671272       -7.7860734776
B            -5.4456516398       -2.6587215230       -1.6048220108
Ta          -12.8120705822       -5.7992533093       -7.0175017281
B           -11.0291697987       -6.6687566302       -3.0525973898
B            -5.3717505652       -1.3234675126       -5.5686753856
B            -6.1604609536       -5.5441132890       -6.6540751559
B            -0.3838863945       -2.8335554731       -1.7676196601
B            -0.3527616660       -1.3161819889       -5.9751662741
B            -6.1461485789       -6.6744299545       -2.5755846530
H            -9.6672990184       -3.9826009465       -2.8529351651
H            -3.7100326732       -3.9144679674       -5.7207588044
H            -3.6634855340       -7.6905276089       -1.2181239283
H            -9.7063446152        0.0841630972       -7.1911334025
H            -8.7393335748       -4.4705599655       -4.5775895620
H            -2.2938595402       -3.6278094211       -4.3567648293
H            -2.5747842705       -0.7535667036       -8.1280558856
H            -8.2364213315       -7.5056249504       -0.4219184372
H            -9.2072216692       -2.5284576873       -4.1901631997
H            -3.2225924017       -5.4162887154       -4.4160056587
H            -2.5530434225       -6.8176577141       -8.3062256381
H            -9.1559798265       -1.2056952365       -0.0177024246
H            -7.7944598729       -3.4463065296       -3.0817805547
H            -1.8594462174       -4.7414398249       -5.8029881889
H            -1.7977221189       -7.6152407923       -1.5167605947
H            -7.9228618692       -0.7073851573       -6.9498076925
H            -5.3899943640       -2.0566255486       -0.5421904765
H           -11.5343328560       -6.2312174802       -8.2393185759
H           -10.7444056761       -6.1423695325       -4.1096016217
H            -5.1122783859       -1.8059429189       -4.4761199363
H            -4.3671664502       -2.5625256981       -2.1875532500
H           -11.2898545996       -5.1274101800       -6.4057065578
H           -10.0082783750       -6.7728251430       -2.3609833438
H            -4.3143153956       -1.2056386350       -6.1971509165
H            -5.6650519277       -3.8454456465       -1.3719413630
H           -12.5902198112       -4.0055578258       -7.3565217297
H           -11.4644580491       -7.7864850353       -3.3176020680
H            -5.8853830524       -0.2217674000       -5.3723946335
H            -6.3346050826       -2.2027513106       -2.3080513231
H            -1.2576402727       -6.6318466658       -5.4417079520
H            -0.1914016456       -6.2660732523       -2.5016171575
H            -6.1430806876       -2.0368785574       -6.2114637303
H            -5.8638083874       -6.0620376620       -5.5830304316
H            -0.2401580530       -2.1855529488       -2.8112062308
H            -0.0990719369       -2.0482650939       -6.9218664831
H            -5.9346979122       -6.0415589576       -1.5383748201
H            -7.1604004388       -6.1233891066       -7.0853687149
H            -1.3072516911       -2.2980655748       -1.1399065853
H            -1.3789892727       -1.7149918426       -5.4416737541
H            -7.1190772379       -6.1544604290       -3.1298736705
H            -6.4071370166       -4.3446731016       -6.5447801165
H            -0.6517332628       -4.0093357784       -1.9839031460
H            -0.5033452097       -0.1279433221       -6.3631649353
H            -6.3764527623       -7.8613370241       -2.3694754910
H            -5.1999740496       -5.6813811054       -7.4144649599
H           -10.9976787151       -2.5200682703       -1.0535631770
H           -11.1054019818       -1.1108185000       -5.0928837976
H            -5.1518131659       -6.5867100509       -3.3027927234



     Writing output data file ./tmp/K3Sr4TaGaB11H48.save/
     NEW-OLD atomic charge density approx. for the potential

     negative rho (up, down):  7.397E-07 0.000E+00
     extrapolated charge  149.43717, renormalised to  150.00000

     total cpu time spent up to now is    72822.1 secs

     Self-consistent Calculation

     iteration #  1     ecut=    50.00 Ry     beta= 0.70
     CG style diagonalization
     ethr =  1.00E-06,  avg # of iterations = 20.2

     negative rho (up, down):  3.981E-08 0.000E+00

     total cpu time spent up to now is    73988.1 secs

     total energy              =    -899.13105089 Ry
     estimated scf accuracy    <       0.04897291 Ry

     iteration #  2     ecut=    50.00 Ry     beta= 0.70
     CG style diagonalization
     ethr =  3.26E-05,  avg # of iterations =  4.1

     negative rho (up, down):  1.287E-08 0.000E+00

     total cpu time spent up to now is    74202.0 secs

     total energy              =    -899.12747956 Ry
     estimated scf accuracy    <       0.16208466 Ry

     iteration #  3     ecut=    50.00 Ry     beta= 0.70
     CG style diagonalization
     ethr =  3.26E-05,  avg # of iterations =  3.7

     total cpu time spent up to now is    74393.6 secs

     total energy              =    -899.15134933 Ry
     estimated scf accuracy    <       0.03403727 Ry

     iteration #  4     ecut=    50.00 Ry     beta= 0.70
     CG style diagonalization
