
     Program PWSCF v.6.7MaX starts on 18Feb2026 at 23:18:15 

     This program is part of the open-source Quantum ESPRESSO suite
     for quantum simulation of materials; please cite
         "P. Giannozzi et al., J. Phys.:Condens. Matter 21 395502 (2009);
         "P. Giannozzi et al., J. Phys.:Condens. Matter 29 465901 (2017);
          URL http://www.quantum-espresso.org", 
     in publications or presentations arising from this work. More details at
     http://www.quantum-espresso.org/quote

     Parallel version (MPI), running on     2 processors

     MPI processes distributed on     1 nodes
     R & G space division:  proc/nbgrp/npool/nimage =       2
     Waiting for input...
     Reading input from standard input

     Current dimensions of program PWSCF are:
     Max number of different atomic species (ntypx) = 10
     Max number of k-points (npk) =  40000
     Max angular momentum in pseudopotentials (lmaxx) =  3
     file Al.UPF: wavefunction(s)  3S 3P renormalized
     file H.UPF: wavefunction(s)  1S renormalized

     Subspace diagonalization in iterative solution of the eigenvalue problem:
     a serial algorithm will be used


     Parallelization info
     --------------------
     sticks:   dense  smooth     PW     G-vecs:    dense   smooth      PW
     Min        2079    1033    286               120505    42570    6273
     Max        2080    1034    287               120506    42571    6274
     Sum        4159    2067    573               241011    85141   12547



     bravais-lattice index     =            0
     lattice parameter (alat)  =      14.2240  a.u.
     unit-cell volume          =    1783.7399 (a.u.)^3
     number of atoms/cell      =           24
     number of atomic types    =            3
     number of electrons       =        30.00
     number of Kohn-Sham states=           19
     kinetic-energy cutoff     =      50.0000  Ry
     charge density cutoff     =     400.0000  Ry
     scf convergence threshold =      1.0E-06
     mixing beta               =       0.7000
     number of iterations used =            8  plain     mixing
     energy convergence thresh.=      1.0E-04
     force convergence thresh. =      1.0E-03
     press convergence thresh. =      5.0E-01
     Exchange-correlation=  SLA  PW   PBE  PBE
                           (   1   4   3   4   0   0   0)
     nstep                     =           50


     celldm(1)=  14.223973  celldm(2)=   0.000000  celldm(3)=   0.000000
     celldm(4)=   0.000000  celldm(5)=   0.000000  celldm(6)=   0.000000

     crystal axes: (cart. coord. in units of alat)
               a(1) = (   0.997724   0.067392   0.002246 )  
               a(2) = (   0.041874   0.649294  -0.002689 )  
               a(3) = (   0.027275   0.386360   0.959383 )  

     reciprocal axes: (cart. coord. in units 2 pi/alat)
               b(1) = (  1.006673 -0.064933 -0.002470 )  
               b(2) = ( -0.102912  1.544208 -0.618954 )  
               b(3) = ( -0.002645  0.004480  1.040607 )  


     PseudoPot. # 1 for Al read from file:
     /home/marco/ZOS_Cloud_Compute/pseudo/Al.UPF
     MD5 check sum: da22aad9e98c60ce88de1cf925d56fcc
     Pseudo is Projector augmented-wave + core cor, Zval =  3.0
     Generated using "atomic" code by A. Dal Corso  v.5.1.2
     Shape of augmentation charge: PSQ
     Using radial grid of 1135 points,  6 beta functions with: 
                l(1) =   0
                l(2) =   0
                l(3) =   1
                l(4) =   1
                l(5) =   2
                l(6) =   2
     Q(r) pseudized with 0 coefficients 


     PseudoPot. # 2 for H  read from file:
     /home/marco/ZOS_Cloud_Compute/pseudo/H.UPF
     MD5 check sum: 850d63dcbcc06c5de8b44e0ab9f952da
     Pseudo is Projector augmented-wave, Zval =  1.0
     Generated using "atomic" code by A. Dal Corso  v.5.1.2
     Shape of augmentation charge: PSQ
     Using radial grid of  929 points,  2 beta functions with: 
                l(1) =   0
                l(2) =   0
     Q(r) pseudized with 0 coefficients 


     PseudoPot. # 3 for Li read from file:
     /home/marco/ZOS_Cloud_Compute/pseudo/Li.UPF
     MD5 check sum: 057edeeab9105e5446fd9e29ea3f9c2f
     Pseudo is Ultrasoft + core correction, Zval =  1.0
     Generated by new atomic code, or converted to UPF format
     Using radial grid of  751 points,  2 beta functions with: 
                l(1) =   1
                l(2) =   1
     Q(r) pseudized with  8 coefficients,  rinner =    1.000   1.000   1.000


     atomic species   valence    mass     pseudopotential
        Al             3.00     1.00000     Al( 1.00)
        H              1.00     1.00000     H ( 1.00)
        Li             1.00     1.00000     Li( 1.00)

     No symmetry found



   Cartesian axes

     site n.     atom                  positions (alat units)
         1           Li  tau(   1) = (   0.9780721   0.4723983   0.3274389  )
         2           Li  tau(   2) = (   0.5392015   0.4484083   0.1913955  )
         3           Li  tau(   3) = (   0.0805504   0.6311877   0.6435126  )
         4           Li  tau(   4) = (   0.5484474   0.6473871   0.7788988  )
         5           Li  tau(   5) = (   0.7272466   0.7878814   0.3874480  )
         6           Al  tau(   6) = (   0.2174334   0.1309531   0.0644128  )
         7           Al  tau(   7) = (   0.3622817   0.2955259   0.5666289  )
         8           Al  tau(   8) = (   0.8290897   0.9819808   0.9359636  )
         9           H   tau(   9) = (   0.6703790   0.6731689   0.1584212  )
        10           H   tau(  10) = (   0.1129200   0.2230391   0.2287981  )
        11           H   tau(  11) = (   0.4234598   0.4360044   0.7187649  )
        12           H   tau(  12) = (   0.9391669   0.8886113   0.7636789  )
        13           H   tau(  13) = (   0.9135925   0.6705842   0.4684645  )
        14           H   tau(  14) = (   0.3859219   0.2627466   0.0294021  )
        15           H   tau(  15) = (   0.1816431   0.4103084   0.5082272  )
        16           H   tau(  16) = (   0.6786703   0.8208761   0.9272750  )
        17           H   tau(  17) = (   0.5869689   0.8078625   0.5988047  )
        18           H   tau(  18) = (   0.1088995   0.5141437   0.8558296  )
        19           H   tau(  19) = (   0.4419621   0.3044569   0.3610655  )
        20           H   tau(  20) = (   0.9726374   0.5987520   0.1096495  )
        21           H   tau(  21) = (   0.7525701   0.3636593   0.3157927  )
        22           H   tau(  22) = (   0.3136969   0.5823249   0.1253035  )
        23           H   tau(  23) = (   0.2836162   0.7690255   0.6163052  )
        24           H   tau(  24) = (   0.7540558   0.5152730   0.8257986  )

     number of k points=     8  Methfessel-Paxton smearing, width (Ry)=  0.0200
                       cart. coord. in units 2pi/alat
        k(    1) = (   0.0000000   0.0000000   0.0000000), wk =   0.2500000
        k(    2) = (   0.0013225  -0.0022401  -0.5203037), wk =   0.2500000
        k(    3) = (   0.0514559  -0.7721042   0.3094771), wk =   0.2500000
        k(    4) = (   0.0527785  -0.7743443  -0.2108266), wk =   0.2500000
        k(    5) = (  -0.5033363   0.0324664   0.0012350), wk =   0.2500000
        k(    6) = (  -0.5020138   0.0302263  -0.5190687), wk =   0.2500000
        k(    7) = (  -0.4518804  -0.7396378   0.3107121), wk =   0.2500000
        k(    8) = (  -0.4505579  -0.7418779  -0.2095916), wk =   0.2500000

     Dense  grid:   241011 G-vectors     FFT dimensions: (  96,  60,  96)

     Smooth grid:    85141 G-vectors     FFT dimensions: (  72,  45,  72)

     Estimated max dynamical RAM per process >     536.38 MB

     Estimated total dynamical RAM >       1.05 GB

     Initial potential from superposition of free atoms

     starting charge   29.96963, renormalised to   30.00000
     Starting wfcs are   48 randomized atomic wfcs
     Checking if some PAW data can be deallocated... 

     total cpu time spent up to now is       18.2 secs

     Self-consistent Calculation

     iteration #  1     ecut=    50.00 Ry     beta= 0.70
     Davidson diagonalization with overlap
     ethr =  1.00E-02,  avg # of iterations =  3.0

     total cpu time spent up to now is       25.7 secs

     total energy              =    -145.88397392 Ry
     estimated scf accuracy    <       0.91482417 Ry

     iteration #  2     ecut=    50.00 Ry     beta= 0.70
     Davidson diagonalization with overlap
     ethr =  3.05E-03,  avg # of iterations =  2.0

     total cpu time spent up to now is       32.1 secs

     total energy              =    -145.79078318 Ry
     estimated scf accuracy    <       0.66858843 Ry

     iteration #  3     ecut=    50.00 Ry     beta= 0.70
     Davidson diagonalization with overlap
     ethr =  2.23E-03,  avg # of iterations =  2.0

     total cpu time spent up to now is       38.4 secs

     total energy              =    -146.03234721 Ry
     estimated scf accuracy    <       0.23640374 Ry

     iteration #  4     ecut=    50.00 Ry     beta= 0.70
     Davidson diagonalization with overlap
     ethr =  7.88E-04,  avg # of iterations =  1.0

     total cpu time spent up to now is       44.3 secs

     total energy              =    -146.03726929 Ry
     estimated scf accuracy    <       0.07284568 Ry

     iteration #  5     ecut=    50.00 Ry     beta= 0.70
     Davidson diagonalization with overlap
     ethr =  2.43E-04,  avg # of iterations =  3.2

     total cpu time spent up to now is       50.7 secs

     total energy              =    -146.02436933 Ry
     estimated scf accuracy    <       0.04125341 Ry

     iteration #  6     ecut=    50.00 Ry     beta= 0.70
     Davidson diagonalization with overlap
     ethr =  1.38E-04,  avg # of iterations =  5.4

     total cpu time spent up to now is       57.6 secs

     total energy              =    -146.03250698 Ry
     estimated scf accuracy    <       0.01722898 Ry

     iteration #  7     ecut=    50.00 Ry     beta= 0.70
     Davidson diagonalization with overlap
     ethr =  5.74E-05,  avg # of iterations =  6.0

     total cpu time spent up to now is       64.5 secs

     total energy              =    -146.03447184 Ry
     estimated scf accuracy    <       0.00074561 Ry

     iteration #  8     ecut=    50.00 Ry     beta= 0.70
     Davidson diagonalization with overlap
     c_bands:  1 eigenvalues not converged
     c_bands:  1 eigenvalues not converged
     ethr =  2.49E-06,  avg # of iterations = 15.5

     total cpu time spent up to now is       74.3 secs

     total energy              =    -146.03467333 Ry
     estimated scf accuracy    <       0.00176659 Ry

     iteration #  9     ecut=    50.00 Ry     beta= 0.70
     Davidson diagonalization with overlap
     ethr =  2.49E-06,  avg # of iterations =  3.0

     total cpu time spent up to now is       80.4 secs

     total energy              =    -146.03479294 Ry
     estimated scf accuracy    <       0.00044618 Ry

     iteration # 10     ecut=    50.00 Ry     beta= 0.70
     Davidson diagonalization with overlap
     ethr =  1.49E-06,  avg # of iterations =  1.0

     total cpu time spent up to now is       86.4 secs

     total energy              =    -146.03479047 Ry
     estimated scf accuracy    <       0.00019265 Ry

     iteration # 11     ecut=    50.00 Ry     beta= 0.70
     Davidson diagonalization with overlap
     ethr =  6.42E-07,  avg # of iterations =  1.1

     total cpu time spent up to now is       92.2 secs

     End of self-consistent calculation

          k = 0.0000 0.0000 0.0000 ( 10641 PWs)   bands (ev):

    -7.6697  -6.6769  -5.8229  -4.5200  -4.3559  -3.7190  -3.2947  -3.0711
    -2.6956  -2.5488  -2.3985  -2.2575  -2.1985  -1.5176  -1.0542  -0.4098
     3.3030   3.9696   4.2535

          k = 0.0013-0.0022-0.5203 ( 10660 PWs)   bands (ev):

    -7.3861  -7.0616  -5.9715  -4.3269  -4.1630  -4.0302  -3.2912  -3.0909
    -2.6009  -2.3853  -2.2630  -2.2003  -1.9849  -1.3789  -1.2393  -0.6723
     3.5650   3.7622   4.2697

          k = 0.0515-0.7721 0.3095 ( 10646 PWs)   bands (ev):

    -7.0594  -6.4122  -5.9064  -4.4115  -4.2159  -3.9076  -3.7088  -3.5216
    -3.1640  -3.0689  -2.7835  -2.4755  -1.7668  -1.6228  -1.4950  -0.6842
     3.3910   3.7702   4.2847

          k = 0.0528-0.7743-0.2108 ( 10622 PWs)   bands (ev):

    -6.9626  -6.5280  -6.0144  -4.4182  -4.0217  -3.8599  -3.6171  -3.5710
    -3.1284  -2.8933  -2.7114  -2.6117  -2.0253  -1.8128  -1.2949  -0.8832
     3.1493   3.8433   4.4239

          k =-0.5033 0.0325 0.0012 ( 10664 PWs)   bands (ev):

    -7.4445  -6.9923  -6.0082  -4.2424  -4.1188  -3.8936  -3.2847  -2.9715
    -2.9036  -2.6153  -2.3869  -2.1685  -1.9642  -1.1413  -1.0359  -1.0020
     3.2558   3.7872   4.2847

          k =-0.5020 0.0302-0.5191 ( 10650 PWs)   bands (ev):

    -7.1959  -6.9407  -6.5838  -4.7696  -3.5038  -3.4470  -3.0773  -2.9171
    -2.7933  -2.6535  -2.4298  -2.2294  -1.9706  -1.4379  -1.1984  -0.9180
     3.4772   4.0083   4.1797

          k =-0.4519-0.7396 0.3107 ( 10614 PWs)   bands (ev):

    -6.9775  -6.4709  -5.8499  -4.6545  -4.2556  -4.0596  -3.9330  -3.4460
    -3.2329  -2.8345  -2.3880  -2.3284  -2.0742  -1.4421  -0.9718  -0.8978
     3.3328   3.5594   3.7388

          k =-0.4506-0.7419-0.2096 ( 10644 PWs)   bands (ev):

    -6.8585  -6.5373  -6.0990  -4.5203  -4.1577  -3.9983  -3.6034  -3.5726
    -3.2587  -2.7681  -2.6441  -2.2809  -2.1391  -1.5311  -1.0634  -0.9456
     3.1788   3.8644   4.1468

     the Fermi energy is    -0.9924 ev

!    total energy              =    -146.03480993 Ry
     estimated scf accuracy    <       0.00000083 Ry
     smearing contrib. (-TS)   =      -0.00319290 Ry
     internal energy E=F+TS    =    -146.03161703 Ry

     The total energy is F=E-TS. E is the sum of the following terms:
     one-electron contribution =       1.84004870 Ry
     hartree contribution      =       7.13658143 Ry
     xc contribution           =     -27.40887656 Ry
     ewald contribution        =     -23.52476799 Ry
     one-center paw contrib.   =    -104.07460261 Ry

     convergence has been achieved in  11 iterations

     Forces acting on atoms (cartesian axes, Ry/au):

     atom    1 type  3   force =    -0.00015775   -0.00418420   -0.00200099
     atom    2 type  3   force =    -0.00500254    0.00119497   -0.00676961
     atom    3 type  3   force =     0.00015666   -0.00018375    0.00191814
     atom    4 type  3   force =     0.00213756   -0.00329697    0.00269577
     atom    5 type  3   force =    -0.00518340    0.01166497   -0.00154911
     atom    6 type  1   force =    -0.01471888   -0.00065079    0.00554314
     atom    7 type  1   force =     0.00206425   -0.02160485    0.00062066
     atom    8 type  1   force =     0.00157664    0.00779119   -0.00016540
     atom    9 type  2   force =    -0.00001110   -0.00183677   -0.00556809
     atom   10 type  2   force =    -0.00156075   -0.00009174    0.00331029
     atom   11 type  2   force =     0.00479134    0.00194890    0.00577883
     atom   12 type  2   force =     0.00051398   -0.00296551   -0.00435890
     atom   13 type  2   force =     0.00643901   -0.00613100    0.00706743
     atom   14 type  2   force =     0.00839636    0.00403592   -0.00456416
     atom   15 type  2   force =    -0.01678103    0.01768018   -0.00701551
     atom   16 type  2   force =    -0.00271919   -0.00294058    0.00030006
     atom   17 type  2   force =     0.00557272   -0.00249832   -0.00156073
     atom   18 type  2   force =     0.00014952   -0.00033028   -0.00072135
     atom   19 type  2   force =     0.00344854   -0.00163967    0.00014077
     atom   20 type  2   force =     0.00669672   -0.00064453    0.00045334
     atom   21 type  2   force =    -0.00347855    0.00346271    0.00043473
     atom   22 type  2   force =     0.01031469   -0.00275774    0.00138779
     atom   23 type  2   force =     0.00021438    0.00179394    0.00629752
     atom   24 type  2   force =    -0.00285919    0.00218391   -0.00167461

     Total force =     0.048985     Total SCF correction =     0.000574


     Computing stress (Cartesian axis) and pressure

          total   stress  (Ry/bohr**3)                   (kbar)     P=       19.42
   0.00012634   0.00002544  -0.00000004           18.58        3.74       -0.01
   0.00002544   0.00012704  -0.00004497            3.74       18.69       -6.61
  -0.00000004  -0.00004497   0.00014263           -0.01       -6.61       20.98


     BFGS Geometry Optimization
     Energy error            =      0.0E+00
     Gradient error          =      2.2E-02
     Cell gradient error     =      1.4E-04


     number of scf cycles    =   1
     number of bfgs steps    =   0

     enthalpy new            =    -146.0348099346 Ry

     new trust radius        =       0.0315797962 bohr
     new conv_thr            =       0.0000010000 Ry

     new unit-cell volume =   1801.45414 a.u.^3 (   266.94796 Ang^3 )
     density =      0.14929 g/cm^3

CELL_PARAMETERS (angstrom)
   7.533913041   0.513629454   0.016388159
   0.319292259   4.902980630  -0.025806365
   0.207791054   2.909384859   7.243758116

ATOMIC_POSITIONS (angstrom)
Li            7.3873769448        3.5667264610        2.4683569320
Li            4.0708794867        3.3874872881        1.4383771021
Li            0.6113177018        4.7608815400        4.8566694376
Li            4.1454304124        4.8826432749        5.8796295302
Li            5.4922969803        5.9556135296        2.9192193566
Al            1.6346037956        0.9889564120        0.4883983605
Al            2.7380068460        2.2169593571        4.2780639006
Al            6.2658036500        7.4150317942        7.0617128047
H             5.0650957293        5.0839326300        1.1880323226
H             0.8528709221        1.6827011128        1.7281746441
H             3.2020761947        3.2892065934        5.4288112499
H             7.0959581435        6.7062832699        5.7588705897
H             6.9049548603        5.0606715834        3.5367824411
H             2.9197256972        1.9877214001        0.2174469853
H             1.3646044411        3.1041537758        3.8318578572
H             5.1269655533        6.1921993560        6.9976983923
H             4.4388903565        6.0965143348        4.5156080077
H             0.8248101511        3.8753565660        6.4600662174
H             3.3404418722        2.2971170008        2.7249280329
H             7.3505868905        4.5245086562        0.8234429966
H             5.6823813000        2.7487241110        2.3825939781
H             2.3769156504        4.3960614464        0.9423321780
H             2.1453135358        5.8039320094        4.6523060896
H             5.6946501285        3.8885598258        6.2326954886



     Writing output data file ./tmp/Li5Al3H16.save/
