
     Program PWSCF v.6.7MaX starts on  7Jan2026 at  1:29:11 

     This program is part of the open-source Quantum ESPRESSO suite
     for quantum simulation of materials; please cite
         "P. Giannozzi et al., J. Phys.:Condens. Matter 21 395502 (2009);
         "P. Giannozzi et al., J. Phys.:Condens. Matter 29 465901 (2017);
          URL http://www.quantum-espresso.org", 
     in publications or presentations arising from this work. More details at
     http://www.quantum-espresso.org/quote

     Parallel version (MPI), running on     1 processors

     MPI processes distributed on     1 nodes
     Waiting for input...
     Reading input from standard input

     Current dimensions of program PWSCF are:
     Max number of different atomic species (ntypx) = 10
     Max number of k-points (npk) =  40000
     Max angular momentum in pseudopotentials (lmaxx) =  3

 %%%%%%%%%%%%%%%%%%%%%%%%%%%%%%%%%%%%%%%%%%%%%%%%%%%%%%%%%%%%%%%%%%%%%%%%%%%%%%
     Error in routine readpp (1):
     file /usr/share/espresso/pseudo/B.UPF not found
 %%%%%%%%%%%%%%%%%%%%%%%%%%%%%%%%%%%%%%%%%%%%%%%%%%%%%%%%%%%%%%%%%%%%%%%%%%%%%%

     stopping ...

     Program PWSCF v.6.7MaX starts on  7Jan2026 at  1:36:53 

     This program is part of the open-source Quantum ESPRESSO suite
     for quantum simulation of materials; please cite
         "P. Giannozzi et al., J. Phys.:Condens. Matter 21 395502 (2009);
         "P. Giannozzi et al., J. Phys.:Condens. Matter 29 465901 (2017);
          URL http://www.quantum-espresso.org", 
     in publications or presentations arising from this work. More details at
     http://www.quantum-espresso.org/quote

     Parallel version (MPI), running on     1 processors

     MPI processes distributed on     1 nodes
     Waiting for input...
     Reading input from standard input

     Current dimensions of program PWSCF are:
     Max number of different atomic species (ntypx) = 10
     Max number of k-points (npk) =  40000
     Max angular momentum in pseudopotentials (lmaxx) =  3
     file H.UPF: wavefunction(s)  1S renormalized

     Subspace diagonalization in iterative solution of the eigenvalue problem:
     a serial algorithm will be used


     G-vector sticks info
     --------------------
     sticks:   dense  smooth     PW     G-vecs:    dense   smooth      PW
     Sum       19185    9591   2499              1841681   651123   86813



     bravais-lattice index     =            0
     lattice parameter (alat)  =      22.6627  a.u.
     unit-cell volume          =   10371.4516 (a.u.)^3
     number of atoms/cell      =           89
     number of atomic types    =            3
     number of electrons       =       105.00
     number of Kohn-Sham states=           64
     kinetic-energy cutoff     =      60.0000  Ry
     charge density cutoff     =     480.0000  Ry
     scf convergence threshold =      1.0E-12
     mixing beta               =       0.7000
     number of iterations used =            8  plain     mixing
     Exchange-correlation=  SLA  PW   PBE  PBE
                           (   1   4   3   4   0   0   0)

     celldm(1)=  22.662747  celldm(2)=   0.000000  celldm(3)=   0.000000
     celldm(4)=   0.000000  celldm(5)=   0.000000  celldm(6)=   0.000000

     crystal axes: (cart. coord. in units of alat)
               a(1) = (   0.999960   0.000113   0.008941 )  
               a(2) = (   0.000753   0.977467   0.021557 )  
               a(3) = (   0.008996   0.021783   0.912188 )  

     reciprocal axes: (cart. coord. in units 2 pi/alat)
               b(1) = (  1.000128 -0.000553 -0.009850 )  
               b(2) = (  0.000103  1.023591 -0.024444 )  
               b(3) = ( -0.009805 -0.024185  1.096940 )  


     PseudoPot. # 1 for B  read from file:
     /home/marco/ZOS_Cloud_Compute/pseudo/B.UPF
     MD5 check sum: d9c678ba5d3b2fd7b74e61139c9288d8
     Pseudo is Projector augmented-wave + core cor, Zval =  3.0
     Generated using "atomic" code by A. Dal Corso  v.5.1.2
     Shape of augmentation charge: PSQ
     Using radial grid of 1059 points,  4 beta functions with: 
                l(1) =   0
                l(2) =   0
                l(3) =   1
                l(4) =   1
     Q(r) pseudized with 0 coefficients 


     PseudoPot. # 2 for H  read from file:
     /home/marco/ZOS_Cloud_Compute/pseudo/H.UPF
     MD5 check sum: 850d63dcbcc06c5de8b44e0ab9f952da
     Pseudo is Projector augmented-wave, Zval =  1.0
     Generated using "atomic" code by A. Dal Corso  v.5.1.2
     Shape of augmentation charge: PSQ
     Using radial grid of  929 points,  2 beta functions with: 
                l(1) =   0
                l(2) =   0
     Q(r) pseudized with 0 coefficients 


     PseudoPot. # 3 for Y  read from file:
     /home/marco/ZOS_Cloud_Compute/pseudo/Y.UPF
     MD5 check sum: e11e343c2e9fd2e6ee9cb5aa0e490caa
     Pseudo is Ultrasoft + core correction, Zval = 11.0
     Generated by new atomic code, or converted to UPF format
     Using radial grid of  885 points,  6 beta functions with: 
                l(1) =   0
                l(2) =   0
                l(3) =   1
                l(4) =   1
                l(5) =   2
                l(6) =   2
     Q(r) pseudized with  6 coefficients,  rinner =    1.200   1.200   1.200
                                                       1.200   1.200

     atomic species   valence    mass     pseudopotential
        B              3.00     1.00000     B ( 1.00)
        H              1.00     1.00000     H ( 1.00)
        Y             11.00     1.00000     Y ( 1.00)

     No symmetry found



   Cartesian axes

     site n.     atom                  positions (alat units)
         1           Y   tau(   1) = (   0.9312744   0.5071607   0.4872434  )
         2           B   tau(   2) = (   0.5846993   0.3348704   0.4814465  )
         3           B   tau(   3) = (   0.8405052   0.6324220   0.3421832  )
         4           B   tau(   4) = (   0.3853423   0.5112607   0.7270011  )
         5           H   tau(   5) = (   0.5169659   0.4074443   0.4682375  )
         6           H   tau(   6) = (   0.1474675   0.2548653   0.4201529  )
         7           H   tau(   7) = (   0.7635386   0.0947425   0.3204982  )
         8           H   tau(   8) = (   0.8760637   0.5396357   0.3139951  )
         9           H   tau(   9) = (   0.7721981   0.3853165   0.4474456  )
        10           H   tau(  10) = (   0.5113224   0.1255265   0.5977581  )
        11           H   tau(  11) = (   0.7062141   0.3807862   0.2564913  )
        12           H   tau(  12) = (   0.6468134   0.4013714   0.2533702  )
        13           H   tau(  13) = (   0.2536045   0.3669168   0.0825517  )
        14           H   tau(  14) = (   0.0760952   0.2899828   0.7186176  )
        15           H   tau(  15) = (   0.2286725   0.6545431   0.3902879  )
        16           H   tau(  16) = (   0.2784490   0.9125070   0.7919861  )
        17           H   tau(  17) = (   0.8652746   0.7007499   0.2717082  )
        18           H   tau(  18) = (   0.8863484   0.3995894   0.7406887  )
        19           H   tau(  19) = (   0.9618749   0.3855349   0.3817234  )
        20           H   tau(  20) = (   0.8508157   0.7424331   0.8282101  )
        21           H   tau(  21) = (   0.1665384   0.6637088   0.3850513  )
        22           H   tau(  22) = (   0.2862355   0.6504664   0.1555475  )
        23           H   tau(  23) = (   0.8204128   0.7652830   0.8783768  )
        24           H   tau(  24) = (   0.1777428   0.8497800   0.2690557  )
        25           H   tau(  25) = (   0.4501831   0.1380792   0.5914876  )
        26           H   tau(  26) = (   0.1262719   0.0950135   0.5682158  )
        27           H   tau(  27) = (   0.3511062   0.2118755   0.7716703  )
        28           H   tau(  28) = (   0.8857280   0.2164642   0.5753293  )
        29           H   tau(  29) = (   0.2716373   0.2653042   0.5809920  )
        30           H   tau(  30) = (   0.3051813   0.3181660   0.5811062  )
        31           H   tau(  31) = (   0.6165956   0.8204044   0.4246590  )
        32           H   tau(  32) = (   0.8295384   0.3716472   0.4152024  )
        33           H   tau(  33) = (   0.2941795   0.3270214   0.1090530  )
        34           H   tau(  34) = (   0.2865431   0.5011645   0.7093427  )
        35           H   tau(  35) = (   0.1893508   0.1151509   0.1907325  )
        36           H   tau(  36) = (   0.5845634   0.2823939   0.7844790  )
        37           H   tau(  37) = (   0.1786700   0.8756159   0.3262051  )
        38           H   tau(  38) = (   0.6689136   0.6182132   0.5908681  )
        39           H   tau(  39) = (   0.7042537   0.4733765   0.7531097  )
        40           H   tau(  40) = (   0.3636973   0.1943097   0.4054956  )
        41           H   tau(  41) = (   0.6441117   0.8419502   0.1826392  )
        42           H   tau(  42) = (   0.3270956   0.8886982   0.7601623  )
        43           H   tau(  43) = (   0.5147195   0.8688059   0.7977138  )
        44           H   tau(  44) = (   0.3467194   0.5053713   0.3102994  )
        45           H   tau(  45) = (   0.4846026   0.4318051   0.1141078  )
        46           H   tau(  46) = (   0.4124799   0.6080386   0.7804532  )
        47           H   tau(  47) = (   0.8809667   0.6641732   0.4350329  )
        48           H   tau(  48) = (   0.4132478   0.2573585   0.4047860  )
        49           H   tau(  49) = (   0.2208927   0.1054800   0.2444339  )
        50           H   tau(  50) = (   0.7023559   0.9092208   0.6411224  )
        51           H   tau(  51) = (   0.5607729   0.8469850   0.4125733  )
        52           H   tau(  52) = (   0.6812254   0.9097628   0.5820585  )
        53           H   tau(  53) = (   0.0373021   0.5627666   0.5993925  )
        54           H   tau(  54) = (   0.3985096   0.7025110   0.5615567  )
        55           H   tau(  55) = (   0.7021458   0.6669241   0.5671118  )
        56           H   tau(  56) = (   0.6406537   0.3372802   0.5654649  )
        57           H   tau(  57) = (   0.1418490   0.8093818   0.5625481  )
        58           H   tau(  58) = (   0.1389881   0.2381809   0.3603311  )
        59           H   tau(  59) = (   0.3428970   0.6083030   0.7634394  )
        60           H   tau(  60) = (   0.1044543   0.4442703   0.4240862  )
        61           H   tau(  61) = (   0.7941524   0.1471323   0.3030408  )
        62           H   tau(  62) = (   0.4185670   0.4510128   0.7991155  )
        63           H   tau(  63) = (   0.7392620   0.6253743   0.3592054  )
        64           H   tau(  64) = (   0.3212037   0.1319012   0.4090920  )
        65           H   tau(  65) = (   0.9157632   0.8410055   0.6339755  )
        66           H   tau(  66) = (   0.3209193   0.4575226   0.2798890  )
        67           H   tau(  67) = (   0.6038611   0.2991993   0.7271845  )
        68           H   tau(  68) = (   0.3378773   0.2396426   0.8259545  )
        69           H   tau(  69) = (   0.6987195   0.8726091   0.1885128  )
        70           H   tau(  70) = (   0.4600675   0.1926020   0.1665959  )
        71           H   tau(  71) = (   0.7039769   0.5352547   0.7598972  )
        72           H   tau(  72) = (   0.4365655   0.5265651   0.6427467  )
        73           H   tau(  73) = (   0.8615473   0.3448032   0.7250115  )
        74           H   tau(  74) = (   0.4100334   0.1605205   0.1461500  )
        75           H   tau(  75) = (   0.3482478   0.7328055   0.5390595  )
        76           H   tau(  76) = (   0.3954427   0.8004755   0.2757598  )
        77           H   tau(  77) = (   0.1865090   0.8537208   0.5695758  )
        78           H   tau(  78) = (   0.5569172   0.0572161   0.3249151  )
        79           H   tau(  79) = (   0.0734477   0.0784858   0.5384258  )
        80           H   tau(  80) = (   0.4499379   0.7691854   0.2761818  )
        81           H   tau(  81) = (   0.9689443   0.8105409   0.6483668  )
        82           H   tau(  82) = (   0.2620622   0.6922297   0.1151401  )
        83           H   tau(  83) = (   0.5536993   0.8268301   0.7714726  )
        84           H   tau(  84) = (   0.1024147   0.3477592   0.7183491  )
        85           H   tau(  85) = (   0.5372075   0.4109739   0.0872187  )
        86           H   tau(  86) = (   0.9139721   0.2254697   0.5196817  )
        87           H   tau(  87) = (   0.1185055   0.4862903   0.4728946  )
        88           H   tau(  88) = (   0.4950416   0.0591990   0.3142786  )
        89           H   tau(  89) = (   0.5999753   0.2609741   0.4156276  )

     number of k points=    14  Methfessel-Paxton smearing, width (Ry)=  0.0100
                       cart. coord. in units 2pi/alat
        k(    1) = (   0.0000000   0.0000000   0.0000000), wk =   0.0740741
        k(    2) = (  -0.0032683  -0.0080616   0.3656466), wk =   0.1481481
        k(    3) = (   0.0000344   0.3411971  -0.0081480), wk =   0.1481481
        k(    4) = (  -0.0032338   0.3331356   0.3574987), wk =   0.1481481
        k(    5) = (   0.0033027   0.3492587  -0.3737946), wk =   0.1481481
        k(    6) = (   0.3333760  -0.0001844  -0.0032832), wk =   0.1481481
        k(    7) = (   0.3301077  -0.0082460   0.3623634), wk =   0.1481481
        k(    8) = (   0.3366443   0.0078772  -0.3689298), wk =   0.1481481
        k(    9) = (   0.3334105   0.3410128  -0.0114311), wk =   0.1481481
        k(   10) = (   0.3301422   0.3329512   0.3542155), wk =   0.1481481
        k(   11) = (   0.3366788   0.3490743  -0.3770778), wk =   0.1481481
        k(   12) = (   0.3333416  -0.3413815   0.0048648), wk =   0.1481481
        k(   13) = (   0.3300733  -0.3494431   0.3705114), wk =   0.1481481
        k(   14) = (   0.3366099  -0.3333199  -0.3607819), wk =   0.1481481

     Dense  grid:  1841681 G-vectors     FFT dimensions: ( 160, 160, 150)

     Smooth grid:   651123 G-vectors     FFT dimensions: ( 120, 120, 108)

     Program PWSCF v.6.7MaX starts on  7Jan2026 at  1:40: 1 

     This program is part of the open-source Quantum ESPRESSO suite
     for quantum simulation of materials; please cite
         "P. Giannozzi et al., J. Phys.:Condens. Matter 21 395502 (2009);
         "P. Giannozzi et al., J. Phys.:Condens. Matter 29 465901 (2017);
          URL http://www.quantum-espresso.org", 
     in publications or presentations arising from this work. More details at
     http://www.quantum-espresso.org/quote

     Parallel version (MPI), running on     1 processors

     MPI processes distributed on     1 nodes
     Waiting for input...
     Reading input from standard input

     Current dimensions of program PWSCF are:
     Max number of different atomic species (ntypx) = 10
     Max number of k-points (npk) =  40000
     Max angular momentum in pseudopotentials (lmaxx) =  3
     file H.UPF: wavefunction(s)  1S renormalized

     Subspace diagonalization in iterative solution of the eigenvalue problem:
     a serial algorithm will be used


     G-vector sticks info
     --------------------
     sticks:   dense  smooth     PW     G-vecs:    dense   smooth      PW
     Sum       19185    9591   2499              1841681   651123   86813



     bravais-lattice index     =            0
     lattice parameter (alat)  =      22.6627  a.u.
     unit-cell volume          =   10371.4516 (a.u.)^3
     number of atoms/cell      =           89
     number of atomic types    =            3
     number of electrons       =       105.00
     number of Kohn-Sham states=           64
     kinetic-energy cutoff     =      60.0000  Ry
     charge density cutoff     =     480.0000  Ry
     scf convergence threshold =      1.0E-12
     mixing beta               =       0.7000
     number of iterations used =            8  plain     mixing
     Exchange-correlation=  SLA  PW   PBE  PBE
                           (   1   4   3   4   0   0   0)

     celldm(1)=  22.662747  celldm(2)=   0.000000  celldm(3)=   0.000000
     celldm(4)=   0.000000  celldm(5)=   0.000000  celldm(6)=   0.000000

     crystal axes: (cart. coord. in units of alat)
               a(1) = (   0.999960   0.000113   0.008941 )  
               a(2) = (   0.000753   0.977467   0.021557 )  
               a(3) = (   0.008996   0.021783   0.912188 )  

     reciprocal axes: (cart. coord. in units 2 pi/alat)
               b(1) = (  1.000128 -0.000553 -0.009850 )  
               b(2) = (  0.000103  1.023591 -0.024444 )  
               b(3) = ( -0.009805 -0.024185  1.096940 )  


     PseudoPot. # 1 for B  read from file:
     /home/marco/ZOS_Cloud_Compute/pseudo/B.UPF
     MD5 check sum: d9c678ba5d3b2fd7b74e61139c9288d8
     Pseudo is Projector augmented-wave + core cor, Zval =  3.0
     Generated using "atomic" code by A. Dal Corso  v.5.1.2
     Shape of augmentation charge: PSQ
     Using radial grid of 1059 points,  4 beta functions with: 
                l(1) =   0
                l(2) =   0
                l(3) =   1
                l(4) =   1
     Q(r) pseudized with 0 coefficients 


     PseudoPot. # 2 for H  read from file:
     /home/marco/ZOS_Cloud_Compute/pseudo/H.UPF
     MD5 check sum: 850d63dcbcc06c5de8b44e0ab9f952da
     Pseudo is Projector augmented-wave, Zval =  1.0
     Generated using "atomic" code by A. Dal Corso  v.5.1.2
     Shape of augmentation charge: PSQ
     Using radial grid of  929 points,  2 beta functions with: 
                l(1) =   0
                l(2) =   0
     Q(r) pseudized with 0 coefficients 


     PseudoPot. # 3 for Y  read from file:
     /home/marco/ZOS_Cloud_Compute/pseudo/Y.UPF
     MD5 check sum: e11e343c2e9fd2e6ee9cb5aa0e490caa
     Pseudo is Ultrasoft + core correction, Zval = 11.0
     Generated by new atomic code, or converted to UPF format
     Using radial grid of  885 points,  6 beta functions with: 
                l(1) =   0
                l(2) =   0
                l(3) =   1
                l(4) =   1
                l(5) =   2
                l(6) =   2
     Q(r) pseudized with  6 coefficients,  rinner =    1.200   1.200   1.200
                                                       1.200   1.200

     atomic species   valence    mass     pseudopotential
        B              3.00     1.00000     B ( 1.00)
        H              1.00     1.00000     H ( 1.00)
        Y             11.00     1.00000     Y ( 1.00)

     No symmetry found



   Cartesian axes

     site n.     atom                  positions (alat units)
         1           Y   tau(   1) = (   0.9312744   0.5071607   0.4872434  )
         2           B   tau(   2) = (   0.5846993   0.3348704   0.4814465  )
         3           B   tau(   3) = (   0.8405052   0.6324220   0.3421832  )
         4           B   tau(   4) = (   0.3853423   0.5112607   0.7270011  )
         5           H   tau(   5) = (   0.5169659   0.4074443   0.4682375  )
         6           H   tau(   6) = (   0.1474675   0.2548653   0.4201529  )
         7           H   tau(   7) = (   0.7635386   0.0947425   0.3204982  )
         8           H   tau(   8) = (   0.8760637   0.5396357   0.3139951  )
         9           H   tau(   9) = (   0.7721981   0.3853165   0.4474456  )
        10           H   tau(  10) = (   0.5113224   0.1255265   0.5977581  )
        11           H   tau(  11) = (   0.7062141   0.3807862   0.2564913  )
        12           H   tau(  12) = (   0.6468134   0.4013714   0.2533702  )
        13           H   tau(  13) = (   0.2536045   0.3669168   0.0825517  )
        14           H   tau(  14) = (   0.0760952   0.2899828   0.7186176  )
        15           H   tau(  15) = (   0.2286725   0.6545431   0.3902879  )
        16           H   tau(  16) = (   0.2784490   0.9125070   0.7919861  )
        17           H   tau(  17) = (   0.8652746   0.7007499   0.2717082  )
        18           H   tau(  18) = (   0.8863484   0.3995894   0.7406887  )
        19           H   tau(  19) = (   0.9618749   0.3855349   0.3817234  )
        20           H   tau(  20) = (   0.8508157   0.7424331   0.8282101  )
        21           H   tau(  21) = (   0.1665384   0.6637088   0.3850513  )
        22           H   tau(  22) = (   0.2862355   0.6504664   0.1555475  )
        23           H   tau(  23) = (   0.8204128   0.7652830   0.8783768  )
        24           H   tau(  24) = (   0.1777428   0.8497800   0.2690557  )
        25           H   tau(  25) = (   0.4501831   0.1380792   0.5914876  )
        26           H   tau(  26) = (   0.1262719   0.0950135   0.5682158  )
        27           H   tau(  27) = (   0.3511062   0.2118755   0.7716703  )
        28           H   tau(  28) = (   0.8857280   0.2164642   0.5753293  )
        29           H   tau(  29) = (   0.2716373   0.2653042   0.5809920  )
        30           H   tau(  30) = (   0.3051813   0.3181660   0.5811062  )
        31           H   tau(  31) = (   0.6165956   0.8204044   0.4246590  )
        32           H   tau(  32) = (   0.8295384   0.3716472   0.4152024  )
        33           H   tau(  33) = (   0.2941795   0.3270214   0.1090530  )
        34           H   tau(  34) = (   0.2865431   0.5011645   0.7093427  )
        35           H   tau(  35) = (   0.1893508   0.1151509   0.1907325  )
        36           H   tau(  36) = (   0.5845634   0.2823939   0.7844790  )
        37           H   tau(  37) = (   0.1786700   0.8756159   0.3262051  )
        38           H   tau(  38) = (   0.6689136   0.6182132   0.5908681  )
        39           H   tau(  39) = (   0.7042537   0.4733765   0.7531097  )
        40           H   tau(  40) = (   0.3636973   0.1943097   0.4054956  )
        41           H   tau(  41) = (   0.6441117   0.8419502   0.1826392  )
        42           H   tau(  42) = (   0.3270956   0.8886982   0.7601623  )
        43           H   tau(  43) = (   0.5147195   0.8688059   0.7977138  )
        44           H   tau(  44) = (   0.3467194   0.5053713   0.3102994  )
        45           H   tau(  45) = (   0.4846026   0.4318051   0.1141078  )
        46           H   tau(  46) = (   0.4124799   0.6080386   0.7804532  )
        47           H   tau(  47) = (   0.8809667   0.6641732   0.4350329  )
        48           H   tau(  48) = (   0.4132478   0.2573585   0.4047860  )
        49           H   tau(  49) = (   0.2208927   0.1054800   0.2444339  )
        50           H   tau(  50) = (   0.7023559   0.9092208   0.6411224  )
        51           H   tau(  51) = (   0.5607729   0.8469850   0.4125733  )
        52           H   tau(  52) = (   0.6812254   0.9097628   0.5820585  )
        53           H   tau(  53) = (   0.0373021   0.5627666   0.5993925  )
        54           H   tau(  54) = (   0.3985096   0.7025110   0.5615567  )
        55           H   tau(  55) = (   0.7021458   0.6669241   0.5671118  )
        56           H   tau(  56) = (   0.6406537   0.3372802   0.5654649  )
        57           H   tau(  57) = (   0.1418490   0.8093818   0.5625481  )
        58           H   tau(  58) = (   0.1389881   0.2381809   0.3603311  )
        59           H   tau(  59) = (   0.3428970   0.6083030   0.7634394  )
        60           H   tau(  60) = (   0.1044543   0.4442703   0.4240862  )
        61           H   tau(  61) = (   0.7941524   0.1471323   0.3030408  )
        62           H   tau(  62) = (   0.4185670   0.4510128   0.7991155  )
        63           H   tau(  63) = (   0.7392620   0.6253743   0.3592054  )
        64           H   tau(  64) = (   0.3212037   0.1319012   0.4090920  )
        65           H   tau(  65) = (   0.9157632   0.8410055   0.6339755  )
        66           H   tau(  66) = (   0.3209193   0.4575226   0.2798890  )
        67           H   tau(  67) = (   0.6038611   0.2991993   0.7271845  )
        68           H   tau(  68) = (   0.3378773   0.2396426   0.8259545  )
        69           H   tau(  69) = (   0.6987195   0.8726091   0.1885128  )
        70           H   tau(  70) = (   0.4600675   0.1926020   0.1665959  )
        71           H   tau(  71) = (   0.7039769   0.5352547   0.7598972  )
        72           H   tau(  72) = (   0.4365655   0.5265651   0.6427467  )
        73           H   tau(  73) = (   0.8615473   0.3448032   0.7250115  )
        74           H   tau(  74) = (   0.4100334   0.1605205   0.1461500  )
        75           H   tau(  75) = (   0.3482478   0.7328055   0.5390595  )
        76           H   tau(  76) = (   0.3954427   0.8004755   0.2757598  )
        77           H   tau(  77) = (   0.1865090   0.8537208   0.5695758  )
        78           H   tau(  78) = (   0.5569172   0.0572161   0.3249151  )
        79           H   tau(  79) = (   0.0734477   0.0784858   0.5384258  )
        80           H   tau(  80) = (   0.4499379   0.7691854   0.2761818  )
        81           H   tau(  81) = (   0.9689443   0.8105409   0.6483668  )
        82           H   tau(  82) = (   0.2620622   0.6922297   0.1151401  )
        83           H   tau(  83) = (   0.5536993   0.8268301   0.7714726  )
        84           H   tau(  84) = (   0.1024147   0.3477592   0.7183491  )
        85           H   tau(  85) = (   0.5372075   0.4109739   0.0872187  )
        86           H   tau(  86) = (   0.9139721   0.2254697   0.5196817  )
        87           H   tau(  87) = (   0.1185055   0.4862903   0.4728946  )
        88           H   tau(  88) = (   0.4950416   0.0591990   0.3142786  )
        89           H   tau(  89) = (   0.5999753   0.2609741   0.4156276  )

     number of k points=    14  Methfessel-Paxton smearing, width (Ry)=  0.0100
                       cart. coord. in units 2pi/alat
        k(    1) = (   0.0000000   0.0000000   0.0000000), wk =   0.0740741
        k(    2) = (  -0.0032683  -0.0080616   0.3656466), wk =   0.1481481
        k(    3) = (   0.0000344   0.3411971  -0.0081480), wk =   0.1481481
        k(    4) = (  -0.0032338   0.3331356   0.3574987), wk =   0.1481481
        k(    5) = (   0.0033027   0.3492587  -0.3737946), wk =   0.1481481
        k(    6) = (   0.3333760  -0.0001844  -0.0032832), wk =   0.1481481
        k(    7) = (   0.3301077  -0.0082460   0.3623634), wk =   0.1481481
        k(    8) = (   0.3366443   0.0078772  -0.3689298), wk =   0.1481481
        k(    9) = (   0.3334105   0.3410128  -0.0114311), wk =   0.1481481
        k(   10) = (   0.3301422   0.3329512   0.3542155), wk =   0.1481481
        k(   11) = (   0.3366788   0.3490743  -0.3770778), wk =   0.1481481
        k(   12) = (   0.3333416  -0.3413815   0.0048648), wk =   0.1481481
        k(   13) = (   0.3300733  -0.3494431   0.3705114), wk =   0.1481481
        k(   14) = (   0.3366099  -0.3333199  -0.3607819), wk =   0.1481481

     Dense  grid:  1841681 G-vectors     FFT dimensions: ( 160, 160, 150)

     Smooth grid:   651123 G-vectors     FFT dimensions: ( 120, 120, 108)
