
     Program PWSCF v.6.7MaX starts on 25Feb2026 at  9:10:24 

     This program is part of the open-source Quantum ESPRESSO suite
     for quantum simulation of materials; please cite
         "P. Giannozzi et al., J. Phys.:Condens. Matter 21 395502 (2009);
         "P. Giannozzi et al., J. Phys.:Condens. Matter 29 465901 (2017);
          URL http://www.quantum-espresso.org", 
     in publications or presentations arising from this work. More details at
     http://www.quantum-espresso.org/quote

     Parallel version (MPI), running on     2 processors

     MPI processes distributed on     1 nodes
     R & G space division:  proc/nbgrp/npool/nimage =       2
     Waiting for input...
     Reading input from standard input

     Current dimensions of program PWSCF are:
     Max number of different atomic species (ntypx) = 10
     Max number of k-points (npk) =  40000
     Max angular momentum in pseudopotentials (lmaxx) =  3
     file Al.UPF: wavefunction(s)  3S 3P renormalized
     file H.UPF: wavefunction(s)  1S renormalized

     Subspace diagonalization in iterative solution of the eigenvalue problem:
     a serial algorithm will be used


     Parallelization info
     --------------------
     sticks:   dense  smooth     PW     G-vecs:    dense   smooth      PW
     Min        1283     643    186               125413    44376    6851
     Max        1284     644    187               125416    44383    6854
     Sum        2567    1287    373               250829    88759   13705



     bravais-lattice index     =            0
     lattice parameter (alat)  =       8.5662  a.u.
     unit-cell volume          =    1857.2379 (a.u.)^3
     number of atoms/cell      =           28
     number of atomic types    =            4
     number of electrons       =        74.00
     number of Kohn-Sham states=           44
     kinetic-energy cutoff     =      50.0000  Ry
     charge density cutoff     =     400.0000  Ry
     scf convergence threshold =      1.0E-06
     mixing beta               =       0.7000
     number of iterations used =            8  plain     mixing
     energy convergence thresh.=      1.0E-04
     force convergence thresh. =      1.0E-03
     press convergence thresh. =      5.0E-01
     Exchange-correlation=  SLA  PW   PBE  PBE
                           (   1   4   3   4   0   0   0)
     nstep                     =           50


     celldm(1)=   8.566167  celldm(2)=   0.000000  celldm(3)=   0.000000
     celldm(4)=   0.000000  celldm(5)=   0.000000  celldm(6)=   0.000000

     crystal axes: (cart. coord. in units of alat)
               a(1) = (   0.999993  -0.003598   0.000719 )  
               a(2) = (  -0.004177   1.100489   0.015778 )  
               a(3) = (   0.002030   0.038377   2.685471 )  

     reciprocal axes: (cart. coord. in units 2 pi/alat)
               b(1) = (  1.000021  0.003807 -0.000811 )  
               b(2) = (  0.003280  0.908886 -0.012991 )  
               b(3) = ( -0.000287 -0.005341  0.372451 )  


     PseudoPot. # 1 for Al read from file:
     /home/marco/ZOS_Cloud_Compute/pseudo/Al.UPF
     MD5 check sum: da22aad9e98c60ce88de1cf925d56fcc
     Pseudo is Projector augmented-wave + core cor, Zval =  3.0
     Generated using "atomic" code by A. Dal Corso  v.5.1.2
     Shape of augmentation charge: PSQ
     Using radial grid of 1135 points,  6 beta functions with: 
                l(1) =   0
                l(2) =   0
                l(3) =   1
                l(4) =   1
                l(5) =   2
                l(6) =   2
     Q(r) pseudized with 0 coefficients 


     PseudoPot. # 2 for H  read from file:
     /home/marco/ZOS_Cloud_Compute/pseudo/H.UPF
     MD5 check sum: 850d63dcbcc06c5de8b44e0ab9f952da
     Pseudo is Projector augmented-wave, Zval =  1.0
     Generated using "atomic" code by A. Dal Corso  v.5.1.2
     Shape of augmentation charge: PSQ
     Using radial grid of  929 points,  2 beta functions with: 
                l(1) =   0
                l(2) =   0
     Q(r) pseudized with 0 coefficients 


     PseudoPot. # 3 for Sr read from file:
     /home/marco/ZOS_Cloud_Compute/pseudo/Sr.UPF
     MD5 check sum: 71c4688e601547c0814ef38edf55aea6
     Pseudo is Ultrasoft + core correction, Zval = 10.0
     Generated by new atomic code, or converted to UPF format
     Using radial grid of  883 points,  6 beta functions with: 
                l(1) =   0
                l(2) =   0
                l(3) =   1
                l(4) =   1
                l(5) =   2
                l(6) =   2
     Q(r) pseudized with  8 coefficients,  rinner =    1.200   1.200   1.200
                                                       1.200   1.200

     PseudoPot. # 4 for Zr read from file:
     /home/marco/ZOS_Cloud_Compute/pseudo/Zr.UPF
     MD5 check sum: 56bebf6edcd38415d7dd1a973c3f3403
     Pseudo is Ultrasoft + core correction, Zval = 12.0
     Generated by new atomic code, or converted to UPF format
     Using radial grid of  887 points,  6 beta functions with: 
                l(1) =   0
                l(2) =   0
                l(3) =   1
                l(4) =   1
                l(5) =   2
                l(6) =   2
     Q(r) pseudized with  6 coefficients,  rinner =    1.200   1.200   1.200
                                                       1.200   1.200

     atomic species   valence    mass     pseudopotential
        Al             3.00     1.00000     Al( 1.00)
        H              1.00     1.00000     H ( 1.00)
        Sr            10.00     1.00000     Sr( 1.00)
        Zr            12.00     1.00000     Zr( 1.00)

     No symmetry found



   Cartesian axes

     site n.     atom                  positions (alat units)
         1           Sr  tau(   1) = (   0.2808463   0.1870093   1.7766083  )
         2           Sr  tau(   2) = (   0.7665675   0.3934992   0.9139811  )
         3           Zr  tau(   3) = (   0.1883451   0.9568249   0.4649068  )
         4           Sr  tau(   4) = (   0.7172981   0.7400121   2.2793113  )
         5           Al  tau(   5) = (   0.3223001   0.1805983   2.4995428  )
         6           Al  tau(   6) = (   0.8317178   0.4079772   0.2525676  )
         7           Al  tau(   7) = (   0.1927487   0.9526661   1.1046780  )
         8           Al  tau(   8) = (   0.6832874   0.7300779   1.5663331  )
         9           H   tau(   9) = (   0.5152984   0.4581744   1.3760928  )
        10           H   tau(  10) = (   0.0388842   0.1280255   1.2669554  )
        11           H   tau(  11) = (   1.0112668   0.7063471   0.1138969  )
        12           H   tau(  12) = (   0.4255434   1.0103528   2.7535521  )
        13           H   tau(  13) = (   0.1918948   1.0222383   2.2687014  )
        14           H   tau(  14) = (   0.6148735   0.6604199   0.4573359  )
        15           H   tau(  15) = (   0.3170919   0.0942453   0.8009432  )
        16           H   tau(  16) = (   0.8132357   0.4675017   1.8131070  )
        17           H   tau(  17) = (   0.1884015   0.4625957   2.2910757  )
        18           H   tau(  18) = (   0.6760486   0.1177253   0.4414174  )
        19           H   tau(  19) = (   0.2981917   0.6868782   0.8582586  )
        20           H   tau(  20) = (   0.7963461   1.0142337   1.7841479  )
        21           H   tau(  21) = (   0.6257750   0.1682225   2.2576906  )
        22           H   tau(  22) = (   0.1183804   0.4031548   0.4964780  )
        23           H   tau(  23) = (   0.9076158   0.9488424   0.8017125  )
        24           H   tau(  24) = (   0.3736886   0.7351312   1.8109510  )
        25           H   tau(  25) = (   0.0184689   0.1347250   0.0619827  )
        26           H   tau(  26) = (   0.5585547   0.4396358   2.6747095  )
        27           H   tau(  27) = (   0.5027476   0.9866386   1.3187979  )
        28           H   tau(  28) = (   0.9944398   0.6999979   1.3218142  )

     number of k points=     8  Methfessel-Paxton smearing, width (Ry)=  0.0200
                       cart. coord. in units 2pi/alat
        k(    1) = (   0.0000000   0.0000000   0.0000000), wk =   0.2500000
        k(    2) = (   0.0001435   0.0026705  -0.1862254), wk =   0.2500000
        k(    3) = (  -0.0016398  -0.4544429   0.0064956), wk =   0.2500000
        k(    4) = (  -0.0014963  -0.4517724  -0.1797298), wk =   0.2500000
        k(    5) = (  -0.5000105  -0.0019035   0.0004053), wk =   0.2500000
        k(    6) = (  -0.4998670   0.0007670  -0.1858201), wk =   0.2500000
        k(    7) = (  -0.5016503  -0.4563464   0.0069008), wk =   0.2500000
        k(    8) = (  -0.5015068  -0.4536759  -0.1793246), wk =   0.2500000

     Dense  grid:   250829 G-vectors     FFT dimensions: (  60,  64, 150)

     Smooth grid:    88759 G-vectors     FFT dimensions: (  40,  45, 108)

     Estimated max dynamical RAM per process >     612.67 MB

     Estimated total dynamical RAM >       1.20 GB

     Initial potential from superposition of free atoms

     starting charge   73.88755, renormalised to   74.00000

     negative rho (up, down):  6.038E-02 0.000E+00
     Starting wfcs are   88 randomized atomic wfcs
     Checking if some PAW data can be deallocated... 

     total cpu time spent up to now is       28.6 secs

     Self-consistent Calculation

     iteration #  1     ecut=    50.00 Ry     beta= 0.70
     Davidson diagonalization with overlap
     ethr =  1.00E-02,  avg # of iterations =  3.1

     negative rho (up, down):  6.057E-02 0.000E+00

     total cpu time spent up to now is       43.5 secs

     total energy              =    -500.66794134 Ry
     estimated scf accuracy    <       1.43695982 Ry

     iteration #  2     ecut=    50.00 Ry     beta= 0.70
     Davidson diagonalization with overlap
     ethr =  1.94E-03,  avg # of iterations =  5.4

     negative rho (up, down):  6.150E-02 0.000E+00

     total cpu time spent up to now is       59.6 secs

     total energy              =    -500.00748913 Ry
     estimated scf accuracy    <       2.27161178 Ry

     iteration #  3     ecut=    50.00 Ry     beta= 0.70
     Davidson diagonalization with overlap
     ethr =  1.94E-03,  avg # of iterations =  5.4

     negative rho (up, down):  6.093E-02 0.000E+00

     total cpu time spent up to now is       76.8 secs

     total energy              =    -499.56992567 Ry
     estimated scf accuracy    <      13.49745628 Ry

     iteration #  4     ecut=    50.00 Ry     beta= 0.70
     Davidson diagonalization with overlap
     ethr =  1.94E-03,  avg # of iterations =  4.1

     negative rho (up, down):  6.095E-02 0.000E+00

     total cpu time spent up to now is       91.8 secs

     total energy              =    -500.86641312 Ry
     estimated scf accuracy    <       0.22846597 Ry

     iteration #  5     ecut=    50.00 Ry     beta= 0.70
     Davidson diagonalization with overlap
     ethr =  3.09E-04,  avg # of iterations =  7.6

     negative rho (up, down):  6.095E-02 0.000E+00

     total cpu time spent up to now is      108.9 secs

     total energy              =    -500.89195521 Ry
     estimated scf accuracy    <       0.07153962 Ry

     iteration #  6     ecut=    50.00 Ry     beta= 0.70
     Davidson diagonalization with overlap
     ethr =  9.67E-05,  avg # of iterations =  3.8

     negative rho (up, down):  6.103E-02 0.000E+00

     total cpu time spent up to now is      123.2 secs

     total energy              =    -500.89554414 Ry
     estimated scf accuracy    <       0.01959969 Ry

     iteration #  7     ecut=    50.00 Ry     beta= 0.70
     Davidson diagonalization with overlap
     ethr =  2.65E-05,  avg # of iterations =  5.9

     negative rho (up, down):  6.110E-02 0.000E+00

     total cpu time spent up to now is      137.3 secs

     total energy              =    -500.89543751 Ry
     estimated scf accuracy    <       0.00528823 Ry

     iteration #  8     ecut=    50.00 Ry     beta= 0.70
     Davidson diagonalization with overlap
     ethr =  7.15E-06,  avg # of iterations =  8.2

     negative rho (up, down):  6.113E-02 0.000E+00

     total cpu time spent up to now is      154.5 secs

     total energy              =    -500.89582847 Ry
     estimated scf accuracy    <       0.00100540 Ry

     iteration #  9     ecut=    50.00 Ry     beta= 0.70
     Davidson diagonalization with overlap
     ethr =  1.36E-06,  avg # of iterations =  5.4

     negative rho (up, down):  6.112E-02 0.000E+00

     total cpu time spent up to now is      169.5 secs

     total energy              =    -500.89597672 Ry
     estimated scf accuracy    <       0.00009967 Ry

     iteration # 10     ecut=    50.00 Ry     beta= 0.70
     Davidson diagonalization with overlap
     ethr =  1.35E-07,  avg # of iterations =  3.2

     negative rho (up, down):  6.112E-02 0.000E+00

     total cpu time spent up to now is      184.1 secs

     total energy              =    -500.89599177 Ry
     estimated scf accuracy    <       0.00000741 Ry

     iteration # 11     ecut=    50.00 Ry     beta= 0.70
     Davidson diagonalization with overlap
     ethr =  1.00E-08,  avg # of iterations =  4.5

     negative rho (up, down):  6.111E-02 0.000E+00

     total cpu time spent up to now is      198.9 secs

     End of self-consistent calculation

          k = 0.0000 0.0000 0.0000 ( 11123 PWs)   bands (ev):

   -42.4497 -29.3776 -29.1190 -28.6513 -20.6712 -20.5001 -20.3085 -11.4770
   -11.4507 -11.4016 -11.2318 -11.1565 -11.1239 -10.8190 -10.7494 -10.7103
    -3.6828  -3.0324  -1.9115  -0.7508   0.2999   1.1783   1.2423   1.3539
     1.6936   1.8184   1.9443   2.1374   2.3864   2.9681   3.0051   3.4271
     3.4549   3.6347   4.1542   4.7974   7.2469   7.4677   7.9155   8.2536
     8.4263   8.5231   8.7211   8.9635

          k = 0.0001 0.0027-0.1862 ( 11116 PWs)   bands (ev):

   -42.4497 -29.3776 -29.1190 -28.6513 -20.6712 -20.5001 -20.3085 -11.4770
   -11.4508 -11.4016 -11.2316 -11.1565 -11.1239 -10.8192 -10.7494 -10.7103
    -3.5658  -3.2639  -1.5455  -1.1029   0.4725   1.0808   1.2537   1.4496
     1.5656   1.8139   1.9572   2.1231   2.5531   2.7867   3.0199   3.3228
     3.4897   3.7261   4.1791   4.8416   7.2530   7.5804   7.8924   8.1272
     8.4372   8.5100   8.6802   8.8620

          k =-0.0016-0.4544 0.0065 ( 11098 PWs)   bands (ev):

   -42.4496 -29.3761 -29.1187 -28.6505 -20.6709 -20.5000 -20.3152 -11.5406
   -11.4903 -11.3899 -11.2062 -11.1855 -11.1282 -10.8355 -10.7832 -10.7056
    -2.9734  -2.5940  -1.2154  -0.9524  -0.3215  -0.0966   1.0661   1.1532
     1.3563   1.6457   1.8285   2.0008   2.6154   2.9329   3.1169   3.3032
     3.5988   3.8338   4.2425   4.8003   7.1275   7.4907   7.8109   8.0372
     8.3993   8.4430   8.7083   9.1285

          k =-0.0015-0.4518-0.1797 ( 11106 PWs)   bands (ev):

   -42.4496 -29.3761 -29.1187 -28.6505 -20.6709 -20.5000 -20.3152 -11.5406
   -11.4902 -11.3899 -11.2065 -11.1854 -11.1282 -10.8355 -10.7832 -10.7056
    -2.9671  -2.5786  -1.3502  -1.0358   0.0884   0.2016   0.5692   0.6913
     1.6096   1.7199   1.9391   2.1880   2.4719   2.8584   3.0063   3.3051
     3.7684   3.9214   4.1757   4.7454   7.1377   7.5203   7.8417   8.0412
     8.2864   8.6325   8.9348   9.0023

          k =-0.5000-0.0019 0.0004 ( 11060 PWs)   bands (ev):

   -42.4493 -29.3744 -29.1168 -28.6486 -20.6744 -20.5104 -20.3070 -11.5244
   -11.4825 -11.4224 -11.2144 -11.1925 -11.1547 -10.8268 -10.7932 -10.7338
    -2.2548  -2.1312  -1.7373  -1.5858  -0.0949   0.2479   1.0076   1.1901
     1.4783   1.5502   1.6756   1.8268   1.9310   2.2601   2.9345   3.3330
     3.5059   3.5251   3.8916   3.9995   7.8941   8.0449   8.1983   8.2545
     8.7839   9.0815   9.2384   9.4857

          k =-0.4999 0.0008-0.1858 ( 11088 PWs)   bands (ev):

   -42.4493 -29.3744 -29.1168 -28.6486 -20.6744 -20.5104 -20.3070 -11.5244
   -11.4825 -11.4224 -11.2145 -11.1925 -11.1547 -10.8268 -10.7932 -10.7338
    -2.2013  -2.1117  -1.8071  -1.6634   0.1411   0.4528   0.7080   0.9273
     1.4196   1.5466   1.6466   1.7708   2.3197   2.3850   2.8515   3.2094
     3.5131   3.6275   3.8602   3.9333   7.9311   8.0774   8.1755   8.3652
     8.7178   9.0827   9.3293   9.5084

          k =-0.5017-0.4563 0.0069 ( 11080 PWs)   bands (ev):

   -42.4492 -29.3734 -29.1160 -28.6478 -20.6739 -20.5102 -20.3137 -11.5181
   -11.5111 -11.4441 -11.2326 -11.1930 -11.1724 -10.8236 -10.7961 -10.7651
    -2.0364  -1.8681  -1.5407  -1.3387   0.3042   0.5276   0.6950   0.8891
     1.0639   1.1669   1.3248   1.5826   2.0655   2.3748   2.5830   2.7432
     3.1265   3.5524   4.6599   5.0172   7.2514   8.2238   8.3607   8.4245
     8.5913   8.6941   8.9943   9.5350

          k =-0.5015-0.4537-0.1793 ( 11088 PWs)   bands (ev):

   -42.4492 -29.3734 -29.1160 -28.6478 -20.6739 -20.5102 -20.3137 -11.5182
   -11.5111 -11.4441 -11.2326 -11.1930 -11.1724 -10.8237 -10.7961 -10.7652
    -2.0178  -1.8505  -1.5766  -1.3641   0.3096   0.5279   0.6895   0.8178
     1.1566   1.3054   1.4088   1.7588   1.9208   2.1879   2.2583   2.5013
     3.5771   3.8262   4.5074   4.9592   7.2447   8.2272   8.3345   8.4252
     8.6352   8.7932   8.9926   9.3216

     the Fermi energy is     7.5208 ev

!    total energy              =    -500.89599322 Ry
     estimated scf accuracy    <       0.00000046 Ry
     smearing contrib. (-TS)   =       0.00126031 Ry
     internal energy E=F+TS    =    -500.89725352 Ry

     The total energy is F=E-TS. E is the sum of the following terms:
     one-electron contribution =     -87.00614140 Ry
     hartree contribution      =      65.85810046 Ry
     xc contribution           =    -107.77050569 Ry
     ewald contribution        =    -233.26211454 Ry
     one-center paw contrib.   =    -138.71659236 Ry

     convergence has been achieved in  11 iterations

     negative rho (up, down):  6.111E-02 0.000E+00

     Forces acting on atoms (cartesian axes, Ry/au):

     atom    1 type  3   force =    -0.00489603    0.00516194    0.00236551
     atom    2 type  3   force =    -0.00533509   -0.00389773   -0.02810797
     atom    3 type  4   force =    -0.00383136   -0.01102008   -0.01999982
     atom    4 type  3   force =     0.00444651    0.00316061    0.01151517
     atom    5 type  1   force =     0.00398420   -0.00820972    0.01234196
     atom    6 type  1   force =    -0.00250896    0.01679445    0.03038772
     atom    7 type  1   force =    -0.00803412    0.01218455   -0.04038187
     atom    8 type  1   force =    -0.00783313   -0.01194345    0.01049310
     atom    9 type  2   force =    -0.00117726   -0.00037029   -0.00241563
     atom   10 type  2   force =    -0.00276819    0.00426652    0.01331637
     atom   11 type  2   force =    -0.00503667    0.00125696   -0.02136973
     atom   12 type  2   force =     0.01423675   -0.00762751   -0.01112055
     atom   13 type  2   force =    -0.01099885   -0.00315540   -0.00121068
     atom   14 type  2   force =    -0.01286101    0.00876967    0.00133688
     atom   15 type  2   force =     0.00988068    0.00569672    0.02129252
     atom   16 type  2   force =     0.00462517    0.00481438   -0.00240002
     atom   17 type  2   force =     0.00260210   -0.00117545   -0.00302657
     atom   18 type  2   force =    -0.01004735   -0.01204235    0.00148473
     atom   19 type  2   force =     0.00466651   -0.00017883   -0.00095874
     atom   20 type  2   force =     0.00545782    0.00189367   -0.00594301
     atom   21 type  2   force =    -0.00143760    0.00358620   -0.00437903
     atom   22 type  2   force =     0.01845984   -0.00379843    0.00023957
     atom   23 type  2   force =    -0.00824425   -0.00233375    0.03681606
     atom   24 type  2   force =     0.00448909    0.00205014   -0.00763143
     atom   25 type  2   force =     0.00371693   -0.00498705   -0.00587325
     atom   26 type  2   force =    -0.00092815    0.00442942    0.00103005
     atom   27 type  2   force =     0.00828806   -0.00001497    0.00787478
     atom   28 type  2   force =     0.00108435   -0.00331023    0.00432386

     Total force =     0.098977     Total SCF correction =     0.001212


     Computing stress (Cartesian axis) and pressure


     negative rho (up, down):  6.111E-02 0.000E+00
          total   stress  (Ry/bohr**3)                   (kbar)     P=       13.56
   0.00009557   0.00001420  -0.00004679           14.06        2.09       -6.88
   0.00001420   0.00017452   0.00002733            2.09       25.67        4.02
  -0.00004679   0.00002733   0.00000645           -6.88        4.02        0.95


     BFGS Geometry Optimization
     Energy error            =      0.0E+00
     Gradient error          =      4.0E-02
     Cell gradient error     =      1.7E-04


     number of scf cycles    =   1
     number of bfgs steps    =   0

     enthalpy new            =    -500.8959932174 Ry

     new trust radius        =       0.0429383955 bohr
     new conv_thr            =       0.0000010000 Ry

     new unit-cell volume =   1870.09568 a.u.^3 (   277.11959 Ang^3 )
     density =      0.16778 g/cm^3

CELL_PARAMETERS (angstrom)
   4.543810946  -0.014769699  -0.002053406
  -0.017290949   5.010344935   0.074963989
  -0.004952829   0.183044391  12.175364720

ATOMIC_POSITIONS (angstrom)
Sr            1.2644060879        0.8601132429        8.0550478428
Sr            3.4761416709        1.7935038999        4.1260424299
Zr            0.8528643398        4.3521084720        2.0991497772
Sr            3.2507519380        3.3790238472       10.3384127524
Al            1.4536239044        0.8261295721       11.3376836085
Al            3.7771727199        1.8684949134        1.1580224702
Al            0.8672624062        4.3474875132        4.9889008844
Al            3.0934615543        3.3235022146        7.1055572021
H             2.3342560944        2.0908687075        6.2362717673
H             0.1686959199        0.5891323393        5.7513028282
H             4.5929201647        3.2184952080        0.5018987011
H             1.9281874158        4.6050896566       12.4788967119
H             0.8557217576        4.6596998033       10.2872421575
H             2.7857098715        3.0138232919        2.0729509079
H             1.4419517155        0.4351080711        3.6411533357
H             3.6888153573        2.1379237766        8.2160408372
H             0.8460456779        2.1128784279       10.3859979955
H             3.0643800052        0.5320326415        1.9988440848
H             1.3539686321        3.1302610983        3.8911672424
H             3.6135481398        4.6254133925        8.0846537549
H             2.8309679270        0.7757864379       10.2306959890
H             0.5457101762        1.8351952275        2.2516428750
H             4.1169503033        4.3226025707        3.6523805560
H             1.6919514413        3.3542016998        8.2066562638
H             0.0857824673        0.6109452233        0.2782210436
H             2.5240213265        2.0131098642       12.1254157761
H             2.2833959140        4.4968560472        5.9836547179
H             4.5132754061        3.1908856204        5.9919587197



     Writing output data file ./tmp/Sr3ZrAlH54.save/
