
     Program PWSCF v.7.5 starts on  5Apr2026 at  8:34:56 

     This program is part of the open-source Quantum ESPRESSO suite
     for quantum simulation of materials; please cite
         "P. Giannozzi et al., J. Phys.:Condens. Matter 21 395502 (2009);
         "P. Giannozzi et al., J. Phys.:Condens. Matter 29 465901 (2017);
         "P. Giannozzi et al., J. Chem. Phys. 152 154105 (2020);
          URL http://www.quantum-espresso.org", 
     in publications or presentations arising from this work. More details at
     http://www.quantum-espresso.org/quote

     Parallel version (MPI), running on     2 processors

     MPI processes distributed on     1 nodes
     6675 MiB available memory on the printing compute node when the environment starts

     Waiting for input...
     Reading input from standard input

     Current dimensions of program PWSCF are:
     Max number of different atomic species (ntypx) = 10
     Max number of k-points (npk) =  40000
     Max angular momentum in pseudopotentials (lmaxx) =  4
     file H.UPF: wavefunction(s)  1S renormalized
     file Rb.UPF: wavefunction(s)  4S renormalized

     Exact exchange band parallelism type set to band_pairs


     R & G space division:  proc/nbgrp/npool/nimage =       2
     Subspace diagonalization in iterative solution of the eigenvalue problem:
     a serial algorithm will be used


     Parallelization info
     --------------------
     sticks:   dense  smooth     PW     G-vecs:    dense   smooth      PW
     Min        6149    3079    831               520303   183984   25872
     Max        6150    3080    832               520304   183985   25873
     Sum       12299    6159   1663              1040607   367969   51745

     Using Slab Decomposition



     bravais-lattice index     =            0
     lattice parameter (alat)  =      24.5980  a.u.
     unit-cell volume          =    7702.7751 (a.u.)^3
     number of atoms/cell      =           88
     number of atomic types    =            5
     number of electrons       =       200.00
     number of Kohn-Sham states=          120
     kinetic-energy cutoff     =      50.0000  Ry
     charge density cutoff     =     400.0000  Ry
     scf convergence threshold =      1.0E-06
     mixing beta               =       0.7000
     number of iterations used =            8  plain     mixing
     energy convergence thresh.=      1.0E-04
     force convergence thresh. =      1.0E-03
     press convergence thresh. =      5.0E-01
     Exchange-correlation=  SLA  PW   PBE  PBE
                           (   1   4   3   4   0   0   0)
     nstep                     =           50


     celldm(1)=  24.597966  celldm(2)=   0.000000  celldm(3)=   0.000000
     celldm(4)=   0.000000  celldm(5)=   0.000000  celldm(6)=   0.000000

     crystal axes: (cart. coord. in units of alat)
               a(1) = (   0.998977   0.037841   0.024769 )  
               a(2) = (   0.025231   0.639771   0.009080 )  
               a(3) = (   0.046115   0.644869   0.820651 )  

     reciprocal axes: (cart. coord. in units 2 pi/alat)
               b(1) = (  1.003143 -0.039199 -0.025567 )  
               b(2) = ( -0.029140  1.581827 -1.241364 )  
               b(3) = ( -0.029955 -0.016320  1.233052 )  


     PseudoPot. # 1 for B  read from file:
     /home/marco/ZOS_Cloud_Compute/pseudo/B.UPF
     MD5 check sum: d9c678ba5d3b2fd7b74e61139c9288d8
     Pseudo is Projector augmented-wave + core cor, Zval =  3.0
     Generated using "atomic" code by A. Dal Corso  v.5.1.2
     Shape of augmentation charge: PSQ
     Using radial grid of 1059 points,  4 beta functions with: 
                l(1) =   0
                l(2) =   0
                l(3) =   1
                l(4) =   1
     Q(r) pseudized with 0 coefficients 


     PseudoPot. # 2 for H  read from file:
     /home/marco/ZOS_Cloud_Compute/pseudo/H.UPF
     MD5 check sum: 850d63dcbcc06c5de8b44e0ab9f952da
     Pseudo is Projector augmented-wave, Zval =  1.0
     Generated using "atomic" code by A. Dal Corso  v.5.1.2
     Shape of augmentation charge: PSQ
     Using radial grid of  929 points,  2 beta functions with: 
                l(1) =   0
                l(2) =   0
     Q(r) pseudized with 0 coefficients 


     PseudoPot. # 3 for Rb read from file:
     /home/marco/ZOS_Cloud_Compute/pseudo/Rb.UPF
     MD5 check sum: 2771e311bc20ea25cdd5c0a9866b789c
     Pseudo is Projector augmented-wave + core cor, Zval =  9.0
     Generated using "atomic" code by A. Dal Corso  v.5.1.2
     Shape of augmentation charge: PSQ
     Using radial grid of 1219 points,  6 beta functions with: 
                l(1) =   0
                l(2) =   0
                l(3) =   1
                l(4) =   1
                l(5) =   2
                l(6) =   2
     Q(r) pseudized with 0 coefficients 


     PseudoPot. # 4 for Sc read from file:
     /home/marco/ZOS_Cloud_Compute/pseudo/Sc.UPF
     MD5 check sum: ff19847cdcb3487ca1f25e4b0e9f43ec
     Pseudo is Ultrasoft + core correction, Zval = 11.0
     Generated by new atomic code, or converted to UPF format
     Using radial grid of  849 points,  6 beta functions with: 
                l(1) =   0
                l(2) =   0
                l(3) =   1
                l(4) =   1
                l(5) =   2
                l(6) =   2
     Q(r) pseudized with  6 coefficients,  rinner =    1.200   1.200   1.200
                                                       1.200   1.200

     PseudoPot. # 5 for Y  read from file:
     /home/marco/ZOS_Cloud_Compute/pseudo/Y.UPF
     MD5 check sum: e11e343c2e9fd2e6ee9cb5aa0e490caa
     Pseudo is Ultrasoft + core correction, Zval = 11.0
     Generated by new atomic code, or converted to UPF format
     Using radial grid of  885 points,  6 beta functions with: 
                l(1) =   0
                l(2) =   0
                l(3) =   1
                l(4) =   1
                l(5) =   2
                l(6) =   2
     Q(r) pseudized with  6 coefficients,  rinner =    1.200   1.200   1.200
                                                       1.200   1.200

     atomic species   valence    mass     pseudopotential
     B                 3.00     1.00000     B ( 1.00)
     H                 1.00     1.00000     H ( 1.00)
     Rb                9.00     1.00000     Rb( 1.00)
     Sc               11.00     1.00000     Sc( 1.00)
     Y                11.00     1.00000     Y ( 1.00)

     No symmetry found



   Cartesian axes

     site n.     atom                  positions (alat units)
         1        Rb     tau(   1) = (   1.0055584   0.8435936   0.7060680  )
         2        Rb     tau(   2) = (   0.5070533   0.8195985   0.5647890  )
         3        Rb     tau(   3) = (   0.0512302   0.4655342   0.1459346  )
         4        Rb     tau(   4) = (   0.5629055   0.5038269   0.2903054  )
         5        Y      tau(   5) = (   0.7438452   1.1520407   0.7097206  )
         6        Y      tau(   6) = (   0.2098139   0.4923794   0.5512208  )
         7        Y      tau(   7) = (   0.3301893   0.1727717   0.1461004  )
         8        Y      tau(   8) = (   0.8610038   0.8298015   0.3031596  )
         9        B      tau(   9) = (   0.8994016   1.2376059   0.7814152  )
        10        B      tau(  10) = (   0.3667355   0.4107987   0.4847133  )
        11        Sc     tau(  11) = (   0.1358312   0.0706112   0.0564873  )
        12        B      tau(  12) = (   0.7035630   0.9114369   0.3695857  )
        13        B      tau(  13) = (   0.6538120   0.6010075   0.5477855  )
        14        B      tau(  14) = (   0.1764369   1.0354585   0.7110082  )
        15        B      tau(  15) = (   0.4208228   0.7227364   0.3109457  )
        16        B      tau(  16) = (   0.8936240   0.2872149   0.1431733  )
        17        B      tau(  17) = (   0.7771724   0.9736846   0.6594552  )
        18        B      tau(  18) = (   0.2623946   0.6670751   0.6027823  )
        19        B      tau(  19) = (   0.2969716   0.3550222   0.1972868  )
        20        B      tau(  20) = (   0.8081931   0.6547157   0.2512432  )
        21        B      tau(  21) = (   0.6039319   1.1448648   0.8356995  )
        22        B      tau(  22) = (   0.0715569   0.4854800   0.4209999  )
        23        B      tau(  23) = (   0.4734413   0.1796783   0.0189847  )
        24        B      tau(  24) = (   0.9983547   0.8368992   0.4340073  )
        25        H      tau(  25) = (   0.9749878   1.2789686   0.8147589  )
        26        H      tau(  26) = (   0.4435398   0.3713206   0.4514475  )
        27        H      tau(  27) = (   0.0174902  -0.0002200   0.0053115  )
        28        H      tau(  28) = (   0.6267677   0.9509917   0.4028855  )
        29        H      tau(  29) = (   0.8624066   1.1765350   0.8442929  )
        30        H      tau(  30) = (   0.3289876   0.4714537   0.4219341  )
        31        H      tau(  31) = (   0.2245442   0.1687537   0.0053798  )
        32        H      tau(  32) = (   0.7412812   0.8508567   0.4325459  )
        33        H      tau(  33) = (   0.8077719   0.6627181   0.7521646  )
        34        H      tau(  34) = (   0.3252488   0.9853977   0.5128650  )
        35        H      tau(  35) = (   0.2798976   0.6490037   0.1096456  )
        36        H      tau(  36) = (   0.7449820   0.3369298   0.3414162  )
        37        H      tau(  37) = (   0.9193199   1.1895870   0.7008783  )
        38        H      tau(  38) = (   0.3849960   0.4586604   0.5654458  )
        39        H      tau(  39) = (   0.1645952   0.1453472   0.1746909  )
        40        H      tau(  40) = (   0.6853002   0.8634648   0.2888728  )
        41        H      tau(  41) = (   0.6225037   0.6455115   0.4730740  )
        42        H      tau(  42) = (   0.1437272   0.9908045   0.7848715  )
        43        H      tau(  43) = (   0.4493288   0.6759155   0.3857141  )
        44        H      tau(  44) = (   0.9257673   0.3328821   0.0695236  )
        45        H      tau(  45) = (   0.5852962   0.5480100   0.5871233  )
        46        H      tau(  46) = (   0.1075499   1.0872631   0.6715473  )
        47        H      tau(  47) = (   0.4905460   0.7749067   0.2737316  )
        48        H      tau(  48) = (   0.9621340   0.2344228   0.1824433  )
        49        H      tau(  49) = (   0.7265425   0.5434399   0.5258996  )
        50        H      tau(  50) = (   0.2491328   1.0924892   0.7329773  )
        51        H      tau(  51) = (   0.3485889   0.7808439   0.3318391  )
        52        H      tau(  52) = (   0.8212180   0.2301584   0.1209235  )
        53        H      tau(  53) = (   0.6848872   0.6627015   0.6142082  )
        54        H      tau(  54) = (   0.2063882   0.9746230   0.6434426  )
        55        H      tau(  55) = (   0.3917615   0.6626432   0.2436012  )
        56        H      tau(  56) = (   0.8632741   0.3483720   0.2103647  )
        57        H      tau(  57) = (   0.7962051   0.8859849   0.6359043  )
        58        H      tau(  58) = (   0.2867152   0.7544602   0.6218013  )
        59        H      tau(  59) = (   0.2733011   0.4419180   0.2199905  )
        60        H      tau(  60) = (   0.7848914   0.5676829   0.2283035  )
        61        H      tau(  61) = (   0.8307509   1.0349806   0.6095395  )
        62        H      tau(  62) = (   0.3135868   0.6044739   0.6522372  )
        63        H      tau(  63) = (   0.2475751   0.2935401   0.2498091  )
        64        H      tau(  64) = (   0.7572920   0.7177482   0.2016140  )
        65        H      tau(  65) = (   0.7956350   0.9897502   0.7521756  )
        66        H      tau(  66) = (   0.2786002   0.6487017   0.5103026  )
        67        H      tau(  67) = (   0.2793938   0.3371064   0.1051973  )
        68        H      tau(  68) = (   0.7913308   0.6718239   0.3440595  )
        69        H      tau(  69) = (   0.6858001   0.9955250   0.6443279  )
        70        H      tau(  70) = (   0.1699169   0.6500229   0.6178609  )
        71        H      tau(  71) = (   0.3886270   0.3358269   0.2121759  )
        72        H      tau(  72) = (   0.9005630   0.6725034   0.2351449  )
        73        H      tau(  73) = (   0.4894710   0.5011219   0.0776111  )
        74        H      tau(  74) = (   1.0021466   0.5199593   0.3832481  )
        75        H      tau(  75) = (   0.5856997   0.8208846   0.7742861  )
        76        H      tau(  76) = (   0.0684574   0.8023529   0.4711381  )
        77        H      tau(  77) = (   0.6394535   1.2329723   0.8217890  )
        78        H      tau(  78) = (   0.1080569   0.3982501   0.4372701  )
        79        H      tau(  79) = (   0.4361927   0.0926784   0.0342515  )
        80        H      tau(  80) = (   0.9624825   0.9243359   0.4175598  )
        81        H      tau(  81) = (   0.6307641   0.4444124   0.0415488  )
        82        H      tau(  82) = (   0.1432870   0.5422623   0.3937906  )
        83        H      tau(  83) = (   0.4494153   0.8836305   0.8154075  )
        84        H      tau(  84) = (   0.9264561   0.7806389   0.4620035  )
        85        H      tau(  85) = (   0.5729267   1.1123614   0.7513583  )
        86        H      tau(  86) = (   0.0387417   0.5189924   0.5045577  )
        87        H      tau(  87) = (   0.5064799   0.2114671   0.1023931  )
        88        H      tau(  88) = (   1.0293784   0.8021852   0.3506824  )

     number of k points=     8  Methfessel-Paxton smearing, width (Ry)=  0.0200
                       cart. coord. in units 2pi/alat
        k(    1) = (   0.0000000   0.0000000   0.0000000), wk =   0.2500000
        k(    2) = (   0.0149773   0.0081598  -0.6165258), wk =   0.2500000
        k(    3) = (   0.0145698  -0.7909134   0.6206820), wk =   0.2500000
        k(    4) = (   0.0295471  -0.7827536   0.0041562), wk =   0.2500000
        k(    5) = (  -0.5015715   0.0195994   0.0127835), wk =   0.2500000
        k(    6) = (  -0.4865942   0.0277593  -0.6037423), wk =   0.2500000
        k(    7) = (  -0.4870017  -0.7713140   0.6334655), wk =   0.2500000
        k(    8) = (  -0.4720244  -0.7631541   0.0169397), wk =   0.2500000

     Dense  grid:  1040607 G-vectors     FFT dimensions: ( 160, 108, 180)

     Smooth grid:   367969 G-vectors     FFT dimensions: ( 120,  72, 120)

     Estimated max dynamical RAM per process >       3.82 GB

     Estimated total dynamical RAM >       7.64 GB

     Check: negative core charge=   -0.000001

     Initial potential from superposition of free atoms

     starting charge     199.8835, renormalised to     200.0000

     negative rho (up, down):  1.729E-01 0.000E+00
     Starting wfcs are  218 randomized atomic wfcs
     Checking if some PAW data can be deallocated... 

     total cpu time spent up to now is       62.9 secs

     Self-consistent Calculation

     iteration #  1     ecut=    50.00 Ry     beta= 0.70
     Davidson diagonalization with overlap
     ethr =  1.00E-02,  avg # of iterations =  2.0

     negative rho (up, down):  1.755E-01 0.000E+00

     total cpu time spent up to now is      168.8 secs

     total energy              =   -1650.07992573 Ry
     estimated scf accuracy    <       9.38442015 Ry

     iteration #  2     ecut=    50.00 Ry     beta= 0.70
     Davidson diagonalization with overlap
     ethr =  4.69E-03,  avg # of iterations =  2.1

     negative rho (up, down):  1.770E-01 0.000E+00

     total cpu time spent up to now is      274.2 secs

     total energy              =   -1651.61645479 Ry
     estimated scf accuracy    <       2.75721170 Ry

     iteration #  3     ecut=    50.00 Ry     beta= 0.70
     Davidson diagonalization with overlap
     ethr =  1.38E-03,  avg # of iterations =  5.0

     negative rho (up, down):  1.769E-01 0.000E+00

     total cpu time spent up to now is      387.4 secs

     total energy              =   -1652.29891800 Ry
     estimated scf accuracy    <       0.58240707 Ry

     iteration #  4     ecut=    50.00 Ry     beta= 0.70
     Davidson diagonalization with overlap
     ethr =  2.91E-04,  avg # of iterations =  7.1

     negative rho (up, down):  1.770E-01 0.000E+00

     total cpu time spent up to now is      502.7 secs

     total energy              =   -1652.41374587 Ry
     estimated scf accuracy    <       0.05462798 Ry

     iteration #  5     ecut=    50.00 Ry     beta= 0.70
     Davidson diagonalization with overlap
     ethr =  2.73E-05,  avg # of iterations =  7.0

     negative rho (up, down):  1.770E-01 0.000E+00

     total cpu time spent up to now is      633.8 secs

     total energy              =   -1652.42696264 Ry
     estimated scf accuracy    <       0.01837694 Ry

     iteration #  6     ecut=    50.00 Ry     beta= 0.70
     Davidson diagonalization with overlap
     ethr =  9.19E-06,  avg # of iterations = 11.8

     negative rho (up, down):  1.769E-01 0.000E+00

     total cpu time spent up to now is      763.0 secs

     total energy              =   -1652.43019942 Ry
     estimated scf accuracy    <       0.00028662 Ry

     iteration #  7     ecut=    50.00 Ry     beta= 0.70
     Davidson diagonalization with overlap
     ethr =  1.43E-07,  avg # of iterations =  4.5

     negative rho (up, down):  1.768E-01 0.000E+00

     total cpu time spent up to now is      872.2 secs

     total energy              =   -1652.43028662 Ry
     estimated scf accuracy    <       0.00004341 Ry

     iteration #  8     ecut=    50.00 Ry     beta= 0.70
     Davidson diagonalization with overlap
     ethr =  2.17E-08,  avg # of iterations =  5.0

     negative rho (up, down):  1.768E-01 0.000E+00

     total cpu time spent up to now is      980.8 secs

     total energy              =   -1652.43029479 Ry
     estimated scf accuracy    <       0.00001714 Ry

     iteration #  9     ecut=    50.00 Ry     beta= 0.70
     Davidson diagonalization with overlap
     ethr =  8.57E-09,  avg # of iterations =  4.0

     negative rho (up, down):  1.768E-01 0.000E+00

     total cpu time spent up to now is     1076.6 secs

     total energy              =   -1652.43029632 Ry
     estimated scf accuracy    <       0.00000163 Ry

     iteration # 10     ecut=    50.00 Ry     beta= 0.70
     Davidson diagonalization with overlap
     ethr =  8.15E-10,  avg # of iterations =  4.4

     negative rho (up, down):  1.768E-01 0.000E+00

     total cpu time spent up to now is     1184.0 secs

     End of self-consistent calculation

          k = 0.0000 0.0000 0.0000 ( 46011 PWs)   bands (ev):

   -49.2198 -42.0470 -41.9542 -41.6163 -41.4193 -28.0032 -27.9742 -27.6090
   -26.5628 -26.4552 -26.1566 -26.1261 -22.1404 -22.1232 -22.0932 -22.0451
   -22.0311 -22.0099 -21.7168 -21.6939 -21.6753 -21.4853 -21.4646 -21.4372
   -10.7349 -10.6728 -10.6443 -10.6190 -10.5498 -10.4947 -10.2872 -10.2662
   -10.2452 -10.2318 -10.2180 -10.2073  -8.6679  -8.5092  -8.2026  -8.0400
    -7.9702  -7.8837  -7.8105  -7.7958  -7.7811  -7.6458  -7.6250  -7.4859
    -7.4145  -7.3595  -7.1729  -4.0325  -3.8490  -3.8076  -3.7717  -3.6931
    -3.6580  -3.5714  -3.5450  -3.5115  -3.4606  -3.4195  -3.3767  -3.3413
    -3.3058  -3.2682  -3.2115  -3.1437  -3.1337  -3.0899  -3.0703  -3.0345
    -3.0028  -2.9717  -2.9320  -2.8801  -2.8492  -2.8224  -2.7860  -2.7550
    -2.7075  -2.6433  -2.6216  -2.5999  -2.5541  -2.5268  -2.4747  -2.4338
    -2.3960  -2.3823  -2.3512  -2.3040  -2.2490  -2.1852  -2.1028  -2.0695
    -1.9128  -1.4256  -1.3456  -0.7446   2.0290   2.1436   2.2548   2.7984
     3.0862   3.9867   4.0539   4.1431   4.1509   4.1896   4.2487   4.3036
     4.3092   4.3529   4.3795   4.4852   4.5065   4.5177   4.6359   4.6872

          k = 0.0150 0.0082-0.6165 ( 45964 PWs)   bands (ev):

   -49.2198 -42.0470 -41.9542 -41.6163 -41.4193 -28.0032 -27.9742 -27.6090
   -26.5628 -26.4552 -26.1566 -26.1261 -22.1404 -22.1232 -22.0932 -22.0451
   -22.0311 -22.0099 -21.7168 -21.6939 -21.6753 -21.4853 -21.4646 -21.4372
   -10.7353 -10.6732 -10.6442 -10.6193 -10.5505 -10.4950 -10.2871 -10.2662
   -10.2456 -10.2314 -10.2183 -10.2085  -8.6290  -8.5187  -8.2084  -8.0458
    -7.9702  -7.9017  -7.8157  -7.7995  -7.7630  -7.6491  -7.6211  -7.4895
    -7.4199  -7.3597  -7.1802  -4.0492  -3.8172  -3.8027  -3.7517  -3.6854
    -3.6655  -3.5938  -3.5715  -3.4975  -3.4776  -3.4018  -3.3776  -3.3634
    -3.2677  -3.2046  -3.1839  -3.1510  -3.1307  -3.1088  -3.0926  -3.0379
    -3.0200  -2.9809  -2.9464  -2.9122  -2.8743  -2.8128  -2.7808  -2.7583
    -2.6902  -2.6556  -2.5978  -2.5760  -2.5397  -2.5163  -2.4808  -2.4565
    -2.4213  -2.3478  -2.3412  -2.3176  -2.2622  -2.1854  -2.0885  -2.0779
    -1.9154  -1.4231  -1.3473  -0.7484   2.0323   2.1440   2.2526   2.7738
     3.0850   4.0066   4.0369   4.1023   4.1452   4.1782   4.2257   4.3066
     4.3432   4.3638   4.4020   4.4443   4.4952   4.5826   4.6184   4.6436

          k = 0.0146-0.7909 0.6207 ( 45982 PWs)   bands (ev):

   -49.2198 -42.0470 -41.9542 -41.6163 -41.4193 -28.0032 -27.9742 -27.6090
   -26.5628 -26.4552 -26.1566 -26.1261 -22.1404 -22.1232 -22.0932 -22.0451
   -22.0311 -22.0099 -21.7168 -21.6939 -21.6753 -21.4853 -21.4646 -21.4372
   -10.7372 -10.6704 -10.6469 -10.6213 -10.5494 -10.4941 -10.2889 -10.2703
   -10.2530 -10.2220 -10.2180 -10.2074  -8.6051  -8.4794  -8.1858  -8.0726
    -7.9848  -7.8893  -7.8209  -7.7779  -7.7682  -7.6827  -7.6515  -7.4960
    -7.4181  -7.3696  -7.1945  -4.0471  -3.8103  -3.7770  -3.7672  -3.7478
    -3.6321  -3.5726  -3.5623  -3.5490  -3.4824  -3.4153  -3.3716  -3.3349
    -3.2827  -3.2222  -3.1965  -3.1649  -3.1396  -3.1298  -3.0844  -3.0198
    -2.9792  -2.9732  -2.9480  -2.8716  -2.8506  -2.8112  -2.7372  -2.7323
    -2.7053  -2.6619  -2.6267  -2.5655  -2.5312  -2.4927  -2.4817  -2.4638
    -2.3967  -2.3697  -2.3177  -2.2771  -2.2597  -2.2313  -2.1140  -2.0749
    -1.9240  -1.4006  -1.3620  -0.7462   2.0163   2.1196   2.2535   2.8008
     3.0762   3.9087   3.9684   4.0492   4.1203   4.1493   4.2213   4.3034
     4.3353   4.3493   4.3784   4.4285   4.5048   4.5424   4.6815   4.7183

          k = 0.0295-0.7828 0.0042 ( 46038 PWs)   bands (ev):

   -49.2198 -42.0470 -41.9542 -41.6163 -41.4193 -28.0032 -27.9742 -27.6090
   -26.5628 -26.4552 -26.1566 -26.1261 -22.1404 -22.1232 -22.0932 -22.0451
   -22.0311 -22.0099 -21.7168 -21.6939 -21.6753 -21.4853 -21.4646 -21.4372
   -10.7364 -10.6695 -10.6475 -10.6211 -10.5490 -10.4940 -10.2882 -10.2696
   -10.2525 -10.2222 -10.2187 -10.2073  -8.6228  -8.4942  -8.1945  -8.0511
    -8.0139  -7.8592  -7.8004  -7.7851  -7.7594  -7.6728  -7.6495  -7.5148
    -7.4132  -7.3671  -7.1910  -4.0362  -3.8400  -3.7774  -3.7562  -3.7398
    -3.6618  -3.5649  -3.5591  -3.4975  -3.4645  -3.4320  -3.3785  -3.3636
    -3.3243  -3.2949  -3.2286  -3.1772  -3.1316  -3.1108  -3.0877  -3.0093
    -2.9898  -2.9566  -2.8820  -2.8677  -2.8176  -2.7870  -2.7527  -2.7372
    -2.7135  -2.6564  -2.5987  -2.5389  -2.5197  -2.5161  -2.4964  -2.4198
    -2.4075  -2.3874  -2.3169  -2.2771  -2.2607  -2.2380  -2.1263  -2.0940
    -1.9315  -1.4104  -1.3583  -0.7436   2.0136   2.1198   2.2580   2.8183
     3.0742   3.9453   3.9932   4.1025   4.1434   4.1680   4.2153   4.2903
     4.3249   4.3695   4.3858   4.4207   4.5048   4.5402   4.6661   4.7227

          k =-0.5016 0.0196 0.0128 ( 45986 PWs)   bands (ev):

   -49.2198 -42.0470 -41.9542 -41.6163 -41.4193 -28.0032 -27.9742 -27.6090
   -26.5628 -26.4552 -26.1566 -26.1261 -22.1404 -22.1232 -22.0932 -22.0451
   -22.0311 -22.0099 -21.7168 -21.6939 -21.6753 -21.4853 -21.4646 -21.4372
   -10.7349 -10.6728 -10.6442 -10.6190 -10.5498 -10.4946 -10.2872 -10.2664
   -10.2452 -10.2318 -10.2181 -10.2073  -8.6570  -8.5189  -8.2159  -8.0375
    -7.9685  -7.8797  -7.8075  -7.7871  -7.7781  -7.6521  -7.6278  -7.4871
    -7.4163  -7.3575  -7.1734  -4.0330  -3.8364  -3.8000  -3.7598  -3.6952
    -3.6608  -3.6049  -3.5724  -3.4891  -3.4638  -3.4076  -3.4026  -3.3612
    -3.3140  -3.2408  -3.1644  -3.1434  -3.1291  -3.0904  -3.0489  -3.0426
    -2.9945  -2.9753  -2.9586  -2.9057  -2.8963  -2.8298  -2.7600  -2.7269
    -2.7045  -2.6367  -2.6172  -2.5768  -2.5700  -2.5115  -2.4783  -2.4429
    -2.3999  -2.3842  -2.3436  -2.2961  -2.2719  -2.1797  -2.0983  -2.0764
    -1.9104  -1.4247  -1.3491  -0.7479   2.0297   2.1434   2.2580   2.7964
     3.0834   4.0069   4.0556   4.1203   4.1544   4.2043   4.2632   4.2799
     4.2902   4.3598   4.4275   4.4734   4.4904   4.5027   4.6802   4.7308

          k =-0.4866 0.0278-0.6037 ( 46036 PWs)   bands (ev):

   -49.2198 -42.0470 -41.9542 -41.6163 -41.4193 -28.0032 -27.9742 -27.6090
   -26.5628 -26.4552 -26.1566 -26.1261 -22.1404 -22.1232 -22.0932 -22.0451
   -22.0311 -22.0099 -21.7168 -21.6939 -21.6753 -21.4853 -21.4646 -21.4372
   -10.7353 -10.6732 -10.6442 -10.6193 -10.5505 -10.4949 -10.2872 -10.2664
   -10.2457 -10.2314 -10.2184 -10.2085  -8.6281  -8.5107  -8.2283  -8.0465
    -7.9697  -7.9065  -7.7976  -7.7835  -7.7683  -7.6616  -7.6195  -7.4913
    -7.4202  -7.3587  -7.1805  -4.0452  -3.8335  -3.8027  -3.7679  -3.6971
    -3.6414  -3.5677  -3.5324  -3.4966  -3.4616  -3.4253  -3.3999  -3.3526
    -3.3054  -3.2419  -3.2122  -3.1635  -3.1320  -3.1132  -3.0767  -3.0134
    -2.9848  -2.9646  -2.9453  -2.9096  -2.8800  -2.7990  -2.7810  -2.7152
    -2.6946  -2.6701  -2.6155  -2.5913  -2.5348  -2.5185  -2.4961  -2.4340
    -2.4240  -2.3689  -2.3535  -2.2902  -2.2608  -2.1990  -2.0839  -2.0717
    -1.9177  -1.4219  -1.3510  -0.7500   2.0329   2.1439   2.2566   2.7715
     3.0827   3.9693   4.0337   4.0778   4.1428   4.2256   4.2339   4.3355
     4.3446   4.4038   4.4245   4.4566   4.4691   4.5507   4.6320   4.7244

          k =-0.4870-0.7713 0.6335 ( 45956 PWs)   bands (ev):

   -49.2198 -42.0470 -41.9542 -41.6163 -41.4193 -28.0032 -27.9742 -27.6090
   -26.5628 -26.4552 -26.1566 -26.1261 -22.1404 -22.1232 -22.0932 -22.0451
   -22.0311 -22.0099 -21.7168 -21.6939 -21.6753 -21.4853 -21.4646 -21.4372
   -10.7372 -10.6704 -10.6469 -10.6213 -10.5494 -10.4940 -10.2889 -10.2703
   -10.2530 -10.2221 -10.2180 -10.2074  -8.6051  -8.4784  -8.1888  -8.0677
    -7.9921  -7.8749  -7.8304  -7.7871  -7.7621  -7.6761  -7.6546  -7.4966
    -7.4188  -7.3692  -7.1941  -4.0461  -3.8300  -3.7702  -3.7561  -3.7422
    -3.6423  -3.5845  -3.5641  -3.5049  -3.4337  -3.4252  -3.3896  -3.3384
    -3.3103  -3.2779  -3.2018  -3.1793  -3.1377  -3.1306  -3.0572  -3.0218
    -3.0067  -2.9483  -2.9257  -2.8791  -2.8256  -2.8098  -2.7478  -2.7275
    -2.6925  -2.6731  -2.5943  -2.5656  -2.5556  -2.4996  -2.4541  -2.4426
    -2.4122  -2.3801  -2.3365  -2.2793  -2.2651  -2.2208  -2.1238  -2.0720
    -1.9243  -1.4003  -1.3646  -0.7471   2.0169   2.1207   2.2551   2.8012
     3.0707   3.8698   4.0286   4.0762   4.1294   4.1723   4.2244   4.2914
     4.3142   4.3391   4.3683   4.4574   4.4789   4.5595   4.6421   4.7063

          k =-0.4720-0.7632 0.0169 ( 45996 PWs)   bands (ev):

   -49.2198 -42.0470 -41.9542 -41.6163 -41.4193 -28.0032 -27.9742 -27.6090
   -26.5628 -26.4552 -26.1566 -26.1261 -22.1404 -22.1232 -22.0932 -22.0451
   -22.0311 -22.0099 -21.7168 -21.6939 -21.6753 -21.4853 -21.4646 -21.4372
   -10.7364 -10.6695 -10.6475 -10.6210 -10.5490 -10.4939 -10.2882 -10.2696
   -10.2525 -10.2222 -10.2187 -10.2073  -8.6222  -8.4924  -8.2010  -8.0550
    -8.0032  -7.8626  -7.8038  -7.7870  -7.7558  -7.6675  -7.6506  -7.5151
    -7.4145  -7.3671  -7.1911  -4.0373  -3.8217  -3.7748  -3.7497  -3.7374
    -3.6527  -3.6076  -3.5823  -3.5230  -3.4668  -3.4142  -3.3752  -3.3456
    -3.3044  -3.2881  -3.2075  -3.1660  -3.1279  -3.1159  -3.1096  -3.0277
    -3.0064  -2.9672  -2.9148  -2.8480  -2.7932  -2.7918  -2.7509  -2.7259
    -2.6971  -2.6506  -2.6093  -2.5532  -2.5262  -2.4852  -2.4745  -2.4309
    -2.4181  -2.3921  -2.3154  -2.2751  -2.2636  -2.2523  -2.1227  -2.0879
    -1.9346  -1.4099  -1.3616  -0.7460   2.0141   2.1212   2.2589   2.8167
     3.0724   3.9261   4.0105   4.1093   4.1552   4.1780   4.2304   4.2798
     4.3302   4.3935   4.3956   4.4406   4.5003   4.5362   4.6219   4.6508

     the Fermi energy is     0.7239 ev

!    total energy              =   -1652.43029670 Ry
     estimated scf accuracy    <       0.00000008 Ry
     smearing contrib. (-TS)   =       0.00000000 Ry
     internal energy E=F+TS    =   -1652.43029670 Ry

     The total energy is F=E-TS. E is the sum of the following terms:
     one-electron contribution =    -482.45406148 Ry
     hartree contribution      =     276.60008758 Ry
     xc contribution           =    -268.35710580 Ry
     ewald contribution        =    -371.83829322 Ry
     one-center paw contrib.   =    -806.38092377 Ry

     convergence has been achieved in  10 iterations

     negative rho (up, down):  1.768E-01 0.000E+00

     Forces acting on atoms (cartesian axes, Ry/au):

     atom    1 type  3   force =    -0.01329252    0.00197908   -0.00964752
     atom    2 type  3   force =     0.00029689   -0.00083004    0.00136529
     atom    3 type  3   force =    -0.00491733   -0.01224601    0.00143553
     atom    4 type  3   force =    -0.00206826    0.00141256   -0.00210740
     atom    5 type  5   force =    -0.00084511    0.00135065    0.00998380
     atom    6 type  5   force =     0.00266231   -0.01121190   -0.01078866
     atom    7 type  5   force =     0.00741206    0.00760451   -0.00400247
     atom    8 type  5   force =    -0.01829410   -0.00346829    0.01590868
     atom    9 type  1   force =    -0.00505976   -0.00290623   -0.00886801
     atom   10 type  1   force =     0.00344670    0.00063396    0.00305390
     atom   11 type  4   force =     0.00394969    0.00293633   -0.00290934
     atom   12 type  1   force =    -0.00295797   -0.00091266   -0.00421921
     atom   13 type  1   force =    -0.00036839    0.00392284   -0.00356010
     atom   14 type  1   force =    -0.00462688   -0.00753854   -0.00321204
     atom   15 type  1   force =     0.00290036    0.00015858    0.00464895
     atom   16 type  1   force =    -0.00120495    0.00984320   -0.00727851
     atom   17 type  1   force =     0.00996304   -0.00758315    0.00146497
     atom   18 type  1   force =     0.00923108    0.00836716   -0.00810257
     atom   19 type  1   force =    -0.00629918    0.00238145   -0.00072494
     atom   20 type  1   force =    -0.01032326   -0.00569679    0.00524897
     atom   21 type  1   force =    -0.00268311    0.00380313    0.00285566
     atom   22 type  1   force =    -0.00120561   -0.00205297    0.00304941
     atom   23 type  1   force =     0.00389036   -0.00193146    0.00064662
     atom   24 type  1   force =    -0.00026384    0.00299350    0.00241389
     atom   25 type  2   force =    -0.00636793   -0.00550987   -0.00256026
     atom   26 type  2   force =     0.00185937    0.00005475   -0.00185730
     atom   27 type  2   force =     0.02114597    0.01340983    0.01071737
     atom   28 type  2   force =    -0.00140024   -0.00024123    0.00166904
     atom   29 type  2   force =    -0.00171191   -0.00203258   -0.00219087
     atom   30 type  2   force =     0.00182276    0.00039883    0.00104697
     atom   31 type  2   force =     0.00389262    0.00653362    0.00072514
     atom   32 type  2   force =    -0.00074423   -0.00037878   -0.00144308
     atom   33 type  2   force =    -0.00658647   -0.00230337   -0.00162155
     atom   34 type  2   force =    -0.00018243   -0.00005856   -0.00120081
     atom   35 type  2   force =     0.00807236    0.00306658    0.00244646
     atom   36 type  2   force =     0.00112109    0.00040873    0.00142165
     atom   37 type  2   force =    -0.00413374    0.00113544    0.00218790
     atom   38 type  2   force =    -0.00293184   -0.00305218   -0.00366136
     atom   39 type  2   force =    -0.00219754    0.00094294    0.00456331
     atom   40 type  2   force =     0.00337029    0.00359159    0.00482996
     atom   41 type  2   force =    -0.00044768    0.00204512   -0.00378935
     atom   42 type  2   force =    -0.00025237   -0.00506947    0.00463705
     atom   43 type  2   force =     0.00076118   -0.00047643    0.00370218
     atom   44 type  2   force =     0.00064339    0.00152650   -0.00403001
     atom   45 type  2   force =     0.00281160    0.00104219   -0.00031314
     atom   46 type  2   force =    -0.00091064    0.00457695    0.00196452
     atom   47 type  2   force =     0.00055578    0.00258707   -0.00037884
     atom   48 type  2   force =     0.00869471   -0.00443577   -0.00128514
     atom   49 type  2   force =    -0.00178524    0.00482504    0.00038496
     atom   50 type  2   force =     0.00033698   -0.00149015    0.00151549
     atom   51 type  2   force =    -0.00040695   -0.00367003   -0.00031028
     atom   52 type  2   force =     0.00173326    0.00167230   -0.00080191
     atom   53 type  2   force =    -0.00265186   -0.00207820   -0.00517456
     atom   54 type  2   force =    -0.00067849    0.00354783    0.00571951
     atom   55 type  2   force =    -0.00187402   -0.00267896    0.00003586
     atom   56 type  2   force =     0.00591471   -0.00702706   -0.00461780
     atom   57 type  2   force =    -0.00145852   -0.00061069    0.00025615
     atom   58 type  2   force =    -0.00386932    0.00131493    0.00318990
     atom   59 type  2   force =     0.00330631    0.00231745   -0.00121553
     atom   60 type  2   force =     0.00380934    0.00145576    0.00118439
     atom   61 type  2   force =    -0.00133113   -0.00283022   -0.00020845
     atom   62 type  2   force =    -0.00484903   -0.00166058    0.00295944
     atom   63 type  2   force =    -0.00326477   -0.00321414   -0.00041637
     atom   64 type  2   force =     0.00604947    0.00220616    0.00038032
     atom   65 type  2   force =    -0.00193979   -0.00269311   -0.00409503
     atom   66 type  2   force =    -0.00467122    0.00232564    0.00425734
     atom   67 type  2   force =    -0.00124114    0.00030837    0.00056967
     atom   68 type  2   force =     0.00619756   -0.00008434   -0.00383373
     atom   69 type  2   force =     0.00311030    0.00030932    0.00093520
     atom   70 type  2   force =    -0.00453525    0.00283682    0.00434112
     atom   71 type  2   force =     0.00327674   -0.00003553   -0.00143152
     atom   72 type  2   force =     0.00478995   -0.00071210   -0.00085871
     atom   73 type  2   force =     0.00016913   -0.00047669   -0.00049669
     atom   74 type  2   force =    -0.00013190    0.00098590    0.00076212
     atom   75 type  2   force =     0.00028768    0.00031741    0.00299054
     atom   76 type  2   force =    -0.00076650   -0.00123412   -0.00232471
     atom   77 type  2   force =    -0.00258257   -0.00338049    0.00147859
     atom   78 type  2   force =     0.00092638    0.00674259    0.00139817
     atom   79 type  2   force =    -0.00004796    0.00235590   -0.00323051
     atom   80 type  2   force =    -0.00079721   -0.00683972   -0.00238373
     atom   81 type  2   force =     0.00150052    0.00081517    0.00062285
     atom   82 type  2   force =     0.00137095   -0.00027900   -0.00055208
     atom   83 type  2   force =    -0.00704525   -0.00153978   -0.00233780
     atom   84 type  2   force =    -0.00151714    0.00112247    0.00002216
     atom   85 type  2   force =     0.00409412    0.00239311    0.00535495
     atom   86 type  2   force =     0.00336030   -0.00080767   -0.00481378
     atom   87 type  2   force =     0.00021987   -0.00309301   -0.00226923
     atom   88 type  2   force =     0.00076539   -0.00018742    0.00077893

     Total force =     0.071360     Total SCF correction =     0.000556


     Computing stress (Cartesian axis) and pressure


     negative rho (up, down):  1.768E-01 0.000E+00
          total   stress  (Ry/bohr**3)                   (kbar)     P=        2.09
   0.00001360  -0.00000669  -0.00000169            2.00       -0.98       -0.25
  -0.00000669   0.00001888  -0.00002248           -0.98        2.78       -3.31
  -0.00000169  -0.00002248   0.00001009           -0.25       -3.31        1.48


     BFGS Geometry Optimization
     Energy error            =      5.4E-03 Ry
     Gradient error          =      2.1E-02 Ry/Bohr
     Cell gradient error     =      3.3E+00 kbar

     number of scf cycles    =   1
     number of bfgs steps    =   0

     enthalpy           new  =   -1652.4302966968 Ry

     new trust radius        =       0.0272366919 bohr
     new conv_thr            =       0.0000010000 Ry

     new unit-cell volume =   7710.97268 a.u.^3 (  1142.64826 Ang^3 )
     density =      0.12788 g/cm^3

CELL_PARAMETERS (angstrom)
  13.007689214   0.490432961   0.321666836
   0.327138925   8.331508436   0.113533083
   0.598609472   8.391910670  10.680110727

ATOMIC_POSITIONS (angstrom)
Rb              13.0842233215       10.9796691708        9.1811529250
Rb               6.6004575742       10.6678125251        7.3479829946
Rb               0.6633774268        6.0549080970        1.8973943896
Rb               7.3273023198        6.5586485736        3.7746559439
Y                9.6823418140       14.9967256032        9.2369873835
Y                2.7320447070        6.4017483289        7.1674531049
Y                4.3028977510        2.2522137855        1.8986566786
Y               11.1995661981       10.8004274722        3.9490068630
B               11.7054022297       16.1079151406       10.1597603932
B                4.7759663273        5.3457501885        6.3093607178
Sc               1.7705789065        0.9204027082        0.7333304895
B                9.1574165839       11.8647656536        4.8027073345
B                8.5115521623        7.8234623083        7.1255080601
B                2.2923090311       13.4750202668        9.2479340921
B                5.4793693868        9.4089604398        4.0454459395
B               11.6346320860        3.7425686774        1.8576649211
B               10.1224378272       12.6695919095        8.5793129609
B                3.4197699492        8.6866529903        7.8388904838
B                3.8626828323        4.6225642213        2.5655235712
B               10.5165422697        8.5196334476        3.2687252886
B                7.8594890077       14.9039584908       10.8735847785
B                0.9298237395        6.3179979130        5.4794288371
B                6.1663880326        2.3377263050        0.2459487203
B               12.9974839289       10.8950261672        5.6453669736
H               12.6888179366       16.6447854424       10.5968893840
H                5.7753074189        4.8314036626        5.8738887139
H                0.2389313107        0.0041521553        0.0748158074
H                8.1581756434       12.3801589196        5.2391390177
H               11.2255569900       15.3126799095       10.9824268979
H                4.2834890320        6.1360674831        5.4904923962
H                2.9255041890        2.2005795645        0.0690687070
H                9.6498176567       11.0755794495        5.6243387608
H               10.5127427814        8.6219815983        9.7870094032
H                4.2325745286       12.8281710876        6.6694630361
H                3.6473755081        8.4520718114        1.4239747935
H                9.7001639812        4.3838740850        4.4431068287
H               11.9653998216       15.4852553087        9.1173639934
H                5.0102134836        5.9664648660        7.3565825048
H                2.1416363981        1.8916934346        2.2757312950
H                8.9231129043       11.2430445964        3.7569775370
H                8.1037858823        8.4026513507        6.1523375596
H                1.8687642585       12.8943344002       10.2141300614
H                5.8494771670        8.7982760984        5.0187534330
H               12.0540934042        4.3333496918        0.9001182304
H                7.6211773091        7.1316209424        7.6398299976
H                1.3971990012       14.1565136038        8.7365507081
H                6.3859085345       10.0897736342        3.5578378647
H               12.5320433173        3.0470675591        2.3724828167
H                9.4579712983        7.0742479494        6.8430242608
H                3.2413814735       14.2206028438        9.5360145619
H                4.5369153317       10.1636646977        4.3144674200
H               10.6935180932        2.9955246161        1.5718604840
H                8.9148066049        8.6231622655        7.9890091395
H                2.6845671629       12.6890659840        8.3733859263
H                5.0985996771        8.6254327722        3.1666374940
H               11.2430429016        4.5296489642        2.7334761089
H               10.3644223792       11.5313167968        8.2726710192
H                3.7293163530        9.8207258141        8.0918449878
H                3.5593500501        5.7540438836        2.8602426340
H               10.2208099973        7.3902261224        2.9685465198
H               10.8140038051       13.4706046570        7.9280472988
H                4.0790059631        7.8656241788        8.4890802491
H                3.2211970792        3.8186541601        3.2500038653
H                9.8623093636        9.3451525866        2.6195424292
H               10.3564544544       12.8806847509        9.7834586595
H                3.6235164737        8.4448193204        6.6414775984
H                3.6365673157        4.3888627176        1.3673475915
H               10.3056325101        8.7447609488        4.4722656299
H                8.9290019286       12.9585040274        8.3819640985
H                2.2083504376        8.4617460182        8.0419770660
H                5.0612414297        4.3709974750        2.7590950470
H               11.7272701524        8.7538347470        3.0557108845
H                6.3724105428        6.5241368845        1.0062966058
H               13.0476471047        6.7668749924        4.9859268727
H                7.6243987615       10.6834646488       10.0764363527
H                0.8889786611       10.4446533979        6.1270654717
H                8.3218898024       16.0475892685       10.6910793186
H                1.4064022151        5.1864764748        5.6910076219
H                5.6794662561        1.2069827238        0.4433253212
H               12.5299253514       12.0286932162        5.4280645728
H                8.2130518670        5.7862590217        0.5376965555
H                1.8650832892        7.0584465018        5.1228028220
H                5.8457828586       11.4996081545       10.6086316507
H               12.0607276785       10.1613206793        6.0090625686
H                7.4594715642       14.4806094876        9.7770427404
H                0.5048306662        6.7545462661        6.5629596020
H                6.5945293579        2.7504097054        1.3301290089
H               13.4021137728       10.4418111946        4.5598527254



     Writing config-only to output data dir ./tmp/Rb4Y4ScB15H64.save/ :
     XML data file
     NEW-OLD atomic charge density approx. for the potential
     New effective cutoffs (rho, wfc):  400.15   50.01

     Check: negative core charge=   -0.000001

     negative rho (up, down):  1.765E-01 0.000E+00
