
     Program PWSCF v.6.1 starts on 24Nov2025 at 22: 3:49 

     This program is part of the open-source Quantum ESPRESSO suite
     for quantum simulation of materials; please cite
         "P. Giannozzi et al., J. Phys.:Condens. Matter 21 395502 (2009);
          URL http://www.quantum-espresso.org", 
     in publications or presentations arising from this work. More details at
     http://www.quantum-espresso.org/quote

     Parallel version (MPI & OpenMP), running on      12 processor cores
     Number of MPI processes:                 1
     Threads/MPI process:                    12
     Waiting for input...
     Reading input from standard input

     Current dimensions of program PWSCF are:
     Max number of different atomic species (ntypx) = 10
     Max number of k-points (npk) =  40000
     Max angular momentum in pseudopotentials (lmaxx) =  3
               file H.UPF: wavefunction(s)  1S renormalized

     Subspace diagonalization in iterative solution of the eigenvalue problem:
     a serial algorithm will be used


     G-vector sticks info
     --------------------
     sticks:   dense  smooth     PW     G-vecs:    dense   smooth      PW
     Sum       12141    6053   1635              1001071   353881   49649



     bravais-lattice index     =            0
     lattice parameter (alat)  =      19.5387  a.u.
     unit-cell volume          =    7410.5465 (a.u.)^3
     number of atoms/cell      =           89
     number of atomic types    =            3
     number of electrons       =       105.00
     number of Kohn-Sham states=           64
     kinetic-energy cutoff     =      50.0000  Ry
     charge density cutoff     =     400.0000  Ry
     convergence threshold     =      1.0E-08
     mixing beta               =       0.7000
     number of iterations used =            8  plain     mixing
     Exchange-correlation      =  SLA  PW   PBE  PBE ( 1  4  3  4 0 0)

     celldm(1)=  19.538675  celldm(2)=   0.000000  celldm(3)=   0.000000
     celldm(4)=   0.000000  celldm(5)=   0.000000  celldm(6)=   0.000000

     crystal axes: (cart. coord. in units of alat)
               a(1) = (   0.999988  -0.002391   0.004216 )  
               a(2) = (  -0.002384   0.998571   0.004112 )  
               a(3) = (   0.004198   0.004109   0.994967 )  

     reciprocal axes: (cart. coord. in units 2 pi/alat)
               b(1) = (  1.000035  0.002405 -0.004229 )  
               b(2) = (  0.002412  1.001454 -0.004146 )  
               b(3) = ( -0.004247 -0.004149  1.005094 )  


     PseudoPot. # 1 for  B read from file:
     C:/Users/Acer/Desktop/Quantum_Espresso/pseudo/B.UPF
     MD5 check sum: d9c678ba5d3b2fd7b74e61139c9288d8
     Pseudo is Projector augmented-wave + core cor, Zval =  3.0
     Generated using "atomic" code by A. Dal Corso  v.5.1.2
     Shape of augmentation charge: PSQ
     Using radial grid of 1059 points,  4 beta functions with: 
                l(1) =   0
                l(2) =   0
                l(3) =   1
                l(4) =   1
     Q(r) pseudized with 0 coefficients 


     PseudoPot. # 2 for  H read from file:
     C:/Users/Acer/Desktop/Quantum_Espresso/pseudo/H.UPF
     MD5 check sum: 850d63dcbcc06c5de8b44e0ab9f952da
     Pseudo is Projector augmented-wave, Zval =  1.0
     Generated using "atomic" code by A. Dal Corso  v.5.1.2
     Shape of augmentation charge: PSQ
     Using radial grid of  929 points,  2 beta functions with: 
                l(1) =   0
                l(2) =   0
     Q(r) pseudized with 0 coefficients 


     PseudoPot. # 3 for Y  read from file:
     C:/Users/Acer/Desktop/Quantum_Espresso/pseudo/Y.UPF
     MD5 check sum: e11e343c2e9fd2e6ee9cb5aa0e490caa
     Pseudo is Ultrasoft + core correction, Zval = 11.0
     Generated by new atomic code, or converted to UPF format
     Using radial grid of  885 points,  6 beta functions with: 
                l(1) =   0
                l(2) =   0
                l(3) =   1
                l(4) =   1
                l(5) =   2
                l(6) =   2
     Q(r) pseudized with  6 coefficients,  rinner =    1.200   1.200   1.200
                                                       1.200   1.200

     atomic species   valence    mass     pseudopotential
        B              3.00     1.00000      B( 1.00)
        H              1.00     1.00000      H( 1.00)
        Y             11.00     1.00000     Y ( 1.00)

     No symmetry found



   Cartesian axes

     site n.     atom                  positions (alat units)
         1           Y   tau(   1) = (   0.9201347   0.4230778   0.5888037  )
         2           B   tau(   2) = (   0.5377119   0.3059388   0.4791051  )
         3           B   tau(   3) = (   0.6809772   0.6646600   0.2482508  )
         4           B   tau(   4) = (   0.3377645   0.4786041   0.7036893  )
         5           H   tau(   5) = (   0.5294455   0.3821258   0.5747778  )
         6           H   tau(   6) = (   0.1700521   0.2385153   0.5405699  )
         7           H   tau(   7) = (   0.7749631   0.1994028   0.4261941  )
         8           H   tau(   8) = (   0.8893505   0.4869992   0.3183621  )
         9           H   tau(   9) = (   0.7889155   0.3972408   0.3872605  )
        10           H   tau(  10) = (   0.4289099   0.1857618   0.5940942  )
        11           H   tau(  11) = (   0.7212309   0.4021995   0.3007306  )
        12           H   tau(  12) = (   0.6783581   0.3399107   0.3409224  )
        13           H   tau(  13) = (   0.3190111   0.3977273   0.1107470  )
        14           H   tau(  14) = (   0.1709873   0.3423277   0.7201167  )
        15           H   tau(  15) = (   0.1985092   0.5833266   0.3209435  )
        16           H   tau(  16) = (   0.2761218   0.8850350   0.7792206  )
        17           H   tau(  17) = (   0.7636162   0.8324421   0.3003746  )
        18           H   tau(  18) = (   0.7656192   0.4557847   0.7989238  )
        19           H   tau(  19) = (   0.9110181   0.3103974   0.4205970  )
        20           H   tau(  20) = (   0.8652825   0.6993825   0.8751602  )
        21           H   tau(  21) = (   0.1332724   0.6876226   0.4342003  )
        22           H   tau(  22) = (   0.3839064   0.6321098   0.1737360  )
        23           H   tau(  23) = (   0.7556235   0.6978427   0.7968695  )
        24           H   tau(  24) = (   0.2450901   0.7713101   0.2928636  )
        25           H   tau(  25) = (   0.3602358   0.1727621   0.6422980  )
        26           H   tau(  26) = (   0.1688731   0.1360618   0.5880039  )
        27           H   tau(  27) = (   0.2773734   0.1937594   0.7450891  )
        28           H   tau(  28) = (   0.8203399   0.2172810   0.5394606  )
        29           H   tau(  29) = (   0.2763375   0.2381342   0.6620854  )
        30           H   tau(  30) = (   0.2595368   0.2802710   0.5323238  )
        31           H   tau(  31) = (   0.6412931   0.8365391   0.4289041  )
        32           H   tau(  32) = (   0.7897802   0.3036640   0.4219482  )
        33           H   tau(  33) = (   0.3056438   0.3105251   0.1887533  )
        34           H   tau(  34) = (   0.2299635   0.3926680   0.7737348  )
        35           H   tau(  35) = (   0.2594130   0.1206866   0.1813689  )
        36           H   tau(  36) = (   0.5661574   0.2964247   0.8095192  )
        37           H   tau(  37) = (   0.1721605   0.8592734   0.3172479  )
        38           H   tau(  38) = (   0.6276299   0.6724303   0.6594373  )
        39           H   tau(  39) = (   0.8215208   0.5350270   0.8318376  )
        40           H   tau(  40) = (   0.3662584   0.1876585   0.5171856  )
        41           H   tau(  41) = (   0.6330876   0.8932018   0.2144627  )
        42           H   tau(  42) = (   0.3573788   0.8516037   0.8567617  )
        43           H   tau(  43) = (   0.4030748   0.8277291   0.7949729  )
        44           H   tau(  44) = (   0.3475165   0.5512804   0.3419011  )
        45           H   tau(  45) = (   0.4795433   0.4085848   0.1473380  )
        46           H   tau(  46) = (   0.4118403   0.6307761   0.8416757  )
        47           H   tau(  47) = (   0.8204018   0.5176992   0.4541685  )
        48           H   tau(  48) = (   0.4350108   0.2027009   0.4317950  )
        49           H   tau(  49) = (   0.1962682   0.1198007   0.3845989  )
        50           H   tau(  50) = (   0.7314868   0.8445134   0.6596452  )
        51           H   tau(  51) = (   0.6443552   0.8019191   0.3617011  )
        52           H   tau(  52) = (   0.7177674   0.8453539   0.5843431  )
        53           H   tau(  53) = (   0.1385938   0.6626115   0.7094323  )
        54           H   tau(  54) = (   0.3547587   0.6904574   0.6691264  )
        55           H   tau(  55) = (   0.6969558   0.6697667   0.6131001  )
        56           H   tau(  56) = (   0.6837684   0.3207481   0.4717237  )
        57           H   tau(  57) = (   0.2474636   0.7632429   0.5895697  )
        58           H   tau(  58) = (   0.2074255   0.2688922   0.4505629  )
        59           H   tau(  59) = (   0.3615560   0.6725850   0.8208883  )
        60           H   tau(  60) = (   0.1424857   0.4506055   0.3987351  )
        61           H   tau(  61) = (   0.7916226   0.2337258   0.3315079  )
        62           H   tau(  62) = (   0.4677128   0.4225759   0.8838531  )
        63           H   tau(  63) = (   0.6922293   0.7375906   0.4221967  )
        64           H   tau(  64) = (   0.3460310   0.1792721   0.3975783  )
        65           H   tau(  65) = (   0.8157149   0.8350361   0.6545947  )
        66           H   tau(  66) = (   0.3297244   0.3924378   0.2273996  )
        67           H   tau(  67) = (   0.5707950   0.3225538   0.7485109  )
        68           H   tau(  68) = (   0.3439216   0.2828833   0.8440366  )
        69           H   tau(  69) = (   0.6984830   0.8254466   0.2336881  )
        70           H   tau(  70) = (   0.4256969   0.2635505   0.1437266  )
        71           H   tau(  71) = (   0.7339908   0.5987908   0.8409503  )
        72           H   tau(  72) = (   0.4115665   0.5803797   0.6144802  )
        73           H   tau(  73) = (   0.8581283   0.1899391   0.8813404  )
        74           H   tau(  74) = (   0.3520971   0.2231169   0.2501368  )
        75           H   tau(  75) = (   0.3121548   0.6960380   0.6021614  )
        76           H   tau(  76) = (   0.3266924   0.8422899   0.2439585  )
        77           H   tau(  77) = (   0.1611222   0.8897345   0.6461000  )
        78           H   tau(  78) = (   0.5139446   0.1315702   0.4429000  )
        79           H   tau(  79) = (   0.1049798   0.1649531   0.5479262  )
        80           H   tau(  80) = (   0.4875621   0.7620707   0.3422464  )
        81           H   tau(  81) = (   0.8888795   0.8148793   0.6871719  )
        82           H   tau(  82) = (   0.2232572   0.7517181   0.2123397  )
        83           H   tau(  83) = (   0.5995742   0.8737413   0.8435994  )
        84           H   tau(  84) = (   0.2062417   0.2579458   0.7851793  )
        85           H   tau(  85) = (   0.5436262   0.4050314   0.1238899  )
        86           H   tau(  86) = (   0.8844499   0.2328496   0.4967386  )
        87           H   tau(  87) = (   0.1642345   0.4304467   0.4671983  )
        88           H   tau(  88) = (   0.5012147   0.1145016   0.3099429  )
        89           H   tau(  89) = (   0.6133380   0.2186708   0.4469302  )

     number of k points=    36  Methfessel-Paxton smearing, width (Ry)=  0.0100
                       cart. coord. in units 2pi/alat
        k(    1) = (   0.0000000   0.0000000   0.0000000), wk =   0.0312500
        k(    2) = (  -0.0010618  -0.0010374   0.2512735), wk =   0.0625000
        k(    3) = (   0.0021237   0.0020747  -0.5025469), wk =   0.0312500
        k(    4) = (   0.0006030   0.2503634  -0.0010364), wk =   0.0625000
        k(    5) = (  -0.0004589   0.2493260   0.2502371), wk =   0.0625000
        k(    6) = (   0.0027266   0.2524381  -0.5035833), wk =   0.0625000
        k(    7) = (   0.0016648   0.2514007  -0.2523098), wk =   0.0625000
        k(    8) = (  -0.0012059  -0.5007268   0.0020728), wk =   0.0312500
        k(    9) = (  -0.0022678  -0.5017641   0.2533462), wk =   0.0625000
        k(   10) = (   0.0009178  -0.4986521  -0.5004742), wk =   0.0312500
        k(   11) = (   0.2500088   0.0006012  -0.0010572), wk =   0.0625000
        k(   12) = (   0.2489470  -0.0004361   0.2502162), wk =   0.0625000
        k(   13) = (   0.2521325   0.0026760  -0.5036041), wk =   0.0625000
        k(   14) = (   0.2510707   0.0016386  -0.2523307), wk =   0.0625000
        k(   15) = (   0.2506118   0.2509646  -0.0020936), wk =   0.0625000
        k(   16) = (   0.2495500   0.2499273   0.2491799), wk =   0.0625000
        k(   17) = (   0.2527355   0.2530393  -0.5046405), wk =   0.0625000
        k(   18) = (   0.2516736   0.2520020  -0.2533670), wk =   0.0625000
        k(   19) = (   0.2488029  -0.5001255   0.0010155), wk =   0.0625000
        k(   20) = (   0.2477411  -0.5011629   0.2522890), wk =   0.0625000
        k(   21) = (   0.2509266  -0.4980508  -0.5015314), wk =   0.0625000
        k(   22) = (   0.2498648  -0.4990882  -0.2502579), wk =   0.0625000
        k(   23) = (   0.2494059  -0.2497621  -0.0000208), wk =   0.0625000
        k(   24) = (   0.2483440  -0.2507995   0.2512526), wk =   0.0625000
        k(   25) = (   0.2515295  -0.2476874  -0.5025677), wk =   0.0625000
        k(   26) = (   0.2504677  -0.2487248  -0.2512943), wk =   0.0625000
        k(   27) = (  -0.5000177  -0.0012025   0.0021144), wk =   0.0312500
        k(   28) = (  -0.5010795  -0.0022398   0.2533879), wk =   0.0625000
        k(   29) = (  -0.4978940   0.0008722  -0.5004325), wk =   0.0312500
        k(   30) = (  -0.4994147   0.2491609   0.0010780), wk =   0.0625000
        k(   31) = (  -0.5004765   0.2481235   0.2523515), wk =   0.0625000
        k(   32) = (  -0.4972910   0.2512356  -0.5014689), wk =   0.0625000
        k(   33) = (  -0.4983529   0.2501982  -0.2501954), wk =   0.0625000
        k(   34) = (  -0.5012236  -0.5019293   0.0041872), wk =   0.0312500
        k(   35) = (  -0.5022854  -0.5029666   0.2554606), wk =   0.0625000
        k(   36) = (  -0.4990999  -0.4998545  -0.4983597), wk =   0.0312500

     Dense  grid:  1001071 G-vectors     FFT dimensions: ( 125, 125, 125)

     Smooth grid:   353881 G-vectors     FFT dimensions: (  90,  90,  90)

     Estimated max dynamical RAM per process >    2650.34MB

     Initial potential from superposition of free atoms
     Check: negative starting charge=   -0.043946

     starting charge  104.99387, renormalised to  105.00000

     negative rho (up, down):  4.395E-02 0.000E+00
     Starting wfc are  110 randomized atomic wfcs
     Checking if some PAW data can be deallocated... 

     total cpu time spent up to now is      272.7 secs

     Self-consistent Calculation

     iteration #  1     ecut=    50.00 Ry     beta=0.70
     Davidson diagonalization with overlap
     ethr =  1.00E-02,  avg # of iterations =  2.0

     negative rho (up, down):  4.410E-02 0.000E+00

     total cpu time spent up to now is      551.1 secs

     total energy              =    -212.77620244 Ry
     Harris-Foulkes estimate   =    -214.95618544 Ry
     estimated scf accuracy    <       3.67840737 Ry

     iteration #  2     ecut=    50.00 Ry     beta=0.70
     Davidson diagonalization with overlap
     ethr =  3.50E-03,  avg # of iterations =  4.2

     negative rho (up, down):  4.302E-02 0.000E+00

     total cpu time spent up to now is      892.4 secs

     total energy              =    -210.57422188 Ry
     Harris-Foulkes estimate   =    -217.24853602 Ry
     estimated scf accuracy    <      23.78638054 Ry

     iteration #  3     ecut=    50.00 Ry     beta=0.70
     Davidson diagonalization with overlap
     ethr =  3.50E-03,  avg # of iterations =  5.0

     negative rho (up, down):  4.289E-02 0.000E+00

     total cpu time spent up to now is     1418.9 secs

     total energy              =    -213.14324201 Ry
     Harris-Foulkes estimate   =    -214.93490288 Ry
     estimated scf accuracy    <       6.97668681 Ry

     iteration #  4     ecut=    50.00 Ry     beta=0.70
     Davidson diagonalization with overlap
     ethr =  3.50E-03,  avg # of iterations =  3.4

     negative rho (up, down):  4.279E-02 0.000E+00

     total cpu time spent up to now is     1776.3 secs

     total energy              =    -213.76815969 Ry
     Harris-Foulkes estimate   =    -214.43036566 Ry
     estimated scf accuracy    <       2.62570983 Ry

     iteration #  5     ecut=    50.00 Ry     beta=0.70
     Davidson diagonalization with overlap
     ethr =  2.50E-03,  avg # of iterations =  3.0

     negative rho (up, down):  4.275E-02 0.000E+00

     total cpu time spent up to now is     2119.6 secs

     total energy              =    -213.88085749 Ry
     Harris-Foulkes estimate   =    -214.30715811 Ry
     estimated scf accuracy    <       1.92403093 Ry

     iteration #  6     ecut=    50.00 Ry     beta=0.70
     Davidson diagonalization with overlap
     ethr =  1.83E-03,  avg # of iterations =  1.9

     negative rho (up, down):  4.279E-02 0.000E+00

     total cpu time spent up to now is     2434.8 secs

     total energy              =    -213.97547845 Ry
     Harris-Foulkes estimate   =    -214.18266432 Ry
     estimated scf accuracy    <       1.10796243 Ry

     iteration #  7     ecut=    50.00 Ry     beta=0.70
     Davidson diagonalization with overlap
     ethr =  1.06E-03,  avg # of iterations =  1.3

     negative rho (up, down):  4.286E-02 0.000E+00

     total cpu time spent up to now is     2737.0 secs

     total energy              =    -214.06011928 Ry
     Harris-Foulkes estimate   =    -214.10813533 Ry
     estimated scf accuracy    <       0.20894874 Ry

     iteration #  8     ecut=    50.00 Ry     beta=0.70
     Davidson diagonalization with overlap
     ethr =  1.99E-04,  avg # of iterations =  5.2

     negative rho (up, down):  4.288E-02 0.000E+00

     total cpu time spent up to now is     3115.0 secs

     total energy              =    -214.07668551 Ry
     Harris-Foulkes estimate   =    -214.10479627 Ry
     estimated scf accuracy    <       0.23522084 Ry

     iteration #  9     ecut=    50.00 Ry     beta=0.70
     Davidson diagonalization with overlap
     ethr =  1.99E-04,  avg # of iterations =  1.2

     negative rho (up, down):  4.292E-02 0.000E+00

     total cpu time spent up to now is     3360.0 secs

     total energy              =    -214.08009943 Ry
     Harris-Foulkes estimate   =    -214.08797754 Ry
     estimated scf accuracy    <       0.04618441 Ry

     iteration # 10     ecut=    50.00 Ry     beta=0.70
     Davidson diagonalization with overlap
     ethr =  4.40E-05,  avg # of iterations =  5.0

     negative rho (up, down):  4.298E-02 0.000E+00

     total cpu time spent up to now is     3582.8 secs

     total energy              =    -214.07842480 Ry
     Harris-Foulkes estimate   =    -214.09095430 Ry
     estimated scf accuracy    <       0.15944764 Ry

     iteration # 11     ecut=    50.00 Ry     beta=0.70
     Davidson diagonalization with overlap
     ethr =  4.40E-05,  avg # of iterations =  1.0

     negative rho (up, down):  4.306E-02 0.000E+00

     total cpu time spent up to now is     3770.9 secs

     total energy              =    -214.08138915 Ry
     Harris-Foulkes estimate   =    -214.08659256 Ry
     estimated scf accuracy    <       0.02097527 Ry

     iteration # 12     ecut=    50.00 Ry     beta=0.70
     Davidson diagonalization with overlap
     ethr =  2.00E-05,  avg # of iterations =  3.2

     negative rho (up, down):  4.307E-02 0.000E+00

     total cpu time spent up to now is     3992.1 secs

     total energy              =    -214.08190916 Ry
     Harris-Foulkes estimate   =    -214.08781080 Ry
     estimated scf accuracy    <       0.05269189 Ry

     iteration # 13     ecut=    50.00 Ry     beta=0.70
     Davidson diagonalization with overlap
     ethr =  2.00E-05,  avg # of iterations =  2.1

     negative rho (up, down):  4.307E-02 0.000E+00

     total cpu time spent up to now is     4217.6 secs

     total energy              =    -214.08357727 Ry
     Harris-Foulkes estimate   =    -214.08646524 Ry
     estimated scf accuracy    <       0.01644299 Ry

     iteration # 14     ecut=    50.00 Ry     beta=0.70
     Davidson diagonalization with overlap
     ethr =  1.57E-05,  avg # of iterations =  1.0

     negative rho (up, down):  4.306E-02 0.000E+00

     total cpu time spent up to now is     4407.1 secs

     total energy              =    -214.08465060 Ry
     Harris-Foulkes estimate   =    -214.08565411 Ry
     estimated scf accuracy    <       0.00597341 Ry

     iteration # 15     ecut=    50.00 Ry     beta=0.70
     Davidson diagonalization with overlap
     ethr =  5.69E-06,  avg # of iterations =  1.5

     negative rho (up, down):  4.306E-02 0.000E+00

     total cpu time spent up to now is     4598.6 secs

     total energy              =    -214.08506371 Ry
     Harris-Foulkes estimate   =    -214.08537473 Ry
     estimated scf accuracy    <       0.00259171 Ry

     iteration # 16     ecut=    50.00 Ry     beta=0.70
     Davidson diagonalization with overlap
     ethr =  2.47E-06,  avg # of iterations =  4.1

     negative rho (up, down):  4.306E-02 0.000E+00

     total cpu time spent up to now is     4869.2 secs

     total energy              =    -214.08515770 Ry
     Harris-Foulkes estimate   =    -214.08531476 Ry
     estimated scf accuracy    <       0.00078937 Ry

     iteration # 17     ecut=    50.00 Ry     beta=0.70
     Davidson diagonalization with overlap
     ethr =  7.52E-07,  avg # of iterations =  2.2

     negative rho (up, down):  4.306E-02 0.000E+00

     total cpu time spent up to now is     5157.9 secs

     total energy              =    -214.08516433 Ry
     Harris-Foulkes estimate   =    -214.08533360 Ry
     estimated scf accuracy    <       0.00143660 Ry

     iteration # 18     ecut=    50.00 Ry     beta=0.70
     Davidson diagonalization with overlap
     ethr =  7.52E-07,  avg # of iterations =  1.0

     negative rho (up, down):  4.305E-02 0.000E+00

     total cpu time spent up to now is     5458.0 secs

     total energy              =    -214.08523066 Ry
     Harris-Foulkes estimate   =    -214.08527479 Ry
     estimated scf accuracy    <       0.00025515 Ry

     iteration # 19     ecut=    50.00 Ry     beta=0.70
     Davidson diagonalization with overlap
     ethr =  2.43E-07,  avg # of iterations =  2.0

     negative rho (up, down):  4.305E-02 0.000E+00

     total cpu time spent up to now is     5770.9 secs

     total energy              =    -214.08522766 Ry
     Harris-Foulkes estimate   =    -214.08528707 Ry
     estimated scf accuracy    <       0.00041065 Ry

     iteration # 20     ecut=    50.00 Ry     beta=0.70
     Davidson diagonalization with overlap
     ethr =  2.43E-07,  avg # of iterations =  1.0

     negative rho (up, down):  4.305E-02 0.000E+00

     total cpu time spent up to now is     6066.3 secs

     total energy              =    -214.08525323 Ry
     Harris-Foulkes estimate   =    -214.08526145 Ry
     estimated scf accuracy    <       0.00003784 Ry

     iteration # 21     ecut=    50.00 Ry     beta=0.70
     Davidson diagonalization with overlap
     ethr =  3.60E-08,  avg # of iterations =  2.4

     negative rho (up, down):  4.305E-02 0.000E+00

     total cpu time spent up to now is     6388.0 secs

     total energy              =    -214.08525331 Ry
     Harris-Foulkes estimate   =    -214.08525987 Ry
     estimated scf accuracy    <       0.00002967 Ry

     iteration # 22     ecut=    50.00 Ry     beta=0.70
     Davidson diagonalization with overlap
     ethr =  2.83E-08,  avg # of iterations =  3.0

     negative rho (up, down):  4.305E-02 0.000E+00

     total cpu time spent up to now is     6750.0 secs

     total energy              =    -214.08523752 Ry
     Harris-Foulkes estimate   =    -214.08528087 Ry
     estimated scf accuracy    <       0.00043529 Ry

     iteration # 23     ecut=    50.00 Ry     beta=0.70
     Davidson diagonalization with overlap
     ethr =  2.83E-08,  avg # of iterations =  2.2

     negative rho (up, down):  4.305E-02 0.000E+00

     total cpu time spent up to now is     7011.4 secs

     total energy              =    -214.08525785 Ry
     Harris-Foulkes estimate   =    -214.08525947 Ry
     estimated scf accuracy    <       0.00000788 Ry

     iteration # 24     ecut=    50.00 Ry     beta=0.70
     Davidson diagonalization with overlap
     ethr =  7.50E-09,  avg # of iterations =  2.8

     negative rho (up, down):  4.305E-02 0.000E+00

     total cpu time spent up to now is     7220.9 secs

     total energy              =    -214.08525847 Ry
     Harris-Foulkes estimate   =    -214.08525905 Ry
     estimated scf accuracy    <       0.00000390 Ry

     iteration # 25     ecut=    50.00 Ry     beta=0.70
     Davidson diagonalization with overlap
     ethr =  3.72E-09,  avg # of iterations =  1.8

     negative rho (up, down):  4.305E-02 0.000E+00

     total cpu time spent up to now is     7415.0 secs

     total energy              =    -214.08525849 Ry
     Harris-Foulkes estimate   =    -214.08525917 Ry
     estimated scf accuracy    <       0.00000487 Ry

     iteration # 26     ecut=    50.00 Ry     beta=0.70
     Davidson diagonalization with overlap
     ethr =  3.72E-09,  avg # of iterations =  1.0

     negative rho (up, down):  4.305E-02 0.000E+00

     total cpu time spent up to now is     7603.6 secs

     total energy              =    -214.08525881 Ry
     Harris-Foulkes estimate   =    -214.08525891 Ry
     estimated scf accuracy    <       0.00000087 Ry

     iteration # 27     ecut=    50.00 Ry     beta=0.70
     Davidson diagonalization with overlap
     ethr =  8.30E-10,  avg # of iterations =  1.3

     negative rho (up, down):  4.305E-02 0.000E+00

     total cpu time spent up to now is     7820.4 secs

     total energy              =    -214.08525881 Ry
     Harris-Foulkes estimate   =    -214.08525894 Ry
     estimated scf accuracy    <       0.00000090 Ry

     iteration # 28     ecut=    50.00 Ry     beta=0.70
     Davidson diagonalization with overlap
     ethr =  8.30E-10,  avg # of iterations =  1.0

     negative rho (up, down):  4.305E-02 0.000E+00

     total cpu time spent up to now is     8011.0 secs

     total energy              =    -214.08525886 Ry
     Harris-Foulkes estimate   =    -214.08525890 Ry
     estimated scf accuracy    <       0.00000026 Ry

     iteration # 29     ecut=    50.00 Ry     beta=0.70
     Davidson diagonalization with overlap
     ethr =  2.52E-10,  avg # of iterations =  1.0

     negative rho (up, down):  4.305E-02 0.000E+00

     total cpu time spent up to now is     8199.2 secs

     total energy              =    -214.08525887 Ry
     Harris-Foulkes estimate   =    -214.08525889 Ry
     estimated scf accuracy    <       0.00000017 Ry

     iteration # 30     ecut=    50.00 Ry     beta=0.70
     Davidson diagonalization with overlap
     ethr =  1.60E-10,  avg # of iterations =  1.0

     negative rho (up, down):  4.305E-02 0.000E+00

     total cpu time spent up to now is     8424.3 secs

     total energy              =    -214.08525888 Ry
     Harris-Foulkes estimate   =    -214.08525889 Ry
     estimated scf accuracy    <       0.00000004 Ry

     iteration # 31     ecut=    50.00 Ry     beta=0.70
     Davidson diagonalization with overlap
     ethr =  4.20E-11,  avg # of iterations =  2.1

     negative rho (up, down):  4.305E-02 0.000E+00

     total cpu time spent up to now is     8706.9 secs

     total energy              =    -214.08525888 Ry
     Harris-Foulkes estimate   =    -214.08525889 Ry
     estimated scf accuracy    <       0.00000005 Ry

     iteration # 32     ecut=    50.00 Ry     beta=0.70
     Davidson diagonalization with overlap
     ethr =  4.20E-11,  avg # of iterations =  1.2

     negative rho (up, down):  4.305E-02 0.000E+00

     total cpu time spent up to now is     9008.3 secs

     total energy              =    -214.08525888 Ry
     Harris-Foulkes estimate   =    -214.08525889 Ry
     estimated scf accuracy    <       0.00000002 Ry

     iteration # 33     ecut=    50.00 Ry     beta=0.70
     Davidson diagonalization with overlap
     ethr =  1.76E-11,  avg # of iterations =  2.0

     negative rho (up, down):  4.305E-02 0.000E+00

     total cpu time spent up to now is     9316.1 secs

     total energy              =    -214.08525888 Ry
     Harris-Foulkes estimate   =    -214.08525889 Ry
     estimated scf accuracy    <       0.00000005 Ry

     iteration # 34     ecut=    50.00 Ry     beta=0.70
     Davidson diagonalization with overlap
     ethr =  1.76E-11,  avg # of iterations =  1.1

     negative rho (up, down):  4.305E-02 0.000E+00

     total cpu time spent up to now is     9607.0 secs

     End of self-consistent calculation

          k = 0.0000 0.0000 0.0000 ( 44131 PWs)   bands (ev):

   -46.2780 -26.3157 -26.2607 -26.1629 -16.5573 -16.2459 -14.9371 -14.3580
   -13.4163 -12.8715 -12.7654 -12.7327 -12.0292 -11.4844 -11.3685 -11.2824
   -10.9880 -10.4854 -10.1570  -9.9831  -9.4933  -8.8868  -8.7070  -8.6030
    -8.3676  -8.2028  -7.8123  -7.2775  -7.1157  -6.7312  -6.6437  -6.5428
    -6.4159  -5.9008  -5.4606  -5.3852  -5.1999  -4.8901  -4.8091  -4.5771
    -4.2886  -3.9713  -3.8128  -3.7815  -3.1379  -2.9252  -2.9122  -2.7815
    -2.6387  -2.5720  -2.4122  -2.2668  -2.1690  -2.1132  -2.0739  -1.9823
    -1.8652  -1.7696  -1.6559  -1.4512  -1.2262  -1.0932  -0.9461  -0.7120

          k =-0.0011-0.0010 0.2513 ( 44178 PWs)   bands (ev):

   -46.2780 -26.3157 -26.2607 -26.1629 -16.5572 -16.2459 -14.9371 -14.3581
   -13.4213 -12.8691 -12.7603 -12.7326 -12.0292 -11.4861 -11.3679 -11.2832
   -10.9860 -10.4898 -10.1569  -9.9833  -9.4879  -8.8910  -8.7143  -8.6098
    -8.3627  -8.1895  -7.8133  -7.2760  -7.1176  -6.7308  -6.6403  -6.5545
    -6.4196  -5.9027  -5.4768  -5.3547  -5.2011  -4.8951  -4.8086  -4.5707
    -4.2936  -3.9632  -3.8163  -3.7771  -3.1370  -2.9466  -2.9319  -2.7575
    -2.6394  -2.5311  -2.4112  -2.3320  -2.1658  -2.1061  -2.0143  -1.9935
    -1.8575  -1.7786  -1.6553  -1.4531  -1.2559  -1.0983  -0.9545  -0.7167

          k = 0.0021 0.0021-0.5025 ( 44222 PWs)   bands (ev):

   -46.2780 -26.3157 -26.2607 -26.1629 -16.5572 -16.2459 -14.9370 -14.3582
   -13.4262 -12.8669 -12.7552 -12.7322 -12.0291 -11.4879 -11.3674 -11.2840
   -10.9841 -10.4941 -10.1567  -9.9834  -9.4823  -8.8955  -8.7216  -8.6152
    -8.3589  -8.1761  -7.8143  -7.2745  -7.1193  -6.7310  -6.6346  -6.5678
    -6.4233  -5.9041  -5.4881  -5.3283  -5.2032  -4.8996  -4.8094  -4.5639
    -4.2988  -3.9557  -3.8201  -3.7714  -3.1354  -2.9671  -2.9451  -2.7630
    -2.5753  -2.5142  -2.4483  -2.3628  -2.1622  -2.1092  -2.0095  -1.9577
    -1.8353  -1.7905  -1.6576  -1.4563  -1.2901  -1.1100  -0.9585  -0.7147

          k = 0.0006 0.2504-0.0010 ( 44210 PWs)   bands (ev):

   -46.2780 -26.3157 -26.2607 -26.1629 -16.5573 -16.2458 -14.9373 -14.3580
   -13.4153 -12.8739 -12.7651 -12.7334 -12.0290 -11.4857 -11.3689 -11.2787
   -10.9856 -10.4859 -10.1569  -9.9800  -9.4906  -8.8946  -8.7060  -8.6098
    -8.3677  -8.2035  -7.8108  -7.2812  -7.1126  -6.7263  -6.6489  -6.5450
    -6.4073  -5.9175  -5.4985  -5.3401  -5.1963  -4.8750  -4.7912  -4.5895
    -4.2490  -4.0215  -3.8744  -3.7477  -3.1314  -2.9508  -2.8390  -2.7834
    -2.6767  -2.5544  -2.3755  -2.2939  -2.1842  -2.1408  -2.0698  -1.9608
    -1.8434  -1.7520  -1.6461  -1.4663  -1.2313  -1.1249  -0.9514  -0.7582

          k =-0.0005 0.2493 0.2502 ( 44240 PWs)   bands (ev):

   -46.2780 -26.3157 -26.2607 -26.1629 -16.5572 -16.2458 -14.9373 -14.3581
   -13.4204 -12.8716 -12.7598 -12.7333 -12.0289 -11.4875 -11.3685 -11.2793
   -10.9837 -10.4899 -10.1567  -9.9803  -9.4857  -8.8974  -8.7155  -8.6157
    -8.3623  -8.1904  -7.8118  -7.2794  -7.1143  -6.7253  -6.6461  -6.5568
    -6.4110  -5.9195  -5.5149  -5.3042  -5.2025  -4.8791  -4.7955  -4.5827
    -4.2505  -4.0142  -3.8570  -3.7644  -3.1232  -2.9756  -2.8586  -2.7533
    -2.6635  -2.5504  -2.3702  -2.3383  -2.2081  -2.1235  -2.0572  -1.9428
    -1.8143  -1.7364  -1.6501  -1.4953  -1.2306  -1.1529  -0.9537  -0.7710

          k = 0.0027 0.2524-0.5036 ( 44249 PWs)   bands (ev):

   -46.2780 -26.3157 -26.2607 -26.1629 -16.5571 -16.2458 -14.9372 -14.3582
   -13.4253 -12.8695 -12.7547 -12.7330 -12.0288 -11.4891 -11.3679 -11.2802
   -10.9818 -10.4943 -10.1566  -9.9804  -9.4801  -8.9013  -8.7244  -8.6198
    -8.3585  -8.1773  -7.8127  -7.2790  -7.1157  -6.7242  -6.6402  -6.5695
    -6.4162  -5.9213  -5.5199  -5.2899  -5.1977  -4.8829  -4.7945  -4.5743
    -4.2606  -4.0087  -3.8567  -3.7708  -3.1226  -2.9879  -2.8657  -2.7587
    -2.5746  -2.5436  -2.3950  -2.3569  -2.2303  -2.1326  -2.0326  -1.9385
    -1.8490  -1.7196  -1.6630  -1.4667  -1.2684  -1.1631  -0.9529  -0.7673

          k = 0.0017 0.2514-0.2523 ( 44233 PWs)   bands (ev):

   -46.2780 -26.3157 -26.2607 -26.1629 -16.5572 -16.2458 -14.9373 -14.3581
   -13.4204 -12.8716 -12.7598 -12.7334 -12.0289 -11.4873 -11.3683 -11.2796
   -10.9837 -10.4903 -10.1568  -9.9802  -9.4851  -8.8981  -8.7151  -8.6152
    -8.3628  -8.1905  -7.8116  -7.2807  -7.1141  -6.7245  -6.6455  -6.5561
    -6.4124  -5.9197  -5.5050  -5.3243  -5.1918  -4.8790  -4.7891  -4.5812
    -4.2591  -4.0156  -3.8744  -3.7548  -3.1308  -2.9696  -2.8412  -2.7606
    -2.6642  -2.4993  -2.3865  -2.3218  -2.2082  -2.1559  -2.0336  -1.9706
    -1.8691  -1.7414  -1.6550  -1.4387  -1.2627  -1.1383  -0.9514  -0.7553

          k =-0.0012-0.5007 0.0021 ( 44254 PWs)   bands (ev):

   -46.2780 -26.3157 -26.2607 -26.1629 -16.5573 -16.2458 -14.9375 -14.3579
   -13.4144 -12.8764 -12.7647 -12.7341 -12.0287 -11.4869 -11.3692 -11.2750
   -10.9832 -10.4863 -10.1568  -9.9770  -9.4877  -8.9026  -8.7051  -8.6165
    -8.3679  -8.2042  -7.8090  -7.2846  -7.1104  -6.7194  -6.6565  -6.5464
    -6.3968  -5.9378  -5.5191  -5.3046  -5.2010  -4.8562  -4.7728  -4.5986
    -4.1873  -4.0906  -3.9312  -3.7281  -3.1205  -2.9520  -2.7970  -2.7700
    -2.7041  -2.5361  -2.3973  -2.2815  -2.1871  -2.1567  -2.0910  -1.9948
    -1.7816  -1.6905  -1.6309  -1.5108  -1.2323  -1.1723  -0.9537  -0.8012

          k =-0.0023-0.5018 0.2533 ( 44252 PWs)   bands (ev):

   -46.2780 -26.3157 -26.2607 -26.1629 -16.5572 -16.2458 -14.9375 -14.3580
   -13.4194 -12.8741 -12.7593 -12.7340 -12.0286 -11.4886 -11.3688 -11.2757
   -10.9813 -10.4904 -10.1566  -9.9772  -9.4828  -8.9048  -8.7165  -8.6207
    -8.3624  -8.1913  -7.8100  -7.2837  -7.1119  -6.7164  -6.6543  -6.5576
    -6.4018  -5.9403  -5.5303  -5.2772  -5.2027  -4.8588  -4.7769  -4.5902
    -4.1915  -4.0871  -3.9201  -3.7461  -3.1140  -2.9692  -2.8000  -2.7257
    -2.7029  -2.5164  -2.3944  -2.3089  -2.2323  -2.1638  -2.0625  -1.9816
    -1.8083  -1.6846  -1.6181  -1.5128  -1.2297  -1.1958  -0.9543  -0.8067

          k = 0.0009-0.4987-0.5005 ( 44228 PWs)   bands (ev):

   -46.2780 -26.3157 -26.2607 -26.1629 -16.5571 -16.2458 -14.9374 -14.3581
   -13.4243 -12.8721 -12.7540 -12.7337 -12.0286 -11.4903 -11.3683 -11.2764
   -10.9794 -10.4944 -10.1565  -9.9774  -9.4778  -8.9072  -8.7276  -8.6239
    -8.3581  -8.1783  -7.8110  -7.2830  -7.1133  -6.7145  -6.6494  -6.5703
    -6.4068  -5.9424  -5.5400  -5.2484  -5.2069  -4.8613  -4.7819  -4.5820
    -4.1957  -4.0839  -3.9072  -3.7643  -3.1079  -2.9798  -2.8263  -2.7237
    -2.5969  -2.5327  -2.3963  -2.3527  -2.2636  -2.1589  -2.0441  -1.9708
    -1.8298  -1.6837  -1.6032  -1.5186  -1.2346  -1.2130  -0.9535  -0.8147

          k = 0.2500 0.0006-0.0011 ( 44217 PWs)   bands (ev):

   -46.2780 -26.3157 -26.2607 -26.1629 -16.5444 -16.2653 -14.9371 -14.3364
   -13.4230 -12.8704 -12.7653 -12.7352 -12.0604 -11.4845 -11.3682 -11.2713
   -10.9864 -10.4636 -10.1569 -10.0036  -9.5002  -8.8951  -8.7014  -8.5534
    -8.3578  -8.1875  -7.8449  -7.2786  -7.1481  -6.7332  -6.6371  -6.5424
    -6.4115  -5.9056  -5.5003  -5.3877  -5.1339  -4.8988  -4.7723  -4.5781
    -4.2875  -4.0150  -3.8265  -3.7959  -3.1343  -2.9271  -2.8547  -2.7948
    -2.6594  -2.5572  -2.4232  -2.3116  -2.2017  -2.1330  -2.0588  -1.9158
    -1.9007  -1.7580  -1.7183  -1.4753  -1.1362  -1.0823  -0.9312  -0.7126

          k = 0.2489-0.0004 0.2502 ( 44235 PWs)   bands (ev):

   -46.2780 -26.3157 -26.2607 -26.1629 -16.5444 -16.2653 -14.9371 -14.3365
   -13.4280 -12.8679 -12.7604 -12.7351 -12.0603 -11.4863 -11.3672 -11.2726
   -10.9846 -10.4678 -10.1567 -10.0038  -9.4949  -8.8993  -8.7107  -8.5560
    -8.3551  -8.1746  -7.8446  -7.2772  -7.1504  -6.7334  -6.6326  -6.5541
    -6.4149  -5.9064  -5.5175  -5.3629  -5.1270  -4.9008  -4.7780  -4.5735
    -4.2888  -4.0092  -3.8269  -3.7960  -3.1301  -2.9399  -2.8943  -2.7767
    -2.6429  -2.5168  -2.4559  -2.3364  -2.1902  -2.1194  -2.0287  -1.9204
    -1.8781  -1.7772  -1.7237  -1.4733  -1.1749  -1.0911  -0.9365  -0.7182

          k = 0.2521 0.0027-0.5036 ( 44243 PWs)   bands (ev):

   -46.2780 -26.3157 -26.2607 -26.1629 -16.5443 -16.2653 -14.9370 -14.3366
   -13.4327 -12.8657 -12.7556 -12.7346 -12.0601 -11.4881 -11.3666 -11.2734
   -10.9826 -10.4722 -10.1566 -10.0040  -9.4892  -8.9027  -8.7270  -8.5501
    -8.3530  -8.1626  -7.8459  -7.2776  -7.1492  -6.7336  -6.6269  -6.5676
    -6.4191  -5.9094  -5.5231  -5.3410  -5.1308  -4.8983  -4.7834  -4.5680
    -4.2952  -4.0043  -3.8295  -3.7929  -3.1338  -2.9515  -2.8959  -2.7839
    -2.6025  -2.5496  -2.4263  -2.3347  -2.1910  -2.1134  -2.0362  -1.9165
    -1.8498  -1.7798  -1.7403  -1.4687  -1.2180  -1.0844  -0.9427  -0.6970

          k = 0.2511 0.0016-0.2523 ( 44243 PWs)   bands (ev):

   -46.2780 -26.3157 -26.2607 -26.1629 -16.5444 -16.2653 -14.9371 -14.3365
   -13.4279 -12.8679 -12.7605 -12.7351 -12.0603 -11.4862 -11.3676 -11.2721
   -10.9845 -10.4680 -10.1567 -10.0038  -9.4946  -8.8980  -8.7190  -8.5471
    -8.3552  -8.1755  -7.8461  -7.2789  -7.1470  -6.7330  -6.6340  -6.5538
    -6.4156  -5.9091  -5.5080  -5.3636  -5.1378  -4.8967  -4.7764  -4.5732
    -4.2937  -4.0097  -3.8281  -3.7949  -3.1390  -2.9380  -2.8653  -2.7724
    -2.6677  -2.5474  -2.4099  -2.3091  -2.2077  -2.1191  -2.0506  -1.9232
    -1.8917  -1.7553  -1.7314  -1.4727  -1.1758  -1.0676  -0.9408  -0.6853

          k = 0.2506 0.2510-0.0021 ( 44237 PWs)   bands (ev):

   -46.2780 -26.3157 -26.2607 -26.1629 -16.5444 -16.2653 -14.9373 -14.3363
   -13.4221 -12.8728 -12.7650 -12.7358 -12.0603 -11.4857 -11.3682 -11.2676
   -10.9845 -10.4641 -10.1568 -10.0004  -9.4962  -8.9082  -8.7006  -8.5542
    -8.3585  -8.1878  -7.8457  -7.2838  -7.1425  -6.7273  -6.6442  -6.5452
    -6.4014  -5.9215  -5.5276  -5.3439  -5.1461  -4.8705  -4.7729  -4.5774
    -4.2332  -4.0585  -3.9253  -3.7571  -3.1104  -2.9335  -2.8382  -2.7534
    -2.6888  -2.5360  -2.4405  -2.3296  -2.2345  -2.1087  -2.0014  -1.9547
    -1.8650  -1.7967  -1.6811  -1.4844  -1.1747  -1.0947  -0.9332  -0.7226

          k = 0.2495 0.2499 0.2492 ( 44255 PWs)   bands (ev):

   -46.2780 -26.3157 -26.2607 -26.1629 -16.5443 -16.2653 -14.9373 -14.3364
   -13.4271 -12.8704 -12.7599 -12.7357 -12.0602 -11.4876 -11.3673 -11.2687
   -10.9827 -10.4680 -10.1566 -10.0006  -9.4916  -8.9109  -8.7127  -8.5551
    -8.3555  -8.1752  -7.8455  -7.2826  -7.1442  -6.7270  -6.6403  -6.5566
    -6.4050  -5.9224  -5.5450  -5.3165  -5.1427  -4.8758  -4.7754  -4.5722
    -4.2372  -4.0490  -3.9102  -3.7737  -3.0998  -2.9560  -2.8451  -2.7583
    -2.6554  -2.5329  -2.4759  -2.3331  -2.2378  -2.1032  -1.9832  -1.9490
    -1.8479  -1.7436  -1.7102  -1.5159  -1.1848  -1.1191  -0.9318  -0.7265

          k = 0.2527 0.2530-0.5046 ( 44267 PWs)   bands (ev):

   -46.2780 -26.3157 -26.2607 -26.1629 -16.5443 -16.2653 -14.9372 -14.3365
   -13.4318 -12.8683 -12.7550 -12.7354 -12.0600 -11.4892 -11.3666 -11.2696
   -10.9808 -10.4724 -10.1565 -10.0008  -9.4859  -8.9137  -8.7299  -8.5488
    -8.3534  -8.1634  -7.8467  -7.2839  -7.1428  -6.7261  -6.6344  -6.5695
    -6.4104  -5.9255  -5.5476  -5.2971  -5.1473  -4.8758  -4.7743  -4.5645
    -4.2498  -4.0448  -3.9118  -3.7802  -3.1012  -2.9650  -2.8267  -2.7729
    -2.5919  -2.5588  -2.4633  -2.3131  -2.2535  -2.1242  -1.9790  -1.9443
    -1.8611  -1.7892  -1.6809  -1.4835  -1.2360  -1.1192  -0.9294  -0.6956

          k = 0.2517 0.2520-0.2534 ( 44255 PWs)   bands (ev):

   -46.2780 -26.3157 -26.2607 -26.1629 -16.5443 -16.2653 -14.9373 -14.3364
   -13.4270 -12.8704 -12.7601 -12.7357 -12.0602 -11.4874 -11.3675 -11.2684
   -10.9826 -10.4686 -10.1566 -10.0006  -9.4906  -8.9106  -8.7193  -8.5471
    -8.3559  -8.1761  -7.8469  -7.2849  -7.1413  -6.7258  -6.6409  -6.5561
    -6.4067  -5.9250  -5.5310  -5.3243  -5.1501  -4.8707  -4.7708  -4.5699
    -4.2459  -4.0539  -3.9270  -3.7647  -3.1117  -2.9480  -2.8029  -2.7638
    -2.6727  -2.5272  -2.4271  -2.3143  -2.2434  -2.1327  -1.9998  -1.9593
    -1.8779  -1.8102  -1.6752  -1.4570  -1.2153  -1.0989  -0.9321  -0.6908

          k = 0.2488-0.5001 0.0010 ( 44257 PWs)   bands (ev):

   -46.2780 -26.3157 -26.2607 -26.1629 -16.5444 -16.2653 -14.9375 -14.3363
   -13.4212 -12.8753 -12.7648 -12.7362 -12.0601 -11.4869 -11.3684 -11.2639
   -10.9826 -10.4638 -10.1567  -9.9976  -9.4937  -8.9157  -8.7001  -8.5617
    -8.3572  -8.1902  -7.8427  -7.2863  -7.1406  -6.7204  -6.6518  -6.5457
    -6.3913  -5.9423  -5.5494  -5.3287  -5.1223  -4.8537  -4.7555  -4.5878
    -4.1874  -4.0993  -3.9771  -3.7544  -3.1027  -2.9208  -2.8325  -2.7535
    -2.6948  -2.5270  -2.4415  -2.2906  -2.2536  -2.1075  -2.0397  -1.9908
    -1.8551  -1.7313  -1.6437  -1.5103  -1.2042  -1.0919  -0.9294  -0.7682

          k = 0.2477-0.5012 0.2523 ( 44249 PWs)   bands (ev):

   -46.2780 -26.3157 -26.2607 -26.1629 -16.5443 -16.2653 -14.9375 -14.3364
   -13.4261 -12.8730 -12.7596 -12.7362 -12.0599 -11.4887 -11.3675 -11.2652
   -10.9807 -10.4676 -10.1566  -9.9978  -9.4889  -8.9177  -8.7143  -8.5608
    -8.3544  -8.1778  -7.8425  -7.2857  -7.1424  -6.7183  -6.6487  -6.5566
    -6.3958  -5.9440  -5.5628  -5.3085  -5.1138  -4.8557  -4.7607  -4.5819
    -4.1876  -4.0966  -3.9670  -3.7757  -3.0955  -2.9359  -2.8103  -2.7693
    -2.6558  -2.5351  -2.4426  -2.3042  -2.2556  -2.1152  -2.0315  -1.9775
    -1.8645  -1.7344  -1.6576  -1.5048  -1.2223  -1.0981  -0.9265  -0.7739

          k = 0.2509-0.4981-0.5015 ( 44255 PWs)   bands (ev):

   -46.2780 -26.3157 -26.2607 -26.1629 -16.5442 -16.2652 -14.9374 -14.3365
   -13.4309 -12.8709 -12.7547 -12.7358 -12.0598 -11.4904 -11.3670 -11.2659
   -10.9789 -10.4717 -10.1564  -9.9981  -9.4839  -8.9194  -8.7329  -8.5541
    -8.3519  -8.1660  -7.8438  -7.2863  -7.1415  -6.7165  -6.6437  -6.5694
    -6.4013  -5.9473  -5.5689  -5.2838  -5.1202  -4.8587  -4.7614  -4.5728
    -4.1981  -4.0904  -3.9547  -3.7962  -3.0892  -2.9441  -2.8296  -2.7542
    -2.6067  -2.5271  -2.4376  -2.3064  -2.2699  -2.1450  -2.0293  -1.9559
    -1.8643  -1.7825  -1.6163  -1.5190  -1.2293  -1.1108  -0.9238  -0.7647

          k = 0.2499-0.4991-0.2503 ( 44259 PWs)   bands (ev):

   -46.2780 -26.3157 -26.2607 -26.1629 -16.5443 -16.2652 -14.9375 -14.3364
   -13.4260 -12.8730 -12.7598 -12.7361 -12.0599 -11.4886 -11.3679 -11.2647
   -10.9807 -10.4679 -10.1566  -9.9979  -9.4887  -8.9171  -8.7205  -8.5539
    -8.3542  -8.1785  -7.8439  -7.2868  -7.1398  -6.7178  -6.6494  -6.5567
    -6.3966  -5.9461  -5.5565  -5.3028  -5.1290  -4.8567  -4.7555  -4.5788
    -4.1974  -4.0929  -3.9670  -3.7748  -3.0961  -2.9356  -2.8180  -2.7243
    -2.7110  -2.5002  -2.4327  -2.2949  -2.2591  -2.1413  -2.0447  -1.9631
    -1.8574  -1.7786  -1.6004  -1.5240  -1.2105  -1.1052  -0.9281  -0.7562

          k = 0.2494-0.2498-0.0000 ( 44249 PWs)   bands (ev):

   -46.2780 -26.3157 -26.2607 -26.1629 -16.5444 -16.2653 -14.9373 -14.3363
   -13.4221 -12.8729 -12.7652 -12.7356 -12.0602 -11.4857 -11.3685 -11.2676
   -10.9845 -10.4633 -10.1568 -10.0008  -9.4978  -8.9023  -8.7009  -8.5610
    -8.3564  -8.1900  -7.8420  -7.2815  -7.1454  -6.7283  -6.6421  -6.5437
    -6.4033  -5.9230  -5.5319  -5.3646  -5.1081  -4.8856  -4.7545  -4.5909
    -4.2666  -4.0269  -3.9006  -3.7707  -3.1304  -2.9130  -2.8378  -2.8103
    -2.6676  -2.5452  -2.4221  -2.2755  -2.2113  -2.1379  -2.0652  -1.9582
    -1.8646  -1.7920  -1.6565  -1.4834  -1.1495  -1.0839  -0.9337  -0.7493

          k = 0.2483-0.2508 0.2513 ( 44250 PWs)   bands (ev):

   -46.2780 -26.3157 -26.2607 -26.1629 -16.5443 -16.2653 -14.9373 -14.3364
   -13.4271 -12.8705 -12.7601 -12.7355 -12.0600 -11.4874 -11.3675 -11.2690
   -10.9827 -10.4675 -10.1567 -10.0010  -9.4924  -8.9058  -8.7123  -8.5618
    -8.3540  -8.1773  -7.8418  -7.2808  -7.1476  -6.7272  -6.6378  -6.5547
    -6.4077  -5.9244  -5.5429  -5.3483  -5.0973  -4.8853  -4.7605  -4.5851
    -4.2689  -4.0213  -3.9063  -3.7788  -3.1259  -2.9340  -2.8472  -2.7925
    -2.6482  -2.5046  -2.4348  -2.2935  -2.2001  -2.1250  -2.0741  -1.9694
    -1.8749  -1.8016  -1.6682  -1.4543  -1.2005  -1.0816  -0.9367  -0.7561

          k = 0.2515-0.2477-0.5026 ( 44242 PWs)   bands (ev):

   -46.2780 -26.3157 -26.2607 -26.1629 -16.5442 -16.2653 -14.9372 -14.3366
   -13.4318 -12.8684 -12.7553 -12.7351 -12.0599 -11.4892 -11.3670 -11.2697
   -10.9808 -10.4716 -10.1565 -10.0013  -9.4874  -8.9081  -8.7299  -8.5556
    -8.3516  -8.1653  -7.8430  -7.2805  -7.1468  -6.7268  -6.6326  -6.5681
    -6.4121  -5.9276  -5.5520  -5.3222  -5.1008  -4.8872  -4.7672  -4.5779
    -4.2710  -4.0140  -3.8925  -3.7955  -3.1212  -2.9495  -2.8679  -2.7825
    -2.6208  -2.5144  -2.4005  -2.3117  -2.2169  -2.1223  -2.0892  -1.9285
    -1.8561  -1.7984  -1.6778  -1.4749  -1.2176  -1.0845  -0.9406  -0.7540

          k = 0.2505-0.2487-0.2513 ( 44255 PWs)   bands (ev):

   -46.2780 -26.3157 -26.2607 -26.1629 -16.5443 -16.2653 -14.9373 -14.3365
   -13.4269 -12.8705 -12.7602 -12.7354 -12.0600 -11.4875 -11.3680 -11.2683
   -10.9826 -10.4674 -10.1566 -10.0011  -9.4928  -8.9042  -8.7201  -8.5541
    -8.3535  -8.1781  -7.8433  -7.2811  -7.1447  -6.7274  -6.6394  -6.5552
    -6.4075  -5.9266  -5.5423  -5.3366  -5.1126  -4.8874  -4.7601  -4.5839
    -4.2686  -4.0194  -3.8862  -3.7893  -3.1264  -2.9341  -2.8577  -2.7661
    -2.6908  -2.5256  -2.3998  -2.2916  -2.2224  -2.1341  -2.0794  -1.9245
    -1.8478  -1.7888  -1.6622  -1.5046  -1.1667  -1.0842  -0.9374  -0.7429

          k =-0.5000-0.0012 0.0021 ( 44270 PWs)   bands (ev):

   -46.2780 -26.3157 -26.2607 -26.1629 -16.5297 -16.2866 -14.9371 -14.3143
   -13.4303 -12.8693 -12.7653 -12.7377 -12.0902 -11.4846 -11.3682 -11.2613
   -10.9850 -10.4401 -10.1566 -10.0259  -9.5061  -8.9003  -8.6994  -8.5076
    -8.3439  -8.1592  -7.8904  -7.2830  -7.1769  -6.7342  -6.6319  -6.5419
    -6.4075  -5.9103  -5.5320  -5.3896  -5.0394  -4.9639  -4.6831  -4.6157
    -4.2735  -4.0671  -3.8416  -3.8068  -3.1297  -2.9118  -2.8655  -2.7576
    -2.6642  -2.5394  -2.4735  -2.3292  -2.2331  -2.1509  -2.0328  -1.9867
    -1.8460  -1.7719  -1.7006  -1.4930  -1.1491  -0.9840  -0.9161  -0.7065

          k =-0.5011-0.0022 0.2534 ( 44259 PWs)   bands (ev):

   -46.2780 -26.3157 -26.2607 -26.1629 -16.5296 -16.2866 -14.9371 -14.3144
   -13.4350 -12.8668 -12.7606 -12.7376 -12.0900 -11.4864 -11.3671 -11.2626
   -10.9831 -10.4444 -10.1565 -10.0261  -9.5007  -8.9037  -8.7152  -8.4996
    -8.3438  -8.1486  -7.8901  -7.2840  -7.1758  -6.7345  -6.6276  -6.5533
    -6.4113  -5.9129  -5.5426  -5.3683  -5.0340  -4.9647  -4.6909  -4.6113
    -4.2743  -4.0662  -3.8389  -3.8109  -3.1322  -2.9256  -2.8483  -2.7686
    -2.6666  -2.5663  -2.4310  -2.3248  -2.2231  -2.1425  -2.0319  -1.9673
    -1.8474  -1.7746  -1.7182  -1.4899  -1.1770  -0.9951  -0.9204  -0.7081

          k =-0.4979 0.0009-0.5004 ( 44234 PWs)   bands (ev):

   -46.2780 -26.3157 -26.2607 -26.1629 -16.5295 -16.2866 -14.9370 -14.3145
   -13.4397 -12.8645 -12.7560 -12.7372 -12.0898 -11.4882 -11.3661 -11.2638
   -10.9813 -10.4486 -10.1564 -10.0263  -9.4953  -8.9076  -8.7291  -8.4931
    -8.3437  -8.1380  -7.8898  -7.2851  -7.1746  -6.7351  -6.6206  -6.5671
    -6.4153  -5.9148  -5.5523  -5.3483  -5.0272  -4.9666  -4.7007  -4.6057
    -4.2754  -4.0655  -3.8368  -3.8132  -3.1325  -2.9383  -2.8467  -2.7744
    -2.6582  -2.5852  -2.3959  -2.3170  -2.2134  -2.1366  -2.0496  -1.9416
    -1.8402  -1.7634  -1.7459  -1.4837  -1.2151  -1.0097  -0.9200  -0.7075

          k =-0.4994 0.2492 0.0011 ( 44253 PWs)   bands (ev):

   -46.2780 -26.3157 -26.2607 -26.1629 -16.5297 -16.2865 -14.9373 -14.3142
   -13.4294 -12.8717 -12.7651 -12.7381 -12.0901 -11.4858 -11.3681 -11.2576
   -10.9835 -10.4398 -10.1566 -10.0230  -9.5025  -8.9122  -8.6990  -8.5099
    -8.3429  -8.1615  -7.8899  -7.2870  -7.1721  -6.7283  -6.6388  -6.5437
    -6.3979  -5.9266  -5.5567  -5.3639  -5.0421  -4.9269  -4.6892  -4.6069
    -4.2428  -4.0661  -3.9554  -3.7766  -3.1046  -2.9034  -2.8732  -2.7551
    -2.6583  -2.5404  -2.4722  -2.3175  -2.2498  -2.1050  -2.0281  -1.9877
    -1.8829  -1.8140  -1.6348  -1.4952  -1.1835  -0.9902  -0.9146  -0.6995

          k =-0.5005 0.2481 0.2524 ( 44250 PWs)   bands (ev):

   -46.2780 -26.3157 -26.2607 -26.1629 -16.5296 -16.2865 -14.9373 -14.3143
   -13.4341 -12.8693 -12.7603 -12.7380 -12.0899 -11.4876 -11.3672 -11.2587
   -10.9817 -10.4438 -10.1565 -10.0232  -9.4978  -8.9144  -8.7168  -8.5007
    -8.3427  -8.1510  -7.8897  -7.2876  -7.1710  -6.7280  -6.6351  -6.5549
    -6.4019  -5.9294  -5.5688  -5.3396  -5.0392  -4.9324  -4.6917  -4.6032
    -4.2447  -4.0583  -3.9440  -3.7945  -3.0995  -2.9326  -2.8349  -2.7663
    -2.6795  -2.5499  -2.4323  -2.3280  -2.2510  -2.1019  -2.0461  -1.9589
    -1.8458  -1.7931  -1.6697  -1.5193  -1.1970  -0.9926  -0.9155  -0.7072

          k =-0.4973 0.2512-0.5015 ( 44255 PWs)   bands (ev):

   -46.2780 -26.3157 -26.2607 -26.1629 -16.5295 -16.2865 -14.9372 -14.3145
   -13.4388 -12.8671 -12.7557 -12.7376 -12.0897 -11.4893 -11.3661 -11.2600
   -10.9798 -10.4480 -10.1563 -10.0233  -9.4923  -8.9175  -8.7321  -8.4933
    -8.3428  -8.1405  -7.8895  -7.2892  -7.1700  -6.7276  -6.6283  -6.5679
    -6.4067  -5.9317  -5.5756  -5.3230  -5.0346  -4.9308  -4.6973  -4.5974
    -4.2465  -4.0583  -3.9509  -3.8007  -3.0962  -2.9418  -2.8399  -2.7611
    -2.6392  -2.5687  -2.4193  -2.2962  -2.2471  -2.1062  -2.0645  -1.9598
    -1.8642  -1.8075  -1.6686  -1.4914  -1.2384  -1.0065  -0.9163  -0.6921

          k =-0.4984 0.2502-0.2502 ( 44256 PWs)   bands (ev):

   -46.2780 -26.3157 -26.2607 -26.1629 -16.5296 -16.2865 -14.9373 -14.3143
   -13.4342 -12.8693 -12.7603 -12.7380 -12.0899 -11.4875 -11.3671 -11.2589
   -10.9816 -10.4441 -10.1565 -10.0231  -9.4971  -8.9149  -8.7165  -8.5007
    -8.3429  -8.1511  -7.8897  -7.2884  -7.1713  -6.7275  -6.6346  -6.5545
    -6.4026  -5.9296  -5.5641  -5.3464  -5.0382  -4.9246  -4.6935  -4.6020
    -4.2440  -4.0662  -3.9618  -3.7847  -3.1027  -2.9231  -2.8402  -2.7673
    -2.6314  -2.5615  -2.4508  -2.2895  -2.2417  -2.1141  -2.0450  -1.9868
    -1.8963  -1.8293  -1.6401  -1.4677  -1.2204  -1.0025  -0.9166  -0.6907

          k =-0.5012-0.5019 0.0042 ( 44240 PWs)   bands (ev):

   -46.2780 -26.3157 -26.2607 -26.1629 -16.5296 -16.2865 -14.9375 -14.3141
   -13.4285 -12.8742 -12.7650 -12.7384 -12.0900 -11.4870 -11.3680 -11.2538
   -10.9820 -10.4395 -10.1566 -10.0200  -9.4988  -8.9243  -8.6988  -8.5123
    -8.3419  -8.1636  -7.8893  -7.2906  -7.1681  -6.7202  -6.6486  -6.5448
    -6.3864  -5.9463  -5.5754  -5.3422  -5.0398  -4.8927  -4.6934  -4.6015
    -4.1698  -4.1032  -4.0432  -3.7773  -3.0755  -2.9042  -2.8703  -2.7421
    -2.6817  -2.5286  -2.4554  -2.2969  -2.2835  -2.0732  -2.0377  -1.9841
    -1.9510  -1.7460  -1.6166  -1.5056  -1.2243  -0.9954  -0.9109  -0.6877

          k =-0.5023-0.5030 0.2555 ( 44257 PWs)   bands (ev):

   -46.2780 -26.3157 -26.2607 -26.1629 -16.5295 -16.2865 -14.9375 -14.3143
   -13.4332 -12.8719 -12.7601 -12.7384 -12.0898 -11.4887 -11.3671 -11.2550
   -10.9802 -10.4435 -10.1565 -10.0202  -9.4940  -8.9259  -8.7181  -8.5018
    -8.3419  -8.1533  -7.8892  -7.2916  -7.1673  -6.7184  -6.6454  -6.5555
    -6.3912  -5.9495  -5.5848  -5.3207  -5.0386  -4.8961  -4.6923  -4.5972
    -4.1742  -4.0958  -4.0379  -3.8002  -3.0686  -2.9223  -2.8318  -2.7592
    -2.6689  -2.5321  -2.4390  -2.2951  -2.2792  -2.0905  -2.0455  -1.9849
    -1.9159  -1.7814  -1.6169  -1.5115  -1.2331  -0.9999  -0.9102  -0.6855

          k =-0.4991-0.4999-0.4984 ( 44302 PWs)   bands (ev):

   -46.2780 -26.3157 -26.2607 -26.1629 -16.5295 -16.2865 -14.9374 -14.3144
   -13.4379 -12.8697 -12.7553 -12.7380 -12.0896 -11.4905 -11.3662 -11.2563
   -10.9783 -10.4474 -10.1563 -10.0205  -9.4892  -8.9277  -8.7349  -8.4936
    -8.3420  -8.1430  -7.8891  -7.2929  -7.1664  -6.7172  -6.6397  -6.5680
    -6.3962  -5.9520  -5.5937  -5.2997  -5.0372  -4.8998  -4.6923  -4.5922
    -4.1798  -4.0887  -4.0303  -3.8220  -3.0616  -2.9284  -2.8430  -2.7515
    -2.6278  -2.5450  -2.4261  -2.2950  -2.2766  -2.1081  -2.0471  -1.9867
    -1.8785  -1.8130  -1.6293  -1.5175  -1.2420  -1.0042  -0.9084  -0.6737

     the Fermi energy is    -2.2216 ev

!    total energy              =    -214.08525888 Ry
     Harris-Foulkes estimate   =    -214.08525888 Ry
     estimated scf accuracy    <          2.1E-09 Ry

     The total energy is the sum of the following terms:

     one-electron contribution =    -261.43278852 Ry
     hartree contribution      =     140.38734529 Ry
     xc contribution           =     -84.91190513 Ry
     ewald contribution        =       7.63437106 Ry
     one-center paw contrib.   =     -15.76236596 Ry
     smearing contrib. (-TS)   =       0.00008438 Ry

     convergence has been achieved in  34 iterations

     Writing output data file 00_YB3H85_Legend.save

     init_run     :    690.47s CPU    272.29s WALL (       1 calls)
     electrons    :  31730.33s CPU   9334.59s WALL (       1 calls)

     Called by init_run:
     wfcinit      :    532.41s CPU    125.29s WALL (       1 calls)
     potinit      :     55.44s CPU     54.44s WALL (       1 calls)

     Called by electrons:
     c_bands      :  25329.19s CPU   7193.54s WALL (      34 calls)
     sum_band     :   5773.97s CPU   1840.25s WALL (      34 calls)
     v_of_rho     :     90.30s CPU     64.10s WALL (      35 calls)
     newd         :    509.25s CPU    190.00s WALL (      35 calls)
     PAW_pot      :     22.09s CPU     18.29s WALL (      35 calls)
     mix_rho      :     13.42s CPU     23.00s WALL (      34 calls)

     Called by c_bands:
     init_us_2    :    240.86s CPU    254.26s WALL (    2484 calls)
     cegterg      :  25022.20s CPU   6702.43s WALL (    1224 calls)

     Called by sum_band:
     sum_band:bec :     24.22s CPU     21.25s WALL (    1224 calls)
     addusdens    :    845.27s CPU    213.48s WALL (      34 calls)

     Called by *egterg:
     h_psi        :  18380.33s CPU   5000.17s WALL (    3969 calls)
     s_psi        :   2613.28s CPU    356.54s WALL (    3969 calls)
     g_psi        :     28.33s CPU     33.35s WALL (    2709 calls)
     cdiaghg      :    283.64s CPU    333.58s WALL (    3933 calls)

     Called by h_psi:
     h_psi:pot    :  18335.78s CPU   4946.44s WALL (    3969 calls)
     h_psi:calbec :   2543.42s CPU    415.85s WALL (    3969 calls)
     vloc_psi     :  13090.75s CPU   4160.84s WALL (    3969 calls)
     add_vuspsi   :   2701.47s CPU    369.69s WALL (    3969 calls)

     General routines
     calbec       :   3747.86s CPU    577.39s WALL (    5193 calls)
     fft          :     57.09s CPU     20.10s WALL (     556 calls)
     ffts         :      2.34s CPU      1.00s WALL (      69 calls)
     fftw         :  11875.83s CPU   3322.35s WALL (  423682 calls)
     interpolate  :     10.89s CPU      5.58s WALL (      69 calls)
     davcio       :      0.20s CPU      3.53s WALL (      36 calls)

     Parallel routines
     fft_scatter  :    654.16s CPU   1013.45s WALL (  424307 calls)

     PWSCF        :     9h 0m CPU        2h40m WALL


   This run was terminated on:   0:44: 5  25Nov2025            

=------------------------------------------------------------------------------=
   JOB DONE.
=------------------------------------------------------------------------------=
