
     Program PWSCF v.6.1 starts on 25Nov2025 at  0:44: 5 

     This program is part of the open-source Quantum ESPRESSO suite
     for quantum simulation of materials; please cite
         "P. Giannozzi et al., J. Phys.:Condens. Matter 21 395502 (2009);
          URL http://www.quantum-espresso.org", 
     in publications or presentations arising from this work. More details at
     http://www.quantum-espresso.org/quote

     Parallel version (MPI & OpenMP), running on      12 processor cores
     Number of MPI processes:                 1
     Threads/MPI process:                    12
     Waiting for input...
     Reading input from standard input

     Current dimensions of program PWSCF are:
     Max number of different atomic species (ntypx) = 10
     Max number of k-points (npk) =  40000
     Max angular momentum in pseudopotentials (lmaxx) =  3

     Atomic positions and unit cell read from directory:
     ./tmp/00_YB3H85_Legend.save/

               file H.UPF: wavefunction(s)  1S renormalized

     Subspace diagonalization in iterative solution of the eigenvalue problem:
     a serial algorithm will be used


     G-vector sticks info
     --------------------
     sticks:   dense  smooth     PW     G-vecs:    dense   smooth      PW
     Sum       12141    6053   1635              1001071   353881   49649



     bravais-lattice index     =            0
     lattice parameter (alat)  =      19.5387  a.u.
     unit-cell volume          =    7410.5465 (a.u.)^3
     number of atoms/cell      =           89
     number of atomic types    =            3
     number of electrons       =       105.00
     number of Kohn-Sham states=           64
     kinetic-energy cutoff     =      50.0000  Ry
     charge density cutoff     =     400.0000  Ry
     Exchange-correlation      =  SLA  PW   PBE  PBE ( 1  4  3  4 0 0)

     celldm(1)=  19.538675  celldm(2)=   0.000000  celldm(3)=   0.000000
     celldm(4)=   0.000000  celldm(5)=   0.000000  celldm(6)=   0.000000

     crystal axes: (cart. coord. in units of alat)
               a(1) = (   0.999988  -0.002391   0.004216 )  
               a(2) = (  -0.002384   0.998571   0.004112 )  
               a(3) = (   0.004198   0.004109   0.994967 )  

     reciprocal axes: (cart. coord. in units 2 pi/alat)
               b(1) = (  1.000035  0.002405 -0.004229 )  
               b(2) = (  0.002412  1.001454 -0.004146 )  
               b(3) = ( -0.004247 -0.004149  1.005094 )  


     PseudoPot. # 1 for  B read from file:
     C:/Users/Acer/Desktop/Quantum_Espresso/pseudo/B.UPF
     MD5 check sum: 07a2b2e539a360f5bda43965cc3a01bd
     Pseudo is Projector augmented-wave + core cor, Zval =  3.0
     Generated using "atomic" code by A. Dal Corso  v.5.1.2
     Shape of augmentation charge: PSQ
     Using radial grid of 1059 points,  4 beta functions with: 
                l(1) =   0
                l(2) =   0
                l(3) =   1
                l(4) =   1
     Q(r) pseudized with 0 coefficients 


     PseudoPot. # 2 for  H read from file:
     C:/Users/Acer/Desktop/Quantum_Espresso/pseudo/H.UPF
     MD5 check sum: f872269930354f4c44a8fadb7eac41ed
     Pseudo is Projector augmented-wave, Zval =  1.0
     Generated using "atomic" code by A. Dal Corso  v.5.1.2
     Shape of augmentation charge: PSQ
     Using radial grid of  929 points,  2 beta functions with: 
                l(1) =   0
                l(2) =   0
     Q(r) pseudized with 0 coefficients 


     PseudoPot. # 3 for Y  read from file:
     C:/Users/Acer/Desktop/Quantum_Espresso/pseudo/Y.UPF
     MD5 check sum: 3b2d2de21dfc3047ddb0f22bc419bc04
     Pseudo is Ultrasoft + core correction, Zval = 11.0
     Generated by new atomic code, or converted to UPF format
     Using radial grid of  885 points,  6 beta functions with: 
                l(1) =   0
                l(2) =   0
                l(3) =   1
                l(4) =   1
                l(5) =   2
                l(6) =   2
     Q(r) pseudized with  6 coefficients,  rinner =    1.200   1.200   1.200
                                                       1.200   1.200

     atomic species   valence    mass     pseudopotential
        B              3.00     1.00000      B( 1.00)
        H              1.00     1.00000      H( 1.00)
        Y             11.00     1.00000     Y ( 1.00)

     No symmetry found



   Cartesian axes

     site n.     atom                  positions (alat units)
         1           Y   tau(   1) = (   0.9201347   0.4230778   0.5888037  )
         2           B   tau(   2) = (   0.5377119   0.3059388   0.4791051  )
         3           B   tau(   3) = (   0.6809772   0.6646600   0.2482508  )
         4           B   tau(   4) = (   0.3377645   0.4786041   0.7036893  )
         5           H   tau(   5) = (   0.5294455   0.3821258   0.5747778  )
         6           H   tau(   6) = (   0.1700521   0.2385153   0.5405699  )
         7           H   tau(   7) = (   0.7749631   0.1994028   0.4261941  )
         8           H   tau(   8) = (   0.8893505   0.4869992   0.3183621  )
         9           H   tau(   9) = (   0.7889155   0.3972408   0.3872605  )
        10           H   tau(  10) = (   0.4289099   0.1857618   0.5940942  )
        11           H   tau(  11) = (   0.7212309   0.4021995   0.3007306  )
        12           H   tau(  12) = (   0.6783581   0.3399107   0.3409224  )
        13           H   tau(  13) = (   0.3190111   0.3977273   0.1107470  )
        14           H   tau(  14) = (   0.1709873   0.3423277   0.7201167  )
        15           H   tau(  15) = (   0.1985092   0.5833266   0.3209435  )
        16           H   tau(  16) = (   0.2761218   0.8850350   0.7792206  )
        17           H   tau(  17) = (   0.7636162   0.8324421   0.3003746  )
        18           H   tau(  18) = (   0.7656192   0.4557847   0.7989238  )
        19           H   tau(  19) = (   0.9110181   0.3103974   0.4205970  )
        20           H   tau(  20) = (   0.8652825   0.6993825   0.8751602  )
        21           H   tau(  21) = (   0.1332724   0.6876226   0.4342003  )
        22           H   tau(  22) = (   0.3839064   0.6321098   0.1737360  )
        23           H   tau(  23) = (   0.7556235   0.6978427   0.7968695  )
        24           H   tau(  24) = (   0.2450901   0.7713101   0.2928636  )
        25           H   tau(  25) = (   0.3602358   0.1727621   0.6422980  )
        26           H   tau(  26) = (   0.1688731   0.1360618   0.5880039  )
        27           H   tau(  27) = (   0.2773734   0.1937594   0.7450891  )
        28           H   tau(  28) = (   0.8203399   0.2172810   0.5394606  )
        29           H   tau(  29) = (   0.2763375   0.2381342   0.6620854  )
        30           H   tau(  30) = (   0.2595368   0.2802710   0.5323238  )
        31           H   tau(  31) = (   0.6412931   0.8365391   0.4289041  )
        32           H   tau(  32) = (   0.7897802   0.3036640   0.4219482  )
        33           H   tau(  33) = (   0.3056438   0.3105251   0.1887533  )
        34           H   tau(  34) = (   0.2299635   0.3926680   0.7737348  )
        35           H   tau(  35) = (   0.2594130   0.1206866   0.1813689  )
        36           H   tau(  36) = (   0.5661574   0.2964247   0.8095192  )
        37           H   tau(  37) = (   0.1721605   0.8592734   0.3172479  )
        38           H   tau(  38) = (   0.6276299   0.6724303   0.6594373  )
        39           H   tau(  39) = (   0.8215208   0.5350270   0.8318376  )
        40           H   tau(  40) = (   0.3662584   0.1876585   0.5171856  )
        41           H   tau(  41) = (   0.6330876   0.8932018   0.2144627  )
        42           H   tau(  42) = (   0.3573788   0.8516037   0.8567617  )
        43           H   tau(  43) = (   0.4030748   0.8277291   0.7949729  )
        44           H   tau(  44) = (   0.3475165   0.5512804   0.3419011  )
        45           H   tau(  45) = (   0.4795433   0.4085848   0.1473380  )
        46           H   tau(  46) = (   0.4118403   0.6307761   0.8416757  )
        47           H   tau(  47) = (   0.8204018   0.5176992   0.4541685  )
        48           H   tau(  48) = (   0.4350108   0.2027009   0.4317950  )
        49           H   tau(  49) = (   0.1962682   0.1198007   0.3845989  )
        50           H   tau(  50) = (   0.7314868   0.8445134   0.6596452  )
        51           H   tau(  51) = (   0.6443552   0.8019191   0.3617011  )
        52           H   tau(  52) = (   0.7177674   0.8453539   0.5843431  )
        53           H   tau(  53) = (   0.1385938   0.6626115   0.7094323  )
        54           H   tau(  54) = (   0.3547587   0.6904574   0.6691264  )
        55           H   tau(  55) = (   0.6969558   0.6697667   0.6131001  )
        56           H   tau(  56) = (   0.6837684   0.3207481   0.4717237  )
        57           H   tau(  57) = (   0.2474636   0.7632429   0.5895697  )
        58           H   tau(  58) = (   0.2074255   0.2688922   0.4505629  )
        59           H   tau(  59) = (   0.3615560   0.6725850   0.8208883  )
        60           H   tau(  60) = (   0.1424857   0.4506055   0.3987351  )
        61           H   tau(  61) = (   0.7916226   0.2337258   0.3315079  )
        62           H   tau(  62) = (   0.4677128   0.4225759   0.8838531  )
        63           H   tau(  63) = (   0.6922293   0.7375906   0.4221967  )
        64           H   tau(  64) = (   0.3460310   0.1792721   0.3975783  )
        65           H   tau(  65) = (   0.8157149   0.8350361   0.6545947  )
        66           H   tau(  66) = (   0.3297244   0.3924378   0.2273996  )
        67           H   tau(  67) = (   0.5707950   0.3225538   0.7485109  )
        68           H   tau(  68) = (   0.3439216   0.2828833   0.8440366  )
        69           H   tau(  69) = (   0.6984830   0.8254466   0.2336881  )
        70           H   tau(  70) = (   0.4256969   0.2635505   0.1437266  )
        71           H   tau(  71) = (   0.7339908   0.5987908   0.8409503  )
        72           H   tau(  72) = (   0.4115665   0.5803797   0.6144802  )
        73           H   tau(  73) = (   0.8581283   0.1899391   0.8813404  )
        74           H   tau(  74) = (   0.3520971   0.2231169   0.2501368  )
        75           H   tau(  75) = (   0.3121548   0.6960380   0.6021614  )
        76           H   tau(  76) = (   0.3266924   0.8422899   0.2439585  )
        77           H   tau(  77) = (   0.1611222   0.8897345   0.6461000  )
        78           H   tau(  78) = (   0.5139446   0.1315702   0.4429000  )
        79           H   tau(  79) = (   0.1049798   0.1649531   0.5479262  )
        80           H   tau(  80) = (   0.4875621   0.7620707   0.3422464  )
        81           H   tau(  81) = (   0.8888795   0.8148793   0.6871719  )
        82           H   tau(  82) = (   0.2232572   0.7517181   0.2123397  )
        83           H   tau(  83) = (   0.5995742   0.8737413   0.8435994  )
        84           H   tau(  84) = (   0.2062417   0.2579458   0.7851793  )
        85           H   tau(  85) = (   0.5436262   0.4050314   0.1238899  )
        86           H   tau(  86) = (   0.8844499   0.2328496   0.4967386  )
        87           H   tau(  87) = (   0.1642345   0.4304467   0.4671983  )
        88           H   tau(  88) = (   0.5012147   0.1145016   0.3099429  )
        89           H   tau(  89) = (   0.6133380   0.2186708   0.4469302  )

     number of k points=   260 (tetrahedron method)

     Number of k-points >= 100: set verbosity='high' to print them.

     Dense  grid:  1001071 G-vectors     FFT dimensions: ( 125, 125, 125)

     Smooth grid:   353881 G-vectors     FFT dimensions: (  90,  90,  90)

     Estimated max dynamical RAM per process >     820.31MB

     The potential is recalculated from file :
     ./tmp/00_YB3H85_Legend.save/charge-density.dat


     negative rho (up, down):  4.305E-02 0.000E+00
     Starting wfc are  110 randomized atomic wfcs
     Checking if some PAW data can be deallocated... 

     Band Structure Calculation
     Davidson diagonalization with overlap

     ethr =  9.52E-12,  avg # of iterations = 44.4

     total cpu time spent up to now is    16480.9 secs

     End of band structure calculation

     Number of k-points >= 100: set verbosity='high' to print the bands.

     the Fermi energy is    -2.2286 ev

     Writing output data file 00_YB3H85_Legend.save

     init_run     :    131.69s CPU    128.40s WALL (       1 calls)
     electrons    :  56142.39s CPU  16351.93s WALL (       1 calls)

     Called by init_run:
     wfcinit      :      0.00s CPU      0.00s WALL (       1 calls)
     potinit      :      3.45s CPU      2.73s WALL (       1 calls)

     Called by electrons:
     c_bands      :  56142.20s CPU  16351.72s WALL (       1 calls)
     v_of_rho     :      2.23s CPU      1.83s WALL (       1 calls)
     newd         :     14.38s CPU      5.29s WALL (       1 calls)
     PAW_pot      :      0.73s CPU      0.51s WALL (       1 calls)

     Called by c_bands:
     init_us_2    :     18.22s CPU     21.83s WALL (     260 calls)
     cegterg      :  51926.70s CPU  15198.83s WALL (     742 calls)

     Called by sum_band:

     Called by *egterg:
     h_psi        :  34853.64s CPU  10181.96s WALL (   12548 calls)
     s_psi        :   5024.88s CPU   1010.01s WALL (   12548 calls)
     g_psi        :     67.22s CPU     75.15s WALL (   11546 calls)
     cdiaghg      :   1049.30s CPU   1271.20s WALL (   11806 calls)

     Called by h_psi:
     h_psi:pot    :  34768.53s CPU  10086.03s WALL (   12548 calls)
     h_psi:calbec :   4562.73s CPU   1048.51s WALL (   12548 calls)
     vloc_psi     :  25309.91s CPU   8016.78s WALL (   12548 calls)
     add_vuspsi   :   4895.36s CPU   1020.64s WALL (   12548 calls)

     General routines
     calbec       :   4562.61s CPU   1048.45s WALL (   12548 calls)
     fft          :      1.16s CPU      0.57s WALL (      13 calls)
     ffts         :      0.05s CPU      0.03s WALL (       1 calls)
     fftw         :  18458.00s CPU   5206.82s WALL (  680384 calls)
     interpolate  :      0.30s CPU      0.12s WALL (       1 calls)
     davcio       :      1.53s CPU     14.61s WALL (     260 calls)

     Parallel routines
     fft_scatter  :    933.91s CPU   1378.08s WALL (  680398 calls)

     PWSCF        :    15h37m CPU        4h34m WALL


   This run was terminated on:   5:18:48  25Nov2025            

=------------------------------------------------------------------------------=
   JOB DONE.
=------------------------------------------------------------------------------=
