
     Program PWSCF v.6.7MaX starts on  8Jan2026 at 16:57: 9 

     This program is part of the open-source Quantum ESPRESSO suite
     for quantum simulation of materials; please cite
         "P. Giannozzi et al., J. Phys.:Condens. Matter 21 395502 (2009);
         "P. Giannozzi et al., J. Phys.:Condens. Matter 29 465901 (2017);
          URL http://www.quantum-espresso.org", 
     in publications or presentations arising from this work. More details at
     http://www.quantum-espresso.org/quote

     Parallel version (MPI), running on     4 processors

     MPI processes distributed on     1 nodes
     R & G space division:  proc/nbgrp/npool/nimage =       4
     Waiting for input...
     Reading input from standard input

     Current dimensions of program PWSCF are:
     Max number of different atomic species (ntypx) = 10
     Max number of k-points (npk) =  40000
     Max angular momentum in pseudopotentials (lmaxx) =  3
     Message from routine iosys:
     restart disabled: needed files not found
     file H.UPF: wavefunction(s)  1S renormalized

     Subspace diagonalization in iterative solution of the eigenvalue problem:
     one sub-group per band group will be used
     scalapack distributed-memory algorithm (size of sub-group:  2*  2 procs)

     Message from routine setup:
     using ibrav=0 with symmetry is DISCOURAGED, use correct ibrav instead

     Parallelization info
     --------------------
     sticks:   dense  smooth     PW     G-vecs:    dense   smooth      PW
     Min         486     241     70                14249     5026     779
     Max         487     243     71                14254     5028     780
     Sum        1945     967    283                57001    20107    3119



     bravais-lattice index     =            0
     lattice parameter (alat)  =       8.4282  a.u.
     unit-cell volume          =     423.3415 (a.u.)^3
     number of atoms/cell      =            9
     number of atomic types    =            4
     number of electrons       =        28.00
     number of Kohn-Sham states=           18
     kinetic-energy cutoff     =      50.0000  Ry
     charge density cutoff     =     400.0000  Ry
     scf convergence threshold =      1.0E-06
     mixing beta               =       0.7000
     number of iterations used =            8  plain     mixing
     energy convergence thresh.=      1.0E-04
     force convergence thresh. =      1.0E-03
     press convergence thresh. =      5.0E-01
     Exchange-correlation=  SLA  PW   PBE  PBE
                           (   1   4   3   4   0   0   0)
     nstep                     =           50


     celldm(1)=   8.428210  celldm(2)=   0.000000  celldm(3)=   0.000000
     celldm(4)=   0.000000  celldm(5)=   0.000000  celldm(6)=   0.000000

     crystal axes: (cart. coord. in units of alat)
               a(1) = (   0.707107   0.707107  -0.000000 )  
               a(2) = (  -0.000000   0.707107   0.707107 )  
               a(3) = (   0.707107   0.000000   0.707107 )  

     reciprocal axes: (cart. coord. in units 2 pi/alat)
               b(1) = (  0.707107  0.707107 -0.707107 )  
               b(2) = ( -0.707107  0.707107  0.707107 )  
               b(3) = (  0.707107 -0.707107  0.707107 )  


     PseudoPot. # 1 for H  read from file:
     /home/marco/ZOS_Cloud_Compute/pseudo/H.UPF
     MD5 check sum: 850d63dcbcc06c5de8b44e0ab9f952da
     Pseudo is Projector augmented-wave, Zval =  1.0
     Generated using "atomic" code by A. Dal Corso  v.5.1.2
     Shape of augmentation charge: PSQ
     Using radial grid of  929 points,  2 beta functions with: 
                l(1) =   0
                l(2) =   0
     Q(r) pseudized with 0 coefficients 


     PseudoPot. # 2 for Li read from file:
     /home/marco/ZOS_Cloud_Compute/pseudo/Li.UPF
     MD5 check sum: 057edeeab9105e5446fd9e29ea3f9c2f
     Pseudo is Ultrasoft + core correction, Zval =  1.0
     Generated by new atomic code, or converted to UPF format
     Using radial grid of  751 points,  2 beta functions with: 
                l(1) =   1
                l(2) =   1
     Q(r) pseudized with  8 coefficients,  rinner =    1.000   1.000   1.000


     PseudoPot. # 3 for Ru read from file:
     /home/marco/ZOS_Cloud_Compute/pseudo/Ru.UPF
     MD5 check sum: f5b0c0ac0209bb78060468064b042e80
     Pseudo is Ultrasoft + core correction, Zval =  8.0
     Generated by new atomic code, or converted to UPF format
     Using radial grid of  967 points,  4 beta functions with: 
                l(1) =   0
                l(2) =   0
                l(3) =   2
                l(4) =   2
     Q(r) pseudized with  8 coefficients,  rinner =    0.900   0.900   0.900
                                                       0.900   0.900

     PseudoPot. # 4 for Ta read from file:
     /home/marco/ZOS_Cloud_Compute/pseudo/Ta.UPF
     MD5 check sum: 395be6f3d7fb4652d9fb26f9961305c8
     Pseudo is Ultrasoft + core correction, Zval = 13.0
     Generated by new atomic code, or converted to UPF format
     Using radial grid of  921 points,  6 beta functions with: 
                l(1) =   0
                l(2) =   0
                l(3) =   1
                l(4) =   1
                l(5) =   2
                l(6) =   2
     Q(r) pseudized with  6 coefficients,  rinner =    1.000   1.000   1.000
                                                       1.000   1.000

     atomic species   valence    mass     pseudopotential
        H              1.00     1.00000     H ( 1.00)
        Li             1.00     1.00000     Li( 1.00)
        Ru             8.00     1.00000     Ru( 1.00)
        Ta            13.00     1.00000     Ta( 1.00)

     24 Sym. Ops. (no inversion) found



   Cartesian axes

     site n.     atom                  positions (alat units)
         1           Ta  tau(   1) = (   1.0606599   1.0606602   1.0606599  )
         2           Li  tau(   2) = (   0.3535534   0.3535534   0.3535534  )
         3           H   tau(   3) = (   0.7071066   0.7071068   1.0382513  )
         4           H   tau(   4) = (   0.7071066   0.3759618   0.7071066  )
         5           H   tau(   5) = (   0.3759618   0.7071068   0.7071066  )
         6           H   tau(   6) = (   0.7071068   0.7071068   0.3759618  )
         7           H   tau(   7) = (   0.7071068   1.0382515   0.7071066  )
         8           H   tau(   8) = (   1.0382515   0.7071068   0.7071066  )
         9           Ru  tau(   9) = (   0.0000000  -0.0000000   0.0000000  )

     number of k points=     3  Methfessel-Paxton smearing, width (Ry)=  0.0200
                       cart. coord. in units 2pi/alat
        k(    1) = (   0.0000000   0.0000000   0.0000000), wk =   0.2500000
        k(    2) = (  -0.3535534   0.3535534  -0.3535536), wk =   1.0000000
        k(    3) = (   0.0000000   0.0000000  -0.7071070), wk =   0.7500000

     Dense  grid:    57001 G-vectors     FFT dimensions: (  54,  54,  54)

     Smooth grid:    20107 G-vectors     FFT dimensions: (  40,  40,  40)

     Estimated max dynamical RAM per process >      68.03 MB

     Estimated total dynamical RAM >     272.13 MB
     Cannot read rho : file not found

     Initial potential from superposition of free atoms

     starting charge   27.99349, renormalised to   28.00000
     Message from routine qexsd_readschema :
     xml data file ./tmp/LiTaH6Ru.save/data-file-schema.xml not found
     Cannot read wfcs: file not found
     Starting wfcs are   32 randomized atomic wfcs
     Checking if some PAW data can be deallocated... 

     total cpu time spent up to now is        6.7 secs

     Self-consistent Calculation

     iteration #  1     ecut=    50.00 Ry     beta= 0.70
     Davidson diagonalization with overlap
     ethr =  1.00E-05,  avg # of iterations = 12.0

     total cpu time spent up to now is        8.6 secs

     total energy              =    -200.86377890 Ry
     estimated scf accuracy    <       0.48495356 Ry

     iteration #  2     ecut=    50.00 Ry     beta= 0.70
     Davidson diagonalization with overlap
     ethr =  1.73E-03,  avg # of iterations =  3.3

     total cpu time spent up to now is        9.8 secs

     total energy              =    -200.84227737 Ry
     estimated scf accuracy    <       0.75052735 Ry

     iteration #  3     ecut=    50.00 Ry     beta= 0.70
     Davidson diagonalization with overlap
     ethr =  1.73E-03,  avg # of iterations =  2.7

     total cpu time spent up to now is       10.9 secs

     total energy              =    -200.97026113 Ry
     estimated scf accuracy    <       0.37042735 Ry

     iteration #  4     ecut=    50.00 Ry     beta= 0.70
     Davidson diagonalization with overlap
     ethr =  1.32E-03,  avg # of iterations =  1.3

     total cpu time spent up to now is       11.8 secs

     total energy              =    -201.03290842 Ry
     estimated scf accuracy    <       0.00677636 Ry

     iteration #  5     ecut=    50.00 Ry     beta= 0.70
     Davidson diagonalization with overlap
     ethr =  2.42E-05,  avg # of iterations =  3.7

     total cpu time spent up to now is       12.9 secs

     total energy              =    -201.03498854 Ry
     estimated scf accuracy    <       0.00105145 Ry

     iteration #  6     ecut=    50.00 Ry     beta= 0.70
     Davidson diagonalization with overlap
     ethr =  3.76E-06,  avg # of iterations =  2.7

     total cpu time spent up to now is       14.0 secs

     total energy              =    -201.03505587 Ry
     estimated scf accuracy    <       0.00010004 Ry

     iteration #  7     ecut=    50.00 Ry     beta= 0.70
     Davidson diagonalization with overlap
     ethr =  3.57E-07,  avg # of iterations =  3.7

     total cpu time spent up to now is       15.1 secs

     total energy              =    -201.03508891 Ry
     estimated scf accuracy    <       0.00001368 Ry

     iteration #  8     ecut=    50.00 Ry     beta= 0.70
     Davidson diagonalization with overlap
     ethr =  4.89E-08,  avg # of iterations =  2.3

     total cpu time spent up to now is       16.2 secs

     total energy              =    -201.03509012 Ry
     estimated scf accuracy    <       0.00000129 Ry

     iteration #  9     ecut=    50.00 Ry     beta= 0.70
     Davidson diagonalization with overlap
     ethr =  4.59E-09,  avg # of iterations =  4.7

     total cpu time spent up to now is       17.3 secs

     End of self-consistent calculation

          k = 0.0000 0.0000 0.0000 (  2565 PWs)   bands (ev):

   -58.0482 -24.5112 -24.5112 -24.5112  -0.2808   4.0272   4.0272   5.6303
     5.6303   5.6303   7.3965   7.3965   7.3965  12.2328  12.2328  15.1836
    15.1836  15.1839

          k =-0.3536 0.3536-0.3536 (  2512 PWs)   bands (ev):

   -58.0481 -24.5263 -24.5136 -24.5136   1.8474   3.0397   3.6155   3.6155
     7.0450   7.1406   7.1406   7.4149   7.4149  11.6055  11.8049  11.8049
    12.6701  12.6701

          k = 0.0000 0.0000-0.7071 (  2498 PWs)   bands (ev):

   -58.0480 -24.5269 -24.5168 -24.5168   1.7966   3.8918   3.9548   4.8485
     6.2245   6.2245   6.2527   7.3990   7.3990  10.4088  10.9294  12.0074
    12.0074  12.6891

     the Fermi energy is    11.6026 ev

!    total energy              =    -201.03509054 Ry
     estimated scf accuracy    <       0.00000001 Ry
     smearing contrib. (-TS)   =      -0.00077641 Ry
     internal energy E=F+TS    =    -201.03431414 Ry

     The total energy is F=E-TS. E is the sum of the following terms:
     one-electron contribution =     -36.06319278 Ry
     hartree contribution      =      31.86886927 Ry
     xc contribution           =     -74.93598332 Ry
     ewald contribution        =    -121.90316235 Ry
     one-center paw contrib.   =      -0.00084495 Ry

     convergence has been achieved in   9 iterations

     Forces acting on atoms (cartesian axes, Ry/au):

     atom    1 type  4   force =    -0.00000000   -0.00000000    0.00000000
     atom    2 type  2   force =     0.00000000    0.00000000    0.00000000
     atom    3 type  1   force =     0.00000000    0.00000000   -0.02263794
     atom    4 type  1   force =     0.00000000    0.02263793    0.00000000
     atom    5 type  1   force =     0.02263794   -0.00000000    0.00000000
     atom    6 type  1   force =    -0.00000000    0.00000000    0.02263794
     atom    7 type  1   force =     0.00000000   -0.02263793   -0.00000000
     atom    8 type  1   force =    -0.02263794    0.00000000   -0.00000000
     atom    9 type  3   force =     0.00000000    0.00000000   -0.00000000

     Total force =     0.055451     Total SCF correction =     0.000048


     Computing stress (Cartesian axis) and pressure

          total   stress  (Ry/bohr**3)                   (kbar)     P=      165.90
   0.00112779  -0.00000000   0.00000000          165.90       -0.00        0.00
  -0.00000000   0.00112779  -0.00000000           -0.00      165.90       -0.00
   0.00000000  -0.00000000   0.00112779            0.00       -0.00      165.90


     BFGS Geometry Optimization
     Energy error            =      0.0E+00
     Gradient error          =      2.3E-02
     Cell gradient error     =      1.1E-03


     number of scf cycles    =   1
     number of bfgs steps    =   0

     enthalpy new            =    -201.0350905449 Ry

     new trust radius        =       0.1160225666 bohr
     new conv_thr            =       0.0000010000 Ry

     new unit-cell volume =    460.16848 a.u.^3 (    68.18993 Ang^3 )
     density =      0.21917 g/cm^3

CELL_PARAMETERS (angstrom)
   3.242625724   3.242625695   0.000000014
   0.000000000   3.242625710   3.242624738
   3.242624724  -0.000000014   3.242624752

ATOMIC_POSITIONS (angstrom)
Ta            4.8639375785        4.8639385432        4.8639376419
Li            1.6213128689        1.6213128477        1.6213128900
H             3.2426247161        3.2426256955        4.7488595341
H             3.2426247161        1.7363899073        3.2426247519
H             1.7363899385        3.2426257001        3.2426247473
H             3.2426257312        3.2426256955        1.7363899696
H             3.2426257312        4.7488604554        3.2426247519
H             4.7488605089        3.2426256909        3.2426247565
Ru           -0.0000000000        0.0000000000       -0.0000000000



     Writing output data file ./tmp/LiTaH6Ru.save/
     NEW-OLD atomic charge density approx. for the potential
     extrapolated charge   30.24030, renormalised to   28.00000

     total cpu time spent up to now is       33.5 secs

     Self-consistent Calculation

     iteration #  1     ecut=    50.00 Ry     beta= 0.70
     Davidson diagonalization with overlap
     c_bands:  1 eigenvalues not converged
     ethr =  1.00E-06,  avg # of iterations = 16.0

     total cpu time spent up to now is       35.7 secs

     total energy              =    -200.05568560 Ry
     estimated scf accuracy    <       0.80726085 Ry

     iteration #  2     ecut=    50.00 Ry     beta= 0.70
     Davidson diagonalization with overlap
     ethr =  2.88E-03,  avg # of iterations =  5.3

     total cpu time spent up to now is       37.0 secs

     total energy              =    -200.79713062 Ry
     estimated scf accuracy    <       3.78420173 Ry

     iteration #  3     ecut=    50.00 Ry     beta= 0.70
     Davidson diagonalization with overlap
     ethr =  2.88E-03,  avg # of iterations =  3.0

     total cpu time spent up to now is       38.0 secs

     total energy              =    -201.08501465 Ry
     estimated scf accuracy    <       0.64820829 Ry

     iteration #  4     ecut=    50.00 Ry     beta= 0.70
     Davidson diagonalization with overlap
     ethr =  2.32E-03,  avg # of iterations =  1.0

     total cpu time spent up to now is       38.9 secs

     total energy              =    -201.08264114 Ry
     estimated scf accuracy    <       0.28638356 Ry

     iteration #  5     ecut=    50.00 Ry     beta= 0.70
     Davidson diagonalization with overlap
     ethr =  1.02E-03,  avg # of iterations =  1.3

     total cpu time spent up to now is       39.9 secs

     total energy              =    -201.06276570 Ry
     estimated scf accuracy    <       0.15461983 Ry

     iteration #  6     ecut=    50.00 Ry     beta= 0.70
     Davidson diagonalization with overlap
     ethr =  5.52E-04,  avg # of iterations =  1.7

     total cpu time spent up to now is       40.8 secs

     total energy              =    -201.04676082 Ry
     estimated scf accuracy    <       0.07034955 Ry

     iteration #  7     ecut=    50.00 Ry     beta= 0.70
     Davidson diagonalization with overlap
     ethr =  2.51E-04,  avg # of iterations =  4.3

     total cpu time spent up to now is       41.9 secs

     total energy              =    -201.05586524 Ry
     estimated scf accuracy    <       0.00650956 Ry

     iteration #  8     ecut=    50.00 Ry     beta= 0.70
     Davidson diagonalization with overlap
     ethr =  2.32E-05,  avg # of iterations =  4.0

     total cpu time spent up to now is       43.1 secs

     total energy              =    -201.05626724 Ry
     estimated scf accuracy    <       0.00183062 Ry

     iteration #  9     ecut=    50.00 Ry     beta= 0.70
     Davidson diagonalization with overlap
     ethr =  6.54E-06,  avg # of iterations =  2.0

     total cpu time spent up to now is       44.1 secs

     total energy              =    -201.05587347 Ry
     estimated scf accuracy    <       0.00089432 Ry

     iteration # 10     ecut=    50.00 Ry     beta= 0.70
     Davidson diagonalization with overlap
     ethr =  3.19E-06,  avg # of iterations =  4.0

     total cpu time spent up to now is       45.3 secs

     total energy              =    -201.05618584 Ry
     estimated scf accuracy    <       0.00005125 Ry

     iteration # 11     ecut=    50.00 Ry     beta= 0.70
     Davidson diagonalization with overlap
     ethr =  1.83E-07,  avg # of iterations =  3.0

     total cpu time spent up to now is       46.4 secs

     total energy              =    -201.05617091 Ry
     estimated scf accuracy    <       0.00005685 Ry

     iteration # 12     ecut=    50.00 Ry     beta= 0.70
     Davidson diagonalization with overlap
     ethr =  1.83E-07,  avg # of iterations =  2.0

     total cpu time spent up to now is       47.5 secs

     total energy              =    -201.05617489 Ry
     estimated scf accuracy    <       0.00000848 Ry

     iteration # 13     ecut=    50.00 Ry     beta= 0.70
     Davidson diagonalization with overlap
     ethr =  3.03E-08,  avg # of iterations =  2.7

     total cpu time spent up to now is       48.5 secs

     total energy              =    -201.05617450 Ry
     estimated scf accuracy    <       0.00000410 Ry

     iteration # 14     ecut=    50.00 Ry     beta= 0.70
     Davidson diagonalization with overlap
     ethr =  1.46E-08,  avg # of iterations =  2.0

     total cpu time spent up to now is       49.5 secs

     End of self-consistent calculation

          k = 0.0000 0.0000 0.0000 (  2565 PWs)   bands (ev):

   -59.3856 -25.7970 -25.7970 -25.7970  -0.8408   3.4762   3.4762   4.7990
     4.7990   4.7990   6.5434   6.5434   6.5435  10.9009  10.9009  13.7628
    13.7628  13.7632

          k =-0.3439 0.3439-0.3439 (  2512 PWs)   bands (ev):

   -59.3855 -25.8069 -25.7986 -25.7986   1.1789   2.2560   3.0561   3.0561
     6.2185   6.2714   6.2714   6.5143   6.5143  10.3404  10.5246  10.5246
    11.2861  11.2861

          k = 0.0000-0.0000-0.6877 (  2498 PWs)   bands (ev):

   -59.3855 -25.8071 -25.8007 -25.8007   1.2304   3.0973   3.2056   4.2382
     5.2752   5.2752   5.4942   6.5632   6.5632   9.2616   9.7812  10.7118
    10.7118  11.2866

     the Fermi energy is    10.3313 ev

!    total energy              =    -201.05617428 Ry
     estimated scf accuracy    <       0.00000085 Ry
     smearing contrib. (-TS)   =      -0.00064547 Ry
     internal energy E=F+TS    =    -201.05552881 Ry

     The total energy is F=E-TS. E is the sum of the following terms:
     one-electron contribution =     -40.74811256 Ry
     hartree contribution      =      33.03927775 Ry
     xc contribution           =     -74.63704322 Ry
     ewald contribution        =    -118.70880503 Ry
     one-center paw contrib.   =      -0.00084575 Ry

     convergence has been achieved in  14 iterations

     Forces acting on atoms (cartesian axes, Ry/au):

     atom    1 type  4   force =    -0.00000000   -0.00000000    0.00000000
     atom    2 type  2   force =     0.00000000   -0.00000000    0.00000000
     atom    3 type  1   force =    -0.00000000    0.00000000    0.00430097
     atom    4 type  1   force =    -0.00000000   -0.00430097   -0.00000000
     atom    5 type  1   force =    -0.00430097    0.00000000   -0.00000000
     atom    6 type  1   force =     0.00000000   -0.00000000   -0.00430097
     atom    7 type  1   force =     0.00000000    0.00430097    0.00000000
     atom    8 type  1   force =     0.00430097   -0.00000000    0.00000000
     atom    9 type  3   force =     0.00000000   -0.00000000   -0.00000000

     Total force =     0.010535     Total SCF correction =     0.000072


     Computing stress (Cartesian axis) and pressure

