
     Program PWSCF v.6.7MaX starts on  2Mar2026 at  2:19:46 

     This program is part of the open-source Quantum ESPRESSO suite
     for quantum simulation of materials; please cite
         "P. Giannozzi et al., J. Phys.:Condens. Matter 21 395502 (2009);
         "P. Giannozzi et al., J. Phys.:Condens. Matter 29 465901 (2017);
          URL http://www.quantum-espresso.org", 
     in publications or presentations arising from this work. More details at
     http://www.quantum-espresso.org/quote

     Parallel version (MPI), running on     2 processors

     MPI processes distributed on     1 nodes
     R & G space division:  proc/nbgrp/npool/nimage =       2
     Waiting for input...
     Reading input from standard input

     Current dimensions of program PWSCF are:
     Max number of different atomic species (ntypx) = 10
     Max number of k-points (npk) =  40000
     Max angular momentum in pseudopotentials (lmaxx) =  3
     file H.UPF: wavefunction(s)  1S renormalized

     Subspace diagonalization in iterative solution of the eigenvalue problem:
     a serial algorithm will be used


     Parallelization info
     --------------------
     sticks:   dense  smooth     PW     G-vecs:    dense   smooth      PW
     Min        4099    2047    558               383161   135451   19172
     Max        4100    2048    559               383164   135452   19173
     Sum        8199    4095   1117               766325   270903   38345



     bravais-lattice index     =            0
     lattice parameter (alat)  =      16.8463  a.u.
     unit-cell volume          =    5672.4452 (a.u.)^3
     number of atoms/cell      =           68
     number of atomic types    =            5
     number of electrons       =       136.00
     number of Kohn-Sham states=           82
     kinetic-energy cutoff     =      50.0000  Ry
     charge density cutoff     =     400.0000  Ry
     scf convergence threshold =      1.0E-06
     mixing beta               =       0.7000
     number of iterations used =            8  plain     mixing
     energy convergence thresh.=      1.0E-04
     force convergence thresh. =      1.0E-03
     press convergence thresh. =      5.0E-01
     Exchange-correlation= SLA  PW   PBE  PBE
                           (   1   4   3   4   0   0   0)
     nstep                     =           50


     celldm(1)=  16.846290  celldm(2)=   0.000000  celldm(3)=   0.000000
     celldm(4)=   0.000000  celldm(5)=   0.000000  celldm(6)=   0.000000

     crystal axes: (cart. coord. in units of alat)
               a(1) = (   0.014731  -0.089599  -0.995869 )  
               a(2) = (   0.034335  -0.919307  -0.096458 )  
               a(3) = (  -1.310208   0.045505   0.021018 )  

     reciprocal axes: (cart. coord. in units 2 pi/alat)
               b(1) = ( -0.012586  0.105909 -1.013863 )  
               b(2) = ( -0.036608 -1.099466  0.098378 )  
               b(3) = ( -0.764339 -0.027622 -0.008821 )  


     PseudoPot. # 1 for B  read from file:
     /home/marco/ZOS_Cloud_Compute/pseudo/B.UPF
     MD5 check sum: d9c678ba5d3b2fd7b74e61139c9288d8
     Pseudo is Projector augmented-wave + core cor, Zval =  3.0
     Generated using "atomic" code by A. Dal Corso  v.5.1.2
     Shape of augmentation charge: PSQ
     Using radial grid of 1059 points,  4 beta functions with: 
                l(1) =   0
                l(2) =   0
                l(3) =   1
                l(4) =   1
     Q(r) pseudized with 0 coefficients 


     PseudoPot. # 2 for H  read from file:
     /home/marco/ZOS_Cloud_Compute/pseudo/H.UPF
     MD5 check sum: 850d63dcbcc06c5de8b44e0ab9f952da
     Pseudo is Projector augmented-wave, Zval =  1.0
     Generated using "atomic" code by A. Dal Corso  v.5.1.2
     Shape of augmentation charge: PSQ
     Using radial grid of  929 points,  2 beta functions with: 
                l(1) =   0
                l(2) =   0
     Q(r) pseudized with 0 coefficients 


     PseudoPot. # 3 for K  read from file:
     /home/marco/ZOS_Cloud_Compute/pseudo/K.UPF
     MD5 check sum: 0975f8d1feef6b2899f42b1061589f29
     Pseudo is Norm-conserving + core correction, Zval =  1.0
     Generated by new atomic code, or converted to UPF format
     Using radial grid of 1165 points,  2 beta functions with: 
                l(1) =   0
                l(2) =   1

     PseudoPot. # 4 for La read from file:
     /home/marco/ZOS_Cloud_Compute/pseudo/La.UPF
     MD5 check sum: b2f11743f52dde65f77d1302becd7929
     Pseudo is Ultrasoft + core correction, Zval = 11.0
     Generated by new atomic code, or converted to UPF format
     Using radial grid of  907 points,  6 beta functions with: 
                l(1) =   0
                l(2) =   0
                l(3) =   1
                l(4) =   1
                l(5) =   2
                l(6) =   2
     Q(r) pseudized with  6 coefficients,  rinner =    1.200   1.200   1.200
                                                       1.200   1.200

     PseudoPot. # 5 for Sr read from file:
     /home/marco/ZOS_Cloud_Compute/pseudo/Sr.UPF
     MD5 check sum: 71c4688e601547c0814ef38edf55aea6
     Pseudo is Ultrasoft + core correction, Zval = 10.0
     Generated by new atomic code, or converted to UPF format
     Using radial grid of  883 points,  6 beta functions with: 
                l(1) =   0
                l(2) =   0
                l(3) =   1
                l(4) =   1
                l(5) =   2
                l(6) =   2
     Q(r) pseudized with  8 coefficients,  rinner =    1.200   1.200   1.200
                                                       1.200   1.200

     atomic species   valence    mass     pseudopotential
        B              3.00     1.00000     B ( 1.00)
        H              1.00     1.00000     H ( 1.00)
        K              1.00     1.00000     K ( 1.00)
        La            11.00     1.00000     La( 1.00)
        Sr            10.00     1.00000     Sr( 1.00)

     No symmetry found



   Cartesian axes

     site n.     atom                  positions (alat units)
         1           K   tau(   1) = (  -0.9542809  -0.8783941  -0.5998197  )
         2           K   tau(   2) = (  -0.3348822  -0.0667458  -0.4764892  )
         3           K   tau(   3) = (  -0.3397774  -0.4771738  -0.9981756  )
         4           K   tau(   4) = (  -0.9189682  -0.4523120  -0.0923540  )
         5           Sr  tau(   5) = (  -0.6015812  -0.9405825  -1.0410929  )
         6           Sr  tau(   6) = (  -1.2922083  -0.0219208  -0.0353694  )
         7           Sr  tau(   7) = (  -1.3065880  -0.4336287  -0.5188735  )
         8           Sr  tau(   8) = (  -0.6227859  -0.4815973  -0.4914516  )
         9           B   tau(   9) = (  -0.9838843  -0.4428903  -0.4461333  )
        10           B   tau(  10) = (  -0.3327749  -0.5051277  -0.6089993  )
        11           B   tau(  11) = (  -0.3184946  -0.8986651  -0.1636578  )
        12           B   tau(  12) = (  -0.9954135  -0.0575561  -0.9016508  )
        13           B   tau(  13) = (  -0.6006683  -0.3205964  -0.2050766  )
        14           La  tau(  14) = (  -1.2625687  -0.6857486  -0.8650797  )
        15           B   tau(  15) = (  -1.2346587  -0.7748115  -0.4084020  )
        16           B   tau(  16) = (  -0.5984009  -0.1770273  -0.6743946  )
        17           B   tau(  17) = (  -0.6649625  -0.6778557  -0.8553365  )
        18           B   tau(  18) = (  -0.0369364  -0.3163435  -0.2367624  )
        19           B   tau(  19) = (  -0.0332220  -0.2174345  -0.7078031  )
        20           B   tau(  20) = (  -0.6718878  -0.7572027  -0.3679543  )
        21           H   tau(  21) = (  -1.0803255  -0.4533416  -0.3472124  )
        22           H   tau(  22) = (  -0.4344232  -0.4959518  -0.7014834  )
        23           H   tau(  23) = (  -0.4224595  -0.9127817  -0.2527511  )
        24           H   tau(  24) = (  -1.1004392  -0.0403452  -0.8121530  )
        25           H   tau(  25) = (  -0.9827819  -0.5556158  -0.5202666  )
        26           H   tau(  26) = (  -0.3379347  -0.3987674  -0.5221289  )
        27           H   tau(  27) = (  -0.3378596  -0.1793717  -0.9775155  )
        28           H   tau(  28) = (  -0.9630574  -0.7819593  -0.0919001  )
        29           H   tau(  29) = (  -1.0020310  -0.3278752  -0.5223398  )
        30           H   tau(  30) = (  -0.3518265  -0.6208310  -0.5334503  )
        31           H   tau(  31) = (  -0.3197558  -0.8719507  -1.0866316  )
        32           H   tau(  32) = (  -1.0237710  -0.0846911   0.0215086  )
        33           H   tau(  33) = (  -0.8628603  -0.4373420  -0.3821132  )
        34           H   tau(  34) = (  -0.2181868  -0.5040859  -0.6805568  )
        35           H   tau(  35) = (  -0.2053792  -0.8956194  -0.2388190  )
        36           H   tau(  36) = (  -0.8824129  -0.0666300  -0.8264613  )
        37           H   tau(  37) = (  -0.5944474  -0.2481433  -0.0906104  )
        38           H   tau(  38) = (  -1.2071786  -0.7396309  -1.0764670  )
        39           H   tau(  39) = (  -1.2213759  -0.6953306  -0.5196174  )
        40           H   tau(  40) = (  -0.5875759  -0.2453732  -0.5571307  )
        41           H   tau(  41) = (  -0.4846168  -0.3101148  -0.2798606  )
        42           H   tau(  42) = (  -1.0542380  -0.6439382  -0.7604271  )
        43           H   tau(  43) = (  -1.1128666  -0.7721366  -0.3433017  )
        44           H   tau(  44) = (  -0.4835789  -0.1882755  -0.7478730  )
        45           H   tau(  45) = (  -0.6182533  -0.4540923  -0.1722780  )
        46           H   tau(  46) = (  -1.2600041  -0.4436476  -0.8462607  )
        47           H   tau(  47) = (  -1.2539257  -0.9048247  -0.4427199  )
        48           H   tau(  48) = (  -0.6183749  -0.0472021  -0.6394482  )
        49           H   tau(  49) = (  -0.7094726  -0.2759689  -0.2761517  )
        50           H   tau(  50) = (  -0.1161988  -0.7288813  -0.7290566  )
        51           H   tau(  51) = (  -0.0356814  -0.7786782  -0.3608898  )
        52           H   tau(  52) = (  -0.7055933  -0.2224091  -0.7459903  )
        53           H   tau(  53) = (  -0.6314770  -0.7526269  -0.7464568  )
        54           H   tau(  54) = (   0.0008111  -0.2401569  -0.3439835  )
        55           H   tau(  55) = (   0.0023847  -0.3055491  -0.8060903  )
        56           H   tau(  56) = (  -0.6384053  -0.6746520  -0.2630857  )
        57           H   tau(  57) = (  -0.7723883  -0.7387212  -0.9154428  )
        58           H   tau(  58) = (  -0.1472450  -0.2542700  -0.1806883  )
        59           H   tau(  59) = (  -0.1467071  -0.2642759  -0.6453189  )
        60           H   tau(  60) = (  -0.7831347  -0.6990169  -0.4270091  )
        61           H   tau(  61) = (  -0.7018722  -0.5516288  -0.8195885  )
        62           H   tau(  62) = (  -0.0730836  -0.4430773  -0.2674401  )
        63           H   tau(  63) = (  -0.0617575  -0.0903319  -0.7579418  )
        64           H   tau(  64) = (  -0.7062070  -0.8837784  -0.3274971  )
        65           H   tau(  65) = (  -0.5576928  -0.6793667  -0.9432601  )
        66           H   tau(  66) = (  -1.2362192  -0.2713122  -0.1345595  )
        67           H   tau(  67) = (  -1.2375584  -0.1684405  -0.5992056  )
        68           H   tau(  68) = (  -0.5671321  -0.7569818  -0.4564435  )

     number of k points=     8  Methfessel-Paxton smearing, width (Ry)=  0.0200
                       cart. coord. in units 2pi/alat
        k(    1) = (  -0.0000000   0.0000000   0.0000000), wk =   0.2500000
        k(    2) = (   0.3821693   0.0138108   0.0044106), wk =   0.2500000
        k(    3) = (   0.0183039   0.5497330  -0.0491890), wk =   0.2500000
        k(    4) = (   0.4004732   0.5635438  -0.0447784), wk =   0.2500000
        k(    5) = (   0.0062930  -0.0529546   0.5069315), wk =   0.2500000
        k(    6) = (   0.3884623  -0.0391438   0.5113421), wk =   0.2500000
        k(    7) = (   0.0245969   0.4967784   0.4577425), wk =   0.2500000
        k(    8) = (   0.4067662   0.5105892   0.4621531), wk =   0.2500000

     Dense  grid:   766325 G-vectors     FFT dimensions: ( 108, 100, 144)

     Smooth grid:   270903 G-vectors     FFT dimensions: (  75,  72, 100)

     Estimated max dynamical RAM per process >       2.40 GB

     Estimated total dynamical RAM >       4.80 GB

     Initial potential from superposition of free atoms

     starting charge  135.75445, renormalised to  136.00000
     Starting wfcs are  173 randomized atomic wfcs
     Checking if some PAW data can be deallocated... 

     total cpu time spent up to now is      109.3 secs

     Self-consistent Calculation

     iteration #  1     ecut=    50.00 Ry     beta= 0.70
     Davidson diagonalization with overlap
     ethr =  1.00E-02,  avg # of iterations =  2.1

     total cpu time spent up to now is      163.3 secs

     total energy              =    -576.99146034 Ry
     estimated scf accuracy    <       7.53983174 Ry

     iteration #  2     ecut=    50.00 Ry     beta= 0.70
     Davidson diagonalization with overlap
     ethr =  5.54E-03,  avg # of iterations =  2.0

     total cpu time spent up to now is      217.3 secs

     total energy              =    -578.52332606 Ry
     estimated scf accuracy    <       1.27722836 Ry

     iteration #  3     ecut=    50.00 Ry     beta= 0.70
     Davidson diagonalization with overlap
     ethr =  9.39E-04,  avg # of iterations =  2.0

     total cpu time spent up to now is      271.1 secs

     total energy              =    -578.76696387 Ry
     estimated scf accuracy    <       0.04137987 Ry

     iteration #  4     ecut=    50.00 Ry     beta= 0.70
     Davidson diagonalization with overlap
     ethr =  3.04E-05,  avg # of iterations = 13.2

     total cpu time spent up to now is      349.0 secs

     total energy              =    -578.77626332 Ry
     estimated scf accuracy    <       0.01250870 Ry

     iteration #  5     ecut=    50.00 Ry     beta= 0.70
     Davidson diagonalization with overlap
     c_bands:  1 eigenvalues not converged
     ethr =  9.20E-06,  avg # of iterations = 10.0

     total cpu time spent up to now is      414.8 secs

     total energy              =    -578.78017292 Ry
     estimated scf accuracy    <       0.00072468 Ry

     iteration #  6     ecut=    50.00 Ry     beta= 0.70
     Davidson diagonalization with overlap
     ethr =  5.33E-07,  avg # of iterations =  4.9

     total cpu time spent up to now is      471.7 secs

     total energy              =    -578.78034098 Ry
     estimated scf accuracy    <       0.00006662 Ry

     iteration #  7     ecut=    50.00 Ry     beta= 0.70
     Davidson diagonalization with overlap
     ethr =  4.90E-08,  avg # of iterations =  3.0

     total cpu time spent up to now is      525.1 secs

     total energy              =    -578.78035970 Ry
     estimated scf accuracy    <       0.00001652 Ry

     iteration #  8     ecut=    50.00 Ry     beta= 0.70
     Davidson diagonalization with overlap
     ethr =  1.21E-08,  avg # of iterations =  2.0

     total cpu time spent up to now is      575.8 secs

     total energy              =    -578.78036182 Ry
     estimated scf accuracy    <       0.00000137 Ry

     iteration #  9     ecut=    50.00 Ry     beta= 0.70
     Davidson diagonalization with overlap
     ethr =  1.01E-09,  avg # of iterations =  2.0

     total cpu time spent up to now is      627.4 secs

     End of self-consistent calculation

          k =-0.0000 0.0000 0.0000 ( 33869 PWs)   bands (ev):

   -34.2863 -34.0726 -34.0543 -33.9533 -30.7379 -16.3411 -16.3049 -16.2597
   -16.1340 -16.1113 -16.1063 -16.0877 -16.0705 -16.0592 -16.0406 -16.0104
   -15.9338 -14.6121 -14.5104 -14.4652  -8.0394  -7.8056  -7.5085  -7.3985
    -7.3340  -7.2724  -7.2076  -7.1033  -7.0688  -6.9446  -6.8223  -3.4979
    -3.3740  -3.3268  -3.2127  -3.1792  -3.0798  -3.0626  -2.9140  -2.8907
    -2.8255  -2.7614  -2.7378  -2.7143  -2.6280  -2.5638  -2.5399  -2.4270
    -2.3534  -2.3007  -2.2617  -2.1947  -2.1012  -2.0760  -2.0355  -1.9121
    -1.8394  -1.7613  -1.6064  -1.5281  -1.4700  -1.3943  -1.1989  -1.1649
    -0.6870   0.0411   0.2422   0.7376   3.4915   3.6467   4.1565   4.2614
     4.3521   4.5473   4.7709   4.8122   4.8792   5.0356   5.0917   5.1377
     5.2633   5.3689

          k = 0.3822 0.0138 0.0044 ( 33864 PWs)   bands (ev):

   -34.2863 -34.0726 -34.0543 -33.9533 -30.7379 -16.3411 -16.3049 -16.2597
   -16.1340 -16.1101 -16.1071 -16.0877 -16.0683 -16.0618 -16.0406 -16.0104
   -15.9338 -14.6121 -14.5104 -14.4652  -7.9550  -7.9068  -7.5217  -7.4037
    -7.2828  -7.2592  -7.2043  -7.1295  -7.0455  -6.9524  -6.8570  -3.4055
    -3.3285  -3.2977  -3.2473  -3.1781  -3.0785  -3.0450  -2.9889  -2.9004
    -2.8392  -2.7873  -2.7692  -2.7260  -2.6780  -2.5617  -2.5246  -2.4315
    -2.4076  -2.3094  -2.1757  -2.1500  -2.0912  -2.0448  -1.9843  -1.9057
    -1.8160  -1.7620  -1.6694  -1.5656  -1.5018  -1.4173  -1.2016  -1.1659
    -0.6719   0.0458   0.2427   0.7312   3.5161   3.6353   4.0488   4.2569
     4.4737   4.7246   4.7815   4.8134   4.8957   4.9692   5.0374   5.1624
     5.3588   5.3946

          k = 0.0183 0.5497-0.0492 ( 33820 PWs)   bands (ev):

   -34.2863 -34.0726 -34.0543 -33.9533 -30.7379 -16.3410 -16.3040 -16.2594
   -16.1355 -16.1119 -16.1067 -16.0873 -16.0711 -16.0601 -16.0387 -16.0096
   -15.9341 -14.6121 -14.5108 -14.4660  -7.8736  -7.7589  -7.6089  -7.4559
    -7.3786  -7.3182  -7.1713  -7.1142  -7.0975  -6.9287  -6.8323  -3.4410
    -3.3144  -3.2670  -3.2405  -3.1489  -3.1114  -3.0271  -2.9966  -2.9476
    -2.8252  -2.7669  -2.7364  -2.6753  -2.6328  -2.5770  -2.4968  -2.4482
    -2.4226  -2.3419  -2.2768  -2.2508  -2.0532  -1.9606  -1.9331  -1.9135
    -1.8193  -1.7602  -1.6490  -1.6052  -1.5704  -1.4805  -1.2545  -1.2283
    -0.6391   0.1214   0.3743   0.7711   3.5902   3.7169   4.2582   4.3375
     4.5416   4.6055   4.7210   4.8019   4.9194   4.9737   5.1521   5.2692
     5.2833   5.3570

          k = 0.4005 0.5635-0.0448 ( 33872 PWs)   bands (ev):

   -34.2863 -34.0726 -34.0543 -33.9533 -30.7379 -16.3410 -16.3040 -16.2594
   -16.1355 -16.1109 -16.1073 -16.0873 -16.0687 -16.0629 -16.0388 -16.0097
   -15.9341 -14.6121 -14.5108 -14.4660  -7.8479  -7.7277  -7.6262  -7.5041
    -7.4021  -7.2907  -7.1920  -7.1191  -7.0883  -6.9251  -6.8225  -3.4083
    -3.3394  -3.3055  -3.2648  -3.1635  -3.1146  -2.9958  -2.9158  -2.8436
    -2.8395  -2.7697  -2.7134  -2.6463  -2.6270  -2.5520  -2.5093  -2.4917
    -2.4308  -2.3872  -2.2723  -2.1750  -2.1415  -2.1059  -1.9787  -1.9072
    -1.8375  -1.7322  -1.6683  -1.6383  -1.5142  -1.4013  -1.2513  -1.2270
    -0.6501   0.1203   0.3742   0.7697   3.5958   3.7125   4.2289   4.3130
     4.5146   4.6406   4.7000   4.9060   4.9619   5.0758   5.1621   5.2685
     5.3588   5.4104

          k = 0.0063-0.0530 0.5069 ( 33894 PWs)   bands (ev):

   -34.2863 -34.0726 -34.0543 -33.9533 -30.7379 -16.3410 -16.3040 -16.2594
   -16.1355 -16.1114 -16.1064 -16.0882 -16.0708 -16.0595 -16.0395 -16.0098
   -15.9340 -14.6120 -14.5107 -14.4654  -7.8665  -7.7696  -7.6978  -7.4811
    -7.3030  -7.2690  -7.2004  -7.1220  -7.0869  -6.9165  -6.8276  -3.3239
    -3.3127  -3.2967  -3.2573  -3.1521  -3.0312  -3.0084  -2.9739  -2.9079
    -2.8731  -2.7868  -2.7590  -2.7177  -2.6487  -2.6100  -2.5597  -2.4758
    -2.4344  -2.3599  -2.2617  -2.2424  -2.1008  -2.0607  -2.0334  -1.8858
    -1.8075  -1.6995  -1.6678  -1.5378  -1.4852  -1.4335  -1.2068  -1.1687
    -0.4892   0.0612   0.2891   0.7064   3.5224   3.6536   4.1028   4.3077
     4.5035   4.6761   4.7989   4.9465   5.0563   5.1198   5.2048   5.3044
     5.3577   5.4053

          k = 0.3885-0.0391 0.5113 ( 33884 PWs)   bands (ev):

   -34.2863 -34.0726 -34.0543 -33.9533 -30.7379 -16.3410 -16.3040 -16.2594
   -16.1355 -16.1102 -16.1071 -16.0882 -16.0685 -16.0623 -16.0395 -16.0099
   -15.9340 -14.6120 -14.5107 -14.4654  -7.8083  -7.7661  -7.6668  -7.6346
    -7.2732  -7.2542  -7.1695  -7.1458  -7.0460  -6.9287  -6.8577  -3.3240
    -3.3101  -3.2522  -3.2254  -3.1535  -3.0537  -3.0162  -2.9491  -2.9128
    -2.8312  -2.7618  -2.6997  -2.6783  -2.6714  -2.6382  -2.5944  -2.5011
    -2.4524  -2.4068  -2.3283  -2.2735  -2.2037  -2.0681  -1.9626  -1.8269
    -1.7544  -1.6980  -1.6061  -1.5811  -1.5240  -1.4382  -1.2060  -1.1821
    -0.4925   0.0629   0.2920   0.7026   3.5339   3.6433   4.1619   4.1909
     4.5852   4.6783   4.8939   4.9322   5.0948   5.1566   5.2703   5.3066
     5.3529   5.3902

          k = 0.0246 0.4968 0.4577 ( 33864 PWs)   bands (ev):

   -34.2863 -34.0726 -34.0543 -33.9533 -30.7379 -16.3411 -16.3050 -16.2598
   -16.1341 -16.1112 -16.1063 -16.0881 -16.0705 -16.0591 -16.0405 -16.0103
   -15.9336 -14.6121 -14.5108 -14.4660  -7.8424  -7.7717  -7.5724  -7.4610
    -7.4158  -7.3350  -7.1798  -7.1227  -7.0613  -6.9477  -6.8339  -3.5011
    -3.3047  -3.2871  -3.2398  -3.1740  -3.0628  -3.0161  -2.9024  -2.8567
    -2.8346  -2.7762  -2.7201  -2.6800  -2.6212  -2.5905  -2.5428  -2.4916
    -2.3657  -2.3417  -2.3370  -2.2718  -2.1437  -2.1040  -1.9759  -1.9225
    -1.7831  -1.6959  -1.6353  -1.6131  -1.5426  -1.4778  -1.2698  -1.2173
    -0.4481   0.1319   0.3798   0.7679   3.6468   3.7372   4.2184   4.2993
     4.6033   4.7445   4.8479   4.8968   4.9625   5.0647   5.1143   5.2159
     5.2579   5.3366

          k = 0.4068 0.5106 0.4622 ( 33836 PWs)   bands (ev):

   -34.2863 -34.0726 -34.0543 -33.9533 -30.7379 -16.3411 -16.3049 -16.2597
   -16.1341 -16.1100 -16.1071 -16.0881 -16.0683 -16.0617 -16.0405 -16.0104
   -15.9336 -14.6121 -14.5108 -14.4660  -7.7928  -7.7590  -7.6544  -7.4460
    -7.4171  -7.2802  -7.2049  -7.1582  -7.0929  -6.9201  -6.8274  -3.4433
    -3.3204  -3.2833  -3.2367  -3.1491  -3.0570  -2.9630  -2.9413  -2.9018
    -2.8342  -2.7799  -2.7488  -2.7297  -2.6407  -2.5672  -2.4973  -2.4594
    -2.4264  -2.3792  -2.2329  -2.2118  -2.1894  -2.0454  -1.9636  -1.9006
    -1.8973  -1.7882  -1.6692  -1.5979  -1.5218  -1.4371  -1.2540  -1.2345
    -0.4624   0.1364   0.3811   0.7702   3.6629   3.7477   4.2259   4.2611
     4.5665   4.7690   4.9844   5.0068   5.0382   5.0985   5.1348   5.1458
     5.2863   5.3106

     the Fermi energy is     2.1310 ev

!    total energy              =    -578.78036222 Ry
     estimated scf accuracy    <       0.00000005 Ry
     smearing contrib. (-TS)   =       0.00000000 Ry
     internal energy E=F+TS    =    -578.78036222 Ry

     The total energy is F=E-TS. E is the sum of the following terms:
     one-electron contribution =    -262.86566440 Ry
     hartree contribution      =     161.58830405 Ry
     xc contribution           =    -202.72822019 Ry
     ewald contribution        =    -217.45869697 Ry
     one-center paw contrib.   =     -57.31608470 Ry

     convergence has been achieved in   9 iterations

     Forces acting on atoms (cartesian axes, Ry/au):

     atom    1 type  3   force =     0.00531524    0.00028390   -0.00118234
     atom    2 type  3   force =     0.00509388    0.00840089    0.00095864
     atom    3 type  3   force =     0.00164671   -0.00121045    0.01155429
     atom    4 type  3   force =    -0.00101680   -0.00078737    0.00510992
     atom    5 type  5   force =    -0.00240670   -0.00405219    0.00855555
     atom    6 type  5   force =     0.00158205    0.03045312   -0.00325076
     atom    7 type  5   force =     0.01173125   -0.00900751   -0.00773010
     atom    8 type  5   force =    -0.00229512   -0.01204965   -0.00246491
     atom    9 type  1   force =     0.00508189    0.01301624    0.00434000
     atom   10 type  1   force =    -0.01541906   -0.01167050    0.01132995
     atom   11 type  1   force =    -0.00547638   -0.02115488    0.00613793
     atom   12 type  1   force =     0.01665922    0.01294273   -0.00804381
     atom   13 type  1   force =    -0.01473588   -0.00810004   -0.01019727
     atom   14 type  4   force =     0.05426691    0.00660058    0.03140541
     atom   15 type  1   force =     0.00678908   -0.00155178   -0.00828088
     atom   16 type  1   force =     0.00037457   -0.00194833    0.00277978
     atom   17 type  1   force =    -0.00105500   -0.00718167    0.00607526
     atom   18 type  1   force =     0.00050203    0.00271110   -0.00912122
     atom   19 type  1   force =    -0.00795955    0.02421193   -0.00015723
     atom   20 type  1   force =    -0.01682891   -0.00570511   -0.00685873
     atom   21 type  2   force =     0.00156373    0.00196742   -0.00132051
     atom   22 type  2   force =    -0.00094593    0.00319654    0.00378894
     atom   23 type  2   force =    -0.00057166    0.00140501    0.00267132
     atom   24 type  2   force =     0.00287889    0.00218204   -0.00909009
     atom   25 type  2   force =    -0.00699471   -0.00134348   -0.01222899
     atom   26 type  2   force =    -0.00192000    0.00968098    0.00385899
     atom   27 type  2   force =     0.00072952    0.01398483   -0.00233975
     atom   28 type  2   force =    -0.00569512   -0.00721999    0.00609786
     atom   29 type  2   force =    -0.00183475   -0.00570368    0.00332096
     atom   30 type  2   force =     0.00724281    0.00553301   -0.00859619
     atom   31 type  2   force =     0.00288167    0.00548752    0.00451942
     atom   32 type  2   force =    -0.00533667   -0.00718985    0.00105112
     atom   33 type  2   force =    -0.00480468    0.00991754    0.00524475
     atom   34 type  2   force =    -0.00009842   -0.00448608   -0.00216489
     atom   35 type  2   force =     0.00700094    0.00570818   -0.00093434
     atom   36 type  2   force =    -0.00004995   -0.00705306    0.00507869
     atom   37 type  2   force =     0.00332331    0.00635009    0.00848710
     atom   38 type  2   force =    -0.01326022   -0.03422452   -0.05386211
     atom   39 type  2   force =     0.00383430   -0.00846936   -0.01273619
     atom   40 type  2   force =     0.00556572    0.01502142   -0.00177060
     atom   41 type  2   force =     0.00143704    0.00438698    0.00006769
     atom   42 type  2   force =     0.00867681   -0.00525922   -0.00243371
     atom   43 type  2   force =    -0.00910145    0.00839553    0.01291600
     atom   44 type  2   force =     0.00600749   -0.00257698   -0.00211518
     atom   45 type  2   force =     0.00162695    0.00668677   -0.00410408
     atom   46 type  2   force =    -0.00526612   -0.00810993    0.00507557
     atom   47 type  2   force =    -0.00713857   -0.00326905   -0.01683666
     atom   48 type  2   force =    -0.00227580    0.00392083   -0.00122666
     atom   49 type  2   force =     0.00492258   -0.00092896   -0.00575534
     atom   50 type  2   force =    -0.04840887   -0.01061568    0.02063973
     atom   51 type  2   force =     0.00867519    0.00547000    0.01071966
     atom   52 type  2   force =    -0.00379463   -0.00635895   -0.00250262
     atom   53 type  2   force =    -0.00049496    0.00464189    0.00453959
     atom   54 type  2   force =    -0.00776084   -0.01156526   -0.00891800
     atom   55 type  2   force =    -0.00699108    0.00827000   -0.00074399
     atom   56 type  2   force =     0.00066142    0.00099430    0.00478332
     atom   57 type  2   force =     0.00099505   -0.00220521   -0.00420125
     atom   58 type  2   force =     0.00398959    0.00010611    0.00470186
     atom   59 type  2   force =     0.00409225    0.00785565   -0.00218276
     atom   60 type  2   force =     0.00586500   -0.00571675    0.00467818
     atom   61 type  2   force =     0.00380668    0.01187885   -0.00389960
     atom   62 type  2   force =    -0.00197791   -0.01667185   -0.00063472
     atom   63 type  2   force =    -0.00007538   -0.00465152    0.00275430
     atom   64 type  2   force =     0.00411766   -0.00095595    0.00168558
     atom   65 type  2   force =     0.00469740    0.00350294   -0.00092688
     atom   66 type  2   force =    -0.00338813   -0.00733829    0.00948821
     atom   67 type  2   force =     0.00163378    0.00782753    0.00311651
     atom   68 type  2   force =     0.00011062   -0.00665937    0.00128026

     Total force =     0.145921     Total SCF correction =     0.000409


     Computing stress (Cartesian axis) and pressure

          total   stress  (Ry/bohr**3)                   (kbar)     P=        9.30
   0.00004164   0.00000523   0.00001415            6.13        0.77        2.08
   0.00000523   0.00010961   0.00003960            0.77       16.12        5.83
   0.00001415   0.00003960   0.00003848            2.08        5.83        5.66


     BFGS Geometry Optimization
     Energy error            =      0.0E+00
     Gradient error          =      5.4E-02
     Cell gradient error     =      1.1E-04


     number of scf cycles    =   1
     number of bfgs steps    =   0

     enthalpy new            =    -578.7803622171 Ry

     new trust radius        =       0.0651788161 bohr
     new conv_thr            =       0.0000010000 Ry

     new unit-cell volume =   5699.38214 a.u.^3 (   844.56130 Ang^3 )
     density =      0.13370 g/cm^3

CELL_PARAMETERS (angstrom)
   0.128214955  -0.809705636  -8.887130733
   0.305029891  -8.218585808  -0.868724165
 -11.692114016   0.405437314   0.183821227

ATOMIC_POSITIONS (angstrom)
K            -8.5160578929       -7.8583092082       -5.3637274438
K            -2.9873542872       -0.5967846292       -4.2529632941
K            -3.0349865519       -4.2753469094       -8.9061325358
K            -8.2021858323       -4.0455629294       -0.8282821984
Sr           -5.3741343835       -8.4199978083       -9.2956000743
Sr          -11.5309047477       -0.1816118971       -0.3215843470
Sr          -11.6558596250       -3.8871352767       -4.6420814638
Sr           -5.5610399027       -4.3165051589       -4.3928716782
B            -8.7793665286       -3.9572154064       -3.9856631183
B            -2.9803428547       -4.5273382596       -5.4337672046
B            -2.8466949681       -8.0462961187       -1.4660568280
B            -8.8771097164       -0.5167529511       -8.0535521513
B            -5.3691644557       -2.8726578300       -1.8400819624
La          -11.2418786908       -6.1355592158       -7.7127062827
B           -11.0166325977       -6.9319884867       -3.6593904642
B            -5.3422359006       -1.5901463032       -6.0197685469
B            -5.9381395424       -6.0715527851       -7.6372461519
B            -0.3304694207       -2.8285257971       -2.1204279688
B            -0.3031713322       -1.9371078496       -6.3179989866
B            -6.0068544929       -6.7757736834       -3.2957888003
H            -9.6415693385       -4.0557459221       -3.1063689074
H            -3.8800627890       -4.4383628825       -6.2632497514
H            -3.7721711973       -8.1614240071       -2.2633337952
H            -9.8213529789       -0.3679462870       -7.2556823363
H            -8.7762957553       -4.9731623615       -4.6569505110
H            -3.0188400271       -3.5644855755       -4.6616222601
H            -3.0179482040       -1.6050237330       -8.7264944626
H            -8.5984959974       -6.9957742336       -0.8267609081
H            -8.9450787407       -2.9397118211       -4.6652655662
H            -3.1382530894       -5.5518573114       -4.7712479928
H            -2.8564000810       -7.8015046821       -9.7025910001
H            -9.1389429058       -0.7618792551        0.1885025162
H            -7.7043831734       -3.9085573206       -3.4134897219
H            -1.9498750313       -4.5147177250       -6.0790637254
H            -1.8308814731       -8.0053509647       -2.1400844775
H            -7.8773216386       -0.6076749484       -7.3754038881
H            -5.3036334221       -2.2162956475       -0.8081043961
H           -10.7840987604       -6.6407320442       -9.6444680792
H           -10.8999220130       -6.2261402436       -4.6534138887
H            -5.2425940187       -2.1910476792       -4.9763634477
H            -4.3251799470       -2.7728542541       -2.5014930335
H            -9.4065239386       -5.7669595282       -6.7957786761
H            -9.9379698222       -6.9020723772       -3.0668465692
H            -4.3148320659       -1.6915456706       -6.6777639446
H            -5.5174746909       -4.0578713247       -1.5454071480
H           -11.2501928640       -3.9790486336       -7.5566003163
H           -11.1962096396       -8.0954315536       -3.9713614644
H            -5.5216262111       -0.4262286044       -5.7089695215
H            -6.3298864809       -2.4706728319       -2.4718914219
H            -1.0657407555       -6.5277394032       -6.5014351458
H            -0.3158661695       -6.9610012395       -3.2216118678
H            -6.3013042323       -1.9989191400       -6.6621742286
H            -5.6387632878       -6.7326661826       -6.6670469189
H             0.0017605060       -2.1559639757       -3.0762983568
H             0.0146803915       -2.7340588915       -7.1960243037
H            -5.6983631390       -6.0333182705       -2.3530128389
H            -6.8959786168       -6.6136558749       -8.1799059358
H            -1.3127592335       -2.2746527445       -1.6125438655
H            -1.3093824537       -2.3640880853       -5.7622876618
H            -6.9877106969       -6.2562946484       -3.8164712935
H            -6.2646855610       -4.9328155410       -7.3225324896
H            -0.6546026842       -3.9720054492       -2.3909210920
H            -0.5536562491       -0.8167143498       -6.7628385357
H            -6.3020389263       -7.9044036688       -2.9314720796
H            -4.9781023398       -6.0800445501       -8.4251874948
H           -11.0344964002       -2.4318033054       -1.2019797398
H           -11.0451331627       -1.5082816360       -5.3505947831
H            -5.0633232185       -6.7749592564       -4.0807535892



     Writing output data file ./tmp/K4Sr4LaB11H48.save/
     NEW-OLD atomic charge density approx. for the potential

     negative rho (up, down):  2.209E-08 0.000E+00
     extrapolated charge  136.64162, renormalised to  136.00000

     total cpu time spent up to now is     1042.9 secs

     Self-consistent Calculation

     iteration #  1     ecut=    50.00 Ry     beta= 0.70
     Davidson diagonalization with overlap
     c_bands:  1 eigenvalues not converged
     ethr =  1.00E-06,  avg # of iterations = 14.8

     total cpu time spent up to now is     1145.8 secs

     total energy              =    -578.79466396 Ry
     estimated scf accuracy    <       0.00504142 Ry

     iteration #  2     ecut=    50.00 Ry     beta= 0.70
     Davidson diagonalization with overlap
     ethr =  3.71E-06,  avg # of iterations = 12.2

     total cpu time spent up to now is     1226.7 secs

     total energy              =    -578.79982872 Ry
     estimated scf accuracy    <       0.00610042 Ry

     iteration #  3     ecut=    50.00 Ry     beta= 0.70
     Davidson diagonalization with overlap
     ethr =  3.71E-06,  avg # of iterations =  2.9

     total cpu time spent up to now is     1276.2 secs

     total energy              =    -578.79990950 Ry
     estimated scf accuracy    <       0.00084336 Ry

     iteration #  4     ecut=    50.00 Ry     beta= 0.70
     Davidson diagonalization with overlap
     ethr =  6.20E-07,  avg # of iterations =  6.6

     total cpu time spent up to now is     1336.5 secs

     total energy              =    -578.80004781 Ry
     estimated scf accuracy    <       0.00005113 Ry

     iteration #  5     ecut=    50.00 Ry     beta= 0.70
     Davidson diagonalization with overlap
     ethr =  3.76E-08,  avg # of iterations =  4.0

     total cpu time spent up to now is     1392.8 secs

     total energy              =    -578.80006368 Ry
     estimated scf accuracy    <       0.00000748 Ry

     iteration #  6     ecut=    50.00 Ry     beta= 0.70
     Davidson diagonalization with overlap
     ethr =  5.50E-09,  avg # of iterations =  3.0

     total cpu time spent up to now is     1441.5 secs

     End of self-consistent calculation

          k = 0.0000 0.0000 0.0000 ( 33869 PWs)   bands (ev):

   -34.3066 -34.1146 -34.0959 -33.9663 -30.8051 -16.3591 -16.3244 -16.2794
   -16.1700 -16.1499 -16.1444 -16.1257 -16.1100 -16.0972 -16.0505 -16.0194
   -15.9453 -14.6736 -14.5443 -14.5315  -8.0370  -7.7937  -7.5011  -7.4093
    -7.3416  -7.2715  -7.2089  -7.1076  -7.0897  -6.9563  -6.8474  -3.4975
    -3.3794  -3.3209  -3.2142  -3.1851  -3.0683  -3.0526  -2.9380  -2.9009
    -2.8246  -2.7722  -2.7282  -2.7211  -2.6283  -2.5723  -2.5339  -2.4133
    -2.3814  -2.2982  -2.2746  -2.2197  -2.1028  -2.0874  -2.0548  -1.9338
    -1.8670  -1.8001  -1.6372  -1.5664  -1.4969  -1.4272  -1.2610  -1.2056
    -0.6512   0.0022   0.1594   0.6242   3.4593   3.6206   4.1410   4.2455
     4.3252   4.5276   4.7410   4.7868   4.8574   5.0121   5.0659   5.1107
     5.2384   5.3431

          k = 0.3818 0.0137 0.0043 ( 33864 PWs)   bands (ev):

   -34.3066 -34.1146 -34.0959 -33.9663 -30.8051 -16.3591 -16.3243 -16.2794
   -16.1700 -16.1488 -16.1451 -16.1257 -16.1083 -16.0994 -16.0505 -16.0195
   -15.9453 -14.6736 -14.5443 -14.5315  -7.9560  -7.8946  -7.5103  -7.4172
    -7.2780  -7.2595  -7.2216  -7.1302  -7.0627  -6.9616  -6.8848  -3.4051
    -3.3199  -3.3095  -3.2503  -3.1535  -3.0770  -3.0661  -2.9901  -2.9054
    -2.8465  -2.8096  -2.7766  -2.7445  -2.6662  -2.5701  -2.5193  -2.4162
    -2.3945  -2.3001  -2.1825  -2.1617  -2.1074  -2.0715  -2.0231  -1.9279
    -1.8460  -1.7854  -1.7075  -1.5982  -1.5405  -1.4424  -1.2651  -1.2070
    -0.6359   0.0063   0.1595   0.6178   3.4836   3.6096   4.0244   4.2397
     4.4575   4.7021   4.7584   4.7817   4.8681   4.9562   5.0178   5.1379
     5.3286   5.3688

          k = 0.0182 0.5483-0.0497 ( 33820 PWs)   bands (ev):

   -34.3066 -34.1146 -34.0959 -33.9663 -30.8051 -16.3590 -16.3234 -16.2791
   -16.1716 -16.1505 -16.1447 -16.1253 -16.1102 -16.0977 -16.0497 -16.0189
   -15.9454 -14.6738 -14.5442 -14.5324  -7.8586  -7.7693  -7.5988  -7.4541
    -7.3881  -7.3184  -7.1886  -7.1253  -7.1004  -6.9361  -6.8590  -3.4460
    -3.3110  -3.2623  -3.2574  -3.1297  -3.0973  -3.0360  -3.0096  -2.9594
    -2.8350  -2.7764  -2.7456  -2.6616  -2.6305  -2.5792  -2.5048  -2.4474
    -2.4230  -2.3303  -2.2980  -2.2338  -2.0866  -1.9866  -1.9637  -1.9464
    -1.8410  -1.7878  -1.6749  -1.6298  -1.6022  -1.5283  -1.2966  -1.2814
    -0.5976   0.0543   0.3056   0.6611   3.5578   3.6789   4.2456   4.3210
     4.5204   4.5918   4.6935   4.7817   4.9010   4.9462   5.1250   5.2395
     5.2575   5.3316

          k = 0.4000 0.5620-0.0454 ( 33872 PWs)   bands (ev):

   -34.3066 -34.1146 -34.0959 -33.9663 -30.8051 -16.3590 -16.3234 -16.2790
   -16.1716 -16.1495 -16.1453 -16.1253 -16.1084 -16.0999 -16.0497 -16.0189
   -15.9454 -14.6738 -14.5442 -14.5324  -7.8304  -7.7349  -7.6307  -7.4975
    -7.4028  -7.2981  -7.2048  -7.1244  -7.0991  -6.9350  -6.8464  -3.4172
    -3.3436  -3.3011  -3.2619  -3.1645  -3.1077  -2.9841  -2.9392  -2.8453
    -2.8421  -2.7702  -2.7273  -2.6467  -2.6166  -2.5673  -2.5138  -2.4870
    -2.4295  -2.3771  -2.2866  -2.1991  -2.1549  -2.1137  -2.0078  -1.9121
    -1.8693  -1.7730  -1.7007  -1.6834  -1.5387  -1.4473  -1.2935  -1.2757
    -0.6072   0.0527   0.3056   0.6596   3.5646   3.6745   4.2133   4.2950
     4.4943   4.6290   4.6751   4.8807   4.9373   5.0507   5.1368   5.2477
     5.3257   5.3785

          k = 0.0061-0.0533 0.5065 ( 33894 PWs)   bands (ev):

   -34.3066 -34.1146 -34.0959 -33.9663 -30.8051 -16.3590 -16.3234 -16.2791
   -16.1716 -16.1501 -16.1445 -16.1258 -16.1101 -16.0973 -16.0501 -16.0190
   -15.9455 -14.6736 -14.5443 -14.5319  -7.8573  -7.7720  -7.6880  -7.4839
    -7.3142  -7.2739  -7.1926  -7.1311  -7.1074  -6.9246  -6.8534  -3.3186
    -3.3081  -3.2945  -3.2353  -3.1717  -3.0460  -3.0337  -2.9712  -2.9108
    -2.8904  -2.7818  -2.7505  -2.7281  -2.6772  -2.6140  -2.5467  -2.4495
    -2.4384  -2.3626  -2.2634  -2.2333  -2.1432  -2.0861  -2.0391  -1.9164
    -1.8412  -1.7247  -1.7096  -1.5726  -1.5128  -1.4570  -1.2600  -1.2152
    -0.4534   0.0043   0.2147   0.5936   3.4909   3.6297   4.0839   4.2893
     4.4836   4.6561   4.7718   4.9172   5.0321   5.0893   5.1740   5.2801
     5.3275   5.3842

          k = 0.3879-0.0396 0.5108 ( 33884 PWs)   bands (ev):

   -34.3066 -34.1146 -34.0959 -33.9663 -30.8051 -16.3590 -16.3234 -16.2790
   -16.1716 -16.1490 -16.1452 -16.1258 -16.1083 -16.0995 -16.0501 -16.0191
   -15.9455 -14.6736 -14.5443 -14.5319  -7.7894  -7.7666  -7.6657  -7.6435
    -7.2767  -7.2563  -7.1767  -7.1529  -7.0587  -6.9365  -6.8857  -3.3164
    -3.3027  -3.2543  -3.2153  -3.1543  -3.0695  -3.0287  -2.9680  -2.9091
    -2.8559  -2.7581  -2.7011  -2.6893  -2.6848  -2.6414  -2.5977  -2.4875
    -2.4466  -2.4157  -2.3088  -2.2503  -2.2281  -2.1106  -1.9822  -1.8629
    -1.7845  -1.7206  -1.6472  -1.6063  -1.5569  -1.4659  -1.2658  -1.2234
    -0.4553   0.0059   0.2169   0.5896   3.5023   3.6196   4.1391   4.1729
     4.5665   4.6588   4.8606   4.9059   5.0765   5.1268   5.2479   5.2728
     5.3259   5.3680

          k = 0.0243 0.4950 0.4568 ( 33864 PWs)   bands (ev):

   -34.3066 -34.1146 -34.0959 -33.9663 -30.8051 -16.3592 -16.3244 -16.2795
   -16.1701 -16.1499 -16.1444 -16.1260 -16.1100 -16.0972 -16.0504 -16.0194
   -15.9451 -14.6737 -14.5442 -14.5324  -7.8490  -7.7429  -7.5795  -7.4667
    -7.4120  -7.3429  -7.1895  -7.1359  -7.0701  -6.9530  -6.8610  -3.5140
    -3.3164  -3.2792  -3.2251  -3.1629  -3.0803  -3.0195  -2.9047  -2.8622
    -2.8246  -2.7813  -2.7152  -2.6781  -2.6336  -2.5844  -2.5546  -2.4821
    -2.3646  -2.3392  -2.3345  -2.2880  -2.1762  -2.1320  -2.0191  -1.9449
    -1.8127  -1.7174  -1.6553  -1.6426  -1.5823  -1.5141  -1.3125  -1.2604
    -0.4122   0.0528   0.3121   0.6625   3.6180   3.6979   4.1976   4.2921
     4.5824   4.7270   4.8285   4.8723   4.9352   5.0359   5.0957   5.1826
     5.2340   5.3193

          k = 0.4061 0.5087 0.4611 ( 33836 PWs)   bands (ev):

   -34.3066 -34.1146 -34.0959 -33.9663 -30.8051 -16.3592 -16.3244 -16.2794
   -16.1701 -16.1488 -16.1451 -16.1260 -16.1083 -16.0993 -16.0505 -16.0194
   -15.9451 -14.6737 -14.5442 -14.5324  -7.7995  -7.7296  -7.6585  -7.4536
    -7.4187  -7.2813  -7.2197  -7.1669  -7.1036  -6.9290  -6.8513  -3.4601
    -3.3305  -3.2725  -3.2227  -3.1382  -3.0641  -2.9824  -2.9456  -2.8977
    -2.8251  -2.8016  -2.7470  -2.7202  -2.6372  -2.5667  -2.5038  -2.4600
    -2.4258  -2.3743  -2.2485  -2.2323  -2.1890  -2.0631  -1.9947  -1.9391
    -1.9248  -1.8080  -1.7062  -1.6468  -1.5533  -1.4664  -1.2968  -1.2746
    -0.4254   0.0575   0.3126   0.6649   3.6340   3.7084   4.2120   4.2413
     4.5490   4.7546   4.9549   4.9848   5.0145   5.0746   5.1055   5.1205
     5.2648   5.2939

     the Fermi energy is     2.1054 ev

!    total energy              =    -578.80006435 Ry
     estimated scf accuracy    <       0.00000080 Ry
     smearing contrib. (-TS)   =       0.00000000 Ry
     internal energy E=F+TS    =    -578.80006435 Ry

     The total energy is F=E-TS. E is the sum of the following terms:
     one-electron contribution =    -263.21060470 Ry
     hartree contribution      =     161.59990655 Ry
     xc contribution           =    -202.64223023 Ry
     ewald contribution        =    -217.23134629 Ry
     one-center paw contrib.   =     -57.31578967 Ry

     convergence has been achieved in   6 iterations

     Forces acting on atoms (cartesian axes, Ry/au):

     atom    1 type  3   force =     0.00571377    0.00000284   -0.00074682
     atom    2 type  3   force =     0.00499686    0.00795656    0.00088118
     atom    3 type  3   force =     0.00162383   -0.00098153    0.01087108
     atom    4 type  3   force =    -0.00040991   -0.00036516    0.00455011
     atom    5 type  5   force =    -0.00125634   -0.00352457    0.00788789
     atom    6 type  5   force =     0.00102918    0.02742842   -0.00407547
     atom    7 type  5   force =     0.01001962   -0.00642817   -0.00749497
     atom    8 type  5   force =    -0.00199983   -0.00957723   -0.00258519
     atom    9 type  1   force =     0.00215457    0.00000640   -0.00105232
     atom   10 type  1   force =    -0.00365899    0.00167490    0.00511406
     atom   11 type  1   force =    -0.00048046   -0.00242081    0.00117431
     atom   12 type  1   force =     0.00826298   -0.00071572   -0.00385031
     atom   13 type  1   force =    -0.00376519    0.00098462    0.00014945
     atom   14 type  4   force =     0.03564153   -0.00294525    0.02041868
     atom   15 type  1   force =     0.00141471   -0.00424051   -0.00627941
     atom   16 type  1   force =    -0.00069683    0.00258346   -0.00354824
     atom   17 type  1   force =    -0.00153084    0.00152787    0.00207809
     atom   18 type  1   force =    -0.00100615   -0.00649365   -0.00343729
     atom   19 type  1   force =     0.00024495    0.00949056    0.00091925
     atom   20 type  1   force =    -0.00412116   -0.00276658    0.00089829
     atom   21 type  2   force =     0.00168822    0.00213944   -0.00123890
     atom   22 type  2   force =    -0.00207330    0.00270501    0.00387489
     atom   23 type  2   force =    -0.00069306    0.00066273    0.00286968
     atom   24 type  2   force =     0.00542248    0.00232258   -0.01019878
     atom   25 type  2   force =    -0.00583170    0.00797081   -0.00547334
     atom   26 type  2   force =    -0.00254743    0.00313570    0.00031056
     atom   27 type  2   force =     0.00059156    0.00522669    0.00347797
     atom   28 type  2   force =    -0.00333182   -0.00098558    0.00050485
     atom   29 type  2   force =    -0.00191646   -0.00221755    0.00160710
     atom   30 type  2   force =     0.00491109   -0.00076043   -0.00344888
     atom   31 type  2   force =     0.00292821   -0.00304298   -0.00002875
     atom   32 type  2   force =    -0.00356657   -0.00007906    0.00423200
     atom   33 type  2   force =    -0.00273696    0.00944058    0.00533522
     atom   34 type  2   force =    -0.00692366   -0.00409548    0.00241321
     atom   35 type  2   force =     0.00146660    0.00439538    0.00239594
     atom   36 type  2   force =     0.00107350   -0.00629166    0.00461833
     atom   37 type  2   force =     0.00140768   -0.00009278   -0.00116179
     atom   38 type  2   force =    -0.01444633   -0.02855567   -0.03812134
     atom   39 type  2   force =     0.00411050   -0.00752189   -0.01214079
     atom   40 type  2   force =     0.00532108    0.01043164    0.00258813
     atom   41 type  2   force =    -0.00208015    0.00345998    0.00123685
     atom   42 type  2   force =     0.01447638   -0.00407100    0.00065750
     atom   43 type  2   force =    -0.00813651    0.00707548    0.01068560
     atom   44 type  2   force =     0.00278844   -0.00187677   -0.00031637
     atom   45 type  2   force =     0.00031561    0.00330913   -0.00333397
     atom   46 type  2   force =    -0.00459553   -0.00724655    0.00609552
     atom   47 type  2   force =    -0.00540583    0.00175274   -0.01384154
     atom   48 type  2   force =    -0.00171237   -0.00038581   -0.00300770
     atom   49 type  2   force =     0.00077835    0.00026670   -0.00781277
     atom   50 type  2   force =    -0.03624002   -0.00971803    0.01283607
     atom   51 type  2   force =     0.01164851    0.00370865    0.00638421
     atom   52 type  2   force =    -0.00019593   -0.00467349    0.00021239
     atom   53 type  2   force =    -0.00026664    0.00326782    0.00620031
     atom   54 type  2   force =    -0.00611670   -0.00941132   -0.01111848
     atom   55 type  2   force =    -0.00782845    0.01240689    0.00250886
     atom   56 type  2   force =    -0.00177390   -0.00383647   -0.00119954
     atom   57 type  2   force =     0.00229570   -0.00122450   -0.00262494
     atom   58 type  2   force =     0.00483389   -0.00062926    0.00332221
     atom   59 type  2   force =     0.00234744    0.00793098   -0.00095269
     atom   60 type  2   force =    -0.00043589   -0.00322335    0.00131012
     atom   61 type  2   force =     0.00512625    0.00400425   -0.00545108
     atom   62 type  2   force =     0.00013490   -0.00741430    0.00127400
     atom   63 type  2   force =    -0.00166585    0.00364414   -0.00014330
     atom   64 type  2   force =     0.00295592   -0.00143577    0.00179690
     atom   65 type  2   force =     0.00181411    0.00255348    0.00143835
     atom   66 type  2   force =    -0.00563087   -0.00608827    0.00639479
     atom   67 type  2   force =    -0.00154618    0.00798505    0.00038083
     atom   68 type  2   force =    -0.00291463   -0.00611431    0.00278017

     Total force =     0.104398     Total SCF correction =     0.002206


     Computing stress (Cartesian axis) and pressure

          total   stress  (Ry/bohr**3)                   (kbar)     P=        6.29
   0.00002763   0.00000422   0.00002448            4.06        0.62        3.60
   0.00000422   0.00008871   0.00001261            0.62       13.05        1.86
   0.00002448   0.00001261   0.00001200            3.60        1.86        1.77

     Energy error            =      2.0E-02
     Gradient error          =      3.8E-02
     Cell gradient error     =      8.9E-05


     number of scf cycles    =   2
     number of bfgs steps    =   1

     enthalpy old            =    -578.7803622171 Ry
     enthalpy new            =    -578.8000643469 Ry

     CASE: enthalpy_new < enthalpy_old

     new trust radius        =       0.0718732411 bohr
     new conv_thr            =       0.0000003812 Ry

     new unit-cell volume =   5726.64157 a.u.^3 (   848.60073 Ang^3 )
     density =      0.13306 g/cm^3

CELL_PARAMETERS (angstrom)
   0.121594668  -0.817770411  -8.892904016
   0.303483079  -8.244871591  -0.874168777
 -11.704039520   0.405084633   0.175455129

ATOMIC_POSITIONS (angstrom)
K            -8.5260361671       -7.8875330281       -5.3788427277
K            -2.9901266678       -0.5959678091       -4.2574737833
K            -3.0442388808       -4.2954914897       -8.9085805677
K            -8.2122918977       -4.0603169624       -0.8341044048
Sr           -5.3889643163       -8.4556186599       -9.3047655830
Sr          -11.5422995457       -0.1639258869       -0.3332311289
Sr          -11.6645621343       -3.9090026911       -4.6614104824
Sr           -5.5722035954       -4.3408961314       -4.4042236963
B            -8.7900198617       -3.9713245933       -3.9969829209
B            -2.9926524259       -4.5463155687       -5.4374657897
B            -2.8530742396       -8.0776352386       -1.4724834221
B            -8.8851563699       -0.5230372568       -8.0687728178
B            -5.3809808329       -2.8843788678       -1.8485599795
La          -11.2317308176       -6.1618240197       -7.7132241537
B           -11.0299455291       -6.9602838997       -3.6789748758
B            -5.3528308067       -1.5985652923       -6.0299010786
B            -5.9519085622       -6.0965536189       -7.6479680358
B            -0.3332952040       -2.8419600498       -2.1271005579
B            -0.3096254239       -1.9379865403       -6.3227482773
B            -6.0215279971       -6.8024465698       -3.3071218125
H            -9.6532987961       -4.0703379838       -3.1188756387
H            -3.8907121310       -4.4547467204       -6.2699509855
H            -3.7794504076       -8.1884068791       -2.2706112451
H            -9.8335504319       -0.3734585327       -7.2747181360
H            -8.7939629999       -4.9887687330       -4.6744144047
H            -3.0276931304       -3.5757211636       -4.6681264438
H            -3.0273792752       -1.6107844890       -8.7334569077
H            -8.6118201831       -7.0212318674       -0.8368124363
H            -8.9596245287       -2.9553279446       -4.6751858224
H            -3.1420110697       -5.5722594671       -4.7832297665
H            -2.8656725330       -7.8332705649       -9.7147559973
H            -9.1512184812       -0.7667088650        0.1838196515
H            -7.7177756636       -3.9172348212       -3.4199435437
H            -1.9609511683       -4.5359680818       -6.0860397330
H            -1.8336217151       -8.0287075574       -2.1465710490
H            -7.8904946407       -0.6199852414       -7.3827560532
H            -5.3087494298       -2.2235712038       -0.8132193632
H           -10.8136365110       -6.6906765831       -9.6923009978
H           -10.9127393391       -6.2557739498       -4.6770322306
H            -5.2482232508       -2.1935738194       -4.9834804589
H            -4.3328607685       -2.7811243196       -2.5072688637
H            -9.4127934525       -5.7938039994       -6.8105359567
H            -9.9575364845       -6.9218132801       -3.0724516863
H            -4.3220331847       -1.7031208625       -6.6865888694
H            -5.5245150835       -4.0694754487       -1.5554979804
H           -11.2714719975       -4.0032542408       -7.5678823969
H           -11.2161318957       -8.1245536566       -3.9975543060
H            -5.5329914759       -0.4315368372       -5.7186668207
H            -6.3374460209       -2.4809226414       -2.4849027590
H            -1.1004893188       -6.5595444466       -6.4998824680
H            -0.3117760785       -6.9819394962       -3.2228815637
H            -6.3138247862       -2.0139116348       -6.6724443037
H            -5.6508014895       -6.7562127106       -6.6753320939
H            -0.0054984126       -2.1717712851       -3.0871104600
H             0.0034681870       -2.7388821591       -7.2007857399
H            -5.7077965433       -6.0565428529       -2.3623704096
H            -6.9087838370       -6.6415783483       -8.1962604156
H            -1.3123396161       -2.2833175433       -1.6133253923
H            -1.3134328893       -2.3696148496       -5.7690841118
H            -6.9980284450       -6.2820589215       -3.8264409866
H            -6.2739295596       -4.9496580889       -7.3383472116
H            -0.6578972424       -3.9928702931       -2.3947524819
H            -0.5603325794       -0.8222974748       -6.7674786411
H            -6.3096302617       -7.9329227398       -2.9416325063
H            -4.9886909469       -6.1031302968       -8.4371422868
H           -11.0508507037       -2.4463874965       -1.2074229467
H           -11.0613927976       -1.5122867795       -5.3622923876
H            -5.0742158211       -6.8039908154       -4.0895093571



     Writing output data file ./tmp/K4Sr4LaB11H48.save/
     NEW-OLD atomic charge density approx. for the potential
