
     Program PWSCF v.6.7MaX starts on 19Feb2026 at  2:22:10 

     This program is part of the open-source Quantum ESPRESSO suite
     for quantum simulation of materials; please cite
         "P. Giannozzi et al., J. Phys.:Condens. Matter 21 395502 (2009);
         "P. Giannozzi et al., J. Phys.:Condens. Matter 29 465901 (2017);
          URL http://www.quantum-espresso.org", 
     in publications or presentations arising from this work. More details at
     http://www.quantum-espresso.org/quote

     Parallel version (MPI), running on     2 processors

     MPI processes distributed on     1 nodes
     R & G space division:  proc/nbgrp/npool/nimage =       2
     Waiting for input...
     Reading input from standard input

     Current dimensions of program PWSCF are:
     Max number of different atomic species (ntypx) = 10
     Max number of k-points (npk) =  40000
     Max angular momentum in pseudopotentials (lmaxx) =  3
     file Ga.UPF: wavefunction(s)  4S renormalized
     file H.UPF: wavefunction(s)  1S renormalized

     Subspace diagonalization in iterative solution of the eigenvalue problem:
     a serial algorithm will be used

--------------------------------------------------------------------------------
NOTICE: Bravais lattice has wrong number ( 3) of symmetries - symmetries are disabled
--------------------------------------------------------------------------------

     Parallelization info
     --------------------
     sticks:   dense  smooth     PW     G-vecs:    dense   smooth      PW
     Min        1090     544    162                38072    13471    2194
     Max        1091     545    163                38073    13472    2197
     Sum        2181    1089    325                76145    26943    4391



     bravais-lattice index     =            0
     lattice parameter (alat)  =       8.2588  a.u.
     unit-cell volume          =     563.1673 (a.u.)^3
     number of atoms/cell      =           11
     number of atomic types    =            3
     number of electrons       =        56.00
     number of Kohn-Sham states=           34
     kinetic-energy cutoff     =      50.0000  Ry
     charge density cutoff     =     400.0000  Ry
     scf convergence threshold =      1.0E-06
     mixing beta               =       0.7000
     number of iterations used =            8  plain     mixing
     energy convergence thresh.=      1.0E-04
     force convergence thresh. =      1.0E-03
     press convergence thresh. =      5.0E-01
     Exchange-correlation= SLA  PW   PBE  PBE
                           (   1   4   3   4   0   0   0)
     nstep                     =           50


     celldm(1)=   8.258820  celldm(2)=   0.000000  celldm(3)=   0.000000
     celldm(4)=   0.000000  celldm(5)=   0.000000  celldm(6)=   0.000000

     crystal axes: (cart. coord. in units of alat)
               a(1) = (   0.999956   0.006651   0.006651 )  
               a(2) = (   0.006651   0.999955  -0.006651 )  
               a(3) = (   0.006651  -0.006651   0.999954 )  

     reciprocal axes: (cart. coord. in units 2 pi/alat)
               b(1) = (  1.000133 -0.006697 -0.006697 )  
               b(2) = ( -0.006697  1.000134  0.006697 )  
               b(3) = ( -0.006697  0.006697  1.000135 )  


     PseudoPot. # 1 for Ga read from file:
     /home/marco/ZOS_Cloud_Compute/pseudo/Ga.UPF
     MD5 check sum: 79e63b61437c88080bf469cc04ca4be8
     Pseudo is Projector augmented-wave + core cor, Zval = 13.0
     Generated using "atomic" code by A. Dal Corso  v.5.1.2
     Shape of augmentation charge: PSQ
     Using radial grid of 1205 points,  6 beta functions with: 
                l(1) =   0
                l(2) =   0
                l(3) =   1
                l(4) =   1
                l(5) =   2
                l(6) =   2
     Q(r) pseudized with 0 coefficients 


     PseudoPot. # 2 for H  read from file:
     /home/marco/ZOS_Cloud_Compute/pseudo/H.UPF
     MD5 check sum: 850d63dcbcc06c5de8b44e0ab9f952da
     Pseudo is Projector augmented-wave, Zval =  1.0
     Generated using "atomic" code by A. Dal Corso  v.5.1.2
     Shape of augmentation charge: PSQ
     Using radial grid of  929 points,  2 beta functions with: 
                l(1) =   0
                l(2) =   0
     Q(r) pseudized with 0 coefficients 


     PseudoPot. # 3 for Ti read from file:
     /home/marco/ZOS_Cloud_Compute/pseudo/Ti.UPF
     MD5 check sum: 8e4df49b7f0d34bbd5052bf3f5ea0213
     Pseudo is Ultrasoft, Zval = 12.0
     Generated by new atomic code, or converted to UPF format
     Using radial grid of  851 points,  6 beta functions with: 
                l(1) =   0
                l(2) =   0
                l(3) =   1
                l(4) =   1
                l(5) =   2
                l(6) =   2
     Q(r) pseudized with  8 coefficients,  rinner =    1.000   1.000   1.000
                                                       1.000   1.000

     atomic species   valence    mass     pseudopotential
        Ga            13.00     1.00000     Ga( 1.00)
        H              1.00     1.00000     H ( 1.00)
        Ti            12.00     1.00000     Ti( 1.00)

     No symmetry found



   Cartesian axes

     site n.     atom                  positions (alat units)
         1           Ga  tau(   1) = (   0.2779139   0.7286926   0.7286919  )
         2           Ti  tau(   2) = (   0.7582397   0.2483672   0.7696336  )
         3           Ti  tau(   3) = (   0.7582397   0.7696346   0.2483668  )
         4           Ti  tau(   4) = (   0.2369719   0.2483670   0.2483668  )
         5           H   tau(   5) = (   0.4973545   0.0056764   0.0056764  )
         6           H   tau(   6) = (  -0.0273448   0.4834509   0.4834505  )
         7           H   tau(   7) = (   0.5165044   0.0339959   0.4901016  )
         8           H   tau(   8) = (   0.0009750   0.5026010  -0.0009747  )
         9           H   tau(   9) = (   0.0100701  -0.0100701  -0.0100701  )
        10           H   tau(  10) = (   0.0009747  -0.0009750   0.5026005  )
        11           H   tau(  11) = (   0.5165044   0.4901023   0.0339959  )

     number of k points=     8  Methfessel-Paxton smearing, width (Ry)=  0.0200
                       cart. coord. in units 2pi/alat
        k(    1) = (   0.0000000   0.0000000   0.0000000), wk =   0.2500000
        k(    2) = (   0.0033484  -0.0033486  -0.5000675), wk =   0.2500000
        k(    3) = (   0.0033485  -0.5000670  -0.0033486), wk =   0.2500000
        k(    4) = (   0.0066970  -0.5034156  -0.5034160), wk =   0.2500000
        k(    5) = (  -0.5000667   0.0033485   0.0033484), wk =   0.2500000
        k(    6) = (  -0.4967182  -0.0000000  -0.4967190), wk =   0.2500000
        k(    7) = (  -0.4967181  -0.4967185  -0.0000001), wk =   0.2500000
        k(    8) = (  -0.4933697  -0.5000670  -0.5000676), wk =   0.2500000

     Dense  grid:    76145 G-vectors     FFT dimensions: (  54,  54,  54)

     Smooth grid:    26943 G-vectors     FFT dimensions: (  40,  40,  40)

     Estimated max dynamical RAM per process >     162.47 MB

     Estimated total dynamical RAM >     324.94 MB

     Initial potential from superposition of free atoms

     starting charge   52.99685, renormalised to   56.00000
     Starting wfcs are   46 randomized atomic wfcs
     Checking if some PAW data can be deallocated... 

     total cpu time spent up to now is        6.9 secs

     Self-consistent Calculation

     iteration #  1     ecut=    50.00 Ry     beta= 0.70
     Davidson diagonalization with overlap
     ethr =  1.00E-02,  avg # of iterations =  4.4

     total cpu time spent up to now is       11.0 secs

     total energy              =    -633.51240460 Ry
     estimated scf accuracy    <       4.60647238 Ry

     iteration #  2     ecut=    50.00 Ry     beta= 0.70
     Davidson diagonalization with overlap
     ethr =  8.23E-03,  avg # of iterations =  5.0

     total cpu time spent up to now is       14.9 secs

     total energy              =    -635.29109931 Ry
     estimated scf accuracy    <       3.69795952 Ry

     iteration #  3     ecut=    50.00 Ry     beta= 0.70
     Davidson diagonalization with overlap
     ethr =  6.60E-03,  avg # of iterations =  3.5

     total cpu time spent up to now is       18.6 secs

     total energy              =    -636.08150355 Ry
     estimated scf accuracy    <       0.28514126 Ry

     iteration #  4     ecut=    50.00 Ry     beta= 0.70
     Davidson diagonalization with overlap
     ethr =  5.09E-04,  avg # of iterations =  7.2

     total cpu time spent up to now is       22.4 secs

     total energy              =    -636.17813457 Ry
     estimated scf accuracy    <       0.19037910 Ry

     iteration #  5     ecut=    50.00 Ry     beta= 0.70
     Davidson diagonalization with overlap
     ethr =  3.40E-04,  avg # of iterations =  1.9

     total cpu time spent up to now is       25.6 secs

     total energy              =    -636.18478990 Ry
     estimated scf accuracy    <       0.06475501 Ry

     iteration #  6     ecut=    50.00 Ry     beta= 0.70
     Davidson diagonalization with overlap
     ethr =  1.16E-04,  avg # of iterations =  5.6

     total cpu time spent up to now is       29.3 secs

     total energy              =    -636.20103060 Ry
     estimated scf accuracy    <       0.06638047 Ry

     iteration #  7     ecut=    50.00 Ry     beta= 0.70
     Davidson diagonalization with overlap
     ethr =  1.16E-04,  avg # of iterations =  2.9

     total cpu time spent up to now is       32.6 secs

     total energy              =    -636.20272141 Ry
     estimated scf accuracy    <       0.11101618 Ry

     iteration #  8     ecut=    50.00 Ry     beta= 0.70
     Davidson diagonalization with overlap
     ethr =  1.16E-04,  avg # of iterations =  1.0

     total cpu time spent up to now is       35.8 secs

     total energy              =    -636.16204905 Ry
     estimated scf accuracy    <       0.11567025 Ry

     iteration #  9     ecut=    50.00 Ry     beta= 0.70
     Davidson diagonalization with overlap
     ethr =  1.16E-04,  avg # of iterations =  6.9

     total cpu time spent up to now is       39.6 secs

     total energy              =    -636.18659101 Ry
     estimated scf accuracy    <       0.05397082 Ry

     iteration # 10     ecut=    50.00 Ry     beta= 0.70
     Davidson diagonalization with overlap
     ethr =  9.64E-05,  avg # of iterations =  1.1

     total cpu time spent up to now is       42.7 secs

     total energy              =    -636.18276291 Ry
     estimated scf accuracy    <       0.02980424 Ry

     iteration # 11     ecut=    50.00 Ry     beta= 0.70
     Davidson diagonalization with overlap
     ethr =  5.32E-05,  avg # of iterations =  1.6

     total cpu time spent up to now is       45.9 secs

     total energy              =    -636.17784749 Ry
     estimated scf accuracy    <       0.01393443 Ry

     iteration # 12     ecut=    50.00 Ry     beta= 0.70
     Davidson diagonalization with overlap
     ethr =  2.49E-05,  avg # of iterations =  7.1

     total cpu time spent up to now is       50.2 secs

     total energy              =    -636.18523140 Ry
     estimated scf accuracy    <       0.01667259 Ry

     iteration # 13     ecut=    50.00 Ry     beta= 0.70
     Davidson diagonalization with overlap
     ethr =  2.49E-05,  avg # of iterations =  1.0

     total cpu time spent up to now is       53.1 secs

     total energy              =    -636.18452473 Ry
     estimated scf accuracy    <       0.00889577 Ry

     iteration # 14     ecut=    50.00 Ry     beta= 0.70
     Davidson diagonalization with overlap
     ethr =  1.59E-05,  avg # of iterations =  1.0

     total cpu time spent up to now is       56.5 secs

     total energy              =    -636.18365601 Ry
     estimated scf accuracy    <       0.00535092 Ry

     iteration # 15     ecut=    50.00 Ry     beta= 0.70
     Davidson diagonalization with overlap
     ethr =  9.56E-06,  avg # of iterations =  2.5

     total cpu time spent up to now is       59.9 secs

     total energy              =    -636.18332435 Ry
     estimated scf accuracy    <       0.00180373 Ry

     iteration # 16     ecut=    50.00 Ry     beta= 0.70
     Davidson diagonalization with overlap
     ethr =  3.22E-06,  avg # of iterations =  7.8

     total cpu time spent up to now is       64.0 secs

     total energy              =    -636.18447757 Ry
     estimated scf accuracy    <       0.00198928 Ry

     iteration # 17     ecut=    50.00 Ry     beta= 0.70
     Davidson diagonalization with overlap
     ethr =  3.22E-06,  avg # of iterations =  2.0

     total cpu time spent up to now is       67.3 secs

     total energy              =    -636.18448901 Ry
     estimated scf accuracy    <       0.00052593 Ry

     iteration # 18     ecut=    50.00 Ry     beta= 0.70
     Davidson diagonalization with overlap
     ethr =  9.39E-07,  avg # of iterations =  3.9

     total cpu time spent up to now is       70.7 secs

     total energy              =    -636.18450582 Ry
     estimated scf accuracy    <       0.00027194 Ry

     iteration # 19     ecut=    50.00 Ry     beta= 0.70
     Davidson diagonalization with overlap
     ethr =  4.86E-07,  avg # of iterations =  6.0

     total cpu time spent up to now is       74.7 secs

     total energy              =    -636.18459887 Ry
     estimated scf accuracy    <       0.00001065 Ry

     iteration # 20     ecut=    50.00 Ry     beta= 0.70
     Davidson diagonalization with overlap
     ethr =  1.90E-08,  avg # of iterations =  7.1

     total cpu time spent up to now is       78.9 secs

     total energy              =    -636.18459762 Ry
     estimated scf accuracy    <       0.00006019 Ry

     iteration # 21     ecut=    50.00 Ry     beta= 0.70
     Davidson diagonalization with overlap
     ethr =  1.90E-08,  avg # of iterations =  2.0

     total cpu time spent up to now is       82.4 secs

     total energy              =    -636.18459648 Ry
     estimated scf accuracy    <       0.00003609 Ry

     iteration # 22     ecut=    50.00 Ry     beta= 0.70
     Davidson diagonalization with overlap
     ethr =  1.90E-08,  avg # of iterations =  1.0

     total cpu time spent up to now is       85.6 secs

     total energy              =    -636.18459396 Ry
     estimated scf accuracy    <       0.00003056 Ry

     iteration # 23     ecut=    50.00 Ry     beta= 0.70
     Davidson diagonalization with overlap
     ethr =  1.90E-08,  avg # of iterations =  1.5

     total cpu time spent up to now is       88.7 secs

     total energy              =    -636.18459127 Ry
     estimated scf accuracy    <       0.00002129 Ry

     iteration # 24     ecut=    50.00 Ry     beta= 0.70
     Davidson diagonalization with overlap
     ethr =  1.90E-08,  avg # of iterations =  4.0

     total cpu time spent up to now is       92.3 secs

     total energy              =    -636.18459135 Ry
     estimated scf accuracy    <       0.00000764 Ry

     iteration # 25     ecut=    50.00 Ry     beta= 0.70
     Davidson diagonalization with overlap
     ethr =  1.36E-08,  avg # of iterations =  6.0

     total cpu time spent up to now is       96.0 secs

     End of self-consistent calculation

          k = 0.0000 0.0000 0.0000 (  3365 PWs)   bands (ev):

   -45.1956 -45.1249 -45.1246 -21.6901 -21.6901 -21.6041 -21.4376 -21.4205
   -21.4204 -21.3614 -21.3235 -21.3234  -3.6753  -3.6752  -3.6129  -3.5958
    -3.5957   0.1692   5.7892   5.7892   5.9894   6.3225   6.3225   7.5921
     8.9645   9.7595   9.7596  12.3484  12.4852  12.4853  13.6065  13.8718
    13.8740  14.4679

          k = 0.0033-0.0033-0.5001 (  3378 PWs)   bands (ev):

   -45.1737 -45.1464 -45.1247 -21.6314 -21.5826 -21.5278 -21.5112 -21.4788
   -21.4252 -21.4200 -21.3736 -21.3422  -3.6711  -3.6710  -3.6100  -3.5917
    -3.5831   1.5399   2.8467   5.3825   5.8542   6.7436   7.1397   7.9772
     9.2966  10.2269  10.9297  11.8052  11.9138  12.4724  12.6256  12.9791
    13.3980  13.9024

          k = 0.0033-0.5001-0.0033 (  3378 PWs)   bands (ev):

   -45.1737 -45.1464 -45.1247 -21.6314 -21.5826 -21.5278 -21.5112 -21.4788
   -21.4252 -21.4200 -21.3736 -21.3422  -3.6712  -3.6710  -3.6100  -3.5916
    -3.5831   1.5399   2.8467   5.3825   5.8542   6.7436   7.1397   7.9772
     9.2966  10.2269  10.9297  11.8052  11.9138  12.4724  12.6256  12.9791
    13.3980  13.9022

          k = 0.0067-0.5034-0.5034 (  3356 PWs)   bands (ev):

   -45.1545 -45.1491 -45.1408 -21.6653 -21.5926 -21.5260 -21.4931 -21.4822
   -21.4557 -21.3997 -21.3693 -21.3199  -3.6808  -3.6691  -3.6129  -3.5870
    -3.5747   2.3109   3.6893   4.2590   5.1135   6.0655   6.8808   7.5904
     9.7549  10.5407  10.9934  11.9959  12.5661  12.6750  12.7020  12.8510
    13.1319  13.2355

          k =-0.5001 0.0033 0.0033 (  3378 PWs)   bands (ev):

   -45.1736 -45.1468 -45.1245 -21.6312 -21.5825 -21.5280 -21.5112 -21.4790
   -21.4251 -21.4202 -21.3736 -21.3420  -3.6712  -3.6709  -3.6100  -3.5916
    -3.5831   1.5399   2.8467   5.3825   5.8542   6.7436   7.1397   7.9771
     9.2967  10.2268  10.9296  11.8053  11.9137  12.4726  12.6257  12.9792
    13.3979  13.9024

          k =-0.4967-0.0000-0.4967 (  3356 PWs)   bands (ev):

   -45.1543 -45.1493 -45.1408 -21.6655 -21.5927 -21.5257 -21.4930 -21.4821
   -21.4558 -21.3996 -21.3695 -21.3201  -3.6808  -3.6691  -3.6129  -3.5870
    -3.5747   2.3109   3.6893   4.2591   5.1135   6.0655   6.8808   7.5904
     9.7550  10.5406  10.9934  11.9961  12.5660  12.6752  12.7021  12.8511
    13.1318  13.2354

          k =-0.4967-0.4967-0.0000 (  3356 PWs)   bands (ev):

   -45.1543 -45.1493 -45.1408 -21.6655 -21.5927 -21.5257 -21.4930 -21.4821
   -21.4558 -21.3996 -21.3695 -21.3201  -3.6809  -3.6691  -3.6129  -3.5870
    -3.5747   2.3109   3.6893   4.2591   5.1135   6.0655   6.8808   7.5904
     9.7550  10.5406  10.9934  11.9961  12.5660  12.6752  12.7021  12.8511
    13.1318  13.2354

          k =-0.4934-0.5001-0.5001 (  3376 PWs)   bands (ev):

   -45.1493 -45.1490 -45.1457 -21.7876 -21.6132 -21.6131 -21.5727 -21.3768
   -21.3766 -21.3345 -21.3153 -21.3151  -3.6867  -3.6866  -3.6229  -3.5770
    -3.5770   2.3460   4.8212   4.8213   5.3637   5.6214   5.6214   6.4207
     8.8449  11.6272  11.8372  11.8373  12.6126  12.6128  12.7170  13.0104
    13.0662  13.0664

     the Fermi energy is    12.0280 ev

!    total energy              =    -636.18459295 Ry
     estimated scf accuracy    <       0.00000038 Ry
     smearing contrib. (-TS)   =      -0.00052266 Ry
     internal energy E=F+TS    =    -636.18407029 Ry

     The total energy is F=E-TS. E is the sum of the following terms:
     one-electron contribution =    -221.89324423 Ry
     hartree contribution      =     139.02116580 Ry
     xc contribution           =     -87.32589724 Ry
     ewald contribution        =    -354.53290158 Ry
     one-center paw contrib.   =    -111.45319304 Ry

     convergence has been achieved in  25 iterations

     Forces acting on atoms (cartesian axes, Ry/au):

     atom    1 type  1   force =     0.03112759   -0.03103072   -0.03096070
     atom    2 type  3   force =    -0.01412440    0.01410828   -0.01414890
     atom    3 type  3   force =    -0.01411887   -0.01414509    0.01409980
     atom    4 type  3   force =     0.01413453    0.01410931    0.01409755
     atom    5 type  2   force =     0.00674981    0.00407771    0.00407102
     atom    6 type  2   force =    -0.00618762   -0.00256677   -0.00257348
     atom    7 type  2   force =     0.00254804    0.00618499   -0.00257229
     atom    8 type  2   force =    -0.00408109   -0.00676550    0.00407088
     atom    9 type  2   force =    -0.01451742    0.01451553    0.01450988
     atom   10 type  2   force =    -0.00407968    0.00407786   -0.00677337
     atom   11 type  2   force =     0.00254913   -0.00256558    0.00617962

     Total force =     0.075551     Total SCF correction =     0.000160


     Computing stress (Cartesian axis) and pressure

          total   stress  (Ry/bohr**3)                   (kbar)     P=       69.04
   0.00046925   0.00009772   0.00009773           69.03       14.37       14.38
   0.00009772   0.00046938  -0.00009777           14.37       69.05      -14.38
   0.00009773  -0.00009777   0.00046938           14.38      -14.38       69.05


     BFGS Geometry Optimization
     Energy error            =      0.0E+00
     Gradient error          =      3.1E-02
     Cell gradient error     =      4.7E-04


     number of scf cycles    =   1
     number of bfgs steps    =   0

     enthalpy new            =    -636.1845929525 Ry

     new trust radius        =       0.0580592988 bohr
     new conv_thr            =       0.0000010000 Ry

     new unit-cell volume =    583.21413 a.u.^3 (    86.42342 Ang^3 )
     density =      0.21135 g/cm^3

CELL_PARAMETERS (angstrom)
   4.421595644   0.040015008   0.040015817
   0.040014930   4.421606548  -0.040020490
   0.040015744  -0.040020495   4.421602425

ATOMIC_POSITIONS (angstrom)
Ga            1.2609836906        3.2006832826        3.2007182718
Ti            3.3559778116        1.1056237832        3.4008926574
Ti            3.3559798272        3.4008974512        1.1056185745
Ti            1.0607141959        1.1056261628        1.1056192503
H             2.2028728036        0.0325350491        0.0325323670
H            -0.1139044415        2.1308222016        2.1308164785
H             2.2907663469        0.1539156279        2.1708345684
H             0.0074781179        2.2187204058       -0.0074853342
H             0.0365763604       -0.0365774648       -0.0365804810
H             0.0074787715       -0.0074825951        2.2187141164
H             2.2907661088        2.1708403039        0.1539136788



     Writing output data file ./tmp/Ti3GaH7.save/
