
     Program PWSCF v.6.7MaX starts on 28Feb2026 at  8:15:31 

     This program is part of the open-source Quantum ESPRESSO suite
     for quantum simulation of materials; please cite
         "P. Giannozzi et al., J. Phys.:Condens. Matter 21 395502 (2009);
         "P. Giannozzi et al., J. Phys.:Condens. Matter 29 465901 (2017);
          URL http://www.quantum-espresso.org", 
     in publications or presentations arising from this work. More details at
     http://www.quantum-espresso.org/quote

     Parallel version (MPI), running on     2 processors

     MPI processes distributed on     1 nodes
     R & G space division:  proc/nbgrp/npool/nimage =       2
     Waiting for input...
     Reading input from standard input

     Current dimensions of program PWSCF are:
     Max number of different atomic species (ntypx) = 10
     Max number of k-points (npk) =  40000
     Max angular momentum in pseudopotentials (lmaxx) =  3
     Message from routine read_pp_mesh:
     mismatch in mesh size, discarding the one in header
     file H.UPF: wavefunction(s)  1S renormalized
     file Hf.UPF: wavefunction(s)  5P 4F renormalized

     Subspace diagonalization in iterative solution of the eigenvalue problem:
     a serial algorithm will be used


     Parallelization info
     --------------------
     sticks:   dense  smooth     PW     G-vecs:    dense   smooth      PW
     Min        1245     624    178                41001    14507    2202
     Max        1246     625    179                41002    14508    2203
     Sum        2491    1249    357                82003    29015    4405



     bravais-lattice index     =            0
     lattice parameter (alat)  =       9.4637  a.u.
     unit-cell volume          =     606.5621 (a.u.)^3
     number of atoms/cell      =           10
     number of atomic types    =            4
     number of electrons       =        54.00
     number of Kohn-Sham states=           32
     kinetic-energy cutoff     =      50.0000  Ry
     charge density cutoff     =     400.0000  Ry
     scf convergence threshold =      1.0E-06
     mixing beta               =       0.7000
     number of iterations used =            8  plain     mixing
     energy convergence thresh.=      1.0E-04
     force convergence thresh. =      1.0E-03
     press convergence thresh. =      5.0E-01
     Exchange-correlation= SLA PW PBX PBC
                           (   1   4   3   4   0   0   0)
     nstep                     =           50


     celldm(1)=   9.463732  celldm(2)=   0.000000  celldm(3)=   0.000000
     celldm(4)=   0.000000  celldm(5)=   0.000000  celldm(6)=   0.000000

     crystal axes: (cart. coord. in units of alat)
               a(1) = (   0.849919  -0.027794   0.526179 )  
               a(2) = (   0.279292   0.803201   0.526179 )  
               a(3) = (  -0.040476  -0.027794   0.998794 )  

     reciprocal axes: (cart. coord. in units 2 pi/alat)
               b(1) = (  1.141453 -0.419564  0.034582 )  
               b(2) = (  0.018356  1.215982  0.034581 )  
               b(3) = ( -0.611004 -0.419564  0.964771 )  


     PseudoPot. # 1 for H  read from file:
     /home/marco/ZOS_Cloud_Compute/pseudo/H.UPF
     MD5 check sum: 850d63dcbcc06c5de8b44e0ab9f952da
     Pseudo is Projector augmented-wave, Zval =  1.0
     Generated using "atomic" code by A. Dal Corso  v.5.1.2
     Shape of augmentation charge: PSQ
     Using radial grid of  929 points,  2 beta functions with: 
                l(1) =   0
                l(2) =   0
     Q(r) pseudized with 0 coefficients 


     PseudoPot. # 2 for Hf read from file:
     /home/marco/ZOS_Cloud_Compute/pseudo/Hf.UPF
     MD5 check sum: 054ab3954715fe03e42536d2af1a941a
     Pseudo is Projector augmented-wave + core cor, Zval = 36.0
     Generated using "atomic" code by A. Dal Corso  v.5.1.2
     Shape of augmentation charge: PSQ
     Using radial grid of 1271 points,  8 beta functions with: 
                l(1) =   0
                l(2) =   0
                l(3) =   1
                l(4) =   1
                l(5) =   2
                l(6) =   2
                l(7) =   3
                l(8) =   3
     Q(r) pseudized with 0 coefficients 


     PseudoPot. # 3 for Li read from file:
     /home/marco/ZOS_Cloud_Compute/pseudo/Li.UPF
     MD5 check sum: 057edeeab9105e5446fd9e29ea3f9c2f
     Pseudo is Ultrasoft + core correction, Zval =  1.0
     Generated by new atomic code, or converted to UPF format
     Using radial grid of  751 points,  2 beta functions with: 
                l(1) =   1
                l(2) =   1
     Q(r) pseudized with  8 coefficients,  rinner =    1.000   1.000   1.000


     PseudoPot. # 4 for Mg read from file:
     /home/marco/ZOS_Cloud_Compute/pseudo/Mg.UPF
     MD5 check sum: a77e51077e70c6c73445c6cac60d158f
     Pseudo is Projector augmented-wave + core cor, Zval = 10.0
     Generated using ATOMPAW code
     Shape of augmentation charge: BESSEL
     Using radial grid of 1171 points,  6 beta functions with: 
                l(1) =   0
                l(2) =   0
                l(3) =   0
                l(4) =   0
                l(5) =   1
                l(6) =   1
     Q(r) pseudized with 0 coefficients 


     atomic species   valence    mass     pseudopotential
        H              1.00     1.00000     H ( 1.00)
        Hf            36.00     1.00000     Hf( 1.00)
        Li             1.00     1.00000     Li( 1.00)
        Mg            10.00     1.00000     Mg( 1.00)

     No symmetry found



   Cartesian axes

     site n.     atom                  positions (alat units)
         1           Li  tau(   1) = (   0.3043152   0.2089672   0.5733229  )
         2           Li  tau(   2) = (   0.8435746   0.5792662   1.5892752  )
         3           Hf  tau(   3) = (   1.1000583   0.7553885   2.0724849  )
         4           Mg  tau(   4) = (   0.5608438   0.3851205   1.0566173  )
         5           H   tau(   5) = (   0.2609969   0.5220840   0.8170456  )
         6           H   tau(   6) = (   0.6777548   0.3075664   0.6740222  )
         7           H   tau(   7) = (   0.3511346   0.0560894   0.9390490  )
         8           H   tau(   8) = (   0.7939241   0.1032887   1.1802896  )
         9           H   tau(   9) = (   0.7637633   0.7038657   0.9773979  )
        10           H   tau(  10) = (   0.2876924   0.4600318   1.3189662  )

     number of k points=     8  Methfessel-Paxton smearing, width (Ry)=  0.0200
                       cart. coord. in units 2pi/alat
        k(    1) = (   0.0000000   0.0000000   0.0000000), wk =   0.2500000
        k(    2) = (   0.3055020   0.2097821  -0.4823857), wk =   0.2500000
        k(    3) = (  -0.0091778  -0.6079908  -0.0172907), wk =   0.2500000
        k(    4) = (   0.2963243  -0.3982086  -0.4996763), wk =   0.2500000
        k(    5) = (  -0.5707264   0.2097822  -0.0172908), wk =   0.2500000
        k(    6) = (  -0.2652243   0.4195643  -0.4996764), wk =   0.2500000
        k(    7) = (  -0.5799041  -0.3982086  -0.0345815), wk =   0.2500000
        k(    8) = (  -0.2744021  -0.1884264  -0.5169671), wk =   0.2500000

     Dense  grid:    82003 G-vectors     FFT dimensions: (  64,  64,  64)

     Smooth grid:    29015 G-vectors     FFT dimensions: (  45,  45,  45)

     Estimated max dynamical RAM per process >     434.32 MB

     Estimated total dynamical RAM >     868.65 MB

     Check: negative core charge=   -0.000002

     Initial potential from superposition of free atoms

     starting charge   53.98783, renormalised to   54.00000
     Starting wfcs are   46 randomized atomic wfcs
     Checking if some PAW data can be deallocated... 

     total cpu time spent up to now is       12.4 secs

     Self-consistent Calculation

     iteration #  1     ecut=    50.00 Ry     beta= 0.70
     Davidson diagonalization with overlap
     ethr =  1.00E-02,  avg # of iterations =  3.9

     total cpu time spent up to now is       18.0 secs

     total energy              =   -2135.89174166 Ry
     estimated scf accuracy    <       1.59654295 Ry

     iteration #  2     ecut=    50.00 Ry     beta= 0.70
     Davidson diagonalization with overlap
     ethr =  2.96E-03,  avg # of iterations =  2.1

     total cpu time spent up to now is       23.7 secs

     total energy              =   -2136.23632738 Ry
     estimated scf accuracy    <       0.39410102 Ry

     iteration #  3     ecut=    50.00 Ry     beta= 0.70
     Davidson diagonalization with overlap
     ethr =  7.30E-04,  avg # of iterations =  3.2

     total cpu time spent up to now is       29.5 secs

     total energy              =   -2136.34943810 Ry
     estimated scf accuracy    <       0.04003940 Ry

     iteration #  4     ecut=    50.00 Ry     beta= 0.70
     Davidson diagonalization with overlap
     ethr =  7.41E-05,  avg # of iterations =  4.2

     total cpu time spent up to now is       35.2 secs

     total energy              =   -2136.35784703 Ry
     estimated scf accuracy    <       0.00169610 Ry

     iteration #  5     ecut=    50.00 Ry     beta= 0.70
     Davidson diagonalization with overlap
     c_bands:  1 eigenvalues not converged
     c_bands:  1 eigenvalues not converged
     ethr =  3.14E-06,  avg # of iterations =  9.0

     total cpu time spent up to now is       41.6 secs

     total energy              =   -2136.35824888 Ry
     estimated scf accuracy    <       0.00007724 Ry

     iteration #  6     ecut=    50.00 Ry     beta= 0.70
     Davidson diagonalization with overlap
     c_bands:  1 eigenvalues not converged
     c_bands:  1 eigenvalues not converged
     ethr =  1.43E-07,  avg # of iterations =  7.8

     total cpu time spent up to now is       47.5 secs

     total energy              =   -2136.35826868 Ry
     estimated scf accuracy    <       0.00000851 Ry

     iteration #  7     ecut=    50.00 Ry     beta= 0.70
     Davidson diagonalization with overlap
     ethr =  1.58E-08,  avg # of iterations =  2.8

     total cpu time spent up to now is       53.0 secs

     End of self-consistent calculation

          k = 0.0000 0.0000 0.0000 (  3659 PWs)   bands (ev):

  -170.8048-170.8048-169.4680-169.4679-169.1384 -68.1018 -54.9764 -35.1992
   -35.1851 -35.1851 -23.5059 -23.4804 -23.4804  -9.9483  -9.9358  -9.9357
    -9.9095  -9.9018  -9.9018  -9.8811  -1.3567   3.0077   3.0079   3.8294
     4.5306   4.5308   8.0937   8.0938   8.3444  11.3522  11.3526  11.4399

          k = 0.3055 0.2098-0.4824 (  3628 PWs)   bands (ev):

  -170.0821-169.6381-169.0962-168.4528-168.2715 -68.1018 -54.9763 -35.1992
   -35.1851 -35.1851 -23.5074 -23.4850 -23.4813  -9.9299  -9.9165  -9.8974
    -9.8811  -9.8693  -9.8592  -9.8381   0.4126   0.7749   2.8279   3.5021
     4.1679   4.6462   7.8092   8.6438   9.0771   9.4548  11.3465  12.5353

          k =-0.0092-0.6080-0.0173 (  3628 PWs)   bands (ev):

  -170.0820-169.6382-169.0962-168.4527-168.2715 -68.1018 -54.9763 -35.1992
   -35.1851 -35.1851 -23.5074 -23.4850 -23.4813  -9.9298  -9.9165  -9.8973
    -9.8811  -9.8693  -9.8593  -9.8381   0.4126   0.7749   2.8279   3.5020
     4.1679   4.6461   7.8092   8.6438   9.0771   9.4548  11.3465  12.5354

          k = 0.2963-0.3982-0.4997 (  3618 PWs)   bands (ev):

  -169.3679-169.1799-168.9186-168.4436-168.1732 -68.1018 -54.9763 -35.1992
   -35.1851 -35.1851 -23.5090 -23.4842 -23.4827  -9.9186  -9.8884  -9.8826
    -9.8652  -9.8539  -9.8502  -9.8489   0.4724   2.0293   2.6264   2.8711
     3.3028   3.9851   7.7808   8.4697   8.9951  11.4984  11.8711  12.9459

          k =-0.5707 0.2098-0.0173 (  3628 PWs)   bands (ev):

  -170.0820-169.6381-169.0962-168.4527-168.2716 -68.1018 -54.9763 -35.1992
   -35.1851 -35.1851 -23.5074 -23.4851 -23.4813  -9.9298  -9.9164  -9.8974
    -9.8812  -9.8693  -9.8593  -9.8381   0.4126   0.7749   2.8279   3.5020
     4.1678   4.6463   7.8092   8.6438   9.0771   9.4548  11.3465  12.5355

          k =-0.2652 0.4196-0.4997 (  3618 PWs)   bands (ev):

  -169.3679-169.1799-168.9186-168.4437-168.1732 -68.1018 -54.9763 -35.1992
   -35.1851 -35.1851 -23.5090 -23.4841 -23.4827  -9.9185  -9.8884  -9.8826
    -9.8653  -9.8538  -9.8502  -9.8489   0.4723   2.0294   2.6264   2.8711
     3.3027   3.9852   7.7808   8.4697   8.9951  11.4984  11.8713  13.0176

          k =-0.5799-0.3982-0.0346 (  3618 PWs)   bands (ev):

  -169.3680-169.1799-168.9185-168.4437-168.1731 -68.1018 -54.9763 -35.1992
   -35.1851 -35.1851 -23.5090 -23.4841 -23.4827  -9.9186  -9.8884  -9.8826
    -9.8652  -9.8539  -9.8502  -9.8489   0.4724   2.0293   2.6264   2.8711
     3.3029   3.9851   7.7809   8.4696   8.9952  11.4985  11.8711  12.9456

          k =-0.2744-0.1884-0.5170 (  3618 PWs)   bands (ev):

  -169.7323-169.3709-169.3708-167.9001-167.9000 -68.1018 -54.9763 -35.1993
   -35.1851 -35.1851 -23.5111 -23.4814 -23.4814  -9.9372  -9.8868  -9.8867
    -9.8675  -9.8513  -9.8493  -9.8492   0.4280   0.9086   2.9196   2.9197
     4.4783   4.4784   8.1299   8.5718   8.5719  10.1463  12.2472  12.2473

     the Fermi energy is     8.1558 ev

!    total energy              =   -2136.35826983 Ry
     estimated scf accuracy    <       0.00000078 Ry
     smearing contrib. (-TS)   =       0.00181478 Ry
     internal energy E=F+TS    =   -2136.36008460 Ry

     The total energy is F=E-TS. E is the sum of the following terms:
     one-electron contribution =   -1837.13242044 Ry
     hartree contribution      =     880.81016541 Ry
     xc contribution           =    -128.47796325 Ry
     ewald contribution        =    -565.21398720 Ry
     one-center paw contrib.   =    -486.34587911 Ry

     convergence has been achieved in   7 iterations

     Forces acting on atoms (cartesian axes, Ry/au):

     atom    1 type  3   force =    -0.00040868   -0.00027518   -0.00079227
     atom    2 type  3   force =     0.00280586    0.00192999    0.00525734
     atom    3 type  2   force =     0.00204232    0.00144047    0.00415096
     atom    4 type  4   force =    -0.00098225   -0.00074101   -0.00193243
     atom    5 type  1   force =     0.00829599    0.00251810   -0.00717889
     atom    6 type  1   force =    -0.00144173   -0.01076675    0.00283417
     atom    7 type  1   force =    -0.00891026    0.00684340    0.00037832
     atom    8 type  1   force =    -0.00045966   -0.00841616    0.00203863
     atom    9 type  1   force =     0.00620555    0.00260102   -0.00550733
     atom   10 type  1   force =    -0.00714714    0.00486613    0.00075151

     Total force =     0.025963     Total SCF correction =     0.004943
     SCF correction compared to forces is large: reduce conv_thr to get better values


     Computing stress (Cartesian axis) and pressure

          total   stress  (Ry/bohr**3)                   (kbar)     P=   -16981.97
  -0.11549162   0.00005204   0.00014183       -16989.40        7.66       20.86
   0.00005204  -0.11553175   0.00009707            7.66   -16995.31       14.28
   0.00014183   0.00009707  -0.11529996           20.86       14.28   -16961.21


     BFGS Geometry Optimization
     Energy error            =      0.0E+00
     Gradient error          =      1.1E-02
     Cell gradient error     =      1.2E-01


     number of scf cycles    =   1
     number of bfgs steps    =   0

     enthalpy new            =   -2136.3582698258 Ry

     new trust radius        =       0.5000000000 bohr
     new conv_thr            =       0.0000010000 Ry

     new unit-cell volume =    440.08111 a.u.^3 (    65.21329 Ang^3 )
     density =      0.25463 g/cm^3

CELL_PARAMETERS (angstrom)
   3.824800756  -0.124642567   2.368672095
   1.257273679   3.614401789   2.368670904
  -0.181516216  -0.124644609   4.495193172

ATOMIC_POSITIONS (angstrom)
Li            1.3697608736        0.9405867649        2.5805960198
Li            3.7971003446        2.6073923000        7.1536452301
Hf            4.9515584151        3.4001358601        9.3286235530
Mg            2.5244243471        1.7334700337        4.7559548664
H             1.1752055196        2.3496396423        3.6775083263
H             3.0502377050        1.3842007377        3.0341446758
H             1.5804905300        0.2529776217        4.2265874074
H             3.5732637254        0.4653071238        5.3126531926
H             3.4376680265        3.1677763212        4.3996185666
H             1.2953714536        2.0706868276        5.9366038596



     Writing output data file ./tmp/Li2HfMgH6.save/
     NEW-OLD atomic charge density approx. for the potential
     extrapolated charge   33.57661, renormalised to   54.00000

     total cpu time spent up to now is       89.4 secs

     Self-consistent Calculation

     iteration #  1     ecut=    50.00 Ry     beta= 0.70
     Davidson diagonalization with overlap
     c_bands:  4 eigenvalues not converged
     c_bands:  1 eigenvalues not converged
     c_bands:  3 eigenvalues not converged
     c_bands:  3 eigenvalues not converged
     c_bands:  2 eigenvalues not converged
     c_bands:  2 eigenvalues not converged
     c_bands:  3 eigenvalues not converged
     c_bands:  4 eigenvalues not converged
     ethr =  1.00E-06,  avg # of iterations = 55.0

     total cpu time spent up to now is      128.0 secs

     total energy              =   -1774.35488994 Ry
     estimated scf accuracy    <     292.35691210 Ry

     iteration #  2     ecut=    50.00 Ry     beta= 0.70
     Davidson diagonalization with overlap
     ethr =  1.00E-02,  avg # of iterations = 18.0

     total cpu time spent up to now is      144.4 secs

     total energy              =   -2058.38903077 Ry
     estimated scf accuracy    <    1905.95208523 Ry

     iteration #  3     ecut=    50.00 Ry     beta= 0.70
     Davidson diagonalization with overlap
     ethr =  1.00E-02,  avg # of iterations =  9.0

     total cpu time spent up to now is      154.5 secs

     total energy              =   -2135.89527016 Ry
     estimated scf accuracy    <     325.87131663 Ry

     iteration #  4     ecut=    50.00 Ry     beta= 0.70
     Davidson diagonalization with overlap
     ethr =  1.00E-02,  avg # of iterations =  6.9

     total cpu time spent up to now is      162.8 secs

     total energy              =   -2152.55648762 Ry
     estimated scf accuracy    <       7.66469554 Ry

     iteration #  5     ecut=    50.00 Ry     beta= 0.70
     Davidson diagonalization with overlap
     ethr =  1.00E-02,  avg # of iterations =  2.1

     total cpu time spent up to now is      168.8 secs

     total energy              =   -2152.04210012 Ry
     estimated scf accuracy    <       3.62254757 Ry

     iteration #  6     ecut=    50.00 Ry     beta= 0.70
     Davidson diagonalization with overlap
     ethr =  6.71E-03,  avg # of iterations =  2.0

     total cpu time spent up to now is      174.6 secs

     total energy              =   -2152.06438555 Ry
     estimated scf accuracy    <       1.40979536 Ry

     iteration #  7     ecut=    50.00 Ry     beta= 0.70
     Davidson diagonalization with overlap
     ethr =  2.61E-03,  avg # of iterations =  1.8

     total cpu time spent up to now is      180.3 secs

     total energy              =   -2151.97232115 Ry
     estimated scf accuracy    <       0.81971073 Ry

     iteration #  8     ecut=    50.00 Ry     beta= 0.70
     Davidson diagonalization with overlap
     ethr =  1.52E-03,  avg # of iterations =  1.6

     total cpu time spent up to now is      185.9 secs

     total energy              =   -2151.91514467 Ry
     estimated scf accuracy    <       0.49277681 Ry

     iteration #  9     ecut=    50.00 Ry     beta= 0.70
     Davidson diagonalization with overlap
     ethr =  9.13E-04,  avg # of iterations =  2.6

     total cpu time spent up to now is      191.6 secs

     total energy              =   -2151.84924149 Ry
     estimated scf accuracy    <       0.28183228 Ry

     iteration # 10     ecut=    50.00 Ry     beta= 0.70
     Davidson diagonalization with overlap
     ethr =  5.22E-04,  avg # of iterations =  3.1

     total cpu time spent up to now is      197.4 secs

     total energy              =   -2151.85151034 Ry
     estimated scf accuracy    <       0.09428337 Ry

     iteration # 11     ecut=    50.00 Ry     beta= 0.70
     Davidson diagonalization with overlap
     ethr =  1.75E-04,  avg # of iterations =  3.1

     total cpu time spent up to now is      203.1 secs

     total energy              =   -2151.82218224 Ry
     estimated scf accuracy    <       0.06430994 Ry

     iteration # 12     ecut=    50.00 Ry     beta= 0.70
     Davidson diagonalization with overlap
     ethr =  1.19E-04,  avg # of iterations =  2.2

     total cpu time spent up to now is      209.4 secs

     total energy              =   -2151.83452317 Ry
     estimated scf accuracy    <       0.00129972 Ry

     iteration # 13     ecut=    50.00 Ry     beta= 0.70
     Davidson diagonalization with overlap
     ethr =  2.41E-06,  avg # of iterations = 10.6

     total cpu time spent up to now is      216.9 secs

     total energy              =   -2151.83528434 Ry
     estimated scf accuracy    <       0.00025372 Ry

     iteration # 14     ecut=    50.00 Ry     beta= 0.70
     Davidson diagonalization with overlap
     ethr =  4.70E-07,  avg # of iterations =  2.0

     total cpu time spent up to now is      222.8 secs

     total energy              =   -2151.83527841 Ry
     estimated scf accuracy    <       0.00004825 Ry

     iteration # 15     ecut=    50.00 Ry     beta= 0.70
     Davidson diagonalization with overlap
     ethr =  8.94E-08,  avg # of iterations =  3.4

     total cpu time spent up to now is      229.2 secs

     total energy              =   -2151.83529237 Ry
     estimated scf accuracy    <       0.00000783 Ry

     iteration # 16     ecut=    50.00 Ry     beta= 0.70
     Davidson diagonalization with overlap
     ethr =  1.45E-08,  avg # of iterations =  1.2

     total cpu time spent up to now is      234.8 secs

     total energy              =   -2151.83529018 Ry
     estimated scf accuracy    <       0.00000411 Ry

     iteration # 17     ecut=    50.00 Ry     beta= 0.70
     Davidson diagonalization with overlap
     ethr =  7.61E-09,  avg # of iterations =  2.4

     total cpu time spent up to now is      241.0 secs

     End of self-consistent calculation

          k = 0.0000 0.0000 0.0000 (  3659 PWs)   bands (ev):

  -181.8320-181.8320-181.1831-181.1831-181.0577 -63.6377 -49.7780 -30.7448
   -30.7259 -30.7259 -18.8159 -18.7103 -18.7102  -2.0968  -2.0801  -2.0801
    -2.0559  -2.0559  -2.0302  -2.0133   0.7553   5.6273   5.6274   6.8924
     8.1244   8.1245  11.6517  11.6518  12.1915  16.2182  16.2183  16.7136

          k = 0.3401 0.2335-0.5368 (  3628 PWs)   bands (ev):

  -181.4908-181.2794-181.0085-180.6840-180.6249 -63.6377 -49.7777 -30.7449
   -30.7263 -30.7259 -18.8251 -18.7384 -18.7160  -2.0945  -2.0796  -2.0789
    -2.0546  -2.0472  -2.0252  -2.0048   2.9373   3.5206   5.4920   6.4133
     7.7318   8.1301  11.5790  12.5052  12.9956  13.5523  16.0714  17.8343

          k =-0.0102-0.6767-0.0192 (  3628 PWs)   bands (ev):

  -181.4908-181.2793-181.0084-180.6840-180.6249 -63.6377 -49.7777 -30.7449
   -30.7263 -30.7259 -18.8250 -18.7383 -18.7160  -2.0945  -2.0796  -2.0789
    -2.0545  -2.0472  -2.0252  -2.0048   2.9372   3.5206   5.4919   6.4133
     7.7319   8.1300  11.5790  12.5052  12.9957  13.5523  16.0713  17.8343

          k = 0.3299-0.4432-0.5560 (  3618 PWs)   bands (ev):

  -181.1305-181.0226-180.9458-180.7002-180.5633 -63.6377 -49.7775 -30.7452
   -30.7264 -30.7262 -18.8340 -18.7321 -18.7245  -2.0898  -2.0818  -2.0779
    -2.0459  -2.0449  -2.0260  -2.0064   2.8492   5.0849   5.7900   5.9470
     6.2627   7.3508  11.3008  12.3032  12.8366  16.4262  17.1275  18.1898

          k =-0.6352 0.2335-0.0192 (  3628 PWs)   bands (ev):

  -181.4908-181.2793-181.0084-180.6840-180.6249 -63.6377 -49.7777 -30.7449
   -30.7263 -30.7259 -18.8251 -18.7383 -18.7161  -2.0945  -2.0796  -2.0789
    -2.0546  -2.0472  -2.0252  -2.0048   2.9372   3.5206   5.4920   6.4133
     7.7319   8.1300  11.5790  12.5052  12.9956  13.5523  16.0714  17.8344

          k =-0.2951 0.4670-0.5560 (  3618 PWs)   bands (ev):

  -181.1305-181.0226-180.9458-180.7002-180.5633 -63.6377 -49.7775 -30.7452
   -30.7264 -30.7262 -18.8340 -18.7321 -18.7245  -2.0898  -2.0818  -2.0779
    -2.0459  -2.0449  -2.0260  -2.0064   2.8492   5.0848   5.7900   5.9470
     6.2627   7.3508  11.3008  12.3033  12.8366  16.4262  17.1275  18.1899

          k =-0.6454-0.4432-0.0383 (  3618 PWs)   bands (ev):

  -181.1305-181.0226-180.9458-180.7002-180.5633 -63.6377 -49.7775 -30.7452
   -30.7264 -30.7262 -18.8340 -18.7322 -18.7244  -2.0898  -2.0818  -2.0779
    -2.0459  -2.0449  -2.0260  -2.0064   2.8492   5.0848   5.7900   5.9470
     6.2628   7.3508  11.3008  12.3033  12.8366  16.4262  17.1275  18.1898

          k =-0.3053-0.2096-0.5752 (  3618 PWs)   bands (ev):

  -181.3259-181.1416-181.1416-180.4420-180.4420 -63.6377 -49.7776 -30.7453
   -30.7260 -30.7259 -18.8471 -18.7165 -18.7164  -2.0979  -2.0768  -2.0768
    -2.0471  -2.0471  -2.0238  -2.0086   3.0004   3.6650   5.5991   5.5992
     8.0979   8.0980  12.0372  12.2836  12.2837  14.8233  17.0013  17.0014

     the Fermi energy is    11.8703 ev

!    total energy              =   -2151.83529129 Ry
     estimated scf accuracy    <       0.00000007 Ry
     smearing contrib. (-TS)   =       0.00276421 Ry
     internal energy E=F+TS    =   -2151.83805550 Ry

     The total energy is F=E-TS. E is the sum of the following terms:
     one-electron contribution =   -1746.56617997 Ry
     hartree contribution      =     841.76179332 Ry
     xc contribution           =    -130.01731777 Ry
     ewald contribution        =    -629.00935919 Ry
     one-center paw contrib.   =    -488.00699189 Ry

     convergence has been achieved in  17 iterations

     Forces acting on atoms (cartesian axes, Ry/au):

     atom    1 type  3   force =     0.00169558    0.00113916    0.00319609
     atom    2 type  3   force =     0.00210439    0.00142572    0.00396430
     atom    3 type  2   force =     0.03771990    0.02607707    0.07093569
     atom    4 type  4   force =     0.00331402    0.00226737    0.00635125
     atom    5 type  1   force =    -0.00196227   -0.03477140    0.01486375
     atom    6 type  1   force =    -0.02762310    0.02497556    0.00670502
     atom    7 type  1   force =     0.03088221    0.01062680   -0.01911888
     atom    8 type  1   force =     0.00603494   -0.00292060   -0.04312204
     atom    9 type  1   force =    -0.03541412    0.00664904   -0.02460692
     atom   10 type  1   force =    -0.01675156   -0.03546873   -0.01916826

     Total force =     0.131301     Total SCF correction =     0.000956


     Computing stress (Cartesian axis) and pressure

          total   stress  (Ry/bohr**3)                   (kbar)     P=    -9952.72
  -0.06758846  -0.00007038  -0.00019245        -9942.61      -10.35      -28.31
  -0.00007038  -0.06753419  -0.00013184          -10.35    -9934.62      -19.39
  -0.00019245  -0.00013184  -0.06784896          -28.31      -19.39    -9980.93

     Energy error            =      1.5E+01
     Gradient error          =      7.1E-02
     Cell gradient error     =      6.8E-02


     number of scf cycles    =   2
     number of bfgs steps    =   1

     enthalpy old            =   -2136.3582698258 Ry
     enthalpy new            =   -2151.8352912923 Ry

     CASE: enthalpy_new < enthalpy_old

     new trust radius        =       0.4772211498 bohr
     new conv_thr            =       0.0000007094 Ry

     new unit-cell volume =    318.81989 a.u.^3 (    47.24423 Ang^3 )
     density =      0.35148 g/cm^3

CELL_PARAMETERS (angstrom)
   3.424843172  -0.146732187   2.059263516
   1.092977331   3.249144277   2.059337296
  -0.213650215  -0.146621018   3.990550769

ATOMIC_POSITIONS (angstrom)
Li            1.2044202087        0.8270872247        2.2691626860
Li            3.3354850448        2.2905530423        6.2841357021
Hf            4.3751106873        3.0046232094        8.2426010872
Mg            2.2199232635        1.5244994071        4.1824932674
H             1.0048824977        2.0677508882        3.2445971809
H             2.6925285166        1.2398577497        2.6505265735
H             1.4036208034        0.1953628708        3.7153704346
H             3.1674490948        0.3670832716        4.6372322962
H             3.0112360925        2.8243983762        3.8245356902
H             1.0843860771        1.7962151767        5.2220525148



     Writing output data file ./tmp/Li2HfMgH6.save/
     NEW-OLD atomic charge density approx. for the potential
     extrapolated charge   33.46605, renormalised to   54.00000

     total cpu time spent up to now is      279.6 secs

     Self-consistent Calculation

     iteration #  1     ecut=    50.00 Ry     beta= 0.70
     Davidson diagonalization with overlap
     c_bands:  2 eigenvalues not converged
     c_bands:  3 eigenvalues not converged
     ethr =  1.00E-06,  avg # of iterations = 48.2

     total cpu time spent up to now is      317.1 secs

     total energy              =   -1734.54781229 Ry
     estimated scf accuracy    <     333.97697595 Ry

     iteration #  2     ecut=    50.00 Ry     beta= 0.70
     Davidson diagonalization with overlap
     c_bands:  2 eigenvalues not converged
     c_bands:  1 eigenvalues not converged
     ethr =  1.00E-02,  avg # of iterations = 18.9

     total cpu time spent up to now is      334.2 secs

     total energy              =   -2074.26071525 Ry
     estimated scf accuracy    <    1899.43738703 Ry

     iteration #  3     ecut=    50.00 Ry     beta= 0.70
     Davidson diagonalization with overlap
     ethr =  1.00E-02,  avg # of iterations =  9.6

     total cpu time spent up to now is      344.8 secs

     total energy              =   -2122.04097327 Ry
     estimated scf accuracy    <     326.38769639 Ry

     iteration #  4     ecut=    50.00 Ry     beta= 0.70
     Davidson diagonalization with overlap
     ethr =  1.00E-02,  avg # of iterations =  5.2

     total cpu time spent up to now is      352.5 secs

     total energy              =   -2158.42969933 Ry
     estimated scf accuracy    <       8.81033417 Ry

     iteration #  5     ecut=    50.00 Ry     beta= 0.70
     Davidson diagonalization with overlap
     ethr =  1.00E-02,  avg # of iterations =  2.0

     total cpu time spent up to now is      358.2 secs

     total energy              =   -2156.49295087 Ry
     estimated scf accuracy    <       4.93805826 Ry

     iteration #  6     ecut=    50.00 Ry     beta= 0.70
     Davidson diagonalization with overlap
     ethr =  9.14E-03,  avg # of iterations =  2.0

     total cpu time spent up to now is      364.3 secs

     total energy              =   -2157.49444432 Ry
     estimated scf accuracy    <       0.16348410 Ry

     iteration #  7     ecut=    50.00 Ry     beta= 0.70
     Davidson diagonalization with overlap
     ethr =  3.03E-04,  avg # of iterations =  5.8

     total cpu time spent up to now is      371.7 secs

     total energy              =   -2157.58412930 Ry
     estimated scf accuracy    <       0.72425748 Ry

     iteration #  8     ecut=    50.00 Ry     beta= 0.70
     Davidson diagonalization with overlap
     ethr =  3.03E-04,  avg # of iterations =  2.0

     total cpu time spent up to now is      377.5 secs

     total energy              =   -2157.49450766 Ry
     estimated scf accuracy    <       0.37515961 Ry

     iteration #  9     ecut=    50.00 Ry     beta= 0.70
     Davidson diagonalization with overlap
     ethr =  3.03E-04,  avg # of iterations =  2.0

     total cpu time spent up to now is      383.6 secs

     total energy              =   -2157.49224047 Ry
     estimated scf accuracy    <       0.09495976 Ry

     iteration # 10     ecut=    50.00 Ry     beta= 0.70
     Davidson diagonalization with overlap
     ethr =  1.76E-04,  avg # of iterations =  2.4

     total cpu time spent up to now is      389.6 secs

     total energy              =   -2157.48888430 Ry
     estimated scf accuracy    <       0.01898006 Ry

     iteration # 11     ecut=    50.00 Ry     beta= 0.70
     Davidson diagonalization with overlap
     ethr =  3.51E-05,  avg # of iterations =  7.5

     total cpu time spent up to now is      396.6 secs

     total energy              =   -2157.49808000 Ry
     estimated scf accuracy    <       0.00480319 Ry

     iteration # 12     ecut=    50.00 Ry     beta= 0.70
     Davidson diagonalization with overlap
     c_bands:  1 eigenvalues not converged
     ethr =  8.89E-06,  avg # of iterations =  6.5

     total cpu time spent up to now is      402.7 secs

     total energy              =   -2157.49776460 Ry
     estimated scf accuracy    <       0.00123873 Ry

     iteration # 13     ecut=    50.00 Ry     beta= 0.70
     Davidson diagonalization with overlap
     ethr =  2.29E-06,  avg # of iterations =  5.0

     total cpu time spent up to now is      409.2 secs

     total energy              =   -2157.49802128 Ry
     estimated scf accuracy    <       0.00002721 Ry

     iteration # 14     ecut=    50.00 Ry     beta= 0.70
     Davidson diagonalization with overlap
     ethr =  5.04E-08,  avg # of iterations =  3.8

     total cpu time spent up to now is      415.8 secs

     total energy              =   -2157.49803625 Ry
     estimated scf accuracy    <       0.00000609 Ry

     iteration # 15     ecut=    50.00 Ry     beta= 0.70
     Davidson diagonalization with overlap
     ethr =  1.13E-08,  avg # of iterations =  2.0

     total cpu time spent up to now is      421.8 secs

     End of self-consistent calculation

          k = 0.0000 0.0000 0.0000 (  3659 PWs)   bands (ev):

  -182.3259-182.3253-182.3058-181.8059-181.8056 -58.1092 -44.2430 -25.2336
   -25.2119 -25.2119 -13.5587 -13.4468 -13.4466   3.9623   5.1512   5.1670
     5.1672   5.2028   5.2028   5.2836   5.3050   9.2072   9.2076  10.9013
    12.7656  12.7669  16.8110  16.8123  18.1247  22.8060  22.8074  23.6618

          k = 0.3706 0.2545-0.5983 (  3628 PWs)   bands (ev):

  -182.3498-182.2103-182.0391-181.6218-181.4854 -58.1091 -44.2408 -25.2345
   -25.2139 -25.2120 -13.6307 -13.5429 -13.4704   5.1321   5.1475   5.1680
     5.1893   5.2142   5.2463   5.3054   6.5960   7.5866   9.3341  10.6828
    12.5006  12.8540  16.8036  17.7899  18.4538  18.8816  22.2761  24.9835

          k =-0.0150-0.7477-0.0283 (  3628 PWs)   bands (ev):

  -182.3497-182.2107-182.0387-181.6218-181.4855 -58.1091 -44.2408 -25.2345
   -25.2139 -25.2120 -13.6306 -13.5428 -13.4706   5.1321   5.1476   5.1679
     5.1894   5.2141   5.2463   5.3054   6.5957   7.5862   9.3343  10.6825
    12.5006  12.8551  16.8037  17.7897  18.4535  18.8812  22.2773  24.9834

          k = 0.3556-0.4932-0.6266 (  3618 PWs)   bands (ev):

  -182.2834-182.0711-181.9644-181.6173-181.5641 -58.1090 -44.2397 -25.2372
   -25.2151 -25.2144 -13.6528 -13.5241 -13.5128   5.1102   5.1476   5.1512
     5.2095   5.2170   5.2442   5.3051   6.2621   9.6460  10.0253  10.5198
    10.5390  12.2666  16.2705  17.5189  17.9062  22.1114  24.4444  24.5036

          k =-0.7032 0.2545-0.0283 (  3628 PWs)   bands (ev):

  -182.3495-182.2109-182.0388-181.6218-181.4854 -58.1091 -44.2408 -25.2345
   -25.2139 -25.2120 -13.6308 -13.5427 -13.4705   5.1321   5.1476   5.1679
     5.1894   5.2142   5.2464   5.3054   6.5957   7.5866   9.3342  10.6822
    12.5000  12.8544  16.8045  17.7901  18.4540  18.8826  22.2771  24.9826

          k =-0.3326 0.5090-0.6266 (  3618 PWs)   bands (ev):

  -182.2835-182.0712-181.9643-181.6172-181.5642 -58.1090 -44.2397 -25.2372
   -25.2151 -25.2144 -13.6529 -13.5240 -13.5128   5.1101   5.1477   5.1512
     5.2096   5.2170   5.2441   5.3051   6.2622   9.6462  10.0242  10.5196
    10.5398  12.2668  16.2708  17.5188  17.9063  22.1115  24.4441  24.5044

          k =-0.7182-0.4932-0.0566 (  3618 PWs)   bands (ev):

  -182.2835-182.0717-181.9637-181.6172-181.5640 -58.1090 -44.2397 -25.2372
   -25.2152 -25.2144 -13.6529 -13.5242 -13.5126   5.1102   5.1477   5.1512
     5.2096   5.2170   5.2441   5.3051   6.2624   9.6463  10.0242  10.5196
    10.5395  12.2670  16.2708  17.5188  17.9060  22.1115  24.4448  24.5044

          k =-0.3476-0.2387-0.6549 (  3618 PWs)   bands (ev):

  -182.3296-182.0518-182.0510-181.5446-181.5444 -58.1090 -44.2400 -25.2369
   -25.2124 -25.2124 -13.7098 -13.4808 -13.4806   5.1013   5.1447   5.1448
     5.2169   5.2170   5.2471   5.3034   6.8673   7.9880   9.3007   9.3013
    12.9875  12.9880  17.4241  17.4835  17.4841  20.8344  23.4642  23.4649

     the Fermi energy is    17.2223 ev

!    total energy              =   -2157.49803689 Ry
     estimated scf accuracy    <       0.00000036 Ry
     smearing contrib. (-TS)   =       0.00291345 Ry
     internal energy E=F+TS    =   -2157.50095033 Ry

     The total energy is F=E-TS. E is the sum of the following terms:
     one-electron contribution =   -1627.52407391 Ry
     hartree contribution      =     792.27405580 Ry
     xc contribution           =    -131.34106544 Ry
     ewald contribution        =    -702.36904170 Ry
     one-center paw contrib.   =    -488.54082509 Ry

     convergence has been achieved in  15 iterations

     Forces acting on atoms (cartesian axes, Ry/au):

     atom    1 type  3   force =     0.00368878    0.00250483    0.00680458
     atom    2 type  3   force =     0.00047885    0.00030826    0.00084610
     atom    3 type  2   force =     0.05616235    0.03883775    0.10711735
     atom    4 type  4   force =     0.03065450    0.02088466    0.05736626
     atom    5 type  1   force =    -0.03199837   -0.07237350    0.02489234
     atom    6 type  1   force =    -0.05370304    0.06208444   -0.01249719
     atom    7 type  1   force =     0.06518923   -0.00388468   -0.05155673
     atom    8 type  1   force =     0.02283080   -0.01127245   -0.07078772
     atom    9 type  1   force =    -0.05715752    0.02535403   -0.04154767
     atom   10 type  1   force =    -0.03614557   -0.06244333   -0.02063731

     Total force =     0.241860     Total SCF correction =     0.001306


     Computing stress (Cartesian axis) and pressure

          total   stress  (Ry/bohr**3)                   (kbar)     P=    -3519.88
  -0.02453972   0.00063038   0.00171763        -3609.92       92.73      252.67
   0.00063038  -0.02502789   0.00117553           92.73    -3681.73      172.93
   0.00171763   0.00117553  -0.02221531          252.67      172.93    -3267.98

     Energy error            =      5.7E+00
     Gradient error          =      1.1E-01
     Cell gradient error     =      2.5E-02


     number of scf cycles    =   3
     number of bfgs steps    =   2

     enthalpy old            =   -2151.8352912923 Ry
     enthalpy new            =   -2157.4980368880 Ry

     CASE: enthalpy_new < enthalpy_old

     new trust radius        =       0.2718581056 bohr
     new conv_thr            =       0.0000010000 Ry

     new unit-cell volume =    275.19203 a.u.^3 (    40.77925 Ang^3 )
     density =      0.40720 g/cm^3

CELL_PARAMETERS (angstrom)
   3.293793635  -0.037665513   2.162096819
   1.147878118   3.087144735   2.161868730
  -0.055074763  -0.038088565   3.939662719

ATOMIC_POSITIONS (angstrom)
Li            1.2295406257        0.8440409854        2.3161981392
Li            3.3994717915        2.3337042885        6.4040329947
Hf            4.4907328615        3.0831300053        8.4601487520
Mg            2.2775137745        1.5634592303        4.2904146249
H             1.0767866352        1.9796458491        3.3165240152
H             2.6179355715        1.2894110294        2.7502338010
H             1.4948602662        0.2934894619        3.7093774321
H             3.1650152789        0.4970637274        4.6786326325
H             2.9783330609        2.7748368243        3.9473967656
H             1.2188688938        1.7822012107        5.2431289978



     Writing output data file ./tmp/Li2HfMgH6.save/
     NEW-OLD atomic charge density approx. for the potential
     extrapolated charge   45.44098, renormalised to   54.00000

     total cpu time spent up to now is      460.8 secs

     Self-consistent Calculation

     iteration #  1     ecut=    50.00 Ry     beta= 0.70
     Davidson diagonalization with overlap
     c_bands:  2 eigenvalues not converged
     c_bands:  2 eigenvalues not converged
     c_bands:  2 eigenvalues not converged
     ethr =  1.00E-06,  avg # of iterations = 18.9

     total cpu time spent up to now is      477.5 secs

     total energy              =   -2067.27994506 Ry
     estimated scf accuracy    <      66.91383272 Ry

     iteration #  2     ecut=    50.00 Ry     beta= 0.70
     Davidson diagonalization with overlap
     ethr =  1.00E-02,  avg # of iterations =  9.8

     total cpu time spent up to now is      487.4 secs

     total energy              =   -2154.57072514 Ry
     estimated scf accuracy    <     602.13151724 Ry

     iteration #  3     ecut=    50.00 Ry     beta= 0.70
     Davidson diagonalization with overlap
     ethr =  1.00E-02,  avg # of iterations =  4.9

     total cpu time spent up to now is      494.8 secs

     total energy              =   -2160.94773121 Ry
     estimated scf accuracy    <     244.52670945 Ry

     iteration #  4     ecut=    50.00 Ry     beta= 0.70
     Davidson diagonalization with overlap
     ethr =  1.00E-02,  avg # of iterations =  7.8

     total cpu time spent up to now is      501.5 secs

     total energy              =   -2153.40941794 Ry
     estimated scf accuracy    <      95.08830015 Ry

     iteration #  5     ecut=    50.00 Ry     beta= 0.70
     Davidson diagonalization with overlap
     ethr =  1.00E-02,  avg # of iterations =  5.0

     total cpu time spent up to now is      508.3 secs

     total energy              =   -2157.89304196 Ry
     estimated scf accuracy    <       2.26550562 Ry

     iteration #  6     ecut=    50.00 Ry     beta= 0.70
     Davidson diagonalization with overlap
     ethr =  4.20E-03,  avg # of iterations =  2.0

     total cpu time spent up to now is      514.4 secs

     total energy              =   -2158.60359135 Ry
     estimated scf accuracy    <       0.82598917 Ry

     iteration #  7     ecut=    50.00 Ry     beta= 0.70
     Davidson diagonalization with overlap
     ethr =  1.53E-03,  avg # of iterations =  5.1

     total cpu time spent up to now is      521.0 secs

     total energy              =   -2158.79369556 Ry
     estimated scf accuracy    <       2.99176664 Ry

     iteration #  8     ecut=    50.00 Ry     beta= 0.70
     Davidson diagonalization with overlap
     ethr =  1.53E-03,  avg # of iterations =  1.0

     total cpu time spent up to now is      526.6 secs

     total energy              =   -2158.44061161 Ry
     estimated scf accuracy    <       2.22810148 Ry

     iteration #  9     ecut=    50.00 Ry     beta= 0.70
     Davidson diagonalization with overlap
     ethr =  1.53E-03,  avg # of iterations =  2.0

     total cpu time spent up to now is      532.3 secs

     total energy              =   -2158.30922913 Ry
     estimated scf accuracy    <       1.32234798 Ry

     iteration # 10     ecut=    50.00 Ry     beta= 0.70
     Davidson diagonalization with overlap
     ethr =  1.53E-03,  avg # of iterations =  1.0

     total cpu time spent up to now is      537.8 secs

     total energy              =   -2158.30340424 Ry
     estimated scf accuracy    <       0.85891923 Ry

     iteration # 11     ecut=    50.00 Ry     beta= 0.70
     Davidson diagonalization with overlap
     ethr =  1.53E-03,  avg # of iterations =  1.0

     total cpu time spent up to now is      543.4 secs

     total energy              =   -2158.14926032 Ry
     estimated scf accuracy    <       0.80366800 Ry

     iteration # 12     ecut=    50.00 Ry     beta= 0.70
     Davidson diagonalization with overlap
     ethr =  1.49E-03,  avg # of iterations =  1.0

     total cpu time spent up to now is      548.9 secs

     total energy              =   -2157.89390263 Ry
     estimated scf accuracy    <       0.38916590 Ry

     iteration # 13     ecut=    50.00 Ry     beta= 0.70
     Davidson diagonalization with overlap
     ethr =  7.21E-04,  avg # of iterations =  3.0

     total cpu time spent up to now is      555.3 secs

     total energy              =   -2158.03052189 Ry
     estimated scf accuracy    <       0.13727486 Ry

     iteration # 14     ecut=    50.00 Ry     beta= 0.70
     Davidson diagonalization with overlap
     ethr =  2.54E-04,  avg # of iterations =  2.0

     total cpu time spent up to now is      561.4 secs

     total energy              =   -2158.05003758 Ry
     estimated scf accuracy    <       0.00451587 Ry

     iteration # 15     ecut=    50.00 Ry     beta= 0.70
     Davidson diagonalization with overlap
     ethr =  8.36E-06,  avg # of iterations =  7.8

     total cpu time spent up to now is      568.5 secs

     total energy              =   -2158.05252783 Ry
     estimated scf accuracy    <       0.00092453 Ry

     iteration # 16     ecut=    50.00 Ry     beta= 0.70
     Davidson diagonalization with overlap
     ethr =  1.71E-06,  avg # of iterations =  2.6

     total cpu time spent up to now is      574.4 secs

     total energy              =   -2158.05260999 Ry
     estimated scf accuracy    <       0.00010780 Ry

     iteration # 17     ecut=    50.00 Ry     beta= 0.70
     Davidson diagonalization with overlap
     ethr =  2.00E-07,  avg # of iterations =  2.9

     total cpu time spent up to now is      580.8 secs

     total energy              =   -2158.05263797 Ry
     estimated scf accuracy    <       0.00003941 Ry

     iteration # 18     ecut=    50.00 Ry     beta= 0.70
     Davidson diagonalization with overlap
     ethr =  7.30E-08,  avg # of iterations =  2.5

     total cpu time spent up to now is      586.8 secs

     total energy              =   -2158.05262145 Ry
     estimated scf accuracy    <       0.00005216 Ry

     iteration # 19     ecut=    50.00 Ry     beta= 0.70
     Davidson diagonalization with overlap
     ethr =  7.30E-08,  avg # of iterations =  2.0

     total cpu time spent up to now is      592.7 secs

     total energy              =   -2158.05262184 Ry
     estimated scf accuracy    <       0.00001252 Ry

     iteration # 20     ecut=    50.00 Ry     beta= 0.70
     Davidson diagonalization with overlap
     ethr =  2.32E-08,  avg # of iterations =  3.0

     total cpu time spent up to now is      599.2 secs

     total energy              =   -2158.05261985 Ry
     estimated scf accuracy    <       0.00001458 Ry

     iteration # 21     ecut=    50.00 Ry     beta= 0.70
     Davidson diagonalization with overlap
     ethr =  2.32E-08,  avg # of iterations =  3.0

     total cpu time spent up to now is      605.7 secs

     total energy              =   -2158.05262451 Ry
     estimated scf accuracy    <       0.00000127 Ry

     iteration # 22     ecut=    50.00 Ry     beta= 0.70
     Davidson diagonalization with overlap
     ethr =  2.35E-09,  avg # of iterations =  2.0

     total cpu time spent up to now is      611.5 secs

     End of self-consistent calculation

          k = 0.0000 0.0000 0.0000 (  3659 PWs)   bands (ev):

  -180.3943-180.3942-179.8141-179.8124-179.4455 -55.4229 -41.2365 -22.5590
   -22.5585 -22.5226 -10.6551 -10.6538 -10.4468   5.9611   8.5815   8.6395
     8.6397   8.6513   8.6840   8.6842   8.7104  11.6245  11.6265  11.7935
    15.3587  15.3588  20.3222  20.3257  20.9544  27.1300  27.1342  27.3301

          k = 0.4149 0.2848-0.6270 (  3628 PWs)   bands (ev):

  -180.3115-180.2478-179.8174-179.8044-179.4609 -55.4225 -41.2305 -22.5644
   -22.5603 -22.5228 -10.9365 -10.7265 -10.4995   8.4159   8.5938   8.6159
     8.6403   8.6688   8.6808   8.7197   9.0547  10.1298  11.8061  12.7677
    15.1069  15.5428  20.2052  20.6813  20.9266  22.3828  25.9103  28.7793

          k =-0.0041-0.8041-0.0078 (  3628 PWs)   bands (ev):

  -180.3115-180.2478-179.8164-179.8050-179.4615 -55.4225 -41.2305 -22.5648
   -22.5599 -22.5228 -10.9375 -10.7258 -10.4994   8.4165   8.5936   8.6157
     8.6407   8.6687   8.6809   8.7197   9.0550  10.1317  11.8043  12.7664
    15.1077  15.5415  20.2056  20.6821  20.9279  22.3837  25.9104  28.7780

          k = 0.4108-0.5193-0.6349 (  3618 PWs)   bands (ev):

  -180.2763-180.2690-179.7388-179.6592-179.4540 -55.4225 -41.2288 -22.5692
   -22.5639 -22.5281 -10.8783 -10.7671 -10.5575   8.0164   8.5327   8.6269
     8.6610   8.6806   8.6866   8.7132   8.8098  12.1987  12.3852  13.0048
    13.4888  15.3772  19.2096  20.3986  20.8754  24.7865  27.9208  28.1628

          k =-0.7519 0.2850-0.0078 (  3628 PWs)   bands (ev):

  -180.3115-180.2478-179.8162-179.8057-179.4607 -55.4225 -41.2305 -22.5648
   -22.5600 -22.5228 -10.9376 -10.7256 -10.4995   8.4164   8.5935   8.6157
     8.6405   8.6688   8.6810   8.7196   9.0549  10.1313  11.8041  12.7676
    15.1088  15.5409  20.2056  20.6814  20.9257  22.3847  25.9083  28.7787

          k =-0.3370 0.5698-0.6348 (  3618 PWs)   bands (ev):

  -180.2763-180.2690-179.7386-179.6594-179.4540 -55.4225 -41.2288 -22.5693
   -22.5639 -22.5281 -10.8779 -10.7674 -10.5575   8.0161   8.5330   8.6268
     8.6610   8.6803   8.6867   8.7133   8.8095  12.1981  12.3849  13.0044
    13.4891  15.3788  19.2084  20.4008  20.8745  24.7872  27.9209  28.1614

          k =-0.7559-0.5191-0.0156 (  3618 PWs)   bands (ev):

  -180.2763-180.2691-179.7374-179.6607-179.4541 -55.4225 -41.2288 -22.5689
   -22.5643 -22.5281 -10.8771 -10.7680 -10.5576   8.0154   8.5331   8.6268
     8.6610   8.6805   8.6866   8.7133   8.8096  12.1974  12.3837  13.0027
    13.4925  15.3784  19.2104  20.3992  20.8764  24.7875  27.9216  28.1626

          k =-0.3411-0.2343-0.6426 (  3618 PWs)   bands (ev):

  -180.2782-180.2779-179.6789-179.6770-179.6042 -55.4226 -41.2330 -22.5593
   -22.5588 -22.5253 -10.6946 -10.6934 -10.6724   8.0333   8.6126   8.6127
     8.6500   8.6882   8.6884   8.7144   9.0741   9.9204  11.8647  11.8674
    15.9462  15.9488  20.3785  20.3791  20.5438  24.1156  26.9797  26.9830

     the Fermi energy is    20.3292 ev

!    total energy              =   -2158.05262471 Ry
     estimated scf accuracy    <       0.00000003 Ry
     smearing contrib. (-TS)   =      -0.00393524 Ry
     internal energy E=F+TS    =   -2158.04868947 Ry

     The total energy is F=E-TS. E is the sum of the following terms:
     one-electron contribution =   -1565.31217851 Ry
     hartree contribution      =     767.01073789 Ry
     xc contribution           =    -131.93128037 Ry
     ewald contribution        =    -739.28210896 Ry
     one-center paw contrib.   =    -488.53385952 Ry

     convergence has been achieved in  22 iterations

     Forces acting on atoms (cartesian axes, Ry/au):

     atom    1 type  3   force =     0.00783774    0.00550249    0.01500186
     atom    2 type  3   force =     0.02767056    0.01900480    0.05226072
     atom    3 type  2   force =    -0.01739310   -0.01223152   -0.03387581
     atom    4 type  4   force =     0.01524003    0.01077612    0.02889777
     atom    5 type  1   force =    -0.04114064   -0.12290011    0.06481896
     atom    6 type  1   force =    -0.08734033    0.11634123    0.00254704
     atom    7 type  1   force =     0.12598781    0.00562591   -0.07095276
     atom    8 type  1   force =     0.05760641   -0.09599479   -0.02315002
     atom    9 type  1   force =     0.01933928    0.08775575   -0.07002284
     atom   10 type  1   force =    -0.10780776   -0.01387988    0.03447508

     Total force =     0.330328     Total SCF correction =     0.000219


     Computing stress (Cartesian axis) and pressure

          total   stress  (Ry/bohr**3)                   (kbar)     P=     -742.29
  -0.00282812  -0.00227976  -0.00622062         -416.03     -335.36     -915.08
  -0.00227976  -0.00106255  -0.00425984         -335.36     -156.31     -626.64
  -0.00622062  -0.00425984  -0.01124731         -915.08     -626.64    -1654.54

     Energy error            =      5.5E-01
     Gradient error          =      1.3E-01
     Cell gradient error     =      1.1E-02


     number of scf cycles    =   4
     number of bfgs steps    =   3

     enthalpy old            =   -2157.4980368880 Ry
     enthalpy new            =   -2158.0526247101 Ry

     CASE: enthalpy_new < enthalpy_old

     new trust radius        =       0.4862272930 bohr
     new conv_thr            =       0.0000010000 Ry

     new unit-cell volume =    241.17571 a.u.^3 (    35.73855 Ang^3 )
     density =      0.46464 g/cm^3

CELL_PARAMETERS (angstrom)
   3.094483677  -0.242643642   1.667214278
   0.884746586   2.975488448   1.667390874
  -0.353168881  -0.242286046   3.497130232

ATOMIC_POSITIONS (angstrom)
Li            1.0197814973        0.7004204843        1.9212981064
Li            2.8175863409        1.9352202640        5.3085220645
Hf            3.7273657057        2.5604265836        7.0230521174
Mg            1.8963093704        1.3024665897        3.5726584069
H             0.7331908345        1.7323639249        2.7847648865
H             2.2970684665        1.1473333090        2.1680149410
H             1.2531243841        0.0624368465        3.1173532915
H             2.7883094275        0.1401071554        3.8456456152
H             2.5506989852        2.5521489090        3.0927893347
H             0.7134050507        1.4645257066        4.4644296825



     Writing output data file ./tmp/Li2HfMgH6.save/
     NEW-OLD atomic charge density approx. for the potential
     extrapolated charge   46.38535, renormalised to   54.00000

     total cpu time spent up to now is      650.3 secs

     Self-consistent Calculation

     iteration #  1     ecut=    50.00 Ry     beta= 0.70
     Davidson diagonalization with overlap
     c_bands:  1 eigenvalues not converged
     c_bands:  1 eigenvalues not converged
     c_bands:  1 eigenvalues not converged
     c_bands:  1 eigenvalues not converged
     ethr =  1.00E-06,  avg # of iterations = 18.0

     total cpu time spent up to now is      666.7 secs

     total energy              =   -2086.41246194 Ry
     estimated scf accuracy    <      52.87855149 Ry

     iteration #  2     ecut=    50.00 Ry     beta= 0.70
     Davidson diagonalization with overlap
     ethr =  1.00E-02,  avg # of iterations =  8.8

     total cpu time spent up to now is      676.2 secs

     total energy              =   -2150.24623292 Ry
     estimated scf accuracy    <     537.27756060 Ry

     iteration #  3     ecut=    50.00 Ry     beta= 0.70
     Davidson diagonalization with overlap
     ethr =  1.00E-02,  avg # of iterations =  6.0

     total cpu time spent up to now is      683.8 secs

     total energy              =   -2162.42403012 Ry
     estimated scf accuracy    <     201.88725507 Ry

     iteration #  4     ecut=    50.00 Ry     beta= 0.70
     Davidson diagonalization with overlap
     ethr =  1.00E-02,  avg # of iterations =  5.1

     total cpu time spent up to now is      689.9 secs

     total energy              =   -2153.67169533 Ry
     estimated scf accuracy    <     130.66495984 Ry

     iteration #  5     ecut=    50.00 Ry     beta= 0.70
     Davidson diagonalization with overlap
     ethr =  1.00E-02,  avg # of iterations =  6.0

     total cpu time spent up to now is      696.8 secs

     total energy              =   -2157.88836568 Ry
     estimated scf accuracy    <       2.88518726 Ry

     iteration #  6     ecut=    50.00 Ry     beta= 0.70
     Davidson diagonalization with overlap
     ethr =  5.34E-03,  avg # of iterations =  2.0

     total cpu time spent up to now is      702.6 secs

     total energy              =   -2158.08544450 Ry
     estimated scf accuracy    <       0.65356543 Ry

     iteration #  7     ecut=    50.00 Ry     beta= 0.70
     Davidson diagonalization with overlap
     ethr =  1.21E-03,  avg # of iterations =  4.4

     total cpu time spent up to now is      709.2 secs

     total energy              =   -2158.52351803 Ry
     estimated scf accuracy    <       1.05990487 Ry

     iteration #  8     ecut=    50.00 Ry     beta= 0.70
     Davidson diagonalization with overlap
     ethr =  1.21E-03,  avg # of iterations =  2.0

     total cpu time spent up to now is      715.1 secs

     total energy              =   -2158.41698433 Ry
     estimated scf accuracy    <       1.55818297 Ry

     iteration #  9     ecut=    50.00 Ry     beta= 0.70
     Davidson diagonalization with overlap
     ethr =  1.21E-03,  avg # of iterations =  1.0

     total cpu time spent up to now is      720.7 secs

     total energy              =   -2158.27300459 Ry
     estimated scf accuracy    <       1.22134993 Ry

     iteration # 10     ecut=    50.00 Ry     beta= 0.70
     Davidson diagonalization with overlap
     ethr =  1.21E-03,  avg # of iterations =  1.0

     total cpu time spent up to now is      726.2 secs

     total energy              =   -2158.14435907 Ry
     estimated scf accuracy    <       0.88553582 Ry

     iteration # 11     ecut=    50.00 Ry     beta= 0.70
     Davidson diagonalization with overlap
     ethr =  1.21E-03,  avg # of iterations =  1.0

     total cpu time spent up to now is      731.7 secs

     total energy              =   -2157.91375272 Ry
     estimated scf accuracy    <       0.50308908 Ry

     iteration # 12     ecut=    50.00 Ry     beta= 0.70
     Davidson diagonalization with overlap
     ethr =  9.32E-04,  avg # of iterations =  2.0

     total cpu time spent up to now is      737.9 secs

     total energy              =   -2158.02175791 Ry
     estimated scf accuracy    <       0.00974538 Ry

     iteration # 13     ecut=    50.00 Ry     beta= 0.70
     Davidson diagonalization with overlap
     ethr =  1.80E-05,  avg # of iterations =  8.6

     total cpu time spent up to now is      745.9 secs

     total energy              =   -2157.96552365 Ry
     estimated scf accuracy    <       0.18926838 Ry

     iteration # 14     ecut=    50.00 Ry     beta= 0.70
     Davidson diagonalization with overlap
     ethr =  1.80E-05,  avg # of iterations =  5.2

     total cpu time spent up to now is      753.7 secs

     total energy              =   -2158.01576262 Ry
     estimated scf accuracy    <       0.00400434 Ry

     iteration # 15     ecut=    50.00 Ry     beta= 0.70
     Davidson diagonalization with overlap
     ethr =  7.42E-06,  avg # of iterations =  1.4

     total cpu time spent up to now is      759.5 secs

     total energy              =   -2158.01531143 Ry
     estimated scf accuracy    <       0.00125514 Ry

     iteration # 16     ecut=    50.00 Ry     beta= 0.70
     Davidson diagonalization with overlap
     ethr =  2.32E-06,  avg # of iterations =  2.9

     total cpu time spent up to now is      765.8 secs

     total energy              =   -2158.01559736 Ry
     estimated scf accuracy    <       0.00007053 Ry

     iteration # 17     ecut=    50.00 Ry     beta= 0.70
     Davidson diagonalization with overlap
     ethr =  1.31E-07,  avg # of iterations =  2.0

     total cpu time spent up to now is      771.9 secs

     total energy              =   -2158.01559652 Ry
     estimated scf accuracy    <       0.00002858 Ry

     iteration # 18     ecut=    50.00 Ry     beta= 0.70
     Davidson diagonalization with overlap
     ethr =  5.29E-08,  avg # of iterations =  2.0

     total cpu time spent up to now is      777.9 secs

     total energy              =   -2158.01559676 Ry
     estimated scf accuracy    <       0.00000790 Ry

     iteration # 19     ecut=    50.00 Ry     beta= 0.70
     Davidson diagonalization with overlap
     ethr =  1.46E-08,  avg # of iterations =  2.0

     total cpu time spent up to now is      784.0 secs

     total energy              =   -2158.01559641 Ry
     estimated scf accuracy    <       0.00000231 Ry

     iteration # 20     ecut=    50.00 Ry     beta= 0.70
     Davidson diagonalization with overlap
     ethr =  4.27E-09,  avg # of iterations =  2.0

     total cpu time spent up to now is      790.2 secs

     End of self-consistent calculation

          k = 0.0000 0.0000 0.0000 (  3659 PWs)   bands (ev):

  -177.7610-177.7600-177.7466-177.0875-177.0874 -52.5407 -38.4369 -19.7180
   -19.6455 -19.6453  -8.0408  -7.6318  -7.6314   8.0608  11.4943  11.4946
    11.5519  11.6504  11.6504  11.8196  11.8664  12.9147  12.9157  15.8614
    17.9953  17.9984  23.3087  23.3116  25.8796  29.8547  29.8600  32.9108

          k = 0.3759 0.2582-0.6602 (  3628 PWs)   bands (ev):

  -177.7147-177.7041-177.6752-176.9900-176.9326 -52.5399 -38.4276 -19.7250
   -19.6497 -19.6434  -8.3005  -7.9088  -7.6755  10.7051  11.4692  11.5124
    11.5748  11.5963  11.6837  11.7738  11.8770  12.4558  13.7454  16.1025
    17.5112  18.7931  22.8763  23.6957  25.0468  25.4304  29.3008  32.8202

          k =-0.0312-0.7995-0.0585 (  3628 PWs)   bands (ev):

  -177.7155-177.7035-177.6750-176.9901-176.9327 -52.5399 -38.4276 -19.7249
   -19.6497 -19.6434  -8.3001  -7.9084  -7.6757  10.7041  11.4689  11.5127
    11.5748  11.5964  11.6837  11.7737  11.8770  12.4544  13.7454  16.1020
    17.5103  18.7939  22.8782  23.6975  25.0454  25.4321  29.3028  32.8179

          k = 0.3448-0.5413-0.7187 (  3618 PWs)   bands (ev):

  -177.7181-177.6898-177.6620-177.0184-176.9929 -52.5395 -38.4193 -19.7384
   -19.6599 -19.6557  -8.3999  -7.8892  -7.7851  10.2200  11.4916  11.5466
    11.5878  11.6604  11.6889  11.7428  11.8737  14.4508  15.0099  15.3881
    16.6010  18.6020  22.2617  23.7457  24.2873  27.5266  31.4596  31.7044

          k =-0.7574 0.2580-0.0586 (  3628 PWs)   bands (ev):

  -177.7155-177.7036-177.6749-176.9901-176.9326 -52.5399 -38.4276 -19.7249
   -19.6496 -19.6435  -8.3004  -7.9082  -7.6758  10.7043  11.4691  11.5126
    11.5749  11.5963  11.6836  11.7737  11.8771  12.4548  13.7463  16.1026
    17.5107  18.7902  22.8777  23.6966  25.0480  25.4322  29.3018  32.8167

          k =-0.3815 0.5162-0.7188 (  3618 PWs)   bands (ev):

  -177.7181-177.6899-177.6620-177.0183-176.9929 -52.5395 -38.4193 -19.7384
   -19.6598 -19.6558  -8.4002  -7.8892  -7.7851  10.2201  11.4919  11.5465
    11.5876  11.6603  11.6889  11.7429  11.8737  14.4515  15.0115  15.3879
    16.6007  18.6003  22.2615  23.7459  24.2862  27.5271  31.4590  31.7050

          k =-0.7885-0.5414-0.1171 (  3618 PWs)   bands (ev):

  -177.7182-177.6906-177.6612-177.0183-176.9927 -52.5395 -38.4193 -19.7384
   -19.6598 -19.6558  -8.3999  -7.8889  -7.7854  10.2198  11.4919  11.5466
    11.5877  11.6604  11.6889  11.7428  11.8738  14.4485  15.0116  15.3888
    16.6018  18.6023  22.2630  23.7442  24.2862  27.5280  31.4604  31.7062

          k =-0.4126-0.2833-0.7773 (  3618 PWs)   bands (ev):

  -177.6946-177.6925-177.6914-176.9878-176.9877 -52.5392 -38.4156 -19.7369
   -19.6502 -19.6500  -8.5913  -7.8100  -7.8095  11.3172  11.4458  11.4461
    11.6322  11.6872  11.6873  11.8641  12.2017  13.4648  13.4662  14.0108
    18.3542  18.3550  23.8108  23.9851  23.9867  27.4859  31.2850  31.2887

     the Fermi energy is    23.5094 ev

!    total energy              =   -2158.01559662 Ry
     estimated scf accuracy    <       0.00000028 Ry
     smearing contrib. (-TS)   =       0.00123180 Ry
     internal energy E=F+TS    =   -2158.01682842 Ry

     The total energy is F=E-TS. E is the sum of the following terms:
     one-electron contribution =   -1502.91653792 Ry
     hartree contribution      =     741.41573669 Ry
     xc contribution           =    -132.36581230 Ry
     ewald contribution        =    -775.73687313 Ry
     one-center paw contrib.   =    -488.41334176 Ry

     convergence has been achieved in  20 iterations

     Forces acting on atoms (cartesian axes, Ry/au):

     atom    1 type  3   force =     0.01698922    0.01165168    0.03191307
     atom    2 type  3   force =    -0.03475264   -0.02385889   -0.06540467
     atom    3 type  2   force =     0.07344816    0.05024719    0.13761702
     atom    4 type  4   force =     0.10775776    0.07392981    0.20358983
     atom    5 type  1   force =    -0.09731741   -0.00480260   -0.03078226
     atom    6 type  1   force =     0.00609327    0.02865168   -0.09796295
     atom    7 type  1   force =    -0.00355589   -0.08915138   -0.04979708
     atom    8 type  1   force =     0.02575178    0.00874217   -0.07785889
     atom    9 type  1   force =    -0.07427194    0.02105997   -0.02921964
     atom   10 type  1   force =    -0.02014230   -0.07646963   -0.02209444

     Total force =     0.380230     Total SCF correction =     0.001140


     Computing stress (Cartesian axis) and pressure

          total   stress  (Ry/bohr**3)                   (kbar)     P=     1289.75
   0.00681183   0.00201316   0.00548090         1002.05      296.15      806.27
   0.00201316   0.00525413   0.00375450          296.15      772.91      552.31
   0.00548090   0.00375450   0.01423668          806.27      552.31     2094.29

     Energy error            =      3.7E-02
     Gradient error          =      2.0E-01
     Cell gradient error     =      1.4E-02


     number of scf cycles    =   5
     number of bfgs steps    =   4

     enthalpy old            =   -2158.0526247101 Ry
     enthalpy new            =   -2158.0155966180 Ry

     CASE: enthalpy_new > enthalpy_old

     new trust radius        =       0.2634800634 bohr
     new conv_thr            =       0.0000010000 Ry

     new unit-cell volume =    259.53915 a.u.^3 (    38.45973 Ang^3 )
     density =      0.43176 g/cm^3

CELL_PARAMETERS (angstrom)
   3.198214596  -0.135962722   1.924776025
   1.021693460   3.033599992   1.924742002
  -0.198025720  -0.136011414   3.727446379

ATOMIC_POSITIONS (angstrom)
Li            1.1291298038        0.7752903176        2.1271610148
Li            3.1208219287        2.1428806924        5.8794210778
Hf            4.1254613832        2.8330160769        7.7724968996
Mg            2.0954212476        1.4387889252        3.9475594388
H             0.9120592563        1.8614454846        3.0610594664
H             2.4642790313        1.2207544495        2.4708135244
H             1.3783435102        0.1825982652        3.4255208024
H             2.9835038854        0.3256492085        4.2781632339
H             2.7727232599        2.6673286945        3.5365590391
H             0.9761200525        1.6296150615        4.8684249247



     Writing output data file ./tmp/Li2HfMgH6.save/
     NEW-OLD atomic charge density approx. for the potential
     extrapolated charge   57.81986, renormalised to   54.00000

     total cpu time spent up to now is      829.4 secs

     Self-consistent Calculation

     iteration #  1     ecut=    50.00 Ry     beta= 0.70
     Davidson diagonalization with overlap
     c_bands:  3 eigenvalues not converged
     c_bands:  3 eigenvalues not converged
     c_bands:  3 eigenvalues not converged
     c_bands:  1 eigenvalues not converged
     c_bands:  3 eigenvalues not converged
     c_bands:  1 eigenvalues not converged
     c_bands:  1 eigenvalues not converged
     c_bands:  3 eigenvalues not converged
     ethr =  1.00E-06,  avg # of iterations = 20.0

     total cpu time spent up to now is      846.5 secs

     total energy              =   -1938.15859214 Ry
     estimated scf accuracy    <     217.65551762 Ry

     iteration #  2     ecut=    50.00 Ry     beta= 0.70
     Davidson diagonalization with overlap
     ethr =  1.00E-02,  avg # of iterations =  8.8

     total cpu time spent up to now is      856.0 secs

     total energy              =   -2127.87420547 Ry
     estimated scf accuracy    <     659.40786131 Ry

     iteration #  3     ecut=    50.00 Ry     beta= 0.70
     Davidson diagonalization with overlap
     ethr =  1.00E-02,  avg # of iterations =  5.5

     total cpu time spent up to now is      863.2 secs

     total energy              =   -2176.16808808 Ry
     estimated scf accuracy    <     119.00768779 Ry

     iteration #  4     ecut=    50.00 Ry     beta= 0.70
     Davidson diagonalization with overlap
     ethr =  1.00E-02,  avg # of iterations =  2.0

     total cpu time spent up to now is      869.4 secs

     total energy              =   -2157.97953528 Ry
     estimated scf accuracy    <      62.31200261 Ry

     iteration #  5     ecut=    50.00 Ry     beta= 0.70
     Davidson diagonalization with overlap
     ethr =  1.00E-02,  avg # of iterations =  3.6

     total cpu time spent up to now is      875.8 secs

     total energy              =   -2165.50142325 Ry
     estimated scf accuracy    <      11.47394265 Ry

     iteration #  6     ecut=    50.00 Ry     beta= 0.70
     Davidson diagonalization with overlap
     ethr =  1.00E-02,  avg # of iterations =  2.0

     total cpu time spent up to now is      881.5 secs

     total energy              =   -2163.94811497 Ry
     estimated scf accuracy    <      22.88157230 Ry

     iteration #  7     ecut=    50.00 Ry     beta= 0.70
     Davidson diagonalization with overlap
     ethr =  1.00E-02,  avg # of iterations =  1.0

     total cpu time spent up to now is      887.1 secs

     total energy              =   -2159.70970038 Ry
     estimated scf accuracy    <      17.82384371 Ry

     iteration #  8     ecut=    50.00 Ry     beta= 0.70
     Davidson diagonalization with overlap
     ethr =  1.00E-02,  avg # of iterations =  2.0

     total cpu time spent up to now is      892.9 secs

     total energy              =   -2160.39438424 Ry
     estimated scf accuracy    <       6.31695797 Ry

     iteration #  9     ecut=    50.00 Ry     beta= 0.70
     Davidson diagonalization with overlap
     ethr =  1.00E-02,  avg # of iterations =  1.0

     total cpu time spent up to now is      898.6 secs

     total energy              =   -2158.75243903 Ry
     estimated scf accuracy    <       6.42650494 Ry

     iteration # 10     ecut=    50.00 Ry     beta= 0.70
     Davidson diagonalization with overlap
     ethr =  1.00E-02,  avg # of iterations =  1.0

     total cpu time spent up to now is      904.1 secs

     total energy              =   -2157.60166661 Ry
     estimated scf accuracy    <       2.38395930 Ry

     iteration # 11     ecut=    50.00 Ry     beta= 0.70
     Davidson diagonalization with overlap
     ethr =  4.41E-03,  avg # of iterations =  2.0

     total cpu time spent up to now is      910.3 secs

     total energy              =   -2158.41182331 Ry
     estimated scf accuracy    <       0.12808617 Ry

     iteration # 12     ecut=    50.00 Ry     beta= 0.70
     Davidson diagonalization with overlap
     ethr =  2.37E-04,  avg # of iterations =  7.4

     total cpu time spent up to now is      917.2 secs

     total energy              =   -2158.41248581 Ry
     estimated scf accuracy    <       0.67684077 Ry

     iteration # 13     ecut=    50.00 Ry     beta= 0.70
     Davidson diagonalization with overlap
     ethr =  2.37E-04,  avg # of iterations =  4.1

     total cpu time spent up to now is      923.8 secs

     total energy              =   -2158.28104183 Ry
     estimated scf accuracy    <       0.78685585 Ry

     iteration # 14     ecut=    50.00 Ry     beta= 0.70
     Davidson diagonalization with overlap
     ethr =  2.37E-04,  avg # of iterations =  2.1

     total cpu time spent up to now is      930.0 secs

     total energy              =   -2158.20987821 Ry
     estimated scf accuracy    <       0.30567838 Ry

     iteration # 15     ecut=    50.00 Ry     beta= 0.70
     Davidson diagonalization with overlap
     ethr =  2.37E-04,  avg # of iterations =  3.0

     total cpu time spent up to now is      936.2 secs

     total energy              =   -2158.23857479 Ry
     estimated scf accuracy    <       0.02332181 Ry

     iteration # 16     ecut=    50.00 Ry     beta= 0.70
     Davidson diagonalization with overlap
     ethr =  4.32E-05,  avg # of iterations =  3.0

     total cpu time spent up to now is      942.6 secs

     total energy              =   -2158.24515073 Ry
     estimated scf accuracy    <       0.00656470 Ry

     iteration # 17     ecut=    50.00 Ry     beta= 0.70
     Davidson diagonalization with overlap
     ethr =  1.22E-05,  avg # of iterations =  8.1

     total cpu time spent up to now is      948.7 secs

     total energy              =   -2158.24520259 Ry
     estimated scf accuracy    <       0.00464331 Ry

     iteration # 18     ecut=    50.00 Ry     beta= 0.70
     Davidson diagonalization with overlap
     ethr =  8.60E-06,  avg # of iterations =  1.9

     total cpu time spent up to now is      954.3 secs

     total energy              =   -2158.24329433 Ry
     estimated scf accuracy    <       0.00436194 Ry

     iteration # 19     ecut=    50.00 Ry     beta= 0.70
     Davidson diagonalization with overlap
     ethr =  8.08E-06,  avg # of iterations =  2.0

     total cpu time spent up to now is      960.2 secs

     total energy              =   -2158.24359977 Ry
     estimated scf accuracy    <       0.00030709 Ry

     iteration # 20     ecut=    50.00 Ry     beta= 0.70
     Davidson diagonalization with overlap
     ethr =  5.69E-07,  avg # of iterations =  4.5

     total cpu time spent up to now is      966.5 secs

     total energy              =   -2158.24366424 Ry
     estimated scf accuracy    <       0.00002106 Ry

     iteration # 21     ecut=    50.00 Ry     beta= 0.70
     Davidson diagonalization with overlap
     ethr =  3.90E-08,  avg # of iterations =  3.4

     total cpu time spent up to now is      972.6 secs

     total energy              =   -2158.24366729 Ry
     estimated scf accuracy    <       0.00000366 Ry

     iteration # 22     ecut=    50.00 Ry     beta= 0.70
     Davidson diagonalization with overlap
     ethr =  6.78E-09,  avg # of iterations =  3.0

     total cpu time spent up to now is      979.1 secs

     total energy              =   -2158.24366878 Ry
     estimated scf accuracy    <       0.00000169 Ry

     iteration # 23     ecut=    50.00 Ry     beta= 0.70
     Davidson diagonalization with overlap
     ethr =  3.13E-09,  avg # of iterations =  1.9
