
     Program PWSCF v.6.7MaX starts on  7Jan2026 at  3: 5:44 

     This program is part of the open-source Quantum ESPRESSO suite
     for quantum simulation of materials; please cite
         "P. Giannozzi et al., J. Phys.:Condens. Matter 21 395502 (2009);
         "P. Giannozzi et al., J. Phys.:Condens. Matter 29 465901 (2017);
          URL http://www.quantum-espresso.org", 
     in publications or presentations arising from this work. More details at
     http://www.quantum-espresso.org/quote

     Parallel version (MPI), running on     1 processors

     MPI processes distributed on     1 nodes
     Waiting for input...
     Reading input from standard input

     Current dimensions of program PWSCF are:
     Max number of different atomic species (ntypx) = 10
     Max number of k-points (npk) =  40000
     Max angular momentum in pseudopotentials (lmaxx) =  3
     file H.UPF: wavefunction(s)  1S renormalized

     Subspace diagonalization in iterative solution of the eigenvalue problem:
     a serial algorithm will be used


     G-vector sticks info
     --------------------
     sticks:   dense  smooth     PW     G-vecs:    dense   smooth      PW
     Sum        6383    3185    895               544083   192369   28415



     bravais-lattice index     =            0
     lattice parameter (alat)  =      11.4682  a.u.
     unit-cell volume          =    4027.4114 (a.u.)^3
     number of atoms/cell      =           56
     number of atomic types    =            3
     number of electrons       =        96.00
     number of Kohn-Sham states=           58
     kinetic-energy cutoff     =      50.0000  Ry
     charge density cutoff     =     400.0000  Ry
     scf convergence threshold =      1.0E-06
     mixing beta               =       0.7000
     number of iterations used =            8  plain     mixing
     energy convergence thresh.=      1.0E-04
     force convergence thresh. =      1.0E-03
     press convergence thresh. =      5.0E-01
     Exchange-correlation=  SLA  PW   PBE  PBE
                           (   1   4   3   4   0   0   0)
     nstep                     =           50


     celldm(1)=  11.468202  celldm(2)=   0.000000  celldm(3)=   0.000000
     celldm(4)=   0.000000  celldm(5)=   0.000000  celldm(6)=   0.000000

     crystal axes: (cart. coord. in units of alat)
               a(1) = (   0.999926   0.011402  -0.004161 )  
               a(2) = (  -0.394592   1.519003  -0.004216 )  
               a(3) = (  -0.007273  -0.007146   1.752844 )  

     reciprocal axes: (cart. coord. in units 2 pi/alat)
               b(1) = (  0.997142  0.259042  0.005193 )  
               b(2) = ( -0.007474  0.656393  0.002645 )  
               b(3) = (  0.002349  0.002193  0.570520 )  


     PseudoPot. # 1 for B  read from file:
     /home/marco/ZOS_Cloud_Compute/pseudo/B.UPF
     MD5 check sum: d9c678ba5d3b2fd7b74e61139c9288d8
     Pseudo is Projector augmented-wave + core cor, Zval =  3.0
     Generated using "atomic" code by A. Dal Corso  v.5.1.2
     Shape of augmentation charge: PSQ
     Using radial grid of 1059 points,  4 beta functions with: 
                l(1) =   0
                l(2) =   0
                l(3) =   1
                l(4) =   1
     Q(r) pseudized with 0 coefficients 


     PseudoPot. # 2 for H  read from file:
     /home/marco/ZOS_Cloud_Compute/pseudo/H.UPF
     MD5 check sum: 850d63dcbcc06c5de8b44e0ab9f952da
     Pseudo is Projector augmented-wave, Zval =  1.0
     Generated using "atomic" code by A. Dal Corso  v.5.1.2
     Shape of augmentation charge: PSQ
     Using radial grid of  929 points,  2 beta functions with: 
                l(1) =   0
                l(2) =   0
     Q(r) pseudized with 0 coefficients 


     PseudoPot. # 3 for Y  read from file:
     /home/marco/ZOS_Cloud_Compute/pseudo/Y.UPF
     MD5 check sum: e11e343c2e9fd2e6ee9cb5aa0e490caa
     Pseudo is Ultrasoft + core correction, Zval = 11.0
     Generated by new atomic code, or converted to UPF format
     Using radial grid of  885 points,  6 beta functions with: 
                l(1) =   0
                l(2) =   0
                l(3) =   1
                l(4) =   1
                l(5) =   2
                l(6) =   2
     Q(r) pseudized with  6 coefficients,  rinner =    1.200   1.200   1.200
                                                       1.200   1.200

     atomic species   valence    mass     pseudopotential
        B              3.00     1.00000     B ( 1.00)
        H              1.00     1.00000     H ( 1.00)
        Y             11.00     1.00000     Y ( 1.00)

     No symmetry found



   Cartesian axes

     site n.     atom                  positions (alat units)
         1           B   tau(   1) = (   0.0568584   0.4120923   0.7167290  )
         2           B   tau(   2) = (   0.2383381   0.3420642   1.5933741  )
         3           B   tau(   3) = (   0.5494931   1.0942470   1.0168695  )
         4           B   tau(   4) = (   0.3611841   1.1790604   0.1501650  )
         5           B   tau(   5) = (   0.1224705   0.1905327   0.5220316  )
         6           B   tau(   6) = (   0.1712367   0.5664990   1.3943290  )
         7           Y   tau(   7) = (   0.4282196   1.4309025   1.2521506  )
         8           B   tau(   8) = (   0.4281838   0.9581211   0.3497957  )
         9           B   tau(   9) = (  -0.0911933   0.4006853   0.4740262  )
        10           B   tau(  10) = (   0.3869662   0.3619741   1.3519527  )
        11           B   tau(  11) = (   0.7005413   1.1016049   1.2626027  )
        12           B   tau(  12) = (   0.2165308   1.1640236   0.3926763  )
        13           B   tau(  13) = (   0.7559236   0.3835315   0.7303820  )
        14           B   tau(  14) = (   0.5385595   0.3782284   1.6124950  )
        15           B   tau(  15) = (  -0.1595227   1.1428381   1.0098591  )
        16           B   tau(  16) = (   0.0575938   1.1425210   0.1348029  )
        17           H   tau(  17) = (   0.1636496   0.5733311   0.7525750  )
        18           H   tau(  18) = (   0.1337338   0.1815397   1.6375014  )
        19           H   tau(  19) = (   0.4810868   0.9104933   0.9825917  )
        20           H   tau(  20) = (   0.4671854   1.3403373   0.1124895  )
        21           H   tau(  21) = (   0.1802065   0.2452036   0.7430655  )
        22           H   tau(  22) = (   0.1226420   0.5147449   1.6196120  )
        23           H   tau(  23) = (   0.4091615   1.2379125   0.9703098  )
        24           H   tau(  24) = (   0.4809741   1.0083322   0.1267660  )
        25           H   tau(  25) = (   0.2869491   0.2200446   0.4192447  )
        26           H   tau(  26) = (   0.0033454   0.5521550   1.2923352  )
        27           H   tau(  27) = (   0.1752664   1.3113178   1.4050616  )
        28           H   tau(  28) = (   0.5947856   0.9824284   0.4523445  )
        29           H   tau(  29) = (  -0.3325662   1.5271594   0.5645429  )
        30           H   tau(  30) = (   0.2363896   0.7473676   1.4418086  )
        31           H   tau(  31) = (   0.9620962   0.1768985   1.1545766  )
        32           H   tau(  32) = (   0.3656862   0.7756433   0.3051286  )
        33           H   tau(  33) = (  -0.0535598   0.2242311   0.3682357  )
        34           H   tau(  34) = (   0.3461783   0.5404080   1.2461081  )
        35           H   tau(  35) = (   0.6730006   1.2501591   1.4036867  )
        36           H   tau(  36) = (   0.2530445   0.9868343   0.4999200  )
        37           H   tau(  37) = (  -0.0787286   0.5547699   0.3530857  )
        38           H   tau(  38) = (   0.3814789   0.2110023   1.2282004  )
        39           H   tau(  39) = (   0.7016243   0.9234978   1.3506778  )
        40           H   tau(  40) = (   0.2273503   1.3178377   0.5128941  )
        41           H   tau(  41) = (   0.7102253   0.3547341   0.4999765  )
        42           H   tau(  42) = (   0.5807070   0.4306186   1.3919766  )
        43           H   tau(  43) = (  -0.0973195   1.1044401   1.2349693  )
        44           H   tau(  44) = (   0.0178736   1.1039669   0.3600661  )
        45           H   tau(  45) = (   0.6565073   0.5435576   0.7873347  )
        46           H   tau(  46) = (   0.6424924   0.2232645   1.6762469  )
        47           H   tau(  47) = (  -0.0513811   0.9868817   0.9512710  )
        48           H   tau(  48) = (  -0.0441015   1.3014747   0.0777247  )
        49           H   tau(  49) = (   0.6798640   0.2060670   0.7769385  )
        50           H   tau(  50) = (   0.6052633   0.5587374   1.6610921  )
        51           H   tau(  51) = (  -0.0912673   1.3197827   0.9571631  )
        52           H   tau(  52) = (  -0.0123586   0.9631459   0.0857353  )
        53           H   tau(  53) = (  -0.0627957   0.3679921   0.8795116  )
        54           H   tau(  54) = (   0.3668156   0.4031550   0.0046381  )
        55           H   tau(  55) = (   0.6699770   1.1072979   0.8495967  )
        56           H   tau(  56) = (   0.2328549   1.1135389   1.7438441  )

     number of k points=     8  Methfessel-Paxton smearing, width (Ry)=  0.0200
                       cart. coord. in units 2pi/alat
        k(    1) = (   0.0000000   0.0000000   0.0000000), wk =   0.2500000
        k(    2) = (  -0.0011744  -0.0010967  -0.2852601), wk =   0.2500000
        k(    3) = (   0.0037368  -0.3281963  -0.0013225), wk =   0.2500000
        k(    4) = (   0.0025624  -0.3292930  -0.2865827), wk =   0.2500000
        k(    5) = (  -0.4985708  -0.1295212  -0.0025967), wk =   0.2500000
        k(    6) = (  -0.4997452  -0.1306179  -0.2878568), wk =   0.2500000
        k(    7) = (  -0.4948340  -0.4577174  -0.0039193), wk =   0.2500000
        k(    8) = (  -0.4960084  -0.4588142  -0.2891794), wk =   0.2500000

     Dense  grid:   544083 G-vectors     FFT dimensions: (  75, 120, 128)

     Smooth grid:   192369 G-vectors     FFT dimensions: (  54,  81,  96)
