
     Program PWSCF v.6.7MaX starts on  1Feb2026 at 19: 4:19 

     This program is part of the open-source Quantum ESPRESSO suite
     for quantum simulation of materials; please cite
         "P. Giannozzi et al., J. Phys.:Condens. Matter 21 395502 (2009);
         "P. Giannozzi et al., J. Phys.:Condens. Matter 29 465901 (2017);
          URL http://www.quantum-espresso.org", 
     in publications or presentations arising from this work. More details at
     http://www.quantum-espresso.org/quote

     Parallel version (MPI), running on     2 processors

     MPI processes distributed on     1 nodes
     R & G space division:  proc/nbgrp/npool/nimage =       2
     Waiting for input...
     Reading input from standard input

     Current dimensions of program PWSCF are:
     Max number of different atomic species (ntypx) = 10
     Max number of k-points (npk) =  40000
     Max angular momentum in pseudopotentials (lmaxx) =  3
     Message from routine read_pp_mesh:
     mismatch in mesh size, discarding the one in header
     file H.UPF: wavefunction(s)  1S renormalized

     Subspace diagonalization in iterative solution of the eigenvalue problem:
     a serial algorithm will be used

     Message from routine setup:
     using ibrav=0 with symmetry is DISCOURAGED, use correct ibrav instead

     Parallelization info
     --------------------
     sticks:   dense  smooth     PW     G-vecs:    dense   smooth      PW
     Min        2214    1110    297                96883    34435    4919
     Max        2215    1111    298                96886    34438    4922
     Sum        4429    2221    595               193769    68873    9841



     bravais-lattice index     =            0
     lattice parameter (alat)  =      12.6644  a.u.
     unit-cell volume          =    1436.3171 (a.u.)^3
     number of atoms/cell      =           24
     number of atomic types    =            3
     number of electrons       =        97.00
     number of Kohn-Sham states=           59
     kinetic-energy cutoff     =      50.0000  Ry
     charge density cutoff     =     400.0000  Ry
     scf convergence threshold =      1.0E-06
     mixing beta               =       0.7000
     number of iterations used =            8  plain     mixing
     energy convergence thresh.=      1.0E-04
     force convergence thresh. =      1.0E-03
     press convergence thresh. =      5.0E-01
     Exchange-correlation=  SLA  PW   PBE  PBE
                           (   1   4   3   4   0   0   0)
     nstep                     =           50


     celldm(1)=  12.664432  celldm(2)=   0.000000  celldm(3)=   0.000000
     celldm(4)=   0.000000  celldm(5)=   0.000000  celldm(6)=   0.000000

     crystal axes: (cart. coord. in units of alat)
               a(1) = (  -0.000002   0.707107   0.707107 )  
               a(2) = (   0.707112  -0.000008   0.707113 )  
               a(3) = (   0.707108   0.707108  -0.000003 )  

     reciprocal axes: (cart. coord. in units 2 pi/alat)
               b(1) = ( -0.707101  0.707104  0.707108 )  
               b(2) = (  0.707098 -0.707094  0.707096 )  
               b(3) = (  0.707107  0.707101 -0.707099 )  


     PseudoPot. # 1 for H  read from file:
     /home/marco/ZOS_Cloud_Compute/pseudo/H.UPF
     MD5 check sum: 850d63dcbcc06c5de8b44e0ab9f952da
     Pseudo is Projector augmented-wave, Zval =  1.0
     Generated using "atomic" code by A. Dal Corso  v.5.1.2
     Shape of augmentation charge: PSQ
     Using radial grid of  929 points,  2 beta functions with: 
                l(1) =   0
                l(2) =   0
     Q(r) pseudized with 0 coefficients 


     PseudoPot. # 2 for Mg read from file:
     /home/marco/ZOS_Cloud_Compute/pseudo/Mg.UPF
     MD5 check sum: a77e51077e70c6c73445c6cac60d158f
     Pseudo is Projector augmented-wave + core cor, Zval = 10.0
     Generated using ATOMPAW code
     Shape of augmentation charge: BESSEL
     Using radial grid of 1171 points,  6 beta functions with: 
                l(1) =   0
                l(2) =   0
                l(3) =   0
                l(4) =   0
                l(5) =   1
                l(6) =   1
     Q(r) pseudized with 0 coefficients 


     PseudoPot. # 3 for Sc read from file:
     /home/marco/ZOS_Cloud_Compute/pseudo/Sc.UPF
     MD5 check sum: ff19847cdcb3487ca1f25e4b0e9f43ec
     Pseudo is Ultrasoft + core correction, Zval = 11.0
     Generated by new atomic code, or converted to UPF format
     Using radial grid of  849 points,  6 beta functions with: 
                l(1) =   0
                l(2) =   0
                l(3) =   1
                l(4) =   1
                l(5) =   2
                l(6) =   2
     Q(r) pseudized with  6 coefficients,  rinner =    1.200   1.200   1.200
                                                       1.200   1.200

     atomic species   valence    mass     pseudopotential
        H              1.00     1.00000     H ( 1.00)
        Mg            10.00     1.00000     Mg( 1.00)
        Sc            11.00     1.00000     Sc( 1.00)

      2 Sym. Ops., with inversion, found



   Cartesian axes

     site n.     atom                  positions (alat units)
         1           Sc  tau(   1) = (   0.7071092   0.7071036   0.7071084  )
         2           Mg  tau(   2) = (   0.3535538   0.3535541  -0.0000015  )
         3           Mg  tau(   3) = (   0.3535531   0.7071075   0.3535519  )
         4           Mg  tau(   4) = (   0.7071101   0.3535503   0.3535549  )
         5           Mg  tau(   5) = (   0.3535553   0.3535495   0.7071099  )
         6           Mg  tau(   6) = (   0.3535562  -0.0000039   0.3535565  )
         7           Mg  tau(   7) = (  -0.0000007   0.3535534   0.3535534  )
         8           Mg  tau(   8) = (   0.0000000  -0.0000000  -0.0000000  )
         9           H   tau(   9) = (   0.8872439   0.8872337   1.2340847  )
        10           H   tau(  10) = (   0.8872415   1.2340786   0.8872397  )
        11           H   tau(  11) = (   1.2340854   0.8872345   0.8872428  )
        12           H   tau(  12) = (   1.2340845   1.2340747   1.2340830  )
        13           H   tau(  13) = (   0.5269746   0.5269734   0.1801322  )
        14           H   tau(  14) = (   0.5269768   0.1801286   0.5269770  )
        15           H   tau(  15) = (   0.1801331   0.5269728   0.5269740  )
        16           H   tau(  16) = (   0.1801340   0.1801326   0.1801338  )
        17           H   tau(  17) = (   0.5347754   0.5347681   0.8794444  )
        18           H   tau(  18) = (   0.5347733   0.8794407   0.5347719  )
        19           H   tau(  19) = (   0.8794448   0.5347687   0.5347747  )
        20           H   tau(  20) = (   0.8794441   0.8794371   0.8794431  )
        21           H   tau(  21) = (   0.8794431   0.8794390   0.5347723  )
        22           H   tau(  22) = (   0.8794451   0.5347666   0.8794448  )
        23           H   tau(  23) = (   0.5347735   0.8794384   0.8794422  )
        24           H   tau(  24) = (   0.5347742   0.5347701   0.5347736  )

     number of k points=     8  Methfessel-Paxton smearing, width (Ry)=  0.0200
                       cart. coord. in units 2pi/alat
        k(    1) = (   0.0000000   0.0000000   0.0000000), wk =   0.2500000
        k(    2) = (  -0.3535537  -0.3535503   0.3535495), wk =   0.2500000
        k(    3) = (  -0.3535491   0.3535472  -0.3535480), wk =   0.2500000
        k(    4) = (  -0.7071028  -0.0000031   0.0000015), wk =   0.2500000
        k(    5) = (   0.3535506  -0.3535518  -0.3535541), wk =   0.2500000
        k(    6) = (  -0.0000031  -0.7071022  -0.0000046), wk =   0.2500000
        k(    7) = (   0.0000015  -0.0000046  -0.7071022), wk =   0.2500000
        k(    8) = (  -0.3535522  -0.3535550  -0.3535526), wk =   0.2500000

     Dense  grid:   193769 G-vectors     FFT dimensions: (  81,  81,  81)

     Smooth grid:    68873 G-vectors     FFT dimensions: (  60,  60,  60)

     Estimated max dynamical RAM per process >     460.19 MB

     Estimated total dynamical RAM >     920.38 MB

     Initial potential from superposition of free atoms

     starting charge   96.99160, renormalised to   97.00000
     Starting wfcs are   96 randomized atomic wfcs
     Checking if some PAW data can be deallocated... 

     total cpu time spent up to now is       18.4 secs

     Self-consistent Calculation

     iteration #  1     ecut=    50.00 Ry     beta= 0.70
     Davidson diagonalization with overlap
     ethr =  1.00E-02,  avg # of iterations =  4.8

     total cpu time spent up to now is       29.0 secs

     total energy              =   -1101.62953099 Ry
     estimated scf accuracy    <       1.24425019 Ry

     iteration #  2     ecut=    50.00 Ry     beta= 0.70
     Davidson diagonalization with overlap
     ethr =  1.28E-03,  avg # of iterations =  3.9

     total cpu time spent up to now is       39.5 secs

     total energy              =   -1101.77155616 Ry
     estimated scf accuracy    <       0.11883982 Ry

     iteration #  3     ecut=    50.00 Ry     beta= 0.70
     Davidson diagonalization with overlap
     ethr =  1.23E-04,  avg # of iterations =  6.5

     total cpu time spent up to now is       52.3 secs

     total energy              =   -1101.75812584 Ry
     estimated scf accuracy    <       0.49585604 Ry

     iteration #  4     ecut=    50.00 Ry     beta= 0.70
     Davidson diagonalization with overlap
     ethr =  1.23E-04,  avg # of iterations =  5.5

     total cpu time spent up to now is       64.0 secs

     total energy              =   -1101.84568975 Ry
     estimated scf accuracy    <       0.00525730 Ry

     iteration #  5     ecut=    50.00 Ry     beta= 0.70
     Davidson diagonalization with overlap
     ethr =  5.42E-06,  avg # of iterations =  4.2

     total cpu time spent up to now is       75.2 secs

     total energy              =   -1101.84622070 Ry
     estimated scf accuracy    <       0.00066039 Ry

     iteration #  6     ecut=    50.00 Ry     beta= 0.70
     Davidson diagonalization with overlap
     ethr =  6.81E-07,  avg # of iterations =  4.0

     total cpu time spent up to now is       85.8 secs

     total energy              =   -1101.84636118 Ry
     estimated scf accuracy    <       0.00002488 Ry

     iteration #  7     ecut=    50.00 Ry     beta= 0.70
     Davidson diagonalization with overlap
     ethr =  2.56E-08,  avg # of iterations =  3.8

     total cpu time spent up to now is       96.3 secs

     total energy              =   -1101.84636390 Ry
     estimated scf accuracy    <       0.00000916 Ry

     iteration #  8     ecut=    50.00 Ry     beta= 0.70
     Davidson diagonalization with overlap
     ethr =  9.44E-09,  avg # of iterations =  2.8

     total cpu time spent up to now is      105.7 secs

     End of self-consistent calculation

          k = 0.0000 0.0000 0.0000 (  8609 PWs)   bands (ev):

   -69.0983 -68.8227 -68.8219 -68.8218 -68.8214 -68.8212 -68.8208 -42.1443
   -36.1866 -36.1866 -36.1866 -35.9305 -35.9224 -35.9223 -35.9218 -35.9138
   -35.9133 -35.9113 -35.9110 -35.9109 -35.9047 -35.9045 -35.9044 -35.9035
   -35.9032 -35.9032 -35.8997 -35.8994 -35.8992 -20.8299 -20.8298 -20.8298
    -2.6302   1.3279   1.3279   1.3280   1.5954   1.5955   1.5955   1.6138
     1.9361   1.9379   1.9380   1.9381   4.3903   4.3903   4.3903   6.3578
     6.3579   7.3962   8.0669  10.2505  10.2506  10.6408  10.6409  10.6409
    12.0230  12.0232  12.0236

          k =-0.3536-0.3536 0.3535 (  8604 PWs)   bands (ev):

   -69.0982 -68.8223 -68.8222 -68.8216 -68.8216 -68.8212 -68.8209 -42.1444
   -36.1865 -36.1865 -36.1864 -35.9256 -35.9255 -35.9176 -35.9174 -35.9173
   -35.9169 -35.9093 -35.9084 -35.9082 -35.9072 -35.9071 -35.9069 -35.9033
   -35.9026 -35.9025 -35.9016 -35.9013 -35.9006 -20.8302 -20.8299 -20.8299
    -1.4966  -1.4647   1.0440   1.0441   1.1638   1.1916   1.3406   1.3407
     3.0149   3.0150   3.4901   3.5818   3.5819   3.7241   5.2018   5.9548
     7.9191   7.9191   9.2564   9.5545   9.5546   9.7244  10.1551  10.1552
    11.3529  11.3530  11.8829

          k =-0.3535 0.3535-0.3535 (  8604 PWs)   bands (ev):

   -69.0982 -68.8222 -68.8222 -68.8217 -68.8216 -68.8212 -68.8209 -42.1444
   -36.1865 -36.1865 -36.1864 -35.9256 -35.9255 -35.9176 -35.9174 -35.9171
   -35.9171 -35.9094 -35.9084 -35.9080 -35.9073 -35.9072 -35.9068 -35.9031
   -35.9027 -35.9026 -35.9016 -35.9011 -35.9007 -20.8302 -20.8299 -20.8299
    -1.4965  -1.4648   1.0440   1.0441   1.1640   1.1915   1.3406   1.3407
     3.0149   3.0150   3.4901   3.5818   3.5819   3.7241   5.2017   5.9547
     7.9190   7.9191   9.2563   9.5545   9.5546   9.7244  10.1550  10.1551
    11.3528  11.3529  11.8828

          k =-0.7071-0.0000 0.0000 (  8616 PWs)   bands (ev):

   -69.0982 -68.8222 -68.8219 -68.8219 -68.8217 -68.8212 -68.8208 -42.1444
   -36.1865 -36.1865 -36.1864 -35.9248 -35.9209 -35.9203 -35.9195 -35.9193
   -35.9135 -35.9113 -35.9068 -35.9066 -35.9063 -35.9062 -35.9055 -35.9044
   -35.9044 -35.9042 -35.9034 -35.9027 -35.8993 -20.8302 -20.8300 -20.8300
    -1.1418  -1.0868   0.0687   0.3339   0.3340   0.4565   2.4642   2.4642
     3.0171   3.0171   3.7004   3.7005   4.0279   4.3700   5.2710   6.1071
     7.2046   8.1036   8.4663   8.8921   9.5790   9.7750  10.2456  10.2458
    10.5982  10.5983  10.8745

          k = 0.3536-0.3536-0.3536 (  8604 PWs)   bands (ev):

   -69.0982 -68.8223 -68.8222 -68.8217 -68.8215 -68.8212 -68.8209 -42.1444
   -36.1865 -36.1865 -36.1864 -35.9257 -35.9254 -35.9175 -35.9175 -35.9172
   -35.9171 -35.9094 -35.9083 -35.9080 -35.9073 -35.9073 -35.9068 -35.9031
   -35.9028 -35.9027 -35.9015 -35.9011 -35.9008 -20.8302 -20.8299 -20.8299
    -1.4965  -1.4647   1.0440   1.0441   1.1639   1.1915   1.3406   1.3406
     3.0149   3.0150   3.4901   3.5818   3.5819   3.7241   5.2018   5.9548
     7.9191   7.9191   9.2563   9.5546   9.5546   9.7245  10.1550  10.1550
    11.3528  11.3529  11.8829

          k =-0.0000-0.7071-0.0000 (  8616 PWs)   bands (ev):

   -69.0982 -68.8221 -68.8219 -68.8219 -68.8218 -68.8212 -68.8208 -42.1444
   -36.1865 -36.1865 -36.1864 -35.9247 -35.9208 -35.9203 -35.9195 -35.9194
   -35.9134 -35.9113 -35.9069 -35.9068 -35.9062 -35.9061 -35.9055 -35.9045
   -35.9044 -35.9043 -35.9033 -35.9027 -35.8993 -20.8302 -20.8300 -20.8300
    -1.1418  -1.0868   0.0687   0.3339   0.3340   0.4565   2.4642   2.4642
     3.0171   3.0171   3.7004   3.7005   4.0279   4.3700   5.2710   6.1072
     7.2046   8.1036   8.4663   8.8921   9.5790   9.7750  10.2456  10.2457
    10.5982  10.5983  10.8744

          k = 0.0000-0.0000-0.7071 (  8616 PWs)   bands (ev):

   -69.0982 -68.8224 -68.8219 -68.8218 -68.8213 -68.8213 -68.8210 -42.1444
   -36.1865 -36.1865 -36.1864 -35.9251 -35.9210 -35.9209 -35.9189 -35.9185
   -35.9138 -35.9116 -35.9065 -35.9063 -35.9063 -35.9061 -35.9059 -35.9048
   -35.9038 -35.9035 -35.9035 -35.9034 -35.8997 -20.8302 -20.8300 -20.8300
    -1.1418  -1.0868   0.0687   0.3339   0.3340   0.4564   2.4641   2.4642
     3.0172   3.0172   3.7004   3.7005   4.0279   4.3700   5.2711   6.1071
     7.2047   8.1036   8.4662   8.8921   9.5791   9.7750  10.2456  10.2457
    10.5982  10.5983  10.8745

          k =-0.3536-0.3536-0.3536 (  8604 PWs)   bands (ev):

   -69.0982 -68.8222 -68.8222 -68.8216 -68.8216 -68.8212 -68.8209 -42.1444
   -36.1865 -36.1865 -36.1864 -35.9256 -35.9255 -35.9176 -35.9175 -35.9173
   -35.9169 -35.9093 -35.9083 -35.9081 -35.9072 -35.9072 -35.9069 -35.9032
   -35.9027 -35.9025 -35.9016 -35.9013 -35.9006 -20.8302 -20.8299 -20.8299
    -1.4965  -1.4647   1.0440   1.0440   1.1638   1.1915   1.3406   1.3406
     3.0149   3.0150   3.4901   3.5818   3.5819   3.7241   5.2018   5.9549
     7.9191   7.9191   9.2564   9.5546   9.5547   9.7245  10.1551  10.1552
    11.3529  11.3530  11.8829

     the Fermi energy is     7.3531 ev

!    total energy              =   -1101.84636502 Ry
     estimated scf accuracy    <       0.00000022 Ry
     smearing contrib. (-TS)   =      -0.00069278 Ry
     internal energy E=F+TS    =   -1101.84567224 Ry

     The total energy is F=E-TS. E is the sum of the following terms:
     one-electron contribution =    -778.81269325 Ry
     hartree contribution      =     194.63521282 Ry
     xc contribution           =    -111.01189946 Ry
     ewald contribution        =    -459.09978618 Ry
     one-center paw contrib.   =      52.44349384 Ry

     convergence has been achieved in   8 iterations

     Forces acting on atoms (cartesian axes, Ry/au):

     atom    1 type  3   force =     0.00000000    0.00000000    0.00000000
     atom    2 type  2   force =     0.00000000    0.00000000    0.00000000
     atom    3 type  2   force =     0.00000000    0.00000000    0.00000000
     atom    4 type  2   force =     0.00000000    0.00000000    0.00000000
     atom    5 type  2   force =     0.00000000    0.00000000    0.00000000
     atom    6 type  2   force =     0.00000000    0.00000000    0.00000000
     atom    7 type  2   force =     0.00000000    0.00000000    0.00000000
     atom    8 type  2   force =     0.00000000    0.00000000    0.00000000
     atom    9 type  1   force =    -0.00155809   -0.00155639    0.00156078
     atom   10 type  1   force =    -0.00155908    0.00156000   -0.00156090
     atom   11 type  1   force =     0.00155889   -0.00155905   -0.00156091
     atom   12 type  1   force =     0.00155644    0.00155623    0.00156061
     atom   13 type  1   force =     0.00155809    0.00155639   -0.00156078
     atom   14 type  1   force =     0.00155908   -0.00156000    0.00156090
     atom   15 type  1   force =    -0.00155889    0.00155905    0.00156091
     atom   16 type  1   force =    -0.00155644   -0.00155623   -0.00156061
     atom   17 type  1   force =    -0.00374535   -0.00374639    0.00374314
     atom   18 type  1   force =    -0.00374551    0.00374455   -0.00374029
     atom   19 type  1   force =     0.00374734   -0.00374659   -0.00374224
     atom   20 type  1   force =     0.00374577    0.00374654    0.00374261
     atom   21 type  1   force =     0.00374535    0.00374639   -0.00374314
     atom   22 type  1   force =     0.00374551   -0.00374455    0.00374029
     atom   23 type  1   force =    -0.00374734    0.00374659    0.00374224
     atom   24 type  1   force =    -0.00374577   -0.00374654   -0.00374261

     Total force =     0.019871     Total SCF correction =     0.000161


     Computing stress (Cartesian axis) and pressure

          total   stress  (Ry/bohr**3)                   (kbar)     P=       15.87
   0.00010791   0.00000004  -0.00000001           15.87        0.01       -0.00
   0.00000004   0.00010790   0.00000003            0.01       15.87        0.00
  -0.00000001   0.00000003   0.00010789           -0.00        0.00       15.87


     BFGS Geometry Optimization
     Energy error            =      0.0E+00
     Gradient error          =      3.7E-03
     Cell gradient error     =      1.1E-04


     number of scf cycles    =   1
     number of bfgs steps    =   0

     enthalpy new            =   -1101.8463650182 Ry

     new trust radius        =       0.0204484587 bohr
     new conv_thr            =       0.0000010000 Ry

     new unit-cell volume =   1447.97203 a.u.^3 (   214.56732 Ang^3 )
     density =      0.18574 g/cm^3

CELL_PARAMETERS (angstrom)
  -0.000007194   4.751624351   4.751623192
   4.751658658  -0.000044351   4.751660350
   4.751632912   4.751635763  -0.000018605

ATOMIC_POSITIONS (angstrom)
Sc            4.7516421879        4.7516078815        4.7516334714
Mg            2.3758164558        2.3758178813       -0.0000088011
Mg            2.3758133603        4.7516300570        2.3758027951
Mg            4.7516462861        2.3757957058        2.3758208725
Mg            2.3758257320        2.3757900002        4.7516422725
Mg            2.3758298302       -0.0000221755        2.3758306763
Mg           -0.0000030955        2.3758121757        2.3758115962
Mg            0.0000000000        0.0000000000        0.0000000000
H             5.9612868526        5.9612250176        8.2936401191
H             5.9612729085        8.2936073158        5.9612545822
H             8.2936499147        5.9612293021        5.9612736929
H             8.2936444809        8.2935830674        8.2936302027
H             3.5419985259        3.5419897428        1.2096268237
H             3.5420114672        1.2096074446        3.5420113579
H             1.2096354637        3.5419864610        3.5419932499
H             1.2096408975        1.2096326956        1.2096367401
H             3.5916038365        3.5915581898        5.9116832274
H             3.5915923193        5.9116643796        3.5915815844
H             5.9116923952        3.5915627719        3.5915976734
H             5.9116884204        5.9116451772        5.9116751183
H             5.9116815420        5.9116565705        3.5915827127
H             5.9116930591        3.5915513834        5.9116843557
H             3.5915919806        5.9116519885        5.9116692694
H             3.5915959553        3.5915695831        3.5915908218



     Writing output data file ./tmp/Mg7ScH16.save/
     NEW-OLD atomic charge density approx. for the potential
     extrapolated charge   97.78070, renormalised to   97.00000

     total cpu time spent up to now is      161.1 secs

     Self-consistent Calculation

     iteration #  1     ecut=    50.00 Ry     beta= 0.70
     Davidson diagonalization with overlap
     ethr =  1.00E-06,  avg # of iterations =  8.0

     total cpu time spent up to now is      179.4 secs

     total energy              =   -1101.81591109 Ry
     estimated scf accuracy    <       0.01237895 Ry

     iteration #  2     ecut=    50.00 Ry     beta= 0.70
     Davidson diagonalization with overlap
     ethr =  1.28E-05,  avg # of iterations =  6.9

     total cpu time spent up to now is      194.3 secs

     total energy              =   -1101.83286005 Ry
     estimated scf accuracy    <       0.14889933 Ry

     iteration #  3     ecut=    50.00 Ry     beta= 0.70
     Davidson diagonalization with overlap
     ethr =  1.28E-05,  avg # of iterations =  5.9

     total cpu time spent up to now is      206.5 secs

     total energy              =   -1101.84782784 Ry
     estimated scf accuracy    <       0.00448274 Ry

     iteration #  4     ecut=    50.00 Ry     beta= 0.70
     Davidson diagonalization with overlap
     ethr =  4.62E-06,  avg # of iterations =  2.0

     total cpu time spent up to now is      215.5 secs

     total energy              =   -1101.84770171 Ry
     estimated scf accuracy    <       0.00160114 Ry

     iteration #  5     ecut=    50.00 Ry     beta= 0.70
     Davidson diagonalization with overlap
     ethr =  1.65E-06,  avg # of iterations =  4.6

     total cpu time spent up to now is      225.4 secs

     total energy              =   -1101.84773922 Ry
     estimated scf accuracy    <       0.00035671 Ry

     iteration #  6     ecut=    50.00 Ry     beta= 0.70
     Davidson diagonalization with overlap
     ethr =  3.68E-07,  avg # of iterations =  2.8

     total cpu time spent up to now is      234.5 secs

     total energy              =   -1101.84773158 Ry
     estimated scf accuracy    <       0.00011711 Ry

     iteration #  7     ecut=    50.00 Ry     beta= 0.70
     Davidson diagonalization with overlap
     ethr =  1.21E-07,  avg # of iterations =  2.8

     total cpu time spent up to now is      243.8 secs

     total energy              =   -1101.84773827 Ry
     estimated scf accuracy    <       0.00001483 Ry

     iteration #  8     ecut=    50.00 Ry     beta= 0.70
     Davidson diagonalization with overlap
     ethr =  1.53E-08,  avg # of iterations =  3.8

     total cpu time spent up to now is      253.5 secs

     total energy              =   -1101.84773919 Ry
     estimated scf accuracy    <       0.00000227 Ry

     iteration #  9     ecut=    50.00 Ry     beta= 0.70
     Davidson diagonalization with overlap
     ethr =  2.35E-09,  avg # of iterations =  3.8

     total cpu time spent up to now is      264.0 secs

     End of self-consistent calculation

          k = 0.0000 0.0000 0.0000 (  8609 PWs)   bands (ev):

   -69.1800 -68.9161 -68.9152 -68.9152 -68.9151 -68.9147 -68.9147 -42.2641
   -36.2683 -36.2683 -36.2683 -36.0234 -36.0153 -36.0153 -36.0153 -36.0070
   -36.0070 -36.0044 -36.0044 -36.0044 -35.9979 -35.9979 -35.9979 -35.9970
   -35.9970 -35.9970 -35.9932 -35.9932 -35.9932 -20.9446 -20.9446 -20.9446
    -2.6609   1.2747   1.2748   1.2748   1.5438   1.5438   1.5438   1.5592
     1.8766   1.8766   1.8767   1.8805   4.3267   4.3267   4.3267   6.2860
     6.2860   7.3240   7.9702  10.1358  10.1358  10.5183  10.5184  10.5184
    11.9197  11.9198  11.9199

          k =-0.3526-0.3526 0.3526 (  8604 PWs)   bands (ev):

   -69.1800 -68.9156 -68.9156 -68.9149 -68.9149 -68.9149 -68.9149 -42.2641
   -36.2682 -36.2682 -36.2681 -36.0186 -36.0185 -36.0107 -36.0107 -36.0106
   -36.0106 -36.0025 -36.0015 -36.0015 -36.0007 -36.0007 -36.0005 -35.9966
   -35.9962 -35.9962 -35.9952 -35.9952 -35.9946 -20.9449 -20.9447 -20.9447
    -1.5343  -1.5022   0.9948   0.9948   1.1128   1.1387   1.2825   1.2825
     2.9551   2.9551   3.4288   3.5206   3.5206   3.6536   5.1384   5.8692
     7.8366   7.8366   9.1695   9.4649   9.4650   9.6398  10.0431  10.0431
    11.2347  11.2347  11.7535

          k =-0.3526 0.3526-0.3526 (  8604 PWs)   bands (ev):

   -69.1800 -68.9156 -68.9156 -68.9149 -68.9149 -68.9149 -68.9149 -42.2641
   -36.2682 -36.2682 -36.2681 -36.0186 -36.0185 -36.0107 -36.0107 -36.0106
   -36.0106 -36.0025 -36.0015 -36.0015 -36.0007 -36.0007 -36.0005 -35.9966
   -35.9962 -35.9962 -35.9952 -35.9952 -35.9946 -20.9449 -20.9447 -20.9447
    -1.5344  -1.5022   0.9948   0.9948   1.1129   1.1387   1.2825   1.2826
     2.9551   2.9551   3.4288   3.5206   3.5206   3.6536   5.1383   5.8691
     7.8366   7.8366   9.1695   9.4649   9.4649   9.6397  10.0431  10.0431
    11.2347  11.2347  11.7534

          k =-0.7052-0.0000 0.0000 (  8616 PWs)   bands (ev):

   -69.1800 -68.9156 -68.9152 -68.9152 -68.9152 -68.9151 -68.9147 -42.2641
   -36.2682 -36.2682 -36.2681 -36.0179 -36.0139 -36.0139 -36.0125 -36.0124
   -36.0070 -36.0046 -35.9999 -35.9999 -35.9998 -35.9993 -35.9993 -35.9980
   -35.9979 -35.9979 -35.9969 -35.9969 -35.9932 -20.9449 -20.9448 -20.9448
    -1.1829  -1.1255   0.0226   0.2851   0.2852   0.4099   2.4058   2.4058
     2.9526   2.9526   3.6400   3.6401   3.9583   4.2988   5.2064   6.0240
     7.1340   8.0146   8.3956   8.7866   9.4818   9.6729  10.1534  10.1535
    10.4777  10.4778  10.7666

          k = 0.3526-0.3526-0.3526 (  8604 PWs)   bands (ev):

   -69.1800 -68.9156 -68.9156 -68.9149 -68.9149 -68.9149 -68.9149 -42.2641
   -36.2682 -36.2682 -36.2681 -36.0186 -36.0185 -36.0107 -36.0107 -36.0106
   -36.0106 -36.0026 -36.0015 -36.0015 -36.0007 -36.0007 -36.0005 -35.9966
   -35.9962 -35.9962 -35.9952 -35.9952 -35.9946 -20.9449 -20.9447 -20.9447
    -1.5343  -1.5022   0.9948   0.9948   1.1128   1.1387   1.2825   1.2825
     2.9551   2.9551   3.4288   3.5206   3.5206   3.6536   5.1384   5.8692
     7.8366   7.8366   9.1695   9.4650   9.4650   9.6398  10.0431  10.0431
    11.2347  11.2347  11.7535

          k =-0.0000-0.7052-0.0000 (  8616 PWs)   bands (ev):

   -69.1800 -68.9156 -68.9152 -68.9152 -68.9151 -68.9151 -68.9147 -42.2641
   -36.2682 -36.2682 -36.2681 -36.0179 -36.0139 -36.0139 -36.0125 -36.0124
   -36.0070 -36.0046 -35.9999 -35.9998 -35.9998 -35.9993 -35.9993 -35.9980
   -35.9979 -35.9979 -35.9969 -35.9969 -35.9933 -20.9449 -20.9448 -20.9448
    -1.1829  -1.1255   0.0226   0.2852   0.2852   0.4099   2.4058   2.4058
     2.9526   2.9527   3.6400   3.6401   3.9583   4.2988   5.2065   6.0240
     7.1341   8.0146   8.3956   8.7866   9.4818   9.6729  10.1535  10.1535
    10.4777  10.4778  10.7666

          k = 0.0000-0.0000-0.7052 (  8616 PWs)   bands (ev):

   -69.1800 -68.9156 -68.9152 -68.9152 -68.9151 -68.9151 -68.9147 -42.2641
   -36.2682 -36.2682 -36.2681 -36.0179 -36.0139 -36.0139 -36.0125 -36.0124
   -36.0070 -36.0046 -35.9998 -35.9998 -35.9998 -35.9993 -35.9993 -35.9980
   -35.9979 -35.9978 -35.9969 -35.9969 -35.9933 -20.9449 -20.9448 -20.9448
    -1.1829  -1.1255   0.0226   0.2852   0.2852   0.4099   2.4058   2.4058
     2.9526   2.9526   3.6400   3.6401   3.9583   4.2988   5.2064   6.0240
     7.1340   8.0146   8.3956   8.7866   9.4817   9.6729  10.1535  10.1535
    10.4777  10.4778  10.7666

          k =-0.3526-0.3526-0.3526 (  8604 PWs)   bands (ev):

   -69.1800 -68.9156 -68.9156 -68.9149 -68.9149 -68.9149 -68.9149 -42.2641
   -36.2682 -36.2682 -36.2681 -36.0186 -36.0185 -36.0107 -36.0107 -36.0106
   -36.0106 -36.0025 -36.0015 -36.0015 -36.0007 -36.0007 -36.0005 -35.9966
   -35.9962 -35.9962 -35.9952 -35.9952 -35.9946 -20.9449 -20.9447 -20.9447
    -1.5343  -1.5022   0.9948   0.9948   1.1128   1.1387   1.2825   1.2825
     2.9551   2.9551   3.4288   3.5206   3.5206   3.6536   5.1384   5.8692
     7.8366   7.8366   9.1695   9.4650   9.4650   9.6398  10.0431  10.0431
    11.2347  11.2347  11.7535

     the Fermi energy is     7.2831 ev

!    total energy              =   -1101.84773946 Ry
     estimated scf accuracy    <       0.00000010 Ry
     smearing contrib. (-TS)   =      -0.00059587 Ry
     internal energy E=F+TS    =   -1101.84714360 Ry

     The total energy is F=E-TS. E is the sum of the following terms:
     one-electron contribution =    -780.70370033 Ry
     hartree contribution      =     195.26828603 Ry
     xc contribution           =    -110.96308306 Ry
     ewald contribution        =    -457.87530775 Ry
     one-center paw contrib.   =      52.42666150 Ry

     convergence has been achieved in   9 iterations

     Forces acting on atoms (cartesian axes, Ry/au):

     atom    1 type  3   force =     0.00000000    0.00000000    0.00000000
     atom    2 type  2   force =     0.00000000    0.00000000    0.00000000
     atom    3 type  2   force =     0.00000000    0.00000000    0.00000000
     atom    4 type  2   force =     0.00000000    0.00000000    0.00000000
     atom    5 type  2   force =     0.00000000    0.00000000    0.00000000
     atom    6 type  2   force =     0.00000000    0.00000000    0.00000000
     atom    7 type  2   force =     0.00000000    0.00000000    0.00000000
     atom    8 type  2   force =     0.00000000    0.00000000    0.00000000
     atom    9 type  1   force =    -0.00143756   -0.00143699    0.00143597
     atom   10 type  1   force =    -0.00143716    0.00143677   -0.00143658
     atom   11 type  1   force =     0.00143596   -0.00143642   -0.00143648
     atom   12 type  1   force =     0.00143646    0.00143713    0.00143589
     atom   13 type  1   force =     0.00143756    0.00143699   -0.00143597
     atom   14 type  1   force =     0.00143716   -0.00143677    0.00143658
     atom   15 type  1   force =    -0.00143596    0.00143642    0.00143648
     atom   16 type  1   force =    -0.00143646   -0.00143713   -0.00143589
     atom   17 type  1   force =    -0.00304656   -0.00304682    0.00304709
     atom   18 type  1   force =    -0.00304628    0.00304636   -0.00304660
     atom   19 type  1   force =     0.00304744   -0.00304752   -0.00304728
     atom   20 type  1   force =     0.00304744    0.00304713    0.00304791
     atom   21 type  1   force =     0.00304656    0.00304682   -0.00304709
     atom   22 type  1   force =     0.00304628   -0.00304636    0.00304660
     atom   23 type  1   force =    -0.00304744    0.00304752    0.00304728
     atom   24 type  1   force =    -0.00304744   -0.00304713   -0.00304791

     Total force =     0.016503     Total SCF correction =     0.000088


     Computing stress (Cartesian axis) and pressure

          total   stress  (Ry/bohr**3)                   (kbar)     P=        8.75
   0.00005950   0.00000001  -0.00000001            8.75        0.00       -0.00
   0.00000001   0.00005947   0.00000002            0.00        8.75        0.00
  -0.00000001   0.00000002   0.00005948           -0.00        0.00        8.75

     Energy error            =      1.4E-03
     Gradient error          =      3.0E-03
     Cell gradient error     =      5.9E-05


     number of scf cycles    =   2
     number of bfgs steps    =   1

     enthalpy old            =   -1101.8463650182 Ry
     enthalpy new            =   -1101.8477394649 Ry

     CASE: enthalpy_new < enthalpy_old

     new trust radius        =       0.0225236168 bohr
     new conv_thr            =       0.0000000305 Ry

     new unit-cell volume =   1460.86340 a.u.^3 (   216.47762 Ang^3 )
     density =      0.18410 g/cm^3

CELL_PARAMETERS (angstrom)
  -0.000005639   4.765686453   4.765686440
   4.765719700  -0.000036564   4.765717364
   4.765699065   4.765696744  -0.000015929

ATOMIC_POSITIONS (angstrom)
Sc            4.7657065629        4.7656733166        4.7656949431
Mg            2.3828495325        2.3828483718       -0.0000074618
Mg            2.3828472159        4.7656915984        2.3828357580
Mg            4.7657098851        2.3828300900        2.3828507176
Mg            2.3828570303        2.3828249448        4.7657024048
Mg            2.3828603526       -0.0000182818        2.3828591850
Mg           -0.0000023166        2.3828432266        2.3828432198
Mg            0.0000000000        0.0000000000        0.0000000000
H             5.9774475941        5.9773907808        8.3196637684
H             5.9774365207        8.3196361279        5.9774156079
H             8.3196791083        5.9773949734        5.9774317509
H             8.3196748405        8.3196159337        8.3196550821
H             3.5539665373        3.5539548468        1.2117261177
H             3.5539766051        1.2117094996        3.5539732726
H             1.2117350231        3.5539516598        3.5539581353
H             1.2117392909        1.2117306995        1.2117348041
H             3.5990738829        3.5990317949        5.9323365673
H             3.5990651555        5.9323194740        3.5990526644
H             5.9323504115        3.5990351274        3.5990649379
H             5.9323471426        5.9323049425        5.9323305628
H             5.9323402485        5.9323138326        3.5990523132
H             5.9323489759        3.5990271592        5.9323362161
H             3.5990627143        5.9323105001        5.9323249482
H             3.5990659832        3.5990406851        3.5990583177



     Writing output data file ./tmp/Mg7ScH16.save/
     NEW-OLD atomic charge density approx. for the potential
     extrapolated charge   97.85590, renormalised to   97.00000

     total cpu time spent up to now is      320.3 secs

     Self-consistent Calculation

     iteration #  1     ecut=    50.00 Ry     beta= 0.70
     Davidson diagonalization with overlap
     ethr =  1.00E-06,  avg # of iterations =  7.8

     total cpu time spent up to now is      338.8 secs

     total energy              =   -1101.81011339 Ry
     estimated scf accuracy    <       0.01551452 Ry

     iteration #  2     ecut=    50.00 Ry     beta= 0.70
     Davidson diagonalization with overlap
     ethr =  1.60E-05,  avg # of iterations =  6.9

     total cpu time spent up to now is      353.5 secs

     total energy              =   -1101.82986075 Ry
     estimated scf accuracy    <       0.18988838 Ry

     iteration #  3     ecut=    50.00 Ry     beta= 0.70
     Davidson diagonalization with overlap
     ethr =  1.60E-05,  avg # of iterations =  5.9

     total cpu time spent up to now is      365.7 secs

     total energy              =   -1101.84888598 Ry
     estimated scf accuracy    <       0.00514232 Ry

     iteration #  4     ecut=    50.00 Ry     beta= 0.70
     Davidson diagonalization with overlap
     ethr =  5.30E-06,  avg # of iterations =  1.5

     total cpu time spent up to now is      374.3 secs

     total energy              =   -1101.84870807 Ry
     estimated scf accuracy    <       0.00188277 Ry

     iteration #  5     ecut=    50.00 Ry     beta= 0.70
     Davidson diagonalization with overlap
     ethr =  1.94E-06,  avg # of iterations =  4.6

     total cpu time spent up to now is      384.5 secs

     total energy              =   -1101.84876680 Ry
     estimated scf accuracy    <       0.00036469 Ry

     iteration #  6     ecut=    50.00 Ry     beta= 0.70
     Davidson diagonalization with overlap
     ethr =  3.76E-07,  avg # of iterations =  2.8

     total cpu time spent up to now is      393.6 secs

     total energy              =   -1101.84876102 Ry
     estimated scf accuracy    <       0.00010835 Ry

     iteration #  7     ecut=    50.00 Ry     beta= 0.70
     Davidson diagonalization with overlap
     ethr =  1.12E-07,  avg # of iterations =  3.1

     total cpu time spent up to now is      403.0 secs

     total energy              =   -1101.84877015 Ry
     estimated scf accuracy    <       0.00000876 Ry

     iteration #  8     ecut=    50.00 Ry     beta= 0.70
     Davidson diagonalization with overlap
     ethr =  9.03E-09,  avg # of iterations =  4.0

     total cpu time spent up to now is      413.4 secs

     total energy              =   -1101.84877104 Ry
     estimated scf accuracy    <       0.00000169 Ry

     iteration #  9     ecut=    50.00 Ry     beta= 0.70
     Davidson diagonalization with overlap
     ethr =  1.74E-09,  avg # of iterations =  2.5

     total cpu time spent up to now is      422.9 secs

     total energy              =   -1101.84877105 Ry
     estimated scf accuracy    <       0.00000033 Ry

     iteration # 10     ecut=    50.00 Ry     beta= 0.70
     Davidson diagonalization with overlap
     ethr =  3.36E-10,  avg # of iterations =  3.6

     total cpu time spent up to now is      433.1 secs

     End of self-consistent calculation

          k = 0.0000 0.0000 0.0000 (  8609 PWs)   bands (ev):

   -69.2665 -69.0203 -69.0194 -69.0194 -69.0194 -69.0190 -69.0190 -42.4010
   -36.3547 -36.3547 -36.3547 -36.1270 -36.1191 -36.1191 -36.1191 -36.1112
   -36.1112 -36.1083 -36.1083 -36.1083 -36.1021 -36.1021 -36.1021 -36.1014
   -36.1014 -36.1014 -36.0978 -36.0978 -36.0978 -21.0757 -21.0757 -21.0757
    -2.6946   1.2164   1.2165   1.2165   1.4875   1.4875   1.4875   1.4981
     1.8090   1.8091   1.8091   1.8208   4.2589   4.2590   4.2590   6.2070
     6.2070   7.2478   7.8648  10.0071  10.0071  10.3782  10.3783  10.3783
    11.8071  11.8072  11.8073

          k =-0.3516-0.3516 0.3516 (  8604 PWs)   bands (ev):

   -69.2665 -69.0199 -69.0199 -69.0192 -69.0192 -69.0192 -69.0192 -42.4011
   -36.3546 -36.3546 -36.3545 -36.1224 -36.1223 -36.1147 -36.1147 -36.1146
   -36.1146 -36.1064 -36.1055 -36.1055 -36.1049 -36.1049 -36.1049 -36.1006
   -36.1005 -36.1005 -36.0997 -36.0997 -36.0992 -21.0760 -21.0758 -21.0757
    -1.5764  -1.5429   0.9411   0.9411   1.0579   1.0799   1.2184   1.2184
     2.8891   2.8891   3.3628   3.4559   3.4559   3.5755   5.0739   5.7727
     7.7446   7.7446   9.0723   9.3667   9.3667   9.5522   9.9179   9.9180
    11.1029  11.1029  11.6063

          k =-0.3516 0.3516-0.3516 (  8604 PWs)   bands (ev):

   -69.2665 -69.0199 -69.0199 -69.0192 -69.0192 -69.0192 -69.0192 -42.4011
   -36.3546 -36.3546 -36.3545 -36.1224 -36.1223 -36.1147 -36.1147 -36.1146
   -36.1146 -36.1064 -36.1055 -36.1054 -36.1049 -36.1049 -36.1049 -36.1006
   -36.1005 -36.1005 -36.0997 -36.0997 -36.0992 -21.0760 -21.0758 -21.0757
    -1.5764  -1.5430   0.9411   0.9411   1.0579   1.0799   1.2184   1.2184
     2.8891   2.8891   3.3628   3.4559   3.4559   3.5755   5.0739   5.7726
     7.7446   7.7446   9.0723   9.3666   9.3667   9.5522   9.9179   9.9179
    11.1029  11.1029  11.6063

          k =-0.7031-0.0000 0.0000 (  8616 PWs)   bands (ev):

   -69.2665 -69.0199 -69.0194 -69.0194 -69.0194 -69.0194 -69.0190 -42.4011
   -36.3546 -36.3546 -36.3545 -36.1217 -36.1178 -36.1178 -36.1165 -36.1164
   -36.1113 -36.1085 -36.1041 -36.1037 -36.1037 -36.1033 -36.1033 -36.1024
   -36.1024 -36.1021 -36.1014 -36.1014 -36.0978 -21.0760 -21.0758 -21.0758
    -1.2285  -1.1677  -0.0286   0.2316   0.2317   0.3599   2.3416   2.3416
     2.8821   2.8821   3.5760   3.5760   3.8813   4.2215   5.1396   5.9321
     7.0558   7.9147   8.3194   8.6714   9.3702   9.5644  10.0531  10.0531
    10.3394  10.3395  10.6463

          k = 0.3516-0.3516-0.3516 (  8604 PWs)   bands (ev):

   -69.2665 -69.0199 -69.0199 -69.0192 -69.0192 -69.0192 -69.0192 -42.4011
   -36.3546 -36.3546 -36.3545 -36.1224 -36.1223 -36.1147 -36.1147 -36.1146
   -36.1146 -36.1064 -36.1054 -36.1054 -36.1049 -36.1049 -36.1049 -36.1006
   -36.1005 -36.1005 -36.0997 -36.0997 -36.0992 -21.0760 -21.0758 -21.0757
    -1.5763  -1.5429   0.9411   0.9411   1.0579   1.0799   1.2184   1.2184
     2.8891   2.8891   3.3628   3.4559   3.4559   3.5755   5.0739   5.7727
     7.7446   7.7446   9.0723   9.3667   9.3667   9.5522   9.9179   9.9179
    11.1029  11.1029  11.6064

          k =-0.0000-0.7031-0.0000 (  8616 PWs)   bands (ev):

   -69.2665 -69.0199 -69.0194 -69.0194 -69.0194 -69.0194 -69.0190 -42.4011
   -36.3546 -36.3546 -36.3545 -36.1217 -36.1178 -36.1178 -36.1165 -36.1164
   -36.1113 -36.1085 -36.1041 -36.1037 -36.1037 -36.1033 -36.1033 -36.1024
   -36.1024 -36.1021 -36.1014 -36.1014 -36.0978 -21.0760 -21.0758 -21.0758
    -1.2285  -1.1677  -0.0286   0.2316   0.2317   0.3599   2.3416   2.3416
     2.8821   2.8821   3.5760   3.5760   3.8813   4.2216   5.1396   5.9321
     7.0558   7.9147   8.3194   8.6714   9.3702   9.5644  10.0531  10.0531
    10.3394  10.3395  10.6463

          k = 0.0000-0.0000-0.7031 (  8616 PWs)   bands (ev):

   -69.2665 -69.0199 -69.0194 -69.0194 -69.0194 -69.0194 -69.0190 -42.4011
   -36.3546 -36.3546 -36.3545 -36.1217 -36.1178 -36.1178 -36.1165 -36.1164
   -36.1113 -36.1085 -36.1041 -36.1037 -36.1037 -36.1033 -36.1033 -36.1024
   -36.1024 -36.1022 -36.1014 -36.1014 -36.0978 -21.0760 -21.0758 -21.0758
    -1.2285  -1.1677  -0.0286   0.2316   0.2317   0.3599   2.3416   2.3416
     2.8821   2.8821   3.5760   3.5760   3.8813   4.2216   5.1396   5.9321
     7.0558   7.9147   8.3194   8.6714   9.3702   9.5644  10.0531  10.0531
    10.3394  10.3395  10.6463

          k =-0.3516-0.3516-0.3516 (  8604 PWs)   bands (ev):

   -69.2665 -69.0199 -69.0199 -69.0192 -69.0192 -69.0192 -69.0192 -42.4011
   -36.3546 -36.3546 -36.3545 -36.1224 -36.1223 -36.1147 -36.1147 -36.1146
   -36.1146 -36.1064 -36.1055 -36.1055 -36.1049 -36.1049 -36.1049 -36.1006
   -36.1005 -36.1005 -36.0997 -36.0997 -36.0992 -21.0760 -21.0758 -21.0757
    -1.5763  -1.5429   0.9411   0.9411   1.0579   1.0799   1.2184   1.2184
     2.8891   2.8891   3.3628   3.4559   3.4559   3.5755   5.0740   5.7727
     7.7446   7.7446   9.0723   9.3667   9.3667   9.5522   9.9179   9.9179
    11.1029  11.1029  11.6064

     the Fermi energy is     7.2071 ev

!    total energy              =   -1101.84877113 Ry
     estimated scf accuracy    <       0.00000002 Ry
     smearing contrib. (-TS)   =      -0.00042307 Ry
     internal energy E=F+TS    =   -1101.84834806 Ry

     The total energy is F=E-TS. E is the sum of the following terms:
     one-electron contribution =    -782.76650164 Ry
     hartree contribution      =     195.95734936 Ry
     xc contribution           =    -110.90944296 Ry
     ewald contribution        =    -456.54083275 Ry
     one-center paw contrib.   =      52.41107993 Ry

     convergence has been achieved in  10 iterations

     Forces acting on atoms (cartesian axes, Ry/au):

     atom    1 type  3   force =     0.00000000    0.00000000    0.00000000
     atom    2 type  2   force =     0.00000000    0.00000000    0.00000000
     atom    3 type  2   force =     0.00000000    0.00000000    0.00000000
     atom    4 type  2   force =     0.00000000    0.00000000    0.00000000
     atom    5 type  2   force =     0.00000000    0.00000000    0.00000000
     atom    6 type  2   force =     0.00000000    0.00000000    0.00000000
     atom    7 type  2   force =     0.00000000    0.00000000    0.00000000
     atom    8 type  2   force =     0.00000000    0.00000000    0.00000000
     atom    9 type  1   force =    -0.00123851   -0.00123807    0.00123741
     atom   10 type  1   force =    -0.00123854    0.00123816   -0.00123809
     atom   11 type  1   force =     0.00123749   -0.00123784   -0.00123801
     atom   12 type  1   force =     0.00123775    0.00123818    0.00123740
     atom   13 type  1   force =     0.00123851    0.00123807   -0.00123741
     atom   14 type  1   force =     0.00123854   -0.00123816    0.00123809
     atom   15 type  1   force =    -0.00123749    0.00123784    0.00123801
     atom   16 type  1   force =    -0.00123775   -0.00123818   -0.00123740
     atom   17 type  1   force =    -0.00208387   -0.00208407    0.00208448
     atom   18 type  1   force =    -0.00208336    0.00208353   -0.00208374
     atom   19 type  1   force =     0.00208418   -0.00208398   -0.00208436
     atom   20 type  1   force =     0.00208443    0.00208429    0.00208463
     atom   21 type  1   force =     0.00208387    0.00208407   -0.00208448
     atom   22 type  1   force =     0.00208336   -0.00208353    0.00208374
     atom   23 type  1   force =    -0.00208418    0.00208398    0.00208436
     atom   24 type  1   force =    -0.00208443   -0.00208429   -0.00208463

     Total force =     0.011875     Total SCF correction =     0.000056


     Computing stress (Cartesian axis) and pressure

          total   stress  (Ry/bohr**3)                   (kbar)     P=        3.72
   0.00002528   0.00000001  -0.00000000            3.72        0.00       -0.00
   0.00000001   0.00002529   0.00000001            0.00        3.72        0.00
  -0.00000000   0.00000001   0.00002529           -0.00        0.00        3.72

     Energy error            =      1.0E-03
     Gradient error          =      2.1E-03
     Cell gradient error     =      2.5E-05


     number of scf cycles    =   3
     number of bfgs steps    =   2

     enthalpy old            =   -1101.8477394649 Ry
     enthalpy new            =   -1101.8487711309 Ry

     CASE: enthalpy_new < enthalpy_old

     new trust radius        =       0.0255511399 bohr
     new conv_thr            =       0.0000000208 Ry

     new unit-cell volume =   1475.56118 a.u.^3 (   218.65561 Ang^3 )
     density =      0.18226 g/cm^3

CELL_PARAMETERS (angstrom)
  -0.000003621   4.781622529   4.781622461
   4.781646433  -0.000025727   4.781644567
   4.781632367   4.781630569  -0.000011661

ATOMIC_POSITIONS (angstrom)
Sc            4.7816375890        4.7816136860        4.7816286922
Mg            2.3908161833        2.3908152846       -0.0000053259
Mg            2.3908148772        4.7816265494        2.3908059045
Mg            4.7816399041        2.3908024212        2.3908164528
Mg            2.3908214057        2.3907984013        4.7816340182
Mg            2.3908237208       -0.0000128634        2.3908227878
Mg           -0.0000013061        2.3908112647        2.3908112304
Mg            0.0000000000        0.0000000000        0.0000000000
H             5.9950394411        5.9949996688        8.3498645456
H             5.9950317253        8.3498464884        5.9950160402
H             8.3498761840        5.9950031201        5.9950279709
H             8.3498733136        8.3498315781        8.3498578945
H             3.5682367459        3.5682266940        1.2133928389
H             3.5682434527        1.2133798745        3.5682403353
H             1.2134000030        3.5682242518        3.5682294135
H             1.2134028734        1.2133957938        1.2133994899
H             3.6066472676        3.6066161162        5.9566262215
H             3.6066425521        5.9566127076        3.6066330147
H             5.9566379763        3.6066180370        3.6066396514
H             5.9566358841        5.9566050465        5.9566229255
H             5.9566289194        5.9566102466        3.6066301539
H             5.9566336349        3.6066146643        5.9566233607
H             3.6066372017        5.9566083258        5.9566177330
H             3.6066392939        3.6066213164        3.6066334500



     Writing output data file ./tmp/Mg7ScH16.save/
     NEW-OLD atomic charge density approx. for the potential
     extrapolated charge   97.96611, renormalised to   97.00000

     total cpu time spent up to now is      488.6 secs

     Self-consistent Calculation

     iteration #  1     ecut=    50.00 Ry     beta= 0.70
     Davidson diagonalization with overlap
     ethr =  1.00E-06,  avg # of iterations = 10.0

     total cpu time spent up to now is      508.2 secs

     total energy              =   -1101.79995940 Ry
     estimated scf accuracy    <       0.02002010 Ry

     iteration #  2     ecut=    50.00 Ry     beta= 0.70
     Davidson diagonalization with overlap
     ethr =  2.06E-05,  avg # of iterations =  6.9

     total cpu time spent up to now is      523.0 secs

     total energy              =   -1101.82409302 Ry
     estimated scf accuracy    <       0.25324082 Ry

     iteration #  3     ecut=    50.00 Ry     beta= 0.70
     Davidson diagonalization with overlap
     ethr =  2.06E-05,  avg # of iterations =  5.9

     total cpu time spent up to now is      535.3 secs

     total energy              =   -1101.84932690 Ry
     estimated scf accuracy    <       0.00614302 Ry

     iteration #  4     ecut=    50.00 Ry     beta= 0.70
     Davidson diagonalization with overlap
     ethr =  6.33E-06,  avg # of iterations =  1.5

     total cpu time spent up to now is      543.9 secs

     total energy              =   -1101.84910414 Ry
     estimated scf accuracy    <       0.00230617 Ry

     iteration #  5     ecut=    50.00 Ry     beta= 0.70
     Davidson diagonalization with overlap
     ethr =  2.38E-06,  avg # of iterations =  4.6

     total cpu time spent up to now is      554.0 secs

     total energy              =   -1101.84916291 Ry
     estimated scf accuracy    <       0.00045301 Ry

     iteration #  6     ecut=    50.00 Ry     beta= 0.70
     Davidson diagonalization with overlap
     ethr =  4.67E-07,  avg # of iterations =  2.8

     total cpu time spent up to now is      563.2 secs

     total energy              =   -1101.84916678 Ry
     estimated scf accuracy    <       0.00010127 Ry

     iteration #  7     ecut=    50.00 Ry     beta= 0.70
     Davidson diagonalization with overlap
     ethr =  1.04E-07,  avg # of iterations =  2.9

     total cpu time spent up to now is      572.8 secs

     total energy              =   -1101.84917781 Ry
     estimated scf accuracy    <       0.00000520 Ry

     iteration #  8     ecut=    50.00 Ry     beta= 0.70
     Davidson diagonalization with overlap
     ethr =  5.36E-09,  avg # of iterations =  4.0

     total cpu time spent up to now is      583.5 secs

     total energy              =   -1101.84917908 Ry
     estimated scf accuracy    <       0.00000041 Ry

     iteration #  9     ecut=    50.00 Ry     beta= 0.70
     Davidson diagonalization with overlap
     ethr =  4.18E-10,  avg # of iterations =  2.8

     total cpu time spent up to now is      593.8 secs

     total energy              =   -1101.84917895 Ry
     estimated scf accuracy    <       0.00000021 Ry

     iteration # 10     ecut=    50.00 Ry     beta= 0.70
     Davidson diagonalization with overlap
     ethr =  2.15E-10,  avg # of iterations =  3.2

     total cpu time spent up to now is      603.8 secs

     End of self-consistent calculation

          k = 0.0000 0.0000 0.0000 (  8609 PWs)   bands (ev):

   -69.3552 -69.1354 -69.1346 -69.1346 -69.1346 -69.1341 -69.1341 -42.5639
   -36.4432 -36.4432 -36.4432 -36.2414 -36.2338 -36.2338 -36.2338 -36.2264
   -36.2264 -36.2231 -36.2231 -36.2231 -36.2171 -36.2171 -36.2171 -36.2166
   -36.2166 -36.2166 -36.2131 -36.2131 -36.2131 -21.2315 -21.2315 -21.2315
    -2.7324   1.1509   1.1509   1.1509   1.4249   1.4249   1.4249   1.4291
     1.7326   1.7326   1.7326   1.7541   4.1846   4.1846   4.1846   6.1173
     6.1173   7.1651   7.7468   9.8575   9.8575  10.2129  10.2130  10.2130
    11.6811  11.6811  11.6812

          k =-0.3504-0.3504 0.3504 (  8604 PWs)   bands (ev):

   -69.3552 -69.1350 -69.1350 -69.1344 -69.1344 -69.1344 -69.1344 -42.5640
   -36.4432 -36.4432 -36.4430 -36.2370 -36.2370 -36.2297 -36.2297 -36.2296
   -36.2296 -36.2209 -36.2203 -36.2202 -36.2202 -36.2200 -36.2200 -36.2155
   -36.2155 -36.2154 -36.2152 -36.2152 -36.2148 -21.2318 -21.2316 -21.2316
    -1.6239  -1.5883   0.8813   0.8813   0.9969   1.0134   1.1459   1.1459
     2.8139   2.8140   3.2898   3.3858   3.3858   3.4865   5.0064   5.6616
     7.6383   7.6383   8.9598   9.2561   9.2561   9.4594   9.7728   9.7729
    10.9517  10.9517  11.4345

          k =-0.3504 0.3504-0.3504 (  8604 PWs)   bands (ev):

   -69.3552 -69.1350 -69.1350 -69.1344 -69.1344 -69.1344 -69.1344 -42.5640
   -36.4432 -36.4432 -36.4430 -36.2370 -36.2370 -36.2297 -36.2297 -36.2296
   -36.2296 -36.2209 -36.2203 -36.2202 -36.2202 -36.2200 -36.2200 -36.2155
   -36.2155 -36.2154 -36.2152 -36.2152 -36.2148 -21.2318 -21.2316 -21.2316
    -1.6239  -1.5883   0.8813   0.8813   0.9969   1.0134   1.1459   1.1459
     2.8139   2.8140   3.2898   3.3858   3.3858   3.4865   5.0064   5.6615
     7.6383   7.6383   8.9598   9.2561   9.2561   9.4594   9.7728   9.7729
    10.9517  10.9517  11.4345

          k =-0.7008-0.0000 0.0000 (  8616 PWs)   bands (ev):

   -69.3552 -69.1350 -69.1346 -69.1346 -69.1346 -69.1346 -69.1341 -42.5640
   -36.4431 -36.4431 -36.4430 -36.2364 -36.2326 -36.2326 -36.2314 -36.2313
   -36.2264 -36.2232 -36.2192 -36.2184 -36.2183 -36.2182 -36.2182 -36.2178
   -36.2178 -36.2171 -36.2168 -36.2168 -36.2131 -21.2318 -21.2317 -21.2317
    -1.2798  -1.2150  -0.0862   0.1716   0.1716   0.3044   2.2689   2.2689
     2.8029   2.8029   3.5062   3.5062   3.7943   4.1347   5.0673   5.8289
     6.9659   7.7987   8.2349   8.5424   9.2388   9.4457   9.9409   9.9410
    10.1759  10.1759  10.5075

          k = 0.3504-0.3504-0.3504 (  8604 PWs)   bands (ev):

   -69.3552 -69.1350 -69.1350 -69.1344 -69.1344 -69.1344 -69.1344 -42.5640
   -36.4432 -36.4432 -36.4430 -36.2370 -36.2370 -36.2297 -36.2296 -36.2296
   -36.2296 -36.2209 -36.2203 -36.2202 -36.2202 -36.2200 -36.2200 -36.2155
   -36.2155 -36.2154 -36.2152 -36.2152 -36.2148 -21.2318 -21.2316 -21.2316
    -1.6239  -1.5882   0.8813   0.8813   0.9969   1.0133   1.1459   1.1459
     2.8139   2.8140   3.2898   3.3858   3.3858   3.4865   5.0064   5.6616
     7.6383   7.6383   8.9598   9.2561   9.2561   9.4594   9.7728   9.7729
    10.9517  10.9517  11.4345

          k =-0.0000-0.7008-0.0000 (  8616 PWs)   bands (ev):

   -69.3552 -69.1350 -69.1346 -69.1346 -69.1346 -69.1346 -69.1341 -42.5640
   -36.4431 -36.4431 -36.4430 -36.2364 -36.2326 -36.2326 -36.2314 -36.2313
   -36.2264 -36.2232 -36.2192 -36.2184 -36.2183 -36.2182 -36.2182 -36.2178
   -36.2178 -36.2171 -36.2168 -36.2168 -36.2131 -21.2318 -21.2317 -21.2317
    -1.2798  -1.2150  -0.0862   0.1716   0.1716   0.3044   2.2689   2.2689
     2.8029   2.8029   3.5062   3.5062   3.7943   4.1347   5.0673   5.8289
     6.9659   7.7987   8.2349   8.5424   9.2388   9.4457   9.9409   9.9410
    10.1759  10.1759  10.5075

          k = 0.0000-0.0000-0.7008 (  8616 PWs)   bands (ev):

   -69.3552 -69.1350 -69.1346 -69.1346 -69.1346 -69.1346 -69.1341 -42.5640
   -36.4431 -36.4431 -36.4430 -36.2364 -36.2326 -36.2326 -36.2314 -36.2313
   -36.2264 -36.2232 -36.2192 -36.2184 -36.2183 -36.2182 -36.2182 -36.2178
   -36.2178 -36.2171 -36.2168 -36.2168 -36.2131 -21.2318 -21.2317 -21.2317
    -1.2798  -1.2150  -0.0862   0.1716   0.1716   0.3044   2.2689   2.2689
     2.8029   2.8029   3.5062   3.5062   3.7943   4.1347   5.0673   5.8289
     6.9659   7.7987   8.2349   8.5424   9.2388   9.4457   9.9409   9.9410
    10.1759  10.1759  10.5075

          k =-0.3504-0.3504-0.3504 (  8604 PWs)   bands (ev):

   -69.3552 -69.1350 -69.1350 -69.1344 -69.1344 -69.1344 -69.1344 -42.5640
   -36.4432 -36.4432 -36.4430 -36.2370 -36.2370 -36.2297 -36.2297 -36.2296
   -36.2296 -36.2209 -36.2203 -36.2202 -36.2202 -36.2200 -36.2200 -36.2155
   -36.2155 -36.2154 -36.2152 -36.2152 -36.2148 -21.2318 -21.2316 -21.2316
    -1.6239  -1.5882   0.8812   0.8813   0.9969   1.0133   1.1459   1.1459
     2.8139   2.8140   3.2898   3.3858   3.3858   3.4865   5.0064   5.6616
     7.6383   7.6383   8.9598   9.2561   9.2561   9.4594   9.7728   9.7729
    10.9517  10.9517  11.4345

     the Fermi energy is     7.1225 ev

!    total energy              =   -1101.84917899 Ry
     estimated scf accuracy    <       0.00000001 Ry
     smearing contrib. (-TS)   =      -0.00012361 Ry
     internal energy E=F+TS    =   -1101.84905538 Ry

     The total energy is F=E-TS. E is the sum of the following terms:
     one-electron contribution =    -785.08368992 Ry
     hartree contribution      =     196.73290200 Ry
     xc contribution           =    -110.84903312 Ry
     ewald contribution        =    -455.04179137 Ry
     one-center paw contrib.   =      52.39255705 Ry

     convergence has been achieved in  10 iterations

     Forces acting on atoms (cartesian axes, Ry/au):

     atom    1 type  3   force =     0.00000000    0.00000000    0.00000000
     atom    2 type  2   force =     0.00000000    0.00000000    0.00000000
     atom    3 type  2   force =     0.00000000    0.00000000    0.00000000
     atom    4 type  2   force =     0.00000000    0.00000000    0.00000000
     atom    5 type  2   force =     0.00000000    0.00000000    0.00000000
     atom    6 type  2   force =     0.00000000    0.00000000    0.00000000
     atom    7 type  2   force =     0.00000000    0.00000000    0.00000000
     atom    8 type  2   force =     0.00000000    0.00000000    0.00000000
     atom    9 type  1   force =    -0.00092494   -0.00092497    0.00092454
     atom   10 type  1   force =    -0.00092503    0.00092502   -0.00092511
     atom   11 type  1   force =     0.00092504   -0.00092484   -0.00092507
     atom   12 type  1   force =     0.00092498    0.00092497    0.00092447
     atom   13 type  1   force =     0.00092494    0.00092497   -0.00092454
     atom   14 type  1   force =     0.00092503   -0.00092502    0.00092511
     atom   15 type  1   force =    -0.00092504    0.00092484    0.00092507
     atom   16 type  1   force =    -0.00092498   -0.00092497   -0.00092447
     atom   17 type  1   force =    -0.00084480   -0.00084498    0.00084518
     atom   18 type  1   force =    -0.00084475    0.00084457   -0.00084501
     atom   19 type  1   force =     0.00084459   -0.00084472   -0.00084478
     atom   20 type  1   force =     0.00084473    0.00084464    0.00084490
     atom   21 type  1   force =     0.00084480    0.00084498   -0.00084518
     atom   22 type  1   force =     0.00084475   -0.00084457    0.00084501
     atom   23 type  1   force =    -0.00084459    0.00084472    0.00084478
     atom   24 type  1   force =    -0.00084473   -0.00084464   -0.00084490

     Total force =     0.006137     Total SCF correction =     0.000048


     Computing stress (Cartesian axis) and pressure

          total   stress  (Ry/bohr**3)                   (kbar)     P=       -3.52
  -0.00002396   0.00000000  -0.00000000           -3.52        0.00       -0.00
   0.00000000  -0.00002394   0.00000001            0.00       -3.52        0.00
  -0.00000000   0.00000001  -0.00002394           -0.00        0.00       -3.52

     Energy error            =      4.1E-04
     Gradient error          =      9.3E-04
     Cell gradient error     =      2.4E-05


     number of scf cycles    =   4
     number of bfgs steps    =   3

     enthalpy old            =   -1101.8487711309 Ry
     enthalpy new            =   -1101.8491789873 Ry

     CASE: enthalpy_new < enthalpy_old

     new trust radius        =       0.0039316545 bohr
     new conv_thr            =       0.0000000100 Ry

     new unit-cell volume =   1473.29822 a.u.^3 (   218.32027 Ang^3 )
     density =      0.18254 g/cm^3

CELL_PARAMETERS (angstrom)
  -0.000003444   4.779178344   4.779178181
   4.779199224  -0.000024660   4.779199396
   4.779185642   4.779185978  -0.000011078

ATOMIC_POSITIONS (angstrom)
Sc            4.7791907110        4.7791698311        4.7791842584
Mg            2.3895928210        2.3895929888       -0.0000050345
Mg            2.3895916032        4.7791821609        2.3895840560
Mg            4.7791929374        2.3895806590        2.3895941594
Mg            2.3895978900        2.3895768423        4.7791892929
Mg            2.3896001163       -0.0000123298        2.3896002024
Mg           -0.0000012178        2.3895891721        2.3895890905
Mg            0.0000000000        0.0000000000        0.0000000000
H             5.9915277721        5.9914922458        8.3460394455
H             5.9915202084        8.3460223290        5.9915076605
H             8.3460472004        5.9914954504        5.9915191639
H             8.3460442872        8.3460077913        8.3460330481
H             3.5668546585        3.5668464079        1.2123290713
H             3.5668612137        1.2123163248        3.5668598478
H             1.2123352302        3.5668442119        3.5668493529
H             1.2123381434        1.2123318710        1.2123354687
H             3.6043965898        3.6043680492        5.9539859119
H             3.6043921237        5.9539726575        3.6043846864
H             5.9539946493        3.6043699248        3.6043909651
H             5.9539926655        5.9539655904        5.9539827092
H             5.9539858408        5.9539706045        3.6043815963
H             5.9539903069        3.6043670047        5.9539828218
H             3.6043867728        5.9539687290        5.9539775517
H             3.6043887566        3.6043730633        3.6043847991



     Writing output data file ./tmp/Mg7ScH16.save/
     NEW-OLD atomic charge density approx. for the potential
     extrapolated charge   96.85102, renormalised to   97.00000

     total cpu time spent up to now is      659.0 secs

     Self-consistent Calculation

     iteration #  1     ecut=    50.00 Ry     beta= 0.70
     Davidson diagonalization with overlap
     ethr =  1.00E-06,  avg # of iterations =  3.8

     total cpu time spent up to now is      670.9 secs

     total energy              =   -1101.84815961 Ry
     estimated scf accuracy    <       0.00038524 Ry

     iteration #  2     ecut=    50.00 Ry     beta= 0.70
     Davidson diagonalization with overlap
     ethr =  3.97E-07,  avg # of iterations =  5.9

     total cpu time spent up to now is      684.6 secs

     total energy              =   -1101.84893574 Ry
     estimated scf accuracy    <       0.00395187 Ry

     iteration #  3     ecut=    50.00 Ry     beta= 0.70
     Davidson diagonalization with overlap
     ethr =  3.97E-07,  avg # of iterations =  4.8

     total cpu time spent up to now is      695.9 secs

     total energy              =   -1101.84926650 Ry
     estimated scf accuracy    <       0.00021687 Ry

     iteration #  4     ecut=    50.00 Ry     beta= 0.70
     Davidson diagonalization with overlap
     ethr =  2.24E-07,  avg # of iterations =  1.5

     total cpu time spent up to now is      704.5 secs

     total energy              =   -1101.84926333 Ry
     estimated scf accuracy    <       0.00006876 Ry

     iteration #  5     ecut=    50.00 Ry     beta= 0.70
     Davidson diagonalization with overlap
     ethr =  7.09E-08,  avg # of iterations =  2.8

     total cpu time spent up to now is      713.6 secs

     total energy              =   -1101.84926532 Ry
     estimated scf accuracy    <       0.00001654 Ry

     iteration #  6     ecut=    50.00 Ry     beta= 0.70
     Davidson diagonalization with overlap
     ethr =  1.70E-08,  avg # of iterations =  2.8

     total cpu time spent up to now is      722.6 secs

     total energy              =   -1101.84926458 Ry
     estimated scf accuracy    <       0.00000633 Ry

     iteration #  7     ecut=    50.00 Ry     beta= 0.70
     Davidson diagonalization with overlap
     ethr =  6.53E-09,  avg # of iterations =  4.0

     total cpu time spent up to now is      732.1 secs

     total energy              =   -1101.84926514 Ry
     estimated scf accuracy    <       0.00000050 Ry

     iteration #  8     ecut=    50.00 Ry     beta= 0.70
     Davidson diagonalization with overlap
     ethr =  5.15E-10,  avg # of iterations =  4.0

     total cpu time spent up to now is      742.4 secs

     total energy              =   -1101.84926522 Ry
     estimated scf accuracy    <       0.00000004 Ry

     iteration #  9     ecut=    50.00 Ry     beta= 0.70
     Davidson diagonalization with overlap
     ethr =  4.48E-11,  avg # of iterations =  3.9

     total cpu time spent up to now is      752.8 secs

     End of self-consistent calculation

          k = 0.0000 0.0000 0.0000 (  8609 PWs)   bands (ev):

   -69.3336 -69.1174 -69.1165 -69.1165 -69.1165 -69.1161 -69.1161 -42.5481
   -36.4216 -36.4216 -36.4216 -36.2235 -36.2159 -36.2159 -36.2159 -36.2084
   -36.2084 -36.2050 -36.2050 -36.2050 -36.1990 -36.1990 -36.1990 -36.1985
   -36.1985 -36.1985 -36.1950 -36.1950 -36.1950 -21.2160 -21.2160 -21.2160
    -2.7270   1.1605   1.1605   1.1605   1.4349   1.4349   1.4349   1.4387
     1.7426   1.7427   1.7427   1.7646   4.1979   4.1979   4.1979   6.1301
     6.1301   7.1813   7.7647   9.8755   9.8755  10.2297  10.2297  10.2298
    11.7003  11.7003  11.7004

          k =-0.3506-0.3506 0.3506 (  8604 PWs)   bands (ev):

   -69.3336 -69.1169 -69.1169 -69.1163 -69.1163 -69.1163 -69.1163 -42.5481
   -36.4216 -36.4216 -36.4215 -36.2191 -36.2190 -36.2117 -36.2117 -36.2117
   -36.2116 -36.2028 -36.2023 -36.2021 -36.2021 -36.2019 -36.2019 -36.1974
   -36.1974 -36.1972 -36.1971 -36.1971 -36.1968 -21.2163 -21.2161 -21.2161
    -1.6175  -1.5813   0.8905   0.8905   1.0067   1.0223   1.1557   1.1557
     2.8242   2.8242   3.3020   3.3991   3.3991   3.4982   5.0226   5.6745
     7.6518   7.6518   8.9741   9.2726   9.2727   9.4799   9.7908   9.7908
    10.9716  10.9716  11.4531

          k =-0.3506 0.3506-0.3506 (  8604 PWs)   bands (ev):

   -69.3336 -69.1169 -69.1169 -69.1163 -69.1163 -69.1163 -69.1163 -42.5481
   -36.4216 -36.4216 -36.4215 -36.2191 -36.2190 -36.2117 -36.2117 -36.2117
   -36.2116 -36.2028 -36.2023 -36.2021 -36.2021 -36.2019 -36.2019 -36.1974
   -36.1974 -36.1973 -36.1971 -36.1971 -36.1968 -21.2164 -21.2161 -21.2161
    -1.6175  -1.5813   0.8905   0.8905   1.0067   1.0224   1.1557   1.1557
     2.8242   2.8242   3.3020   3.3991   3.3991   3.4982   5.0226   5.6745
     7.6518   7.6518   8.9741   9.2726   9.2726   9.4799   9.7908   9.7908
    10.9716  10.9716  11.4531

          k =-0.7011-0.0000 0.0000 (  8616 PWs)   bands (ev):

   -69.3336 -69.1169 -69.1165 -69.1165 -69.1165 -69.1165 -69.1161 -42.5481
   -36.4215 -36.4215 -36.4215 -36.2185 -36.2147 -36.2147 -36.2135 -36.2134
   -36.2084 -36.2052 -36.2011 -36.2002 -36.2002 -36.2001 -36.2001 -36.1998
   -36.1998 -36.1991 -36.1987 -36.1987 -36.1950 -21.2163 -21.2162 -21.2162
    -1.2727  -1.2080  -0.0781   0.1802   0.1803   0.3132   2.2792   2.2792
     2.8143   2.8143   3.5191   3.5191   3.8068   4.1475   5.0823   5.8435
     6.9779   7.8127   8.2490   8.5620   9.2524   9.4677   9.9586   9.9587
    10.1921  10.1922  10.5249

          k = 0.3506-0.3506-0.3506 (  8604 PWs)   bands (ev):

   -69.3336 -69.1169 -69.1169 -69.1163 -69.1163 -69.1163 -69.1163 -42.5481
   -36.4216 -36.4216 -36.4215 -36.2191 -36.2190 -36.2117 -36.2117 -36.2117
   -36.2117 -36.2028 -36.2023 -36.2021 -36.2021 -36.2020 -36.2020 -36.1974
   -36.1974 -36.1972 -36.1971 -36.1971 -36.1968 -21.2163 -21.2161 -21.2161
    -1.6175  -1.5813   0.8905   0.8905   1.0067   1.0223   1.1557   1.1557
     2.8242   2.8242   3.3020   3.3991   3.3991   3.4982   5.0226   5.6745
     7.6518   7.6518   8.9741   9.2727   9.2727   9.4800   9.7908   9.7908
    10.9716  10.9716  11.4531

          k =-0.0000-0.7011-0.0000 (  8616 PWs)   bands (ev):

   -69.3336 -69.1169 -69.1165 -69.1165 -69.1165 -69.1165 -69.1161 -42.5481
   -36.4215 -36.4215 -36.4215 -36.2185 -36.2147 -36.2147 -36.2135 -36.2134
   -36.2084 -36.2052 -36.2011 -36.2002 -36.2002 -36.2001 -36.2001 -36.1998
   -36.1998 -36.1991 -36.1987 -36.1987 -36.1950 -21.2163 -21.2162 -21.2162
    -1.2727  -1.2080  -0.0781   0.1803   0.1803   0.3132   2.2792   2.2792
     2.8143   2.8143   3.5191   3.5191   3.8068   4.1475   5.0823   5.8435
     6.9779   7.8127   8.2490   8.5620   9.2524   9.4677   9.9586   9.9586
    10.1922  10.1922  10.5249

          k = 0.0000-0.0000-0.7011 (  8616 PWs)   bands (ev):

   -69.3336 -69.1169 -69.1165 -69.1165 -69.1165 -69.1165 -69.1161 -42.5481
   -36.4215 -36.4215 -36.4215 -36.2185 -36.2147 -36.2147 -36.2134 -36.2134
   -36.2084 -36.2052 -36.2011 -36.2002 -36.2002 -36.2001 -36.2001 -36.1998
   -36.1998 -36.1991 -36.1987 -36.1987 -36.1950 -21.2163 -21.2162 -21.2162
    -1.2727  -1.2080  -0.0781   0.1803   0.1803   0.3132   2.2792   2.2792
     2.8143   2.8143   3.5191   3.5191   3.8068   4.1475   5.0822   5.8435
     6.9779   7.8127   8.2490   8.5620   9.2524   9.4677   9.9586   9.9587
    10.1922  10.1922  10.5249

          k =-0.3506-0.3506-0.3506 (  8604 PWs)   bands (ev):

   -69.3336 -69.1169 -69.1169 -69.1163 -69.1163 -69.1163 -69.1163 -42.5481
   -36.4216 -36.4216 -36.4215 -36.2191 -36.2190 -36.2117 -36.2117 -36.2117
   -36.2116 -36.2028 -36.2023 -36.2021 -36.2021 -36.2019 -36.2019 -36.1974
   -36.1974 -36.1973 -36.1971 -36.1971 -36.1968 -21.2163 -21.2161 -21.2161
    -1.6175  -1.5813   0.8905   0.8905   1.0067   1.0223   1.1557   1.1557
     2.8242   2.8242   3.3020   3.3991   3.3991   3.4982   5.0226   5.6745
     7.6518   7.6518   8.9741   9.2727   9.2727   9.4800   9.7908   9.7908
    10.9716  10.9716  11.4531

     the Fermi energy is     7.1359 ev

!    total energy              =   -1101.84926523 Ry
     estimated scf accuracy    <          9.1E-10 Ry
     smearing contrib. (-TS)   =      -0.00009814 Ry
     internal energy E=F+TS    =   -1101.84916709 Ry

     The total energy is F=E-TS. E is the sum of the following terms:
     one-electron contribution =    -784.72033626 Ry
     hartree contribution      =     196.60964656 Ry
     xc contribution           =    -110.85783127 Ry
     ewald contribution        =    -455.27680262 Ry
     one-center paw contrib.   =      52.39615650 Ry

     convergence has been achieved in   9 iterations

     Forces acting on atoms (cartesian axes, Ry/au):

     atom    1 type  3   force =     0.00000000    0.00000000    0.00000000
     atom    2 type  2   force =     0.00000000    0.00000000    0.00000000
     atom    3 type  2   force =     0.00000000    0.00000000    0.00000000
     atom    4 type  2   force =     0.00000000    0.00000000    0.00000000
     atom    5 type  2   force =     0.00000000    0.00000000    0.00000000
     atom    6 type  2   force =     0.00000000    0.00000000    0.00000000
     atom    7 type  2   force =     0.00000000    0.00000000    0.00000000
     atom    8 type  2   force =     0.00000000    0.00000000    0.00000000
     atom    9 type  1   force =    -0.00087206   -0.00087216    0.00087179
     atom   10 type  1   force =    -0.00087227    0.00087235   -0.00087225
     atom   11 type  1   force =     0.00087199   -0.00087186   -0.00087195
     atom   12 type  1   force =     0.00087214    0.00087226    0.00087179
     atom   13 type  1   force =     0.00087206    0.00087216   -0.00087179
     atom   14 type  1   force =     0.00087227   -0.00087235    0.00087225
     atom   15 type  1   force =    -0.00087199    0.00087186    0.00087195
     atom   16 type  1   force =    -0.00087214   -0.00087226   -0.00087179
     atom   17 type  1   force =    -0.00079788   -0.00079788    0.00079808
     atom   18 type  1   force =    -0.00079802    0.00079783   -0.00079815
     atom   19 type  1   force =     0.00079759   -0.00079773   -0.00079784
     atom   20 type  1   force =     0.00079761    0.00079771    0.00079801
     atom   21 type  1   force =     0.00079788    0.00079788   -0.00079808
     atom   22 type  1   force =     0.00079802   -0.00079783    0.00079815
     atom   23 type  1   force =    -0.00079759    0.00079773    0.00079784
     atom   24 type  1   force =    -0.00079761   -0.00079771   -0.00079801

     Total force =     0.005791     Total SCF correction =     0.000011


     Computing stress (Cartesian axis) and pressure

          total   stress  (Ry/bohr**3)                   (kbar)     P=       -2.51
  -0.00001709   0.00000000  -0.00000000           -2.51        0.00       -0.00
   0.00000000  -0.00001709   0.00000000            0.00       -2.51        0.00
  -0.00000000   0.00000000  -0.00001709           -0.00        0.00       -2.51

     Energy error            =      8.6E-05
     Gradient error          =      8.7E-04
     Cell gradient error     =      1.7E-05


     number of scf cycles    =   5
     number of bfgs steps    =   4

     enthalpy old            =   -1101.8491789873 Ry
     enthalpy new            =   -1101.8492652335 Ry

     CASE: enthalpy_new < enthalpy_old


     WARNING: bfgs curvature condition failed, Theta= 0.998
     new trust radius        =       0.0058959751 bohr
     new conv_thr            =       0.0000000100 Ry

     new unit-cell volume =   1469.90727 a.u.^3 (   217.81778 Ang^3 )
     density =      0.18296 g/cm^3

CELL_PARAMETERS (angstrom)
  -0.000002279   4.775511722   4.775512144
   4.775527583  -0.000019910   4.775529775
   4.775517285   4.775519055  -0.000009611

ATOMIC_POSITIONS (angstrom)
Sc            4.7755212948        4.7755054337        4.7755171621
Mg            2.3877586425        2.3877595274       -0.0000043017
Mg            2.3877580070        4.7755153885        2.3877517705
Mg            4.7755229380        2.3877495726        2.3877600821
Mg            2.3877626523        2.3877459063        4.7755214638
Mg            2.3877642955       -0.0000099548        2.3877653916
Mg           -0.0000006355        2.3877558611        2.3877560722
Mg            0.0000000000        0.0000000000        0.0000000000
H             5.9853339706        5.9853065910        8.3412275177
H             5.9853276587        8.3412142867        5.9853180240
H             8.3412315984        5.9853097945        5.9853281160
H             8.3412292084        8.3412016349        8.3412218180
H             3.5657096269        3.5657032687        1.2098068064
H             3.5657149310        1.2097955729        3.5657152924
H             1.2098119990        3.5657010730        3.5657062082
H             1.2098143890        1.2098092326        1.2098125061
H             3.5998816577        3.5998585019        5.9511638402
H             3.5998787103        5.9511518712        3.5998734131
H             5.9511694311        3.5998604940        3.5998781017
H             5.9511679713        5.9511473152        5.9511611387
H             5.9511619397        5.9511513578        3.5998694763
H             5.9511648871        3.5998589962        5.9511599033
H             3.5998731586        5.9511493657        5.9511562225
H             3.5998746184        3.5998625445        3.5998721777



     Writing output data file ./tmp/Mg7ScH16.save/
     NEW-OLD atomic charge density approx. for the potential
     extrapolated charge   96.77625, renormalised to   97.00000

     total cpu time spent up to now is      808.1 secs

     Self-consistent Calculation

     iteration #  1     ecut=    50.00 Ry     beta= 0.70
     Davidson diagonalization with overlap
     ethr =  1.00E-06,  avg # of iterations =  4.8

     total cpu time spent up to now is      821.5 secs

     total energy              =   -1101.84709040 Ry
     estimated scf accuracy    <       0.00068323 Ry

     iteration #  2     ecut=    50.00 Ry     beta= 0.70
     Davidson diagonalization with overlap
     ethr =  7.04E-07,  avg # of iterations =  6.8

     total cpu time spent up to now is      835.7 secs

     total energy              =   -1101.84890405 Ry
     estimated scf accuracy    <       0.00697471 Ry

     iteration #  3     ecut=    50.00 Ry     beta= 0.70
     Davidson diagonalization with overlap
     ethr =  7.04E-07,  avg # of iterations =  4.9

     total cpu time spent up to now is      847.2 secs

     total energy              =   -1101.84943843 Ry
     estimated scf accuracy    <       0.00046198 Ry

     iteration #  4     ecut=    50.00 Ry     beta= 0.70
     Davidson diagonalization with overlap
     ethr =  4.76E-07,  avg # of iterations =  1.4

     total cpu time spent up to now is      855.9 secs

     total energy              =   -1101.84942497 Ry
     estimated scf accuracy    <       0.00014414 Ry

     iteration #  5     ecut=    50.00 Ry     beta= 0.70
     Davidson diagonalization with overlap
     ethr =  1.49E-07,  avg # of iterations =  2.8

     total cpu time spent up to now is      865.0 secs

     total energy              =   -1101.84943481 Ry
     estimated scf accuracy    <       0.00001853 Ry

     iteration #  6     ecut=    50.00 Ry     beta= 0.70
     Davidson diagonalization with overlap
     ethr =  1.91E-08,  avg # of iterations =  3.2

     total cpu time spent up to now is      874.2 secs

     total energy              =   -1101.84943443 Ry
     estimated scf accuracy    <       0.00000576 Ry

     iteration #  7     ecut=    50.00 Ry     beta= 0.70
     Davidson diagonalization with overlap
     ethr =  5.93E-09,  avg # of iterations =  4.1

     total cpu time spent up to now is      884.0 secs

     total energy              =   -1101.84943518 Ry
     estimated scf accuracy    <       0.00000018 Ry

     iteration #  8     ecut=    50.00 Ry     beta= 0.70
     Davidson diagonalization with overlap
     ethr =  1.90E-10,  avg # of iterations =  4.9

     total cpu time spent up to now is      895.2 secs

     total energy              =   -1101.84943525 Ry
     estimated scf accuracy    <       0.00000004 Ry

     iteration #  9     ecut=    50.00 Ry     beta= 0.70
     Davidson diagonalization with overlap
     ethr =  4.42E-11,  avg # of iterations =  2.8

     total cpu time spent up to now is      904.7 secs

     End of self-consistent calculation

          k = 0.0000 0.0000 0.0000 (  8609 PWs)   bands (ev):

   -69.2925 -69.0901 -69.0892 -69.0892 -69.0892 -69.0888 -69.0888 -42.5322
   -36.3807 -36.3807 -36.3807 -36.1966 -36.1889 -36.1889 -36.1889 -36.1813
   -36.1813 -36.1778 -36.1778 -36.1778 -36.1717 -36.1717 -36.1717 -36.1712
   -36.1712 -36.1712 -36.1677 -36.1677 -36.1677 -21.2000 -21.2000 -21.2000
    -2.7191   1.1747   1.1747   1.1747   1.4503   1.4504   1.4504   1.4522
     1.7561   1.7561   1.7561   1.7805   4.2202   4.2202   4.2202   6.1486
     6.1486   7.2093   7.7915   9.8981   9.8981  10.2469  10.2469  10.2469
    11.7292  11.7292  11.7292

          k =-0.3508-0.3508 0.3508 (  8604 PWs)   bands (ev):

   -69.2925 -69.0897 -69.0897 -69.0890 -69.0890 -69.0890 -69.0890 -42.5322
   -36.3806 -36.3806 -36.3804 -36.1921 -36.1920 -36.1846 -36.1846 -36.1846
   -36.1846 -36.1753 -36.1752 -36.1747 -36.1747 -36.1747 -36.1747 -36.1700
   -36.1700 -36.1699 -36.1699 -36.1697 -36.1696 -21.2003 -21.2001 -21.2001
    -1.6089  -1.5706   0.9046   0.9046   1.0221   1.0346   1.1691   1.1692
     2.8381   2.8381   3.3214   3.4219   3.4219   3.5138   5.0534   5.6896
     7.6698   7.6698   8.9925   9.2971   9.2971   9.5176   9.8140   9.8141
    10.9989  10.9989  11.4734

          k =-0.3508 0.3508-0.3508 (  8604 PWs)   bands (ev):

   -69.2925 -69.0897 -69.0897 -69.0890 -69.0890 -69.0890 -69.0890 -42.5322
   -36.3806 -36.3806 -36.3804 -36.1921 -36.1920 -36.1846 -36.1846 -36.1846
   -36.1846 -36.1753 -36.1752 -36.1747 -36.1747 -36.1747 -36.1747 -36.1700
   -36.1700 -36.1699 -36.1699 -36.1697 -36.1696 -21.2003 -21.2001 -21.2001
    -1.6089  -1.5706   0.9046   0.9046   1.0221   1.0346   1.1692   1.1692
     2.8381   2.8381   3.3214   3.4219   3.4219   3.5138   5.0534   5.6896
     7.6698   7.6698   8.9925   9.2971   9.2971   9.5176   9.8140   9.8141
    10.9989  10.9989  11.4733

          k =-0.7017-0.0000 0.0000 (  8616 PWs)   bands (ev):

   -69.2925 -69.0897 -69.0893 -69.0892 -69.0892 -69.0892 -69.0888 -42.5322
   -36.3805 -36.3805 -36.3804 -36.1915 -36.1876 -36.1876 -36.1864 -36.1863
   -36.1813 -36.1779 -36.1739 -36.1727 -36.1727 -36.1727 -36.1727 -36.1727
   -36.1727 -36.1717 -36.1714 -36.1714 -36.1677 -21.2003 -21.2002 -21.2002
    -1.2626  -1.1978  -0.0663   0.1928   0.1928   0.3268   2.2938   2.2938
     2.8307   2.8307   3.5410   3.5410   3.8247   4.1661   5.1088   5.8646
     6.9944   7.8302   8.2717   8.5914   9.2657   9.5052   9.9858   9.9859
    10.2082  10.2082  10.5476

          k = 0.3508-0.3508-0.3508 (  8604 PWs)   bands (ev):

   -69.2925 -69.0897 -69.0897 -69.0890 -69.0890 -69.0890 -69.0890 -42.5322
   -36.3806 -36.3806 -36.3804 -36.1921 -36.1920 -36.1846 -36.1846 -36.1846
   -36.1846 -36.1753 -36.1752 -36.1747 -36.1747 -36.1747 -36.1747 -36.1700
   -36.1700 -36.1699 -36.1699 -36.1697 -36.1696 -21.2003 -21.2001 -21.2001
    -1.6089  -1.5706   0.9046   0.9046   1.0221   1.0345   1.1691   1.1691
     2.8381   2.8381   3.3214   3.4219   3.4219   3.5138   5.0534   5.6897
     7.6698   7.6699   8.9925   9.2971   9.2971   9.5177   9.8140   9.8141
    10.9989  10.9989  11.4734

          k =-0.0000-0.7017-0.0000 (  8616 PWs)   bands (ev):

   -69.2925 -69.0897 -69.0893 -69.0892 -69.0892 -69.0892 -69.0888 -42.5322
   -36.3805 -36.3805 -36.3804 -36.1915 -36.1876 -36.1876 -36.1864 -36.1863
   -36.1813 -36.1779 -36.1739 -36.1727 -36.1727 -36.1727 -36.1727 -36.1727
   -36.1727 -36.1717 -36.1714 -36.1714 -36.1677 -21.2003 -21.2002 -21.2002
    -1.2626  -1.1978  -0.0663   0.1928   0.1928   0.3268   2.2938   2.2938
     2.8307   2.8307   3.5410   3.5410   3.8247   4.1661   5.1088   5.8646
     6.9944   7.8302   8.2717   8.5914   9.2657   9.5052   9.9858   9.9858
    10.2082  10.2082  10.5476

          k = 0.0000-0.0000-0.7017 (  8616 PWs)   bands (ev):

   -69.2925 -69.0897 -69.0892 -69.0892 -69.0892 -69.0892 -69.0888 -42.5322
   -36.3805 -36.3805 -36.3804 -36.1915 -36.1876 -36.1876 -36.1864 -36.1863
   -36.1813 -36.1779 -36.1739 -36.1727 -36.1727 -36.1727 -36.1727 -36.1727
   -36.1727 -36.1717 -36.1714 -36.1714 -36.1677 -21.2003 -21.2002 -21.2002
    -1.2626  -1.1978  -0.0663   0.1928   0.1928   0.3268   2.2938   2.2938
     2.8307   2.8307   3.5410   3.5410   3.8247   4.1661   5.1088   5.8646
     6.9944   7.8302   8.2717   8.5914   9.2657   9.5052   9.9858   9.9858
    10.2082  10.2082  10.5476

          k =-0.3508-0.3508-0.3508 (  8604 PWs)   bands (ev):

   -69.2925 -69.0897 -69.0897 -69.0890 -69.0890 -69.0890 -69.0890 -42.5322
   -36.3806 -36.3806 -36.3804 -36.1921 -36.1920 -36.1846 -36.1846 -36.1846
   -36.1846 -36.1753 -36.1752 -36.1747 -36.1747 -36.1747 -36.1747 -36.1700
   -36.1700 -36.1699 -36.1699 -36.1697 -36.1696 -21.2003 -21.2001 -21.2001
    -1.6088  -1.5706   0.9046   0.9046   1.0221   1.0345   1.1691   1.1691
     2.8381   2.8381   3.3214   3.4219   3.4219   3.5138   5.0534   5.6897
     7.6698   7.6699   8.9925   9.2971   9.2971   9.5177   9.8140   9.8141
    10.9989  10.9989  11.4734

     the Fermi energy is     7.1570 ev

!    total energy              =   -1101.84943525 Ry
     estimated scf accuracy    <          1.1E-09 Ry
     smearing contrib. (-TS)   =       0.00001787 Ry
     internal energy E=F+TS    =   -1101.84945312 Ry

     The total energy is F=E-TS. E is the sum of the following terms:
     one-electron contribution =    -784.16366267 Ry
     hartree contribution      =     196.41811824 Ry
     xc contribution           =    -110.87028922 Ry
     ewald contribution        =    -455.63537455 Ry
     one-center paw contrib.   =      52.40175507 Ry

     convergence has been achieved in   9 iterations

     Forces acting on atoms (cartesian axes, Ry/au):

     atom    1 type  3   force =     0.00000000    0.00000000    0.00000000
     atom    2 type  2   force =     0.00000000    0.00000000    0.00000000
     atom    3 type  2   force =     0.00000000    0.00000000    0.00000000
     atom    4 type  2   force =     0.00000000    0.00000000    0.00000000
     atom    5 type  2   force =     0.00000000    0.00000000    0.00000000
     atom    6 type  2   force =     0.00000000    0.00000000    0.00000000
     atom    7 type  2   force =     0.00000000    0.00000000    0.00000000
     atom    8 type  2   force =     0.00000000    0.00000000    0.00000000
     atom    9 type  1   force =    -0.00066837   -0.00066860    0.00066874
     atom   10 type  1   force =    -0.00066852    0.00066897   -0.00066847
     atom   11 type  1   force =     0.00066872   -0.00066838   -0.00066816
     atom   12 type  1   force =     0.00066881    0.00066880    0.00066854
     atom   13 type  1   force =     0.00066837    0.00066860   -0.00066874
     atom   14 type  1   force =     0.00066852   -0.00066897    0.00066847
     atom   15 type  1   force =    -0.00066872    0.00066838    0.00066816
     atom   16 type  1   force =    -0.00066881   -0.00066880   -0.00066854
     atom   17 type  1   force =    -0.00048929   -0.00048921    0.00048898
     atom   18 type  1   force =    -0.00048939    0.00048896   -0.00048974
     atom   19 type  1   force =     0.00048861   -0.00048911   -0.00048952
     atom   20 type  1   force =     0.00048873    0.00048876    0.00048896
     atom   21 type  1   force =     0.00048929    0.00048921   -0.00048898
     atom   22 type  1   force =     0.00048939   -0.00048896    0.00048974
     atom   23 type  1   force =    -0.00048861    0.00048911    0.00048952
     atom   24 type  1   force =    -0.00048873   -0.00048876   -0.00048896

     Total force =     0.004058     Total SCF correction =     0.000019


     Computing stress (Cartesian axis) and pressure

          total   stress  (Ry/bohr**3)                   (kbar)     P=       -1.32
  -0.00000897   0.00000001   0.00000001           -1.32        0.00        0.00
   0.00000001  -0.00000897   0.00000001            0.00       -1.32        0.00
   0.00000001   0.00000001  -0.00000897            0.00        0.00       -1.32

     Energy error            =      1.7E-04
     Gradient error          =      6.7E-04
     Cell gradient error     =      9.0E-06


     number of scf cycles    =   6
     number of bfgs steps    =   5

     enthalpy old            =   -1101.8492652335 Ry
     enthalpy new            =   -1101.8494352533 Ry

     CASE: enthalpy_new < enthalpy_old

     new trust radius        =       0.0088405689 bohr
     new conv_thr            =       0.0000000100 Ry

     new unit-cell volume =   1465.94661 a.u.^3 (   217.23088 Ang^3 )
     density =      0.18346 g/cm^3

CELL_PARAMETERS (angstrom)
   0.000002661   4.771224389   4.771225364
   4.771234106  -0.000010155   4.771238181
   4.771227423   4.771230522  -0.000003472

ATOMIC_POSITIONS (angstrom)
Sc            4.7712320951        4.7712223782        4.7712310436
Mg            2.3856137114        2.3856152612       -0.0000012325
Mg            2.3856155456        4.7712274558        2.3856114497
Mg            4.7712312678        2.3856101837        2.3856173545
Mg            2.3856183837        2.3856071170        4.7712322761
Mg            2.3856175564       -0.0000050775        2.3856195939
Mg            0.0000018342        2.3856121945        2.3856126822
Mg            0.0000000000        0.0000000000        0.0000000000
H             5.9774191275        5.9774018166        8.3362775501
H             5.9774140994        8.3362689101        5.9774087623
H             8.3362770404        5.9774046595        5.9774170775
H             8.3362769959        8.3362602983        8.3362746039
H             3.5650460696        3.5650419331        1.2061845370
H             3.5650500909        1.2061748396        3.5650523180
H             1.2061881567        3.5650400969        3.5650450096
H             1.2061882012        1.2061844582        1.2061874832
H             3.5939501531        3.5939338135        5.9485178916
H             3.5939489030        5.9485073358        3.5939465186
H             5.9485195803        3.5939355992        3.5939490480
H             5.9485206310        5.9485077934        5.9485179186
H             5.9485150440        5.9485099362        3.5939431887
H             5.9485162941        3.5939374207        5.9485145617
H             3.5939446100        5.9485081504        5.9485130391
H             3.5939435593        3.5939359563        3.5939431616



     Writing output data file ./tmp/Mg7ScH16.save/
     NEW-OLD atomic charge density approx. for the potential
     extrapolated charge   96.73795, renormalised to   97.00000

     total cpu time spent up to now is      959.7 secs

     Self-consistent Calculation

     iteration #  1     ecut=    50.00 Ry     beta= 0.70
     Davidson diagonalization with overlap
     ethr =  1.00E-06,  avg # of iterations =  6.4

     total cpu time spent up to now is      974.5 secs

     total energy              =   -1101.84636973 Ry
     estimated scf accuracy    <       0.00083138 Ry

     iteration #  2     ecut=    50.00 Ry     beta= 0.70
     Davidson diagonalization with overlap
     ethr =  8.57E-07,  avg # of iterations =  6.8

     total cpu time spent up to now is      989.2 secs

     total energy              =   -1101.84889803 Ry
     estimated scf accuracy    <       0.00819299 Ry

     iteration #  3     ecut=    50.00 Ry     beta= 0.70
     Davidson diagonalization with overlap
     ethr =  8.57E-07,  avg # of iterations =  5.0

     total cpu time spent up to now is     1000.9 secs

     total energy              =   -1101.84951180 Ry
     estimated scf accuracy    <       0.00057418 Ry

     iteration #  4     ecut=    50.00 Ry     beta= 0.70
     Davidson diagonalization with overlap
     ethr =  5.92E-07,  avg # of iterations =  1.4

     total cpu time spent up to now is     1009.5 secs

     total energy              =   -1101.84949221 Ry
     estimated scf accuracy    <       0.00017843 Ry

     iteration #  5     ecut=    50.00 Ry     beta= 0.70
     Davidson diagonalization with overlap
     ethr =  1.84E-07,  avg # of iterations =  2.8

     total cpu time spent up to now is     1018.9 secs

     total energy              =   -1101.84950836 Ry
     estimated scf accuracy    <       0.00001542 Ry

     iteration #  6     ecut=    50.00 Ry     beta= 0.70
     Davidson diagonalization with overlap
     ethr =  1.59E-08,  avg # of iterations =  3.2

     total cpu time spent up to now is     1028.4 secs

     total energy              =   -1101.84950854 Ry
     estimated scf accuracy    <       0.00000385 Ry

     iteration #  7     ecut=    50.00 Ry     beta= 0.70
     Davidson diagonalization with overlap
     ethr =  3.97E-09,  avg # of iterations =  4.1

     total cpu time spent up to now is     1038.5 secs

     total energy              =   -1101.84950923 Ry
     estimated scf accuracy    <       0.00000006 Ry

     iteration #  8     ecut=    50.00 Ry     beta= 0.70
     Davidson diagonalization with overlap
