
     Program PWSCF v.6.1 starts on 24Dec2025 at  8:19:34 

     This program is part of the open-source Quantum ESPRESSO suite
     for quantum simulation of materials; please cite
         "P. Giannozzi et al., J. Phys.:Condens. Matter 21 395502 (2009);
          URL http://www.quantum-espresso.org", 
     in publications or presentations arising from this work. More details at
     http://www.quantum-espresso.org/quote

     Parallel version (MPI & OpenMP), running on      12 processor cores
     Number of MPI processes:                 1
     Threads/MPI process:                    12
     Waiting for input...
     Reading input from standard input

     Current dimensions of program PWSCF are:
     Max number of different atomic species (ntypx) = 10
     Max number of k-points (npk) =  40000
     Max angular momentum in pseudopotentials (lmaxx) =  3
               file H.UPF: wavefunction(s)  1S renormalized
               file Mg.UPF: wavefunction(s)  Xn Xn Xn Xn Xn Xn renormalized
               file Re.UPF: wavefunction(s)  5P 5D 4F renormalized

     Subspace diagonalization in iterative solution of the eigenvalue problem:
     a serial algorithm will be used


     G-vector sticks info
     --------------------
     sticks:   dense  smooth     PW     G-vecs:    dense   smooth      PW
     Sum        8141    4073   1157               359607   127159   19361



     bravais-lattice index     =            0
     lattice parameter (alat)  =      17.3663  a.u.
     unit-cell volume          =    2661.2607 (a.u.)^3
     number of atoms/cell      =           36
     number of atomic types    =            4
     number of electrons       =       129.00
     number of Kohn-Sham states=           78
     kinetic-energy cutoff     =      50.0000  Ry
     charge density cutoff     =     400.0000  Ry
     convergence threshold     =      1.0E-08
     mixing beta               =       0.7000
     number of iterations used =            8  plain     mixing
     Exchange-correlation      =  SLA  PW   PBX  PBC ( 1  4  3  4 0 0)

     celldm(1)=  17.366270  celldm(2)=   0.000000  celldm(3)=   0.000000
     celldm(4)=   0.000000  celldm(5)=   0.000000  celldm(6)=   0.000000

     crystal axes: (cart. coord. in units of alat)
               a(1) = (   0.480370  -0.877066   0.000390 )  
               a(2) = (   0.484723   0.879573   0.000233 )  
               a(3) = (   0.000374  -0.000047   0.599445 )  

     reciprocal axes: (cart. coord. in units 2 pi/alat)
               b(1) = (  1.037656 -0.571840 -0.000693 )  
               b(2) = (  1.034698  0.566705 -0.000602 )  
               b(3) = ( -0.001076  0.000151  1.668210 )  


     PseudoPot. # 1 for  H read from file:
     C:/Users/Acer/Desktop/Quantum_Espresso/pseudo/H.UPF
     MD5 check sum: 850d63dcbcc06c5de8b44e0ab9f952da
     Pseudo is Projector augmented-wave, Zval =  1.0
     Generated using "atomic" code by A. Dal Corso  v.5.1.2
     Shape of augmentation charge: PSQ
     Using radial grid of  929 points,  2 beta functions with: 
                l(1) =   0
                l(2) =   0
     Q(r) pseudized with 0 coefficients 


     PseudoPot. # 2 for K  read from file:
     C:/Users/Acer/Desktop/Quantum_Espresso/pseudo/K.UPF
     MD5 check sum: 86a9a9c3c3350590e9a8cd52a3b0554c
     Pseudo is Norm-conserving + core correction, Zval =  1.0
     Generated by new atomic code, or converted to UPF format
     Using radial grid of 1165 points,  2 beta functions with: 
                l(1) =   0
                l(2) =   1

     PseudoPot. # 3 for Mg read from file:
     C:/Users/Acer/Desktop/Quantum_Espresso/pseudo/Mg.UPF
     MD5 check sum: a77e51077e70c6c73445c6cac60d158f
     Pseudo is Projector augmented-wave + core cor, Zval = 10.0
     Generated using ATOMPAW code
     Shape of augmentation charge: BESSEL
     Using radial grid of 1171 points,  6 beta functions with: 
                l(1) =   0
                l(2) =   0
                l(3) =   0
                l(4) =   0
                l(5) =   1
                l(6) =   1
     Q(r) pseudized with 0 coefficients 


     PseudoPot. # 4 for Re read from file:
     C:/Users/Acer/Desktop/Quantum_Espresso/pseudo/Re.UPF
     MD5 check sum: 89f63c9a8fa23467ef1c371692ceb0a5
     Pseudo is Projector augmented-wave + core cor, Zval = 29.0
     Generated using "atomic" code by A. Dal Corso  v.5.1.2
     Shape of augmentation charge: PSQ
     Using radial grid of 1275 points,  8 beta functions with: 
                l(1) =   0
                l(2) =   0
                l(3) =   1
                l(4) =   1
                l(5) =   2
                l(6) =   2
                l(7) =   3
                l(8) =   3
     Q(r) pseudized with 0 coefficients 


     atomic species   valence    mass     pseudopotential
        H              1.00     1.00000      H( 1.00)
        K              1.00     1.00000     K ( 1.00)
        Mg            10.00     1.00000     Mg( 1.00)
        Re            29.00     1.00000     Re( 1.00)

     No symmetry found



   Cartesian axes

     site n.     atom                  positions (alat units)
         1           K   tau(   1) = (   0.1192296   0.2296516   0.2999325  )
         2           Mg  tau(   2) = (   0.7058223  -0.0021687   0.2986898  )
         3           K   tau(   3) = (   0.1170478  -0.2295493   0.2999216  )
         4           K   tau(   4) = (   0.3014951   0.5172281   0.0000468  )
         5           K   tau(   5) = (   0.3898025   0.0012873   0.0001589  )
         6           K   tau(   6) = (   0.2989205  -0.5126991   0.0001251  )
         7           Re  tau(   7) = (   0.5002974  -0.2661256   0.2999728  )
         8           Re  tau(   8) = (   0.5031277   0.2682660   0.2999358  )
         9           Re  tau(   9) = (  -0.0342172   0.0005539   0.0003961  )
        10           H   tau(  10) = (   0.5479381  -0.3908547   0.4294833  )
        11           H   tau(  11) = (   0.5800540  -0.1566982   0.4311384  )
        12           H   tau(  12) = (   0.3805923  -0.2551994   0.4421875  )
        13           H   tau(  13) = (   0.3825347   0.2572440   0.1584795  )
        14           H   tau(  14) = (   0.3804584  -0.2552669   0.1578440  )
        15           H   tau(  15) = (   0.5477629  -0.3910996   0.1705667  )
        16           H   tau(  16) = (   0.5797036  -0.1568113   0.1683687  )
        17           H   tau(  17) = (   0.5499076   0.3930202   0.4298086  )
        18           H   tau(  18) = (   0.5826884   0.1582705   0.4302156  )
        19           H   tau(  19) = (   0.0493600  -0.1645111   0.0002220  )
        20           H   tau(  20) = (   0.7421973  -0.0014962   0.0012546  )
        21           H   tau(  21) = (   0.0538758   0.1629344   0.0001056  )
        22           H   tau(  22) = (   0.3806217  -0.7663522   0.1375977  )
        23           H   tau(  23) = (   0.1012532   0.0002100   0.4734351  )
        24           H   tau(  24) = (   0.3839351   0.7731467   0.4582074  )
        25           H   tau(  25) = (   0.3842539   0.7727354   0.1425869  )
        26           H   tau(  26) = (   0.1013631   0.0002035   0.1262895  )
        27           H   tau(  27) = (   0.3805651  -0.7668115   0.4634784  )
        28           H   tau(  28) = (   0.3839329   0.4085678   0.2999804  )
        29           H   tau(  29) = (   0.6841701   0.2960391   0.2998803  )
        30           H   tau(  30) = (   0.4138127   0.1089410   0.2999739  )
        31           H   tau(  31) = (   0.4114732  -0.1065514   0.2999292  )
        32           H   tau(  32) = (   0.6820548  -0.2917757   0.2999815  )
        33           H   tau(  33) = (   0.3810352  -0.4060585   0.3000838  )
        34           H   tau(  34) = (   0.3827011   0.2571069   0.4414889  )
        35           H   tau(  35) = (   0.5496454   0.3932149   0.1701978  )
        36           H   tau(  36) = (   0.5823892   0.1583293   0.1693262  )

     number of k points=    36  Methfessel-Paxton smearing, width (Ry)=  0.0100
                       cart. coord. in units 2pi/alat
        k(    1) = (   0.0000000   0.0000000   0.0000000), wk =   0.0312500
        k(    2) = (  -0.0002691   0.0000379   0.4170526), wk =   0.0625000
        k(    3) = (   0.0005381  -0.0000757  -0.8341052), wk =   0.0312500
        k(    4) = (   0.2586746   0.1416763  -0.0001505), wk =   0.0625000
        k(    5) = (   0.2584055   0.1417141   0.4169021), wk =   0.0625000
        k(    6) = (   0.2592127   0.1416005  -0.8342557), wk =   0.0625000
        k(    7) = (   0.2589436   0.1416384  -0.4172031), wk =   0.0625000
        k(    8) = (  -0.5173492  -0.2833526   0.0003009), wk =   0.0312500
        k(    9) = (  -0.5176182  -0.2833147   0.4173536), wk =   0.0625000
        k(   10) = (  -0.5168110  -0.2834283  -0.8338043), wk =   0.0312500
        k(   11) = (   0.2594140  -0.1429600  -0.0001732), wk =   0.0625000
        k(   12) = (   0.2591449  -0.1429222   0.4168795), wk =   0.0625000
        k(   13) = (   0.2599522  -0.1430358  -0.8342784), wk =   0.0625000
        k(   14) = (   0.2596831  -0.1429979  -0.4172258), wk =   0.0625000
        k(   15) = (   0.5180886  -0.0012838  -0.0003236), wk =   0.0625000
        k(   16) = (   0.5178195  -0.0012459   0.4167290), wk =   0.0625000
        k(   17) = (   0.5186267  -0.0013595  -0.8344289), wk =   0.0625000
        k(   18) = (   0.5183577  -0.0013216  -0.4173762), wk =   0.0625000
        k(   19) = (  -0.2579351  -0.4263126   0.0001278), wk =   0.0625000
        k(   20) = (  -0.2582042  -0.4262747   0.4171804), wk =   0.0625000
        k(   21) = (  -0.2573970  -0.4263883  -0.8339774), wk =   0.0625000
        k(   22) = (  -0.2576661  -0.4263505  -0.4169248), wk =   0.0625000
        k(   23) = (   0.0007394  -0.2846363  -0.0000227), wk =   0.0625000
        k(   24) = (   0.0004704  -0.2845984   0.4170299), wk =   0.0625000
        k(   25) = (   0.0012776  -0.2847121  -0.8341279), wk =   0.0625000
        k(   26) = (   0.0010085  -0.2846742  -0.4170753), wk =   0.0625000
        k(   27) = (  -0.5188280   0.2859201   0.0003463), wk =   0.0312500
        k(   28) = (  -0.5190971   0.2859579   0.4173989), wk =   0.0625000
        k(   29) = (  -0.5182899   0.2858443  -0.8337589), wk =   0.0312500
        k(   30) = (  -0.2601535   0.4275964   0.0001958), wk =   0.0625000
        k(   31) = (  -0.2604225   0.4276342   0.4172484), wk =   0.0625000
        k(   32) = (  -0.2596153   0.4275206  -0.8339094), wk =   0.0625000
        k(   33) = (  -0.2598844   0.4275585  -0.4168568), wk =   0.0625000
        k(   34) = (  -1.0361772   0.0025675   0.0006472), wk =   0.0312500
        k(   35) = (  -1.0364463   0.0026054   0.4176999), wk =   0.0625000
        k(   36) = (  -1.0356390   0.0024918  -0.8334580), wk =   0.0312500

     Dense  grid:   359607 G-vectors     FFT dimensions: ( 120, 120,  72)

     Smooth grid:   127159 G-vectors     FFT dimensions: (  80,  80,  48)

     Estimated max dynamical RAM per process >    1127.73MB

     Initial potential from superposition of free atoms

     starting charge  128.90386, renormalised to  129.00000
     Starting wfc are  108 randomized atomic wfcs
     Checking if some PAW data can be deallocated... 

     total cpu time spent up to now is      126.9 secs

     Self-consistent Calculation

     iteration #  1     ecut=    50.00 Ry     beta=0.70
     Davidson diagonalization with overlap
     ethr =  1.00E-02,  avg # of iterations =  3.0

     total cpu time spent up to now is      260.9 secs

     total energy              =   -4360.55515046 Ry
     Harris-Foulkes estimate   =   -4361.37364387 Ry
     estimated scf accuracy    <       1.48282279 Ry

     iteration #  2     ecut=    50.00 Ry     beta=0.70
     Davidson diagonalization with overlap
     ethr =  1.15E-03,  avg # of iterations =  4.1

     total cpu time spent up to now is      407.3 secs

     total energy              =   -4360.61827611 Ry
     Harris-Foulkes estimate   =   -4360.85260245 Ry
     estimated scf accuracy    <       0.34217060 Ry

     iteration #  3     ecut=    50.00 Ry     beta=0.70
     Davidson diagonalization with overlap
     ethr =  2.65E-04,  avg # of iterations =  4.1

     total cpu time spent up to now is      560.1 secs

     total energy              =   -4360.65735227 Ry
     Harris-Foulkes estimate   =   -4360.93060341 Ry
     estimated scf accuracy    <       0.74242393 Ry

     iteration #  4     ecut=    50.00 Ry     beta=0.70
     Davidson diagonalization with overlap
     ethr =  2.65E-04,  avg # of iterations =  3.4

     total cpu time spent up to now is      692.8 secs

     total energy              =   -4360.78207236 Ry
     Harris-Foulkes estimate   =   -4360.78904614 Ry
     estimated scf accuracy    <       0.01638700 Ry

     iteration #  5     ecut=    50.00 Ry     beta=0.70
     Davidson diagonalization with overlap
     ethr =  1.27E-05,  avg # of iterations =  5.4

     total cpu time spent up to now is      847.9 secs

     total energy              =   -4360.78478905 Ry
     Harris-Foulkes estimate   =   -4360.78786802 Ry
     estimated scf accuracy    <       0.00917694 Ry

     iteration #  6     ecut=    50.00 Ry     beta=0.70
     Davidson diagonalization with overlap
     ethr =  7.11E-06,  avg # of iterations =  4.0

     total cpu time spent up to now is      975.4 secs

     total energy              =   -4360.78617549 Ry
     Harris-Foulkes estimate   =   -4360.78668611 Ry
     estimated scf accuracy    <       0.00148294 Ry

     iteration #  7     ecut=    50.00 Ry     beta=0.70
     Davidson diagonalization with overlap
     ethr =  1.15E-06,  avg # of iterations =  4.3

     total cpu time spent up to now is     1106.8 secs

     total energy              =   -4360.78645094 Ry
     Harris-Foulkes estimate   =   -4360.78648336 Ry
     estimated scf accuracy    <       0.00012292 Ry

     iteration #  8     ecut=    50.00 Ry     beta=0.70
     Davidson diagonalization with overlap
     ethr =  9.53E-08,  avg # of iterations =  2.8

     total cpu time spent up to now is     1229.0 secs

     total energy              =   -4360.78646694 Ry
     Harris-Foulkes estimate   =   -4360.78648642 Ry
     estimated scf accuracy    <       0.00004804 Ry

     iteration #  9     ecut=    50.00 Ry     beta=0.70
     Davidson diagonalization with overlap
     ethr =  3.72E-08,  avg # of iterations =  2.9

     total cpu time spent up to now is     1345.6 secs

     total energy              =   -4360.78647685 Ry
     Harris-Foulkes estimate   =   -4360.78648016 Ry
     estimated scf accuracy    <       0.00000930 Ry

     iteration # 10     ecut=    50.00 Ry     beta=0.70
     Davidson diagonalization with overlap
     ethr =  7.21E-09,  avg # of iterations =  2.6

     total cpu time spent up to now is     1465.5 secs

     total energy              =   -4360.78647857 Ry
     Harris-Foulkes estimate   =   -4360.78647908 Ry
     estimated scf accuracy    <       0.00000131 Ry

     iteration # 11     ecut=    50.00 Ry     beta=0.70
     Davidson diagonalization with overlap
     ethr =  1.01E-09,  avg # of iterations =  2.9

     total cpu time spent up to now is     1583.9 secs

     total energy              =   -4360.78647889 Ry
     Harris-Foulkes estimate   =   -4360.78647894 Ry
     estimated scf accuracy    <       0.00000018 Ry

     iteration # 12     ecut=    50.00 Ry     beta=0.70
     Davidson diagonalization with overlap
     ethr =  1.36E-10,  avg # of iterations =  2.9

     total cpu time spent up to now is     1703.7 secs

     total energy              =   -4360.78647893 Ry
     Harris-Foulkes estimate   =   -4360.78647893 Ry
     estimated scf accuracy    <       0.00000001 Ry

     iteration # 13     ecut=    50.00 Ry     beta=0.70
     Davidson diagonalization with overlap
     ethr =  8.42E-12,  avg # of iterations =  3.0

     total cpu time spent up to now is     1836.4 secs

     End of self-consistent calculation

          k = 0.0000 0.0000 0.0000 ( 15923 PWs)   bands (ev):

   -76.6929 -76.6029 -76.5901 -72.8672 -39.9762 -39.9511 -39.9377 -38.6117
   -38.5757 -38.5234 -38.5039 -38.4907 -38.4898 -38.4707 -38.4707 -38.4650
   -33.8540 -33.8508 -33.8401 -33.8266 -33.8002 -33.7976 -33.7877 -33.7446
   -33.7347 -33.7321 -33.7305 -33.7265 -33.7241 -33.7209 -33.7191 -33.7145
   -33.7135 -33.7118 -33.7065 -33.7013 -33.7010  -5.4586  -4.7013  -4.5226
    -1.9634  -1.8441  -1.7805  -1.6723  -1.3997  -1.3267  -1.1996  -1.1393
    -1.0764  -1.0174  -1.0152  -0.8750  -0.7784  -0.5797  -0.4334  -0.4212
    -0.1927  -0.1672  -0.1226  -0.1181  -0.0440   0.0677   0.2381   0.2888
     5.3419   5.5704   6.1213   6.2475   6.3712   6.6032   6.7366   6.8448
     7.1884   7.4925   7.5179   7.5776   7.7139   7.7248

          k =-0.0003 0.0000 0.4171 ( 15860 PWs)   bands (ev):

   -76.6929 -76.6029 -76.5901 -72.8672 -39.9762 -39.9511 -39.9377 -38.6115
   -38.5756 -38.5233 -38.5038 -38.4906 -38.4896 -38.4706 -38.4705 -38.4648
   -33.8539 -33.8507 -33.8401 -33.8265 -33.8002 -33.7976 -33.7877 -33.7446
   -33.7345 -33.7320 -33.7304 -33.7264 -33.7240 -33.7208 -33.7191 -33.7144
   -33.7135 -33.7118 -33.7065 -33.7012 -33.7010  -5.2739  -4.6680  -4.4573
    -2.1308  -1.9121  -1.7266  -1.6948  -1.4445  -1.3135  -1.2440  -1.2306
    -1.1760  -1.0686  -1.0291  -0.8092  -0.7726  -0.6698  -0.5692  -0.4720
    -0.3564  -0.1632  -0.1247  -0.0138   0.0342   0.1672   0.2452   0.3428
     5.6100   5.8964   5.9709   6.1152   6.2994   6.6530   6.8570   7.0773
     7.1873   7.4055   7.5181   7.6766   7.7276   8.2584

          k = 0.0005-0.0001-0.8341 ( 15926 PWs)   bands (ev):

   -76.6929 -76.6029 -76.5901 -72.8672 -39.9762 -39.9511 -39.9377 -38.6117
   -38.5757 -38.5233 -38.5038 -38.4907 -38.4898 -38.4707 -38.4706 -38.4650
   -33.8541 -33.8508 -33.8402 -33.8265 -33.8002 -33.7977 -33.7877 -33.7447
   -33.7346 -33.7321 -33.7305 -33.7264 -33.7241 -33.7209 -33.7191 -33.7145
   -33.7135 -33.7119 -33.7065 -33.7013 -33.7011  -4.9746  -4.7373  -4.3874
    -2.3254  -1.9225  -1.7300  -1.6674  -1.4832  -1.3592  -1.3312  -1.3110
    -1.2197  -1.2173  -0.9753  -0.8991  -0.8528  -0.7358  -0.6166  -0.4689
    -0.3374  -0.1125  -0.0629   0.0807   0.1474   0.1766   0.2271   0.3394
     5.7907   5.8039   5.9549   6.0495   6.3542   6.5985   7.0130   7.2227
     7.3359   7.5356   7.7243   7.7794   8.1365   8.2332

          k = 0.2587 0.1417-0.0002 ( 15895 PWs)   bands (ev):

   -76.6929 -76.6029 -76.5901 -72.8672 -39.9762 -39.9511 -39.9377 -38.6116
   -38.5756 -38.5234 -38.5039 -38.4906 -38.4897 -38.4707 -38.4706 -38.4649
   -33.8540 -33.8507 -33.8401 -33.8265 -33.8002 -33.7976 -33.7878 -33.7446
   -33.7346 -33.7321 -33.7305 -33.7264 -33.7241 -33.7208 -33.7191 -33.7144
   -33.7135 -33.7118 -33.7065 -33.7012 -33.7010  -5.3777  -4.7670  -4.5963
    -1.9211  -1.7858  -1.7760  -1.5686  -1.3959  -1.3237  -1.1827  -1.1478
    -1.0728  -1.0384  -1.0195  -0.8837  -0.7980  -0.5498  -0.5476  -0.3973
    -0.2282  -0.1387  -0.1277  -0.0975  -0.0504   0.0746   0.1541   0.2587
     5.4080   5.5575   5.7947   6.2213   6.6532   6.7715   6.7800   7.0969
     7.2300   7.3140   7.4329   7.5251   7.8220   7.8706

          k = 0.2584 0.1417 0.4169 ( 15882 PWs)   bands (ev):

   -76.6929 -76.6029 -76.5901 -72.8672 -39.9762 -39.9511 -39.9377 -38.6116
   -38.5756 -38.5234 -38.5039 -38.4906 -38.4897 -38.4707 -38.4705 -38.4649
   -33.8540 -33.8507 -33.8401 -33.8265 -33.8002 -33.7976 -33.7877 -33.7446
   -33.7346 -33.7321 -33.7305 -33.7264 -33.7241 -33.7208 -33.7191 -33.7144
   -33.7135 -33.7118 -33.7065 -33.7012 -33.7010  -5.2033  -4.7093  -4.5236
    -2.1170  -1.8891  -1.7511  -1.5995  -1.4349  -1.2971  -1.2687  -1.2143
    -1.1809  -1.0514  -1.0067  -0.8656  -0.7927  -0.6812  -0.5794  -0.5120
    -0.3947  -0.1590  -0.1108   0.0265   0.0571   0.1656   0.2186   0.3355
     5.6016   5.7224   5.8741   6.2866   6.3702   6.5985   6.8922   7.0739
     7.2361   7.3366   7.4758   7.6989   7.8898   8.2238

          k = 0.2592 0.1416-0.8343 ( 15891 PWs)   bands (ev):

   -76.6929 -76.6029 -76.5901 -72.8672 -39.9762 -39.9511 -39.9377 -38.6116
   -38.5756 -38.5234 -38.5039 -38.4906 -38.4897 -38.4707 -38.4705 -38.4649
   -33.8540 -33.8507 -33.8402 -33.8265 -33.8002 -33.7976 -33.7877 -33.7447
   -33.7346 -33.7321 -33.7305 -33.7264 -33.7241 -33.7208 -33.7191 -33.7144
   -33.7135 -33.7119 -33.7065 -33.7012 -33.7011  -4.9292  -4.7306  -4.4451
    -2.3497  -1.9334  -1.7515  -1.6079  -1.4965  -1.3994  -1.2953  -1.2870
    -1.2574  -1.2069  -0.9810  -0.8579  -0.8527  -0.7394  -0.6291  -0.5218
    -0.3144  -0.1067  -0.0310   0.0972   0.1582   0.1652   0.2144   0.3579
     5.7254   5.8845   5.8924   6.0155   6.3139   6.3535   7.0417   7.2024
     7.3039   7.3169   7.8357   7.9359   8.0632   8.2914

          k = 0.2589 0.1416-0.4172 ( 15882 PWs)   bands (ev):

   -76.6929 -76.6029 -76.5901 -72.8672 -39.9762 -39.9511 -39.9377 -38.6116
   -38.5756 -38.5234 -38.5039 -38.4906 -38.4897 -38.4707 -38.4705 -38.4649
   -33.8540 -33.8507 -33.8401 -33.8265 -33.8002 -33.7976 -33.7877 -33.7446
   -33.7346 -33.7321 -33.7305 -33.7264 -33.7241 -33.7209 -33.7191 -33.7144
   -33.7135 -33.7118 -33.7065 -33.7012 -33.7010  -5.2024  -4.7108  -4.5237
    -2.1135  -1.8918  -1.7504  -1.5988  -1.4346  -1.2969  -1.2667  -1.2135
    -1.1830  -1.0513  -1.0095  -0.8663  -0.7930  -0.6809  -0.5807  -0.5125
    -0.3931  -0.1590  -0.1108   0.0273   0.0576   0.1646   0.2182   0.3359
     5.6001   5.7224   5.8746   6.2849   6.3675   6.6062   6.8897   7.0745
     7.2364   7.3347   7.4763   7.7028   7.8950   8.2201

          k =-0.5173-0.2834 0.0003 ( 15924 PWs)   bands (ev):

   -76.6929 -76.6029 -76.5901 -72.8672 -39.9762 -39.9511 -39.9377 -38.6116
   -38.5757 -38.5235 -38.5040 -38.4906 -38.4897 -38.4708 -38.4706 -38.4650
   -33.8540 -33.8507 -33.8402 -33.8265 -33.8002 -33.7976 -33.7878 -33.7447
   -33.7346 -33.7321 -33.7305 -33.7264 -33.7241 -33.7209 -33.7191 -33.7145
   -33.7135 -33.7118 -33.7066 -33.7012 -33.7010  -5.2603  -4.8703  -4.6692
    -1.8987  -1.7736  -1.7027  -1.3927  -1.3199  -1.2852  -1.2702  -1.1595
    -1.0682  -1.0575  -1.0475  -0.9175  -0.8304  -0.6804  -0.5177  -0.3565
    -0.2824  -0.2159  -0.1371  -0.0624  -0.0573   0.0436   0.2161   0.2289
     5.3778   5.5304   5.7324   6.1194   6.8202   6.8261   7.0439   7.0818
     7.1918   7.2855   7.4484   7.8823   7.9602   8.0313

          k =-0.5176-0.2833 0.4174 ( 15884 PWs)   bands (ev):

   -76.6929 -76.6029 -76.5901 -72.8672 -39.9762 -39.9511 -39.9377 -38.6116
   -38.5756 -38.5234 -38.5039 -38.4906 -38.4897 -38.4707 -38.4705 -38.4648
   -33.8540 -33.8507 -33.8401 -33.8265 -33.8002 -33.7976 -33.7878 -33.7446
   -33.7346 -33.7321 -33.7305 -33.7264 -33.7241 -33.7208 -33.7191 -33.7144
   -33.7135 -33.7118 -33.7065 -33.7012 -33.7010  -5.1012  -4.7801  -4.5932
    -2.0873  -1.8882  -1.7486  -1.5059  -1.4092  -1.3011  -1.2334  -1.2163
    -1.1950  -1.0496  -1.0043  -0.9233  -0.8197  -0.7047  -0.5892  -0.5474
    -0.4394  -0.1256  -0.0911  -0.0045   0.0823   0.1643   0.2377   0.3300
     5.5598   5.6809   5.8171   6.2147   6.4261   6.5935   6.9429   7.0623
     7.2804   7.3654   7.4765   7.8007   7.9413   8.0510

          k =-0.5168-0.2834-0.8338 ( 15882 PWs)   bands (ev):

   -76.6929 -76.6029 -76.5901 -72.8672 -39.9762 -39.9511 -39.9377 -38.6116
   -38.5756 -38.5233 -38.5039 -38.4906 -38.4897 -38.4707 -38.4705 -38.4649
   -33.8540 -33.8507 -33.8401 -33.8265 -33.8002 -33.7976 -33.7878 -33.7446
   -33.7346 -33.7320 -33.7305 -33.7264 -33.7241 -33.7208 -33.7191 -33.7144
   -33.7135 -33.7119 -33.7065 -33.7012 -33.7011  -4.8704  -4.7238  -4.5157
    -2.3725  -1.9454  -1.7754  -1.5574  -1.5078  -1.4397  -1.2995  -1.2881
    -1.1842  -1.1583  -1.0082  -0.8829  -0.8681  -0.7347  -0.6548  -0.5285
    -0.2934  -0.1130  -0.0031   0.1202   0.1588   0.1658   0.2037   0.3700
     5.6370   5.9038   5.9383   5.9879   6.2419   6.2573   7.0193   7.0323
     7.2564   7.2675   7.8400   7.9927   8.0302   8.2816

          k = 0.2594-0.1430-0.0002 ( 15873 PWs)   bands (ev):

   -76.6929 -76.6029 -76.5901 -72.8672 -39.9762 -39.9511 -39.9377 -38.6116
   -38.5756 -38.5233 -38.5038 -38.4906 -38.4897 -38.4706 -38.4705 -38.4649
   -33.8539 -33.8507 -33.8401 -33.8265 -33.8002 -33.7976 -33.7878 -33.7446
   -33.7346 -33.7320 -33.7305 -33.7264 -33.7240 -33.7208 -33.7191 -33.7144
   -33.7135 -33.7118 -33.7065 -33.7012 -33.7010  -5.3775  -4.7668  -4.5960
    -1.9443  -1.7782  -1.7690  -1.5646  -1.3980  -1.3219  -1.1875  -1.1466
    -1.0746  -1.0377  -1.0240  -0.8787  -0.7803  -0.5474  -0.5340  -0.4035
    -0.2419  -0.1428  -0.1274  -0.1030  -0.0510   0.0775   0.1702   0.2444
     5.3982   5.5894   5.7603   6.2230   6.6730   6.7540   6.7791   7.0977
     7.2261   7.3170   7.4410   7.5274   7.8215   7.8667

          k = 0.2591-0.1429 0.4169 ( 15903 PWs)   bands (ev):

   -76.6929 -76.6029 -76.5901 -72.8672 -39.9762 -39.9511 -39.9377 -38.6116
   -38.5756 -38.5234 -38.5039 -38.4907 -38.4897 -38.4708 -38.4705 -38.4649
   -33.8540 -33.8507 -33.8402 -33.8265 -33.8002 -33.7976 -33.7878 -33.7447
   -33.7346 -33.7321 -33.7305 -33.7264 -33.7241 -33.7209 -33.7191 -33.7145
   -33.7135 -33.7118 -33.7065 -33.7013 -33.7010  -5.2031  -4.7093  -4.5232
    -2.1191  -1.9002  -1.7402  -1.6030  -1.4338  -1.3036  -1.2660  -1.2224
    -1.1715  -1.0554  -0.9947  -0.8565  -0.7886  -0.6942  -0.5818  -0.5090
    -0.3871  -0.1658  -0.1057   0.0032   0.0596   0.1803   0.2184   0.3337
     5.5743   5.7454   5.8804   6.2951   6.3673   6.6088   6.8804   7.0723
     7.2302   7.3222   7.4544   7.7022   7.9089   8.2529

          k = 0.2600-0.1430-0.8343 ( 15894 PWs)   bands (ev):

   -76.6929 -76.6029 -76.5901 -72.8672 -39.9762 -39.9511 -39.9377 -38.6116
   -38.5756 -38.5233 -38.5038 -38.4907 -38.4898 -38.4707 -38.4705 -38.4649
   -33.8540 -33.8507 -33.8401 -33.8265 -33.8002 -33.7976 -33.7877 -33.7446
   -33.7346 -33.7321 -33.7305 -33.7264 -33.7241 -33.7208 -33.7191 -33.7144
   -33.7135 -33.7119 -33.7065 -33.7012 -33.7011  -4.9290  -4.7305  -4.4451
    -2.3502  -1.9339  -1.7525  -1.6095  -1.4924  -1.3970  -1.3078  -1.2865
    -1.2606  -1.1978  -0.9637  -0.8667  -0.8501  -0.7531  -0.6427  -0.5026
    -0.3091  -0.1028  -0.0410   0.0930   0.1560   0.1652   0.2165   0.3636
     5.7415   5.8744   5.9130   5.9804   6.3162   6.3489   7.0432   7.2145
     7.2922   7.3623   7.7729   7.9261   8.0788   8.3060

          k = 0.2597-0.1430-0.4172 ( 15902 PWs)   bands (ev):

   -76.6929 -76.6029 -76.5901 -72.8672 -39.9762 -39.9511 -39.9377 -38.6116
   -38.5756 -38.5234 -38.5039 -38.4907 -38.4897 -38.4708 -38.4705 -38.4649
   -33.8540 -33.8507 -33.8402 -33.8265 -33.8002 -33.7976 -33.7878 -33.7446
   -33.7346 -33.7321 -33.7305 -33.7264 -33.7241 -33.7209 -33.7191 -33.7145
   -33.7135 -33.7118 -33.7065 -33.7012 -33.7010  -5.2022  -4.7107  -4.5234
    -2.1157  -1.9032  -1.7386  -1.6032  -1.4328  -1.3044  -1.2642  -1.2223
    -1.1725  -1.0570  -0.9942  -0.8577  -0.7883  -0.6951  -0.5822  -0.5092
    -0.3859  -0.1660  -0.1052   0.0032   0.0595   0.1794   0.2187   0.3338
     5.5750   5.7435   5.8804   6.2931   6.3652   6.6164   6.8774   7.0733
     7.2299   7.3218   7.4551   7.7059   7.9123   8.2527

          k = 0.5181-0.0013-0.0003 ( 15902 PWs)   bands (ev):

   -76.6929 -76.6029 -76.5901 -72.8672 -39.9762 -39.9511 -39.9377 -38.6116
   -38.5756 -38.5234 -38.5039 -38.4907 -38.4897 -38.4707 -38.4705 -38.4649
   -33.8540 -33.8507 -33.8401 -33.8265 -33.8002 -33.7976 -33.7878 -33.7446
   -33.7346 -33.7321 -33.7305 -33.7264 -33.7241 -33.7209 -33.7191 -33.7145
   -33.7135 -33.7118 -33.7065 -33.7012 -33.7010  -5.2646  -4.8434  -4.6934
    -1.8565  -1.7732  -1.6987  -1.4743  -1.3936  -1.3196  -1.1572  -1.1226
    -1.0722  -1.0573  -1.0546  -0.9482  -0.8202  -0.6299  -0.5177  -0.3374
    -0.2998  -0.2026  -0.1367  -0.1223  -0.0582   0.0883   0.1619   0.2608
     5.3749   5.5466   5.6950   6.1051   6.8238   6.8736   6.9046   7.1978
     7.2812   7.3078   7.4453   7.7709   7.8333   8.0577

          k = 0.5178-0.0012 0.4167 ( 15877 PWs)   bands (ev):

   -76.6929 -76.6029 -76.5901 -72.8672 -39.9762 -39.9511 -39.9377 -38.6116
   -38.5756 -38.5233 -38.5039 -38.4906 -38.4897 -38.4707 -38.4705 -38.4648
   -33.8539 -33.8507 -33.8402 -33.8265 -33.8002 -33.7976 -33.7878 -33.7446
   -33.7346 -33.7321 -33.7305 -33.7264 -33.7241 -33.7208 -33.7191 -33.7144
   -33.7135 -33.7118 -33.7065 -33.7012 -33.7010  -5.1053  -4.7617  -4.6080
    -2.0957  -1.8622  -1.7020  -1.6091  -1.4368  -1.2893  -1.2121  -1.2007
    -1.1301  -1.0590  -1.0168  -0.9791  -0.7944  -0.7057  -0.5860  -0.5585
    -0.4058  -0.1393  -0.0716  -0.0079   0.0481   0.1563   0.2539   0.3355
     5.5793   5.6378   5.7911   6.2538   6.5060   6.5454   6.9760   7.0998
     7.1185   7.4501   7.5401   7.7155   7.8730   8.0958

          k = 0.5186-0.0014-0.8344 ( 15883 PWs)   bands (ev):

   -76.6929 -76.6029 -76.5901 -72.8672 -39.9762 -39.9511 -39.9377 -38.6116
   -38.5756 -38.5233 -38.5038 -38.4906 -38.4897 -38.4707 -38.4705 -38.4649
   -33.8540 -33.8507 -33.8402 -33.8265 -33.8002 -33.7976 -33.7877 -33.7446
   -33.7346 -33.7321 -33.7305 -33.7264 -33.7241 -33.7209 -33.7191 -33.7144
   -33.7135 -33.7119 -33.7065 -33.7012 -33.7011  -4.8706  -4.7238  -4.5151
    -2.3787  -1.9454  -1.6829  -1.6728  -1.5223  -1.4171  -1.3051  -1.2693
    -1.1930  -1.1136  -1.0027  -0.9476  -0.8405  -0.7685  -0.6053  -0.5404
    -0.2869  -0.0888  -0.0403   0.1135   0.1645   0.1744   0.1888   0.3836
     5.6367   5.8898   5.9625   5.9843   6.2197   6.2533   7.0159   7.0677
     7.2793   7.3110   7.7395   7.9453   8.0125   8.3475

          k = 0.5184-0.0013-0.4174 ( 15877 PWs)   bands (ev):

   -76.6929 -76.6029 -76.5901 -72.8672 -39.9762 -39.9511 -39.9377 -38.6116
   -38.5756 -38.5233 -38.5039 -38.4906 -38.4897 -38.4707 -38.4705 -38.4649
   -33.8539 -33.8507 -33.8402 -33.8265 -33.8002 -33.7976 -33.7878 -33.7446
   -33.7346 -33.7321 -33.7305 -33.7264 -33.7241 -33.7208 -33.7191 -33.7145
   -33.7135 -33.7118 -33.7065 -33.7012 -33.7010  -5.1043  -4.7626  -4.6083
    -2.0933  -1.8646  -1.7011  -1.6094  -1.4351  -1.2889  -1.2126  -1.2023
    -1.1294  -1.0596  -1.0165  -0.9803  -0.7934  -0.7040  -0.5877  -0.5588
    -0.4056  -0.1403  -0.0712  -0.0072   0.0486   0.1558   0.2528   0.3363
     5.5807   5.6382   5.7910   6.2483   6.5033   6.5462   6.9774   7.1057
     7.1183   7.4510   7.5412   7.7183   7.8718   8.0904

          k =-0.2579-0.4263 0.0001 ( 15894 PWs)   bands (ev):

   -76.6929 -76.6029 -76.5901 -72.8672 -39.9762 -39.9511 -39.9377 -38.6116
   -38.5757 -38.5233 -38.5038 -38.4906 -38.4897 -38.4707 -38.4706 -38.4650
   -33.8540 -33.8507 -33.8402 -33.8265 -33.8002 -33.7976 -33.7877 -33.7446
   -33.7346 -33.7321 -33.7305 -33.7264 -33.7241 -33.7208 -33.7191 -33.7145
   -33.7135 -33.7118 -33.7065 -33.7012 -33.7010  -5.2712  -4.8058  -4.7332
    -1.8108  -1.7779  -1.7552  -1.3932  -1.3480  -1.3083  -1.2401  -1.1673
    -1.0766  -1.0527  -1.0352  -0.8412  -0.8287  -0.6557  -0.5399  -0.4210
    -0.3147  -0.1942  -0.1358  -0.1189  -0.0639   0.0950   0.1679   0.2790
     5.3491   5.5457   5.7407   6.1987   6.8127   6.8346   6.8628   7.1746
     7.3022   7.3459   7.4830   7.5930   7.8868   8.0297

          k =-0.2582-0.4263 0.4172 ( 15884 PWs)   bands (ev):

   -76.6929 -76.6029 -76.5901 -72.8672 -39.9762 -39.9511 -39.9377 -38.6116
   -38.5756 -38.5233 -38.5039 -38.4906 -38.4897 -38.4707 -38.4705 -38.4649
   -33.8540 -33.8507 -33.8402 -33.8265 -33.8002 -33.7976 -33.7877 -33.7446
   -33.7346 -33.7321 -33.7305 -33.7264 -33.7241 -33.7209 -33.7191 -33.7144
   -33.7135 -33.7118 -33.7065 -33.7012 -33.7010  -5.1045  -4.7282  -4.6564
    -2.1118  -1.8357  -1.7166  -1.5002  -1.4254  -1.2952  -1.2761  -1.1820
    -1.1524  -1.0633  -1.0175  -0.9052  -0.8020  -0.6917  -0.5895  -0.5788
    -0.4181  -0.2113  -0.1188  -0.0115   0.0627   0.1610   0.2549   0.3544
     5.5919   5.6987   5.7993   6.2099   6.4547   6.6299   6.9297   7.1370
     7.1998   7.3155   7.6381   7.7654   7.8757   8.0521

          k =-0.2574-0.4264-0.8340 ( 15882 PWs)   bands (ev):

   -76.6929 -76.6029 -76.5901 -72.8672 -39.9762 -39.9511 -39.9377 -38.6115
   -38.5756 -38.5234 -38.5039 -38.4906 -38.4896 -38.4707 -38.4705 -38.4649
   -33.8540 -33.8507 -33.8401 -33.8265 -33.8002 -33.7977 -33.7877 -33.7446
   -33.7346 -33.7320 -33.7304 -33.7264 -33.7241 -33.7209 -33.7191 -33.7144
   -33.7135 -33.7119 -33.7065 -33.7012 -33.7011  -4.8367  -4.7275  -4.5685
    -2.3751  -1.9207  -1.7014  -1.5623  -1.5330  -1.4198  -1.2915  -1.2574
    -1.1744  -1.1650  -1.0584  -0.8678  -0.8650  -0.6971  -0.6502  -0.5521
    -0.3062  -0.1713  -0.0662   0.0978   0.1521   0.1734   0.1977   0.4164
     5.6324   5.8545   5.9784   6.0464   6.2598   6.3445   6.9595   7.0374
     7.2634   7.4062   7.8426   7.8754   7.9289   8.3319

          k =-0.2577-0.4264-0.4169 ( 15887 PWs)   bands (ev):

   -76.6929 -76.6029 -76.5901 -72.8672 -39.9762 -39.9511 -39.9377 -38.6116
   -38.5756 -38.5233 -38.5039 -38.4906 -38.4897 -38.4707 -38.4705 -38.4649
   -33.8540 -33.8507 -33.8402 -33.8265 -33.8002 -33.7976 -33.7877 -33.7446
   -33.7346 -33.7321 -33.7305 -33.7264 -33.7241 -33.7209 -33.7191 -33.7144
   -33.7135 -33.7118 -33.7065 -33.7012 -33.7010  -5.1051  -4.7272  -4.6565
    -2.1134  -1.8354  -1.7168  -1.5010  -1.4237  -1.2960  -1.2762  -1.1841
    -1.1514  -1.0640  -1.0156  -0.9054  -0.7995  -0.6902  -0.5910  -0.5760
    -0.4212  -0.2116  -0.1198  -0.0114   0.0635   0.1612   0.2540   0.3546
     5.5971   5.6983   5.7969   6.2059   6.4557   6.6240   6.9328   7.1403
     7.2020   7.3144   7.6408   7.7619   7.8716   8.0575

          k = 0.0007-0.2846-0.0000 ( 15893 PWs)   bands (ev):

   -76.6929 -76.6029 -76.5901 -72.8672 -39.9762 -39.9511 -39.9377 -38.6116
   -38.5756 -38.5234 -38.5039 -38.4906 -38.4897 -38.4707 -38.4706 -38.4649
   -33.8540 -33.8507 -33.8401 -33.8265 -33.8002 -33.7976 -33.7877 -33.7446
   -33.7346 -33.7321 -33.7305 -33.7264 -33.7241 -33.7208 -33.7191 -33.7144
   -33.7135 -33.7118 -33.7065 -33.7012 -33.7010  -5.3813  -4.7450  -4.6235
    -1.9226  -1.7826  -1.7601  -1.5586  -1.3968  -1.3128  -1.1614  -1.1549
    -1.0807  -1.0758  -1.0199  -0.7991  -0.7776  -0.5695  -0.5115  -0.4825
    -0.3009  -0.1396  -0.1181  -0.1120  -0.0554   0.1060   0.1637   0.2637
     5.3491   5.5807   5.8994   6.2925   6.6434   6.6979   6.7703   7.0031
     7.2395   7.2720   7.4376   7.6413   7.6630   8.0586

          k = 0.0005-0.2846 0.4170 ( 15909 PWs)   bands (ev):

   -76.6929 -76.6029 -76.5901 -72.8672 -39.9762 -39.9511 -39.9377 -38.6116
   -38.5757 -38.5234 -38.5039 -38.4907 -38.4897 -38.4707 -38.4706 -38.4650
   -33.8540 -33.8507 -33.8402 -33.8266 -33.8002 -33.7976 -33.7878 -33.7447
   -33.7346 -33.7321 -33.7305 -33.7265 -33.7241 -33.7209 -33.7191 -33.7144
   -33.7135 -33.7118 -33.7065 -33.7012 -33.7010  -5.2025  -4.6887  -4.5594
    -2.1374  -1.8652  -1.7170  -1.5308  -1.4544  -1.3456  -1.2785  -1.1848
    -1.1452  -1.1047  -1.0019  -0.8178  -0.7919  -0.6704  -0.5865  -0.4891
    -0.4012  -0.2487  -0.1418  -0.0117   0.0730   0.1519   0.2492   0.3458
     5.5940   5.8144   5.9162   6.1592   6.3759   6.7007   6.8897   7.0489
     7.1785   7.3416   7.6022   7.6469   7.8798   8.1705

          k = 0.0013-0.2847-0.8341 ( 15877 PWs)   bands (ev):

   -76.6929 -76.6029 -76.5901 -72.8672 -39.9762 -39.9511 -39.9377 -38.6116
   -38.5756 -38.5233 -38.5038 -38.4906 -38.4897 -38.4706 -38.4705 -38.4649
   -33.8540 -33.8507 -33.8401 -33.8265 -33.8002 -33.7976 -33.7877 -33.7446
   -33.7346 -33.7321 -33.7305 -33.7264 -33.7240 -33.7208 -33.7191 -33.7144
   -33.7135 -33.7119 -33.7065 -33.7012 -33.7011  -4.9077  -4.7342  -4.4863
    -2.3496  -1.9104  -1.7141  -1.5370  -1.5055  -1.3902  -1.3351  -1.2890
    -1.2352  -1.2114  -0.9963  -0.8902  -0.8141  -0.6891  -0.6818  -0.4904
    -0.3343  -0.1797  -0.0815   0.0777   0.1583   0.1654   0.2069   0.4010
     5.7296   5.8893   5.9124   5.9944   6.4154   6.4331   6.8648   7.2001
     7.4955   7.5387   7.6538   7.7442   8.0882   8.2613

          k = 0.0010-0.2847-0.4171 ( 15903 PWs)   bands (ev):

   -76.6929 -76.6029 -76.5901 -72.8672 -39.9762 -39.9511 -39.9377 -38.6116
   -38.5757 -38.5234 -38.5039 -38.4907 -38.4897 -38.4707 -38.4706 -38.4650
   -33.8540 -33.8507 -33.8402 -33.8265 -33.8002 -33.7976 -33.7877 -33.7446
   -33.7346 -33.7321 -33.7305 -33.7265 -33.7241 -33.7209 -33.7191 -33.7144
   -33.7135 -33.7118 -33.7065 -33.7012 -33.7010  -5.2025  -4.6887  -4.5595
    -2.1375  -1.8656  -1.7163  -1.5315  -1.4536  -1.3464  -1.2784  -1.1854
    -1.1449  -1.1061  -0.9988  -0.8174  -0.7924  -0.6714  -0.5860  -0.4886
    -0.4013  -0.2488  -0.1421  -0.0115   0.0729   0.1516   0.2494   0.3456
     5.5952   5.8156   5.9128   6.1605   6.3758   6.7001   6.8896   7.0491
     7.1786   7.3421   7.6017   7.6477   7.8789   8.1712

          k =-0.5188 0.2859 0.0003 ( 15902 PWs)   bands (ev):

   -76.6929 -76.6029 -76.5901 -72.8672 -39.9762 -39.9511 -39.9377 -38.6116
   -38.5757 -38.5234 -38.5039 -38.4907 -38.4897 -38.4707 -38.4706 -38.4650
   -33.8540 -33.8507 -33.8402 -33.8265 -33.8002 -33.7976 -33.7877 -33.7446
   -33.7346 -33.7321 -33.7304 -33.7264 -33.7241 -33.7209 -33.7191 -33.7144
   -33.7135 -33.7118 -33.7065 -33.7012 -33.7010  -5.2602  -4.8687  -4.6697
    -1.9315  -1.7731  -1.6929  -1.3969  -1.3167  -1.3002  -1.2429  -1.1573
    -1.0732  -1.0542  -1.0501  -0.9109  -0.8002  -0.6685  -0.5176  -0.3518
    -0.3231  -0.1897  -0.1360  -0.0774  -0.0590   0.0186   0.2005   0.2585
     5.3767   5.5330   5.7226   6.1245   6.8144   6.8274   7.0372   7.0717
     7.1915   7.2710   7.4526   7.8603   7.9885   8.0694

          k =-0.5191 0.2860 0.4174 ( 15865 PWs)   bands (ev):

   -76.6929 -76.6029 -76.5901 -72.8672 -39.9762 -39.9511 -39.9377 -38.6116
   -38.5756 -38.5233 -38.5038 -38.4907 -38.4897 -38.4706 -38.4705 -38.4648
   -33.8540 -33.8507 -33.8401 -33.8265 -33.8002 -33.7976 -33.7877 -33.7446
   -33.7346 -33.7321 -33.7304 -33.7264 -33.7241 -33.7208 -33.7191 -33.7144
   -33.7134 -33.7118 -33.7065 -33.7012 -33.7010  -5.1009  -4.7793  -4.5932
    -2.0913  -1.9080  -1.7338  -1.5121  -1.4100  -1.3024  -1.2291  -1.2212
    -1.1974  -1.0534  -0.9797  -0.9038  -0.8063  -0.7210  -0.6039  -0.5482
    -0.4267  -0.1538  -0.0614  -0.0114   0.0632   0.1504   0.2600   0.3311
     5.5044   5.7477   5.8179   6.2425   6.3966   6.5887   6.9360   7.0666
     7.2726   7.3529   7.4445   7.7993   7.9505   8.0779

          k =-0.5183 0.2858-0.8338 ( 15888 PWs)   bands (ev):

   -76.6929 -76.6029 -76.5901 -72.8672 -39.9762 -39.9511 -39.9377 -38.6116
   -38.5756 -38.5233 -38.5038 -38.4906 -38.4897 -38.4707 -38.4705 -38.4649
   -33.8540 -33.8507 -33.8401 -33.8265 -33.8002 -33.7977 -33.7877 -33.7446
   -33.7346 -33.7321 -33.7304 -33.7264 -33.7241 -33.7208 -33.7191 -33.7144
   -33.7135 -33.7119 -33.7065 -33.7012 -33.7011  -4.8700  -4.7237  -4.5156
    -2.3735  -1.9463  -1.7755  -1.5638  -1.4994  -1.4396  -1.3015  -1.2938
    -1.2022  -1.1503  -0.9759  -0.8806  -0.8522  -0.7732  -0.6795  -0.5008
    -0.2807  -0.1144  -0.0101   0.1067   0.1390   0.1829   0.2095   0.3790
     5.6582   5.8653   5.9554   5.9890   6.2236   6.2562   7.0282   7.0377
     7.2452   7.3393   7.7411   7.9737   8.0825   8.3003

          k =-0.2602 0.4276 0.0002 ( 15886 PWs)   bands (ev):

   -76.6929 -76.6029 -76.5901 -72.8672 -39.9762 -39.9511 -39.9377 -38.6116
   -38.5757 -38.5233 -38.5038 -38.4906 -38.4897 -38.4706 -38.4706 -38.4649
   -33.8540 -33.8507 -33.8402 -33.8265 -33.8002 -33.7976 -33.7878 -33.7447
   -33.7346 -33.7321 -33.7305 -33.7264 -33.7241 -33.7208 -33.7191 -33.7144
   -33.7135 -33.7118 -33.7065 -33.7012 -33.7010  -5.2710  -4.8055  -4.7331
    -1.8298  -1.7784  -1.7485  -1.3952  -1.3544  -1.3067  -1.2282  -1.1662
    -1.0779  -1.0579  -1.0348  -0.8457  -0.7959  -0.6439  -0.5397  -0.4355
    -0.3134  -0.2102  -0.1357  -0.1185  -0.0646   0.0975   0.1682   0.2775
     5.3443   5.5639   5.7214   6.1962   6.8140   6.8336   6.8633   7.1628
     7.2948   7.3546   7.4901   7.6149   7.8833   8.0177

          k =-0.2604 0.4276 0.4172 ( 15881 PWs)   bands (ev):

   -76.6929 -76.6029 -76.5901 -72.8672 -39.9762 -39.9511 -39.9377 -38.6115
   -38.5756 -38.5233 -38.5038 -38.4906 -38.4897 -38.4706 -38.4705 -38.4649
   -33.8540 -33.8507 -33.8401 -33.8265 -33.8002 -33.7976 -33.7877 -33.7446
   -33.7346 -33.7321 -33.7305 -33.7264 -33.7241 -33.7209 -33.7191 -33.7144
   -33.7135 -33.7118 -33.7065 -33.7012 -33.7010  -5.1042  -4.7284  -4.6559
    -2.1130  -1.8443  -1.7123  -1.5027  -1.4274  -1.2951  -1.2768  -1.1865
    -1.1480  -1.0722  -1.0007  -0.8985  -0.7781  -0.7125  -0.6043  -0.5599
    -0.4204  -0.2179  -0.1168  -0.0236   0.0615   0.1705   0.2540   0.3548
     5.5868   5.6723   5.8288   6.2342   6.4369   6.6340   6.9237   7.1357
     7.2099   7.2942   7.6093   7.7795   7.8741   8.0606

          k =-0.2596 0.4275-0.8339 ( 15890 PWs)   bands (ev):

   -76.6929 -76.6029 -76.5901 -72.8672 -39.9762 -39.9511 -39.9377 -38.6116
   -38.5757 -38.5233 -38.5039 -38.4906 -38.4897 -38.4707 -38.4706 -38.4649
   -33.8540 -33.8507 -33.8401 -33.8265 -33.8002 -33.7977 -33.7877 -33.7446
   -33.7346 -33.7321 -33.7304 -33.7264 -33.7241 -33.7209 -33.7191 -33.7144
   -33.7135 -33.7119 -33.7065 -33.7012 -33.7011  -4.8364  -4.7274  -4.5686
    -2.3754  -1.9212  -1.7014  -1.5651  -1.5298  -1.4191  -1.2897  -1.2654
    -1.1750  -1.1703  -1.0437  -0.8753  -0.8515  -0.7084  -0.6695  -0.5267
    -0.3011  -0.1766  -0.0721   0.0944   0.1466   0.1794   0.2008   0.4195
     5.6406   5.8730   5.9560   6.0309   6.2617   6.3421   6.9655   7.0454
     7.2593   7.4463   7.7842   7.8657   7.9488   8.3134

          k =-0.2599 0.4276-0.4169 ( 15878 PWs)   bands (ev):

   -76.6929 -76.6029 -76.5901 -72.8672 -39.9762 -39.9511 -39.9377 -38.6115
   -38.5756 -38.5233 -38.5038 -38.4906 -38.4897 -38.4706 -38.4705 -38.4649
   -33.8540 -33.8507 -33.8401 -33.8265 -33.8002 -33.7976 -33.7877 -33.7446
   -33.7346 -33.7321 -33.7305 -33.7264 -33.7241 -33.7208 -33.7191 -33.7144
   -33.7135 -33.7118 -33.7065 -33.7012 -33.7010  -5.1048  -4.7274  -4.6561
    -2.1144  -1.8438  -1.7123  -1.5040  -1.4254  -1.2953  -1.2774  -1.1880
    -1.1473  -1.0714  -1.0018  -0.8983  -0.7762  -0.7103  -0.6044  -0.5589
    -0.4231  -0.2184  -0.1181  -0.0230   0.0627   0.1705   0.2532   0.3550
     5.5898   5.6727   5.8279   6.2299   6.4385   6.6278   6.9275   7.1385
     7.2119   7.2936   7.6117   7.7770   7.8691   8.0642

          k =-1.0362 0.0026 0.0006 ( 15878 PWs)   bands (ev):

   -76.6929 -76.6029 -76.5901 -72.8672 -39.9762 -39.9511 -39.9377 -38.6116
   -38.5756 -38.5233 -38.5038 -38.4906 -38.4897 -38.4706 -38.4705 -38.4649
   -33.8540 -33.8507 -33.8401 -33.8265 -33.8002 -33.7976 -33.7877 -33.7446
   -33.7346 -33.7321 -33.7304 -33.7264 -33.7241 -33.7209 -33.7191 -33.7144
   -33.7135 -33.7118 -33.7065 -33.7012 -33.7010  -5.2673  -4.8577  -4.6888
    -1.8960  -1.7846  -1.6730  -1.3939  -1.3655  -1.2948  -1.1770  -1.1676
    -1.0890  -1.0736  -1.0255  -0.8327  -0.6842  -0.6234  -0.5597  -0.5516
    -0.4125  -0.1397  -0.1316  -0.1019  -0.0711   0.0728   0.1512   0.2816
     5.3228   5.6245   5.7255   6.2724   6.8029   6.8500   6.8711   7.1733
     7.2086   7.3346   7.5174   7.7077   7.7832   7.8821

          k =-1.0364 0.0026 0.4177 ( 15894 PWs)   bands (ev):

   -76.6929 -76.6029 -76.5901 -72.8672 -39.9762 -39.9511 -39.9377 -38.6116
   -38.5757 -38.5234 -38.5039 -38.4906 -38.4897 -38.4707 -38.4706 -38.4649
   -33.8540 -33.8507 -33.8402 -33.8265 -33.8002 -33.7976 -33.7878 -33.7447
   -33.7346 -33.7321 -33.7305 -33.7264 -33.7241 -33.7209 -33.7191 -33.7144
   -33.7135 -33.7118 -33.7065 -33.7012 -33.7010  -5.0956  -4.7567  -4.6475
    -2.1415  -1.8329  -1.6416  -1.4944  -1.4273  -1.3269  -1.2505  -1.1435
    -1.1309  -1.0879  -1.0468  -0.8970  -0.7457  -0.6949  -0.6141  -0.5081
    -0.4495  -0.3190  -0.1583  -0.0094   0.0925   0.1432   0.2330   0.3746
     5.5463   5.7757   5.8766   6.1973   6.3661   6.7297   6.9330   7.1941
     7.2257   7.2434   7.5972   7.7646   7.9610   8.0512

          k =-1.0356 0.0025-0.8335 ( 15836 PWs)   bands (ev):

   -76.6929 -76.6029 -76.5901 -72.8672 -39.9762 -39.9511 -39.9377 -38.6115
   -38.5756 -38.5232 -38.5037 -38.4905 -38.4896 -38.4705 -38.4705 -38.4648
   -33.8540 -33.8507 -33.8401 -33.8264 -33.8001 -33.7976 -33.7877 -33.7446
   -33.7345 -33.7320 -33.7304 -33.7263 -33.7240 -33.7208 -33.7191 -33.7144
   -33.7134 -33.7119 -33.7064 -33.7012 -33.7011  -4.7801  -4.7310  -4.6444
    -2.3723  -1.8940  -1.6127  -1.5795  -1.5525  -1.4093  -1.2639  -1.1972
    -1.1917  -1.1864  -1.1323  -0.8640  -0.8456  -0.6503  -0.6457  -0.5402
    -0.3314  -0.2798  -0.1015   0.0748   0.1566   0.1832   0.1910   0.4479
     5.6633   5.8451   5.9519   6.1249   6.1817   6.4327   6.9211   7.2508
     7.3028   7.5511   7.5867   7.6249   7.9858   8.3020

     the Fermi energy is     5.5476 ev

!    total energy              =   -4360.78647894 Ry
     Harris-Foulkes estimate   =   -4360.78647894 Ry
     estimated scf accuracy    <          3.1E-09 Ry

     The total energy is the sum of the following terms:

     one-electron contribution =   -3261.13342285 Ry
     hartree contribution      =    1632.21526741 Ry
     xc contribution           =    -317.66120812 Ry
     ewald contribution        =    -765.40802485 Ry
     one-center paw contrib.   =   -1648.79855871 Ry
     smearing contrib. (-TS)   =      -0.00053182 Ry

     convergence has been achieved in  13 iterations

     Writing output data file 09_K5MgReH93.save

     init_run     :    239.94s CPU    125.98s WALL (       1 calls)
     electrons    :   5546.36s CPU   1709.55s WALL (       1 calls)

     Called by init_run:
     wfcinit      :    150.92s CPU     45.26s WALL (       1 calls)
     potinit      :     29.86s CPU     28.75s WALL (       1 calls)

     Called by electrons:
     c_bands      :   4258.03s CPU   1370.81s WALL (      13 calls)
     sum_band     :   1090.42s CPU    277.76s WALL (      13 calls)
     v_of_rho     :     13.22s CPU      7.95s WALL (      14 calls)
     newd         :    167.42s CPU     44.47s WALL (      14 calls)
     PAW_pot      :     29.84s CPU     12.84s WALL (      14 calls)
     mix_rho      :      1.50s CPU      0.85s WALL (      13 calls)

     Called by c_bands:
     init_us_2    :     25.66s CPU     15.92s WALL (     972 calls)
     cegterg      :   4196.00s CPU   1307.33s WALL (     468 calls)

     Called by sum_band:
     sum_band:bec :      3.67s CPU      2.17s WALL (     468 calls)
     addusdens    :    352.41s CPU     53.35s WALL (      13 calls)

     Called by *egterg:
     h_psi        :   2821.78s CPU    871.96s WALL (    2140 calls)
     s_psi        :    417.34s CPU     64.93s WALL (    2140 calls)
     g_psi        :      3.44s CPU      2.55s WALL (    1636 calls)
     cdiaghg      :    208.75s CPU    198.04s WALL (    2104 calls)

     Called by h_psi:
     h_psi:pot    :   2815.00s CPU    867.02s WALL (    2140 calls)
     h_psi:calbec :    346.02s CPU     55.69s WALL (    2140 calls)
     vloc_psi     :   2071.25s CPU    751.78s WALL (    2140 calls)
     add_vuspsi   :    397.69s CPU     59.55s WALL (    2140 calls)

     General routines
     calbec       :    500.06s CPU     70.57s WALL (    2608 calls)
     fft          :      7.94s CPU      3.02s WALL (     220 calls)
     ffts         :      0.09s CPU      0.14s WALL (      27 calls)
     fftw         :   2046.62s CPU    511.88s WALL (  225712 calls)
     interpolate  :      1.34s CPU      0.68s WALL (      27 calls)
     davcio       :      0.08s CPU      0.41s WALL (      36 calls)

     Parallel routines
     fft_scatter  :     30.19s CPU    119.17s WALL (  225959 calls)

     PWSCF        :     1h36m CPU        0h30m WALL


   This run was terminated on:   8:50:11  24Dec2025            

=------------------------------------------------------------------------------=
   JOB DONE.
=------------------------------------------------------------------------------=
