
     Program PWSCF v.6.1 starts on 24Dec2025 at  8:50:12 

     This program is part of the open-source Quantum ESPRESSO suite
     for quantum simulation of materials; please cite
         "P. Giannozzi et al., J. Phys.:Condens. Matter 21 395502 (2009);
          URL http://www.quantum-espresso.org", 
     in publications or presentations arising from this work. More details at
     http://www.quantum-espresso.org/quote

     Parallel version (MPI & OpenMP), running on      12 processor cores
     Number of MPI processes:                 1
     Threads/MPI process:                    12
     Waiting for input...
     Reading input from standard input

     Current dimensions of program PWSCF are:
     Max number of different atomic species (ntypx) = 10
     Max number of k-points (npk) =  40000
     Max angular momentum in pseudopotentials (lmaxx) =  3

     Atomic positions and unit cell read from directory:
     ./tmp/09_K5MgReH93.save/

               file H.UPF: wavefunction(s)  1S renormalized
               file Mg.UPF: wavefunction(s)  Xn Xn Xn Xn Xn Xn renormalized
               file Re.UPF: wavefunction(s)  5P 5D 4F renormalized

     Subspace diagonalization in iterative solution of the eigenvalue problem:
     a serial algorithm will be used


     G-vector sticks info
     --------------------
     sticks:   dense  smooth     PW     G-vecs:    dense   smooth      PW
     Sum        8141    4073   1157               359607   127159   19361



     bravais-lattice index     =            0
     lattice parameter (alat)  =      17.3663  a.u.
     unit-cell volume          =    2661.2607 (a.u.)^3
     number of atoms/cell      =           36
     number of atomic types    =            4
     number of electrons       =       129.00
     number of Kohn-Sham states=           78
     kinetic-energy cutoff     =      50.0000  Ry
     charge density cutoff     =     400.0000  Ry
     Exchange-correlation      =  SLA  PW   PBX  PBC ( 1  4  3  4 0 0)

     celldm(1)=  17.366270  celldm(2)=   0.000000  celldm(3)=   0.000000
     celldm(4)=   0.000000  celldm(5)=   0.000000  celldm(6)=   0.000000

     crystal axes: (cart. coord. in units of alat)
               a(1) = (   0.480370  -0.877066   0.000390 )  
               a(2) = (   0.484723   0.879573   0.000233 )  
               a(3) = (   0.000374  -0.000047   0.599445 )  

     reciprocal axes: (cart. coord. in units 2 pi/alat)
               b(1) = (  1.037656 -0.571840 -0.000693 )  
               b(2) = (  1.034698  0.566705 -0.000602 )  
               b(3) = ( -0.001076  0.000151  1.668210 )  


     PseudoPot. # 1 for  H read from file:
     C:/Users/Acer/Desktop/Quantum_Espresso/pseudo/H.UPF
     MD5 check sum: f872269930354f4c44a8fadb7eac41ed
     Pseudo is Projector augmented-wave, Zval =  1.0
     Generated using "atomic" code by A. Dal Corso  v.5.1.2
     Shape of augmentation charge: PSQ
     Using radial grid of  929 points,  2 beta functions with: 
                l(1) =   0
                l(2) =   0
     Q(r) pseudized with 0 coefficients 


     PseudoPot. # 2 for K  read from file:
     C:/Users/Acer/Desktop/Quantum_Espresso/pseudo/K.UPF
     MD5 check sum: 86a9a9c3c3350590e9a8cd52a3b0554c
     Pseudo is Norm-conserving + core correction, Zval =  1.0
     Generated by new atomic code, or converted to UPF format
     Using radial grid of 1165 points,  2 beta functions with: 
                l(1) =   0
                l(2) =   1

     PseudoPot. # 3 for Mg read from file:
     C:/Users/Acer/Desktop/Quantum_Espresso/pseudo/Mg.UPF
     MD5 check sum: bcba648c56df50954a929b3b87969c21
     Pseudo is Projector augmented-wave + core cor, Zval = 10.0
     Generated using ATOMPAW code
     Shape of augmentation charge: BESSEL
     Using radial grid of 1171 points,  6 beta functions with: 
                l(1) =   0
                l(2) =   0
                l(3) =   0
                l(4) =   0
                l(5) =   1
                l(6) =   1
     Q(r) pseudized with 0 coefficients 


     PseudoPot. # 4 for Re read from file:
     C:/Users/Acer/Desktop/Quantum_Espresso/pseudo/Re.UPF
     MD5 check sum: 87e2101db7594a67200f23eb60e1a004
     Pseudo is Projector augmented-wave + core cor, Zval = 29.0
     Generated using "atomic" code by A. Dal Corso  v.5.1.2
     Shape of augmentation charge: PSQ
     Using radial grid of 1275 points,  8 beta functions with: 
                l(1) =   0
                l(2) =   0
                l(3) =   1
                l(4) =   1
                l(5) =   2
                l(6) =   2
                l(7) =   3
                l(8) =   3
     Q(r) pseudized with 0 coefficients 


     atomic species   valence    mass     pseudopotential
        H              1.00     1.00000      H( 1.00)
        K              1.00     1.00000     K ( 1.00)
        Mg            10.00     1.00000     Mg( 1.00)
        Re            29.00     1.00000     Re( 1.00)

     No symmetry found



   Cartesian axes

     site n.     atom                  positions (alat units)
         1           K   tau(   1) = (   0.1192296   0.2296516   0.2999325  )
         2           Mg  tau(   2) = (   0.7058223  -0.0021687   0.2986898  )
         3           K   tau(   3) = (   0.1170478  -0.2295493   0.2999216  )
         4           K   tau(   4) = (   0.3014951   0.5172281   0.0000468  )
         5           K   tau(   5) = (   0.3898025   0.0012873   0.0001589  )
         6           K   tau(   6) = (   0.2989205  -0.5126991   0.0001251  )
         7           Re  tau(   7) = (   0.5002974  -0.2661256   0.2999728  )
         8           Re  tau(   8) = (   0.5031277   0.2682660   0.2999358  )
         9           Re  tau(   9) = (  -0.0342172   0.0005539   0.0003961  )
        10           H   tau(  10) = (   0.5479381  -0.3908547   0.4294833  )
        11           H   tau(  11) = (   0.5800540  -0.1566982   0.4311384  )
        12           H   tau(  12) = (   0.3805923  -0.2551994   0.4421875  )
        13           H   tau(  13) = (   0.3825347   0.2572440   0.1584795  )
        14           H   tau(  14) = (   0.3804584  -0.2552669   0.1578440  )
        15           H   tau(  15) = (   0.5477629  -0.3910996   0.1705667  )
        16           H   tau(  16) = (   0.5797036  -0.1568113   0.1683687  )
        17           H   tau(  17) = (   0.5499076   0.3930202   0.4298086  )
        18           H   tau(  18) = (   0.5826884   0.1582705   0.4302156  )
        19           H   tau(  19) = (   0.0493600  -0.1645111   0.0002220  )
        20           H   tau(  20) = (   0.7421973  -0.0014962   0.0012546  )
        21           H   tau(  21) = (   0.0538758   0.1629344   0.0001056  )
        22           H   tau(  22) = (   0.3806217  -0.7663522   0.1375977  )
        23           H   tau(  23) = (   0.1012532   0.0002100   0.4734351  )
        24           H   tau(  24) = (   0.3839351   0.7731467   0.4582074  )
        25           H   tau(  25) = (   0.3842539   0.7727354   0.1425869  )
        26           H   tau(  26) = (   0.1013631   0.0002035   0.1262895  )
        27           H   tau(  27) = (   0.3805651  -0.7668115   0.4634784  )
        28           H   tau(  28) = (   0.3839329   0.4085678   0.2999804  )
        29           H   tau(  29) = (   0.6841701   0.2960391   0.2998803  )
        30           H   tau(  30) = (   0.4138127   0.1089410   0.2999739  )
        31           H   tau(  31) = (   0.4114732  -0.1065514   0.2999292  )
        32           H   tau(  32) = (   0.6820548  -0.2917757   0.2999815  )
        33           H   tau(  33) = (   0.3810352  -0.4060585   0.3000838  )
        34           H   tau(  34) = (   0.3827011   0.2571069   0.4414889  )
        35           H   tau(  35) = (   0.5496454   0.3932149   0.1701978  )
        36           H   tau(  36) = (   0.5823892   0.1583293   0.1693262  )

     number of k points=   260 (tetrahedron method)

     Number of k-points >= 100: set verbosity='high' to print them.

     Dense  grid:   359607 G-vectors     FFT dimensions: ( 120, 120,  72)

     Smooth grid:   127159 G-vectors     FFT dimensions: (  80,  80,  48)

     Estimated max dynamical RAM per process >     345.75MB

     The potential is recalculated from file :
     ./tmp/09_K5MgReH93.save/charge-density.dat

     Starting wfc are  108 randomized atomic wfcs
     Checking if some PAW data can be deallocated... 

     Band Structure Calculation
     Davidson diagonalization with overlap
     c_bands:  1 eigenvalues not converged
     c_bands:  1 eigenvalues not converged
     c_bands:  1 eigenvalues not converged
     c_bands:  1 eigenvalues not converged
     c_bands:  1 eigenvalues not converged
     c_bands:  1 eigenvalues not converged
     c_bands:  1 eigenvalues not converged
     c_bands:  1 eigenvalues not converged
     c_bands:  1 eigenvalues not converged
     c_bands:  1 eigenvalues not converged
     c_bands:  1 eigenvalues not converged
     c_bands:  1 eigenvalues not converged
     c_bands:  1 eigenvalues not converged
     c_bands:  1 eigenvalues not converged
     c_bands:  1 eigenvalues not converged

     ethr =  7.75E-12,  avg # of iterations = 64.2

     total cpu time spent up to now is     7649.4 secs

     End of band structure calculation

     Number of k-points >= 100: set verbosity='high' to print the bands.

     the Fermi energy is     5.5565 ev

     Writing output data file 09_K5MgReH93.save

     init_run     :     62.38s CPU     53.90s WALL (       1 calls)
     electrons    :  22221.47s CPU   7594.61s WALL (       1 calls)

     Called by init_run:
     wfcinit      :      0.00s CPU      0.00s WALL (       1 calls)
     potinit      :      2.47s CPU      1.51s WALL (       1 calls)

     Called by electrons:
     c_bands      :  22221.27s CPU   7594.39s WALL (       1 calls)
     v_of_rho     :      0.56s CPU      0.56s WALL (       1 calls)
     newd         :     11.62s CPU      3.25s WALL (       1 calls)
     PAW_pot      :      1.86s CPU      0.87s WALL (       1 calls)

     Called by c_bands:
     init_us_2    :      5.78s CPU      4.12s WALL (     260 calls)
     cegterg      :  20876.22s CPU   7203.54s WALL (     962 calls)

     Called by sum_band:

     Called by *egterg:
     h_psi        :  11999.53s CPU   3879.68s WALL (   17912 calls)
     s_psi        :   1780.39s CPU    310.99s WALL (   17912 calls)
     g_psi        :     20.50s CPU     13.87s WALL (   16690 calls)
     cdiaghg      :   1679.84s CPU   2026.56s WALL (   16950 calls)

     Called by h_psi:
     h_psi:pot    :  11972.75s CPU   3858.86s WALL (   17912 calls)
     h_psi:calbec :   1752.27s CPU    279.35s WALL (   17912 calls)
     vloc_psi     :   8505.38s CPU   3294.63s WALL (   17912 calls)
     add_vuspsi   :   1714.72s CPU    284.77s WALL (   17912 calls)

     General routines
     calbec       :   1752.05s CPU    279.34s WALL (   17912 calls)
     fft          :      0.19s CPU      0.19s WALL (      13 calls)
     ffts         :      0.00s CPU      0.01s WALL (       1 calls)
     fftw         :   6666.06s CPU   1904.24s WALL (  793806 calls)
     interpolate  :      0.00s CPU      0.02s WALL (       1 calls)
     davcio       :      2.05s CPU      4.32s WALL (     260 calls)

     Parallel routines
     fft_scatter  :    110.30s CPU    412.71s WALL (  793820 calls)

     PWSCF        :     6h11m CPU        2h 7m WALL


   This run was terminated on:  10:57:42  24Dec2025            

=------------------------------------------------------------------------------=
   JOB DONE.
=------------------------------------------------------------------------------=
