
     Program PWSCF v.7.5 starts on  5Apr2026 at  3:41:21 

     This program is part of the open-source Quantum ESPRESSO suite
     for quantum simulation of materials; please cite
         "P. Giannozzi et al., J. Phys.:Condens. Matter 21 395502 (2009);
         "P. Giannozzi et al., J. Phys.:Condens. Matter 29 465901 (2017);
         "P. Giannozzi et al., J. Chem. Phys. 152 154105 (2020);
          URL http://www.quantum-espresso.org", 
     in publications or presentations arising from this work. More details at
     http://www.quantum-espresso.org/quote

     Parallel version (MPI), running on     2 processors

     MPI processes distributed on     1 nodes
     7000 MiB available memory on the printing compute node when the environment starts

     Waiting for input...
     Reading input from standard input

     Current dimensions of program PWSCF are:
     Max number of different atomic species (ntypx) = 10
     Max number of k-points (npk) =  40000
     Max angular momentum in pseudopotentials (lmaxx) =  4
     file H.UPF: wavefunction(s)  1S renormalized

     Exact exchange band parallelism type set to band_pairs


     R & G space division:  proc/nbgrp/npool/nimage =       2
     Subspace diagonalization in iterative solution of the eigenvalue problem:
     a serial algorithm will be used


     Parallelization info
     --------------------
     sticks:   dense  smooth     PW     G-vecs:    dense   smooth      PW
     Min         477     237     75                 9788     3426     604
     Max         478     238     76                 9791     3429     607
     Sum         955     475    151                19579     6855    1211

     Using Slab Decomposition



     bravais-lattice index     =            0
     lattice parameter (alat)  =       5.8922  a.u.
     unit-cell volume          =     144.6468 (a.u.)^3
     number of atoms/cell      =            3
     number of atomic types    =            2
     number of electrons       =        14.00
     number of Kohn-Sham states=           11
     kinetic-energy cutoff     =      50.0000  Ry
     charge density cutoff     =     400.0000  Ry
     scf convergence threshold =      1.0E-06
     mixing beta               =       0.7000
     number of iterations used =            8  plain     mixing
     energy convergence thresh.=      1.0E-04
     force convergence thresh. =      1.0E-03
     press convergence thresh. =      5.0E-01
     Exchange-correlation= SLA  PW   PBE  PBE
                           (   1   4   3   4   0   0   0)
     nstep                     =           50


     celldm(1)=   5.892162  celldm(2)=   0.000000  celldm(3)=   0.000000
     celldm(4)=   0.000000  celldm(5)=   0.000000  celldm(6)=   0.000000

     crystal axes: (cart. coord. in units of alat)
               a(1) = (   0.866025  -0.000000   0.500000 )  
               a(2) = (   0.288675   0.816496   0.500000 )  
               a(3) = (  -0.000000  -0.000000   1.000000 )  

     reciprocal axes: (cart. coord. in units 2 pi/alat)
               b(1) = (  1.154701 -0.408248  0.000000 )  
               b(2) = (  0.000000  1.224745  0.000000 )  
               b(3) = ( -0.577351 -0.408249  1.000000 )  


     PseudoPot. # 1 for H  read from file:
     /home/marco/ZOS_Cloud_Compute/pseudo/H.UPF
     MD5 check sum: 850d63dcbcc06c5de8b44e0ab9f952da
     Pseudo is Projector augmented-wave, Zval =  1.0
     Generated using "atomic" code by A. Dal Corso  v.5.1.2
     Shape of augmentation charge: PSQ
     Using radial grid of  929 points,  2 beta functions with: 
                l(1) =   0
                l(2) =   0
     Q(r) pseudized with 0 coefficients 


     PseudoPot. # 2 for Ti read from file:
     /home/marco/ZOS_Cloud_Compute/pseudo/Ti.UPF
     MD5 check sum: 8e4df49b7f0d34bbd5052bf3f5ea0213
     Pseudo is Ultrasoft, Zval = 12.0
     Generated by new atomic code, or converted to UPF format
     Using radial grid of  851 points,  6 beta functions with: 
                l(1) =   0
                l(2) =   0
                l(3) =   1
                l(4) =   1
                l(5) =   2
                l(6) =   2
     Q(r) pseudized with  8 coefficients,  rinner =    1.000   1.000   1.000
                                                       1.000   1.000

     atomic species   valence    mass     pseudopotential
     H                 1.00     1.00000     H ( 1.00)
     Ti               12.00     1.00000     Ti( 1.00)

     No symmetry found



   Cartesian axes

     site n.     atom                  positions (alat units)
         1        Ti     tau(   1) = (   0.0000000  -0.0000000   0.0000000  )
         2        H      tau(   2) = (   0.8660252   0.6123721   1.5000003  )
         3        H      tau(   3) = (   0.2886750   0.2041239   0.5000000  )

     number of k points=     8  Methfessel-Paxton smearing, width (Ry)=  0.0200
                       cart. coord. in units 2pi/alat
        k(    1) = (   0.0000000   0.0000000   0.0000000), wk =   0.2500000
        k(    2) = (   0.2886754   0.2041244  -0.5000001), wk =   0.2500000
        k(    3) = (   0.0000000  -0.6123726   0.0000000), wk =   0.2500000
        k(    4) = (   0.2886754  -0.4082482  -0.5000001), wk =   0.2500000
        k(    5) = (  -0.5773503   0.2041242  -0.0000002), wk =   0.2500000
        k(    6) = (  -0.2886749   0.4082486  -0.5000003), wk =   0.2500000
        k(    7) = (  -0.5773503  -0.4082484  -0.0000002), wk =   0.2500000
        k(    8) = (  -0.2886749  -0.2041240  -0.5000003), wk =   0.2500000

     Dense  grid:    19579 G-vectors     FFT dimensions: (  40,  40,  40)

     Smooth grid:     6855 G-vectors     FFT dimensions: (  27,  27,  27)

     Estimated max dynamical RAM per process >      43.76 MB

     Estimated total dynamical RAM >      87.51 MB

     Initial potential from superposition of free atoms

     starting charge      12.9999, renormalised to      14.0000
     Starting wfcs are   12 randomized atomic wfcs
     Checking if some PAW data can be deallocated... 

     total cpu time spent up to now is        1.0 secs

     Self-consistent Calculation

     iteration #  1     ecut=    50.00 Ry     beta= 0.70
     Davidson diagonalization with overlap
     ethr =  1.00E-02,  avg # of iterations =  3.6

     total cpu time spent up to now is        1.5 secs

     total energy              =    -118.83405158 Ry
     estimated scf accuracy    <       0.59262487 Ry

     iteration #  2     ecut=    50.00 Ry     beta= 0.70
     Davidson diagonalization with overlap
     ethr =  4.23E-03,  avg # of iterations =  4.0

     total cpu time spent up to now is        2.0 secs

     total energy              =    -119.00622959 Ry
     estimated scf accuracy    <       0.27044691 Ry

     iteration #  3     ecut=    50.00 Ry     beta= 0.70
     Davidson diagonalization with overlap
     ethr =  1.93E-03,  avg # of iterations =  3.4

     total cpu time spent up to now is        2.5 secs

     total energy              =    -119.05887762 Ry
     estimated scf accuracy    <       0.00168191 Ry

     iteration #  4     ecut=    50.00 Ry     beta= 0.70
     Davidson diagonalization with overlap
     ethr =  1.20E-05,  avg # of iterations =  3.2

     total cpu time spent up to now is        2.9 secs

     total energy              =    -119.06049030 Ry
     estimated scf accuracy    <       0.00028929 Ry

     iteration #  5     ecut=    50.00 Ry     beta= 0.70
     Davidson diagonalization with overlap
     ethr =  2.07E-06,  avg # of iterations =  2.0

     total cpu time spent up to now is        3.3 secs

     total energy              =    -119.06050395 Ry
     estimated scf accuracy    <       0.00005109 Ry

     iteration #  6     ecut=    50.00 Ry     beta= 0.70
     Davidson diagonalization with overlap
     ethr =  3.65E-07,  avg # of iterations =  2.5

     total cpu time spent up to now is        3.8 secs

     total energy              =    -119.06051151 Ry
     estimated scf accuracy    <       0.00000379 Ry

     iteration #  7     ecut=    50.00 Ry     beta= 0.70
     Davidson diagonalization with overlap
     ethr =  2.71E-08,  avg # of iterations =  4.0

     total cpu time spent up to now is        4.2 secs

     End of self-consistent calculation

          k = 0.0000 0.0000 0.0000 (   869 PWs)   bands (ev):

   -44.6745 -20.7815 -20.7813 -20.7811   1.4971  12.0768  12.0769  12.0770
    12.5237  13.9471  13.9472

          k = 0.2887 0.2041-0.5000 (   862 PWs)   bands (ev):

   -44.6127 -21.2071 -20.8346 -20.8344   4.7631   6.8892  12.1944  12.1945
    14.7704  14.7705  17.2625

          k = 0.0000-0.6124 0.0000 (   862 PWs)   bands (ev):

   -44.6127 -21.2075 -20.8344 -20.8342   4.7632   6.8890  12.1947  12.1947
    14.7703  14.7704  17.2623

          k = 0.2887-0.4082-0.5000 (   846 PWs)   bands (ev):

   -44.5924 -21.1969 -20.9220 -20.9218   6.1410   6.8323   9.1977  14.8792
    14.8935  14.8936  19.5530

          k =-0.5774 0.2041-0.0000 (   862 PWs)   bands (ev):

   -44.6127 -21.2073 -20.8345 -20.8343   4.7631   6.8891  12.1945  12.1946
    14.7703  14.7705  17.2624

          k =-0.2887 0.4082-0.5000 (   846 PWs)   bands (ev):

   -44.5924 -21.1971 -20.9220 -20.9217   6.1410   6.8323   9.1977  14.8793
    14.8934  14.8936  19.5530

          k =-0.5774-0.4082-0.0000 (   846 PWs)   bands (ev):

   -44.5924 -21.1969 -20.9221 -20.9217   6.1410   6.8323   9.1977  14.8792
    14.8934  14.8937  19.5530

          k =-0.2887-0.2041-0.5000 (   862 PWs)   bands (ev):

   -44.6127 -21.2073 -20.8346 -20.8342   4.7631   6.8891  12.1945  12.1946
    14.7703  14.7705  17.2624

     the Fermi energy is    12.1802 ev

!    total energy              =    -119.06051256 Ry
     estimated scf accuracy    <       0.00000030 Ry
     smearing contrib. (-TS)   =      -0.00658499 Ry
     internal energy E=F+TS    =    -119.05392758 Ry

     The total energy is F=E-TS. E is the sum of the following terms:
     one-electron contribution =     -44.07493853 Ry
     hartree contribution      =      26.33963737 Ry
     xc contribution           =     -16.10515794 Ry
     ewald contribution        =     -85.21318843 Ry
     one-center paw contrib.   =      -0.00028004 Ry

     convergence has been achieved in   7 iterations

     Forces acting on atoms (cartesian axes, Ry/au):

     atom    1 type  2   force =    -0.00000554   -0.00000347   -0.00000504
     atom    2 type  1   force =    -0.00000176   -0.00001005    0.00000697
     atom    3 type  1   force =     0.00000729    0.00001352   -0.00000193

     Total force =     0.000021     Total SCF correction =     0.000069
     SCF correction compared to forces is large: reduce conv_thr to get better values


     Computing stress (Cartesian axis) and pressure

          total   stress  (Ry/bohr**3)                   (kbar)     P=      100.93
   0.00068651   0.00000003  -0.00000048          100.99        0.00       -0.07
   0.00000003   0.00068486  -0.00000036            0.00      100.75       -0.05
  -0.00000048  -0.00000036   0.00068692           -0.07       -0.05      101.05


     BFGS Geometry Optimization
     Energy error            =      5.0E-03 Ry
     Gradient error          =      1.4E-05 Ry/Bohr
     Cell gradient error     =      1.0E+02 kbar

     number of scf cycles    =   1
     number of bfgs steps    =   0

     enthalpy           new  =    -119.0605125636 Ry

     new trust radius        =       0.0413074776 bohr
     new conv_thr            =       0.0000010000 Ry

     new unit-cell volume =    152.21833 a.u.^3 (    22.55643 Ang^3 )
     density =      0.22085 g/cm^3

CELL_PARAMETERS (angstrom)
   2.746590288  -0.000012133   1.585740381
   0.915519214   2.589409359   1.585738830
  -0.000038196  -0.000028189   3.171542106

ATOMIC_POSITIONS (angstrom)
Ti              -0.0000029799       -0.0000018679       -0.0000027122
H                2.7465535519        1.9420208610        4.7572699921
H                0.9155217515        0.6473490264        1.5857540379



     Writing config-only to output data dir ./tmp/TiH2.save/ :
     XML data file
     NEW-OLD atomic charge density approx. for the potential
     New effective cutoffs (rho, wfc):  384.16   47.68

     total cpu time spent up to now is        5.4 secs

     Self-consistent Calculation

     iteration #  1     ecut=    50.00 Ry     beta= 0.70
     Davidson diagonalization with overlap
     ethr =  1.00E-06,  avg # of iterations =  6.4

     total cpu time spent up to now is        6.1 secs

     total energy              =    -119.06339475 Ry
     estimated scf accuracy    <       0.00025352 Ry

     iteration #  2     ecut=    50.00 Ry     beta= 0.70
     Davidson diagonalization with overlap
     ethr =  1.81E-06,  avg # of iterations =  4.0

     total cpu time spent up to now is        6.6 secs

     total energy              =    -119.06344346 Ry
     estimated scf accuracy    <       0.00024392 Ry

     iteration #  3     ecut=    50.00 Ry     beta= 0.70
     Davidson diagonalization with overlap
     ethr =  1.74E-06,  avg # of iterations =  2.8

     total cpu time spent up to now is        6.9 secs

     total energy              =    -119.06349878 Ry
     estimated scf accuracy    <       0.00000243 Ry

     iteration #  4     ecut=    50.00 Ry     beta= 0.70
     Davidson diagonalization with overlap
     ethr =  1.73E-08,  avg # of iterations =  3.8

     total cpu time spent up to now is        7.4 secs

     total energy              =    -119.06350094 Ry
     estimated scf accuracy    <       0.00000180 Ry

     iteration #  5     ecut=    50.00 Ry     beta= 0.70
     Davidson diagonalization with overlap
     ethr =  1.28E-08,  avg # of iterations =  2.8

     total cpu time spent up to now is        7.8 secs

     End of self-consistent calculation

          k = 0.0000 0.0000 0.0000 (   869 PWs)   bands (ev):

   -45.4844 -21.6131 -21.6131 -21.6131   1.0470  11.3735  11.3737  11.3740
    11.7446  13.1211  13.1211

          k = 0.2838 0.2007-0.4916 (   862 PWs)   bands (ev):

   -45.4354 -21.9668 -21.6579 -21.6579   4.2734   6.2205  11.4904  11.4907
    13.8842  13.8843  16.1874

          k = 0.0000-0.6021-0.0000 (   862 PWs)   bands (ev):

   -45.4354 -21.9669 -21.6579 -21.6579   4.2735   6.2210  11.4903  11.4906
    13.8843  13.8844  16.1880

          k = 0.2838-0.4014-0.4916 (   846 PWs)   bands (ev):

   -45.4193 -21.9584 -21.7310 -21.7310   5.6587   6.1462   8.6585  13.9862
    13.9961  13.9962  18.3655

          k =-0.5676 0.2007-0.0000 (   862 PWs)   bands (ev):

   -45.4354 -21.9668 -21.6579 -21.6579   4.2734   6.2207  11.4902  11.4908
    13.8842  13.8844  16.1876

          k =-0.2838 0.4014-0.4916 (   846 PWs)   bands (ev):

   -45.4193 -21.9584 -21.7310 -21.7310   5.6587   6.1462   8.6585  13.9862
    13.9961  13.9962  18.3655

          k =-0.5676-0.4014-0.0000 (   846 PWs)   bands (ev):

   -45.4193 -21.9584 -21.7310 -21.7310   5.6587   6.1462   8.6585  13.9862
    13.9961  13.9962  18.3655

          k =-0.2838-0.2007-0.4916 (   862 PWs)   bands (ev):

   -45.4354 -21.9668 -21.6579 -21.6579   4.2734   6.2207  11.4903  11.4907
    13.8842  13.8844  16.1877

     the Fermi energy is    11.4760 ev

!    total energy              =    -119.06350116 Ry
     estimated scf accuracy    <       0.00000008 Ry
     smearing contrib. (-TS)   =      -0.00665932 Ry
     internal energy E=F+TS    =    -119.05684184 Ry

     The total energy is F=E-TS. E is the sum of the following terms:
     one-electron contribution =     -46.25376541 Ry
     hartree contribution      =      27.02112463 Ry
     xc contribution           =     -16.04769643 Ry
     ewald contribution        =     -83.77622367 Ry
     one-center paw contrib.   =      -0.00028095 Ry

     convergence has been achieved in   5 iterations

     Forces acting on atoms (cartesian axes, Ry/au):

     atom    1 type  2   force =    -0.00001064   -0.00000449   -0.00000856
     atom    2 type  1   force =     0.00000679    0.00000976    0.00000031
     atom    3 type  1   force =     0.00000385   -0.00000527    0.00000825

     Total force =     0.000021     Total SCF correction =     0.000001


     Computing stress (Cartesian axis) and pressure

          total   stress  (Ry/bohr**3)                   (kbar)     P=       22.29
   0.00015215   0.00000003  -0.00000071           22.38        0.00       -0.10
   0.00000003   0.00014966  -0.00000053            0.00       22.02       -0.08
  -0.00000071  -0.00000053   0.00015271           -0.10       -0.08       22.46

     Energy error            =      3.0E-03 Ry
     Gradient error          =      1.1E-05 Ry/Bohr
     Cell gradient error     =      2.2E+01 kbar

     number of scf cycles    =   2
     number of bfgs steps    =   1

     enthalpy           old  =    -119.0605125636 Ry
     enthalpy           new  =    -119.0635011602 Ry

     CASE: enthalpy          _new < enthalpy          _old

     new trust radius        =       0.0124195012 bohr
     new conv_thr            =       0.0000000100 Ry

     new unit-cell volume =    154.51007 a.u.^3 (    22.89603 Ang^3 )
     density =      0.21758 g/cm^3

CELL_PARAMETERS (angstrom)
   2.760326698  -0.000037018   1.593658004
   0.920076003   2.602156397   1.593653941
  -0.000111746  -0.000083270   3.187504722

ATOMIC_POSITIONS (angstrom)
Ti              -0.0000105858       -0.0000050819       -0.0000088305
H                2.7602231312        1.9515280979        4.7811167452
H                0.9200794317        0.6505120699        1.5937087524



     Writing config-only to output data dir ./tmp/TiH2.save/ :
     XML data file
     NEW-OLD atomic charge density approx. for the potential
     New effective cutoffs (rho, wfc):  380.40   47.21

     total cpu time spent up to now is        8.9 secs

     Self-consistent Calculation

     iteration #  1     ecut=    50.00 Ry     beta= 0.70
     Davidson diagonalization with overlap
     ethr =  1.00E-06,  avg # of iterations =  4.0

     Threshold (ethr) on eigenvalues was too large:
     Diagonalizing with lowered threshold

     Davidson diagonalization with overlap
     ethr =  9.23E-08,  avg # of iterations =  1.6
