
     Program PWSCF v.6.1 starts on 12Dec2025 at 15:17:31 

     This program is part of the open-source Quantum ESPRESSO suite
     for quantum simulation of materials; please cite
         "P. Giannozzi et al., J. Phys.:Condens. Matter 21 395502 (2009);
          URL http://www.quantum-espresso.org", 
     in publications or presentations arising from this work. More details at
     http://www.quantum-espresso.org/quote

     Parallel version (MPI & OpenMP), running on      12 processor cores
     Number of MPI processes:                 1
     Threads/MPI process:                    12
     Waiting for input...
     Reading input from standard input

     Current dimensions of program PWSCF are:
     Max number of different atomic species (ntypx) = 10
     Max number of k-points (npk) =  40000
     Max angular momentum in pseudopotentials (lmaxx) =  3
               file H.UPF: wavefunction(s)  1S renormalized
               file Re.UPF: wavefunction(s)  5P 5D 4F renormalized

     Subspace diagonalization in iterative solution of the eigenvalue problem:
     a serial algorithm will be used


     G-vector sticks info
     --------------------
     sticks:   dense  smooth     PW     G-vecs:    dense   smooth      PW
     Sum        2557    1277    377               220261    77895   12387



     bravais-lattice index     =            0
     lattice parameter (alat)  =       9.1169  a.u.
     unit-cell volume          =    1630.7970 (a.u.)^3
     number of atoms/cell      =           22
     number of atomic types    =            4
     number of electrons       =        77.00
     number of Kohn-Sham states=           47
     kinetic-energy cutoff     =      50.0000  Ry
     charge density cutoff     =     400.0000  Ry
     convergence threshold     =      1.0E-08
     mixing beta               =       0.7000
     number of iterations used =            8  plain     mixing
     Exchange-correlation      =  SLA  PW   PBX  PBC ( 1  4  3  4 0 0)

     celldm(1)=   9.116876  celldm(2)=   0.000000  celldm(3)=   0.000000
     celldm(4)=   0.000000  celldm(5)=   0.000000  celldm(6)=   0.000000

     crystal axes: (cart. coord. in units of alat)
               a(1) = (   0.599503  -0.800372   0.000041 )  
               a(2) = (   0.606194   0.803832  -0.000054 )  
               a(3) = (  -0.000025  -0.000178   2.225353 )  

     reciprocal axes: (cart. coord. in units 2 pi/alat)
               b(1) = (  0.831194 -0.626829 -0.000041 )  
               b(2) = (  0.827617  0.619910  0.000059 )  
               b(3) = (  0.000005  0.000027  0.449367 )  


     PseudoPot. # 1 for Ba read from file:
     C:/Users/Acer/Desktop/Quantum_Espresso/pseudo/Ba.UPF
     MD5 check sum: a011de417d3466d8e94df216395bc359
     Pseudo is Ultrasoft + core correction, Zval = 10.0
     Generated by new atomic code, or converted to UPF format
     Using radial grid of  907 points,  6 beta functions with: 
                l(1) =   0
                l(2) =   0
                l(3) =   1
                l(4) =   1
                l(5) =   2
                l(6) =   2
     Q(r) pseudized with  6 coefficients,  rinner =    1.200   1.200   1.200
                                                       1.200   1.200

     PseudoPot. # 2 for Ca read from file:
     C:/Users/Acer/Desktop/Quantum_Espresso/pseudo/Ca.UPF
     MD5 check sum: 0c1c990b756df134246005b196012f4b
     Pseudo is Ultrasoft + core correction, Zval = 10.0
     Generated by new atomic code, or converted to UPF format
     Using radial grid of  845 points,  6 beta functions with: 
                l(1) =   0
                l(2) =   0
                l(3) =   1
                l(4) =   1
                l(5) =   2
                l(6) =   2
     Q(r) pseudized with  6 coefficients,  rinner =    1.200   1.200   1.200
                                                       1.200   1.200

     PseudoPot. # 3 for  H read from file:
     C:/Users/Acer/Desktop/Quantum_Espresso/pseudo/H.UPF
     MD5 check sum: 850d63dcbcc06c5de8b44e0ab9f952da
     Pseudo is Projector augmented-wave, Zval =  1.0
     Generated using "atomic" code by A. Dal Corso  v.5.1.2
     Shape of augmentation charge: PSQ
     Using radial grid of  929 points,  2 beta functions with: 
                l(1) =   0
                l(2) =   0
     Q(r) pseudized with 0 coefficients 


     PseudoPot. # 4 for Re read from file:
     C:/Users/Acer/Desktop/Quantum_Espresso/pseudo/Re.UPF
     MD5 check sum: 89f63c9a8fa23467ef1c371692ceb0a5
     Pseudo is Projector augmented-wave + core cor, Zval = 29.0
     Generated using "atomic" code by A. Dal Corso  v.5.1.2
     Shape of augmentation charge: PSQ
     Using radial grid of 1275 points,  8 beta functions with: 
                l(1) =   0
                l(2) =   0
                l(3) =   1
                l(4) =   1
                l(5) =   2
                l(6) =   2
                l(7) =   3
                l(8) =   3
     Q(r) pseudized with 0 coefficients 


     atomic species   valence    mass     pseudopotential
        Ba            10.00     1.00000     Ba( 1.00)
        Ca            10.00     1.00000     Ca( 1.00)
        H              1.00     1.00000      H( 1.00)
        Re            29.00     1.00000     Re( 1.00)

     No symmetry found



   Cartesian axes

     site n.     atom                  positions (alat units)
         1           Ba  tau(   1) = (   0.0006778  -0.0088611   0.0641380  )
         2           Ba  tau(   2) = (   0.0008747  -0.0087575   1.0478909  )
         3           Re  tau(   3) = (   0.6029898   0.2259328   0.5561471  )
         4           Ca  tau(   4) = (   0.5888659  -0.2959554   1.6689077  )
         5           H   tau(   5) = (   0.6033588  -0.0264632   0.3113603  )
         6           H   tau(   6) = (   0.6122448   0.2516208   1.7474598  )
         7           H   tau(   7) = (   0.6034065  -0.0265875   0.8008116  )
         8           H   tau(   8) = (   0.6109949   0.2517078   1.5897566  )
         9           H   tau(   9) = (   0.8214088   0.3412954   0.8068683  )
        10           H   tau(  10) = (   0.8499924  -0.3803050   1.3012715  )
        11           H   tau(  11) = (   0.8215954   0.3412581   0.3052290  )
        12           H   tau(  12) = (   0.8492856  -0.3802014   2.0368549  )
        13           H   tau(  13) = (   0.3551104  -0.3829997   1.2895126  )
        14           H   tau(  14) = (   0.3858663   0.3413741   0.8085887  )
        15           H   tau(  15) = (   0.3552742  -0.3835800   2.0479546  )
        16           H   tau(  16) = (   0.3856528   0.3413182   0.3035190  )
        17           H   tau(  17) = (   0.8964973   0.0409705   0.5560849  )
        18           H   tau(  18) = (   0.9987889  -0.0224917   1.6716168  )
        19           H   tau(  19) = (   0.2000189   0.0166382   1.6695710  )
        20           H   tau(  20) = (   0.3096067   0.0403694   0.5560621  )
        21           H   tau(  21) = (   0.6046646   0.5787590   0.5562134  )
        22           H   tau(  22) = (   0.5995490  -0.8223271   1.6702571  )

     number of k points=    36  Methfessel-Paxton smearing, width (Ry)=  0.0100
                       cart. coord. in units 2pi/alat
        k(    1) = (   0.0000000   0.0000000   0.0000000), wk =   0.0312500
        k(    2) = (   0.0000011   0.0000067   0.1123417), wk =   0.0625000
        k(    3) = (  -0.0000023  -0.0000133  -0.2246834), wk =   0.0312500
        k(    4) = (   0.2069041   0.1549776   0.0000147), wk =   0.0625000
        k(    5) = (   0.2069053   0.1549842   0.1123564), wk =   0.0625000
        k(    6) = (   0.2069019   0.1549642  -0.2246687), wk =   0.0625000
        k(    7) = (   0.2069030   0.1549709  -0.1123270), wk =   0.0625000
        k(    8) = (  -0.4138083  -0.3099551  -0.0000295), wk =   0.0312500
        k(    9) = (  -0.4138071  -0.3099485   0.1123123), wk =   0.0625000
        k(   10) = (  -0.4138106  -0.3099685  -0.2247129), wk =   0.0312500
        k(   11) = (   0.2077984  -0.1567072  -0.0000102), wk =   0.0625000
        k(   12) = (   0.2077996  -0.1567006   0.1123315), wk =   0.0625000
        k(   13) = (   0.2077962  -0.1567206  -0.2246937), wk =   0.0625000
        k(   14) = (   0.2077973  -0.1567139  -0.1123519), wk =   0.0625000
        k(   15) = (   0.4147026  -0.0017297   0.0000045), wk =   0.0625000
        k(   16) = (   0.4147037  -0.0017230   0.1123462), wk =   0.0625000
        k(   17) = (   0.4147003  -0.0017430  -0.2246789), wk =   0.0625000
        k(   18) = (   0.4147015  -0.0017363  -0.1123372), wk =   0.0625000
        k(   19) = (  -0.2060098  -0.4666624  -0.0000397), wk =   0.0625000
        k(   20) = (  -0.2060087  -0.4666557   0.1123020), wk =   0.0625000
        k(   21) = (  -0.2060121  -0.4666757  -0.2247231), wk =   0.0625000
        k(   22) = (  -0.2060110  -0.4666691  -0.1123814), wk =   0.0625000
        k(   23) = (   0.0008943  -0.3116848  -0.0000250), wk =   0.0625000
        k(   24) = (   0.0008954  -0.3116781   0.1123168), wk =   0.0625000
        k(   25) = (   0.0008920  -0.3116982  -0.2247084), wk =   0.0625000
        k(   26) = (   0.0008932  -0.3116915  -0.1123667), wk =   0.0625000
        k(   27) = (  -0.4155969   0.3134145   0.0000205), wk =   0.0312500
        k(   28) = (  -0.4155958   0.3134212   0.1123622), wk =   0.0625000
        k(   29) = (  -0.4155992   0.3134011  -0.2246630), wk =   0.0312500
        k(   30) = (  -0.2086928   0.4683921   0.0000352), wk =   0.0625000
        k(   31) = (  -0.2086916   0.4683987   0.1123769), wk =   0.0625000
        k(   32) = (  -0.2086950   0.4683787  -0.2246482), wk =   0.0625000
        k(   33) = (  -0.2086939   0.4683854  -0.1123065), wk =   0.0625000
        k(   34) = (  -0.8294052   0.0034593  -0.0000090), wk =   0.0312500
        k(   35) = (  -0.8294040   0.0034660   0.1123327), wk =   0.0625000
        k(   36) = (  -0.8294075   0.0034460  -0.2246924), wk =   0.0312500

     Dense  grid:   220261 G-vectors     FFT dimensions: (  60,  60, 135)

     Smooth grid:    77895 G-vectors     FFT dimensions: (  45,  45,  96)

     Estimated max dynamical RAM per process >     464.12MB

     Check: negative/imaginary core charge=   -0.000002    0.000000

     Initial potential from superposition of free atoms
     Check: negative starting charge=   -0.000159

     starting charge   76.96407, renormalised to   77.00000

     negative rho (up, down):  1.590E-04 0.000E+00
     Starting wfc are   71 randomized atomic wfcs
     Checking if some PAW data can be deallocated... 

     total cpu time spent up to now is       60.0 secs

     Self-consistent Calculation

     iteration #  1     ecut=    50.00 Ry     beta=0.70
     Davidson diagonalization with overlap
     ethr =  1.00E-02,  avg # of iterations =  3.0

     negative rho (up, down):  1.442E-04 0.000E+00

     total cpu time spent up to now is      113.2 secs

     total energy              =   -1670.72716095 Ry
     Harris-Foulkes estimate   =   -1671.09266510 Ry
     estimated scf accuracy    <       0.81098264 Ry

     iteration #  2     ecut=    50.00 Ry     beta=0.70
     Davidson diagonalization with overlap
     ethr =  1.05E-03,  avg # of iterations =  4.1

     negative rho (up, down):  1.255E-04 0.000E+00

     total cpu time spent up to now is      170.5 secs

     total energy              =   -1670.81118399 Ry
     Harris-Foulkes estimate   =   -1670.85978735 Ry
     estimated scf accuracy    <       0.07594291 Ry

     iteration #  3     ecut=    50.00 Ry     beta=0.70
     Davidson diagonalization with overlap
     ethr =  9.86E-05,  avg # of iterations =  6.8

     negative rho (up, down):  1.271E-04 0.000E+00

     total cpu time spent up to now is      247.7 secs

     total energy              =   -1670.81940767 Ry
     Harris-Foulkes estimate   =   -1670.87097996 Ry
     estimated scf accuracy    <       0.11713956 Ry

     iteration #  4     ecut=    50.00 Ry     beta=0.70
     Davidson diagonalization with overlap
     ethr =  9.86E-05,  avg # of iterations =  7.3

     negative rho (up, down):  1.267E-04 0.000E+00

     total cpu time spent up to now is      320.7 secs

     total energy              =   -1670.84338559 Ry
     Harris-Foulkes estimate   =   -1670.84901346 Ry
     estimated scf accuracy    <       0.01412003 Ry

     iteration #  5     ecut=    50.00 Ry     beta=0.70
     Davidson diagonalization with overlap
     ethr =  1.83E-05,  avg # of iterations =  3.7

     negative rho (up, down):  1.258E-04 0.000E+00

     total cpu time spent up to now is      374.8 secs

     total energy              =   -1670.84621993 Ry
     Harris-Foulkes estimate   =   -1670.84718466 Ry
     estimated scf accuracy    <       0.00269468 Ry

     iteration #  6     ecut=    50.00 Ry     beta=0.70
     Davidson diagonalization with overlap
     ethr =  3.50E-06,  avg # of iterations =  5.9

     negative rho (up, down):  1.256E-04 0.000E+00

     total cpu time spent up to now is      436.9 secs

     total energy              =   -1670.84656135 Ry
     Harris-Foulkes estimate   =   -1670.84690684 Ry
     estimated scf accuracy    <       0.00112357 Ry

     iteration #  7     ecut=    50.00 Ry     beta=0.70
     Davidson diagonalization with overlap
     ethr =  1.46E-06,  avg # of iterations =  4.3

     negative rho (up, down):  1.254E-04 0.000E+00

     total cpu time spent up to now is      489.3 secs

     total energy              =   -1670.84677046 Ry
     Harris-Foulkes estimate   =   -1670.84679289 Ry
     estimated scf accuracy    <       0.00011489 Ry

     iteration #  8     ecut=    50.00 Ry     beta=0.70
     Davidson diagonalization with overlap
     ethr =  1.49E-07,  avg # of iterations =  2.1

     negative rho (up, down):  1.252E-04 0.000E+00

     total cpu time spent up to now is      536.1 secs

     total energy              =   -1670.84679059 Ry
     Harris-Foulkes estimate   =   -1670.84679071 Ry
     estimated scf accuracy    <       0.00000335 Ry

     iteration #  9     ecut=    50.00 Ry     beta=0.70
     Davidson diagonalization with overlap
     ethr =  4.35E-09,  avg # of iterations =  3.2

     negative rho (up, down):  1.251E-04 0.000E+00

     total cpu time spent up to now is      596.1 secs

     total energy              =   -1670.84679219 Ry
     Harris-Foulkes estimate   =   -1670.84679223 Ry
     estimated scf accuracy    <       0.00000038 Ry

     iteration # 10     ecut=    50.00 Ry     beta=0.70
     Davidson diagonalization with overlap
     ethr =  4.98E-10,  avg # of iterations =  2.9

     negative rho (up, down):  1.250E-04 0.000E+00

     total cpu time spent up to now is      649.2 secs

     total energy              =   -1670.84679231 Ry
     Harris-Foulkes estimate   =   -1670.84679230 Ry
     estimated scf accuracy    <       0.00000003 Ry

     iteration # 11     ecut=    50.00 Ry     beta=0.70
     Davidson diagonalization with overlap
     ethr =  4.06E-11,  avg # of iterations =  3.0

     negative rho (up, down):  1.250E-04 0.000E+00

     total cpu time spent up to now is      707.6 secs

     End of self-consistent calculation

          k = 0.0000 0.0000 0.0000 (  9763 PWs)   bands (ev):

   -74.7593 -36.6633 -36.6452 -36.6425 -35.7621 -31.8817 -31.8786 -31.8773
   -31.8746 -31.8620 -31.8609 -31.8581 -22.4682 -22.4626 -16.9448 -16.7589
   -16.6922  -8.0439  -7.7679  -7.6455  -7.6246  -7.5816  -7.5659  -4.2104
    -3.0881  -1.7865   0.2887   0.4454   0.4497   0.7878   0.8363   1.5088
     1.7307   2.0301   2.2829   2.5649   2.7291   3.0284   3.5257   7.0439
     7.4800   7.6736   7.8260   8.0479   8.5914   8.7536   8.9383

          k = 0.0000 0.0000 0.1123 (  9758 PWs)   bands (ev):

   -74.7593 -36.6633 -36.6451 -36.6425 -35.7621 -31.8817 -31.8786 -31.8772
   -31.8746 -31.8620 -31.8609 -31.8581 -22.4681 -22.4628 -16.9448 -16.7589
   -16.6922  -8.0197  -7.7976  -7.6447  -7.6254  -7.5810  -7.5663  -4.1753
    -3.1279  -1.7854   0.2900   0.4466   0.4820   0.7854   0.8365   1.5117
     1.7189   2.0225   2.2790   2.5229   2.7368   3.1034   3.4554   6.9029
     7.4554   7.7075   7.9244   8.4148   8.4512   8.7237   8.9181

          k =-0.0000-0.0000-0.2247 (  9762 PWs)   bands (ev):

   -74.7593 -36.6633 -36.6451 -36.6426 -35.7621 -31.8817 -31.8786 -31.8772
   -31.8746 -31.8620 -31.8609 -31.8581 -22.4680 -22.4629 -16.9448 -16.7589
   -16.6922  -7.9869  -7.8359  -7.6438  -7.6263  -7.5803  -7.5667  -4.1377
    -3.1701  -1.7843   0.2913   0.4478   0.5151   0.7830   0.8368   1.5147
     1.7075   2.0149   2.2752   2.4829   2.7415   3.2544   3.3087   6.8027
     7.4383   7.7353   8.1437   8.2021   8.6870   8.8663   8.8842

          k = 0.2069 0.1550 0.0000 (  9729 PWs)   bands (ev):

   -74.7593 -36.6634 -36.6451 -36.6425 -35.7619 -31.8817 -31.8785 -31.8772
   -31.8745 -31.8620 -31.8608 -31.8580 -22.4648 -22.4595 -16.9491 -16.7616
   -16.6919  -8.0060  -7.7555  -7.7453  -7.7072  -7.6026  -7.5875  -3.9620
    -2.8797  -2.1300   0.1833   0.2033   0.7007   0.9326   1.0677   1.3143
     1.5753   2.1326   2.4275   2.5373   2.7788   2.9547   3.6281   7.1613
     7.3664   7.6989   7.8695   8.0952   8.4762   8.7952   8.8946

          k = 0.2069 0.1550 0.1124 (  9732 PWs)   bands (ev):

   -74.7593 -36.6635 -36.6452 -36.6425 -35.7619 -31.8817 -31.8785 -31.8772
   -31.8745 -31.8620 -31.8608 -31.8580 -22.4646 -22.4596 -16.9491 -16.7616
   -16.6919  -7.9843  -7.7832  -7.7417  -7.7091  -7.6021  -7.5878  -3.9380
    -2.9020  -2.1300   0.1753   0.2045   0.7053   0.9327   1.0781   1.3662
     1.5773   2.0036   2.3937   2.6201   2.7572   2.9900   3.6301   6.9685
     7.5502   7.6861   7.9405   8.1409   8.5926   8.7982   8.9088

          k = 0.2069 0.1550-0.2247 (  9753 PWs)   bands (ev):

   -74.7593 -36.6635 -36.6452 -36.6426 -35.7619 -31.8817 -31.8785 -31.8773
   -31.8745 -31.8620 -31.8609 -31.8580 -22.4645 -22.4598 -16.9491 -16.7616
   -16.6919  -7.9550  -7.8169  -7.7394  -7.7110  -7.6016  -7.5883  -3.9131
    -2.9252  -2.1301   0.1698   0.2031   0.7097   0.9322   1.0889   1.4285
     1.5949   1.8682   2.3689   2.6779   2.7361   3.0227   3.6307   6.8702
     7.6327   7.6512   7.9900   8.3998   8.4738   8.7963   8.8077

          k = 0.2069 0.1550-0.1123 (  9731 PWs)   bands (ev):

   -74.7593 -36.6634 -36.6452 -36.6425 -35.7619 -31.8817 -31.8785 -31.8772
   -31.8745 -31.8620 -31.8608 -31.8580 -22.4646 -22.4596 -16.9491 -16.7616
   -16.6919  -7.9843  -7.7832  -7.7416  -7.7091  -7.6021  -7.5878  -3.9381
    -2.9019  -2.1300   0.1755   0.2041   0.7054   0.9326   1.0785   1.3650
     1.5770   2.0060   2.3942   2.6168   2.7613   2.9870   3.6306   6.9689
     7.5504   7.6840   7.9392   8.1456   8.5885   8.7984   8.9120

          k =-0.4138-0.3100-0.0000 (  9722 PWs)   bands (ev):

   -74.7593 -36.6638 -36.6452 -36.6425 -35.7618 -31.8817 -31.8784 -31.8772
   -31.8745 -31.8619 -31.8608 -31.8579 -22.4614 -22.4564 -16.9536 -16.7642
   -16.6916  -7.9729  -7.8495  -7.8052  -7.7404  -7.6054  -7.5913  -3.6225
    -2.6467  -2.5280  -0.0898   0.1826   0.7499   0.8281   1.3335   1.4144
     1.5433   1.9676   2.4326   2.6093   2.8081   3.0914   3.8507   7.0935
     7.3201   7.6260   7.9286   8.2413   8.9521   8.9733   9.1020

          k =-0.4138-0.3099 0.1123 (  9737 PWs)   bands (ev):

   -74.7593 -36.6638 -36.6452 -36.6426 -35.7618 -31.8817 -31.8785 -31.8772
   -31.8745 -31.8620 -31.8608 -31.8579 -22.4612 -22.4565 -16.9536 -16.7642
   -16.6916  -7.9544  -7.8454  -7.8085  -7.7630  -7.6050  -7.5916  -3.6067
    -2.6461  -2.5362  -0.1060   0.1809   0.7440   0.8500   1.3307   1.3540
     1.6189   1.9241   2.4579   2.6120   2.8197   3.0731   3.8527   6.9761
     7.4466   7.6658   8.0039   8.2394   8.7604   8.9644   9.0539

          k =-0.4138-0.3100-0.2247 (  9720 PWs)   bands (ev):

   -74.7593 -36.6637 -36.6452 -36.6424 -35.7618 -31.8817 -31.8784 -31.8773
   -31.8744 -31.8620 -31.8608 -31.8579 -22.4611 -22.4567 -16.9536 -16.7642
   -16.6916  -7.9308  -7.8375  -7.8144  -7.7917  -7.6047  -7.5919  -3.5906
    -2.6453  -2.5447  -0.1216   0.1790   0.7401   0.8704   1.3070   1.3371
     1.6760   1.8793   2.4779   2.6172   2.8317   3.0535   3.8548   6.9074
     7.5288   7.6864   8.1005   8.3512   8.4608   8.9437   9.1070

          k = 0.2078-0.1567-0.0000 (  9743 PWs)   bands (ev):

   -74.7593 -36.6634 -36.6454 -36.6425 -35.7619 -31.8817 -31.8785 -31.8772
   -31.8745 -31.8620 -31.8608 -31.8580 -22.4645 -22.4592 -16.9501 -16.7619
   -16.6919  -8.0042  -7.7541  -7.7420  -7.7041  -7.6138  -7.5984  -3.9593
    -2.8703  -2.1157   0.1719   0.2101   0.6871   0.9324   1.0813   1.3642
     1.5895   2.1941   2.4361   2.4950   2.7523   2.9608   3.5187   7.1531
     7.3487   7.6971   7.8806   8.1521   8.4803   8.8526   8.8834

          k = 0.2078-0.1567 0.1123 (  9730 PWs)   bands (ev):

   -74.7593 -36.6634 -36.6453 -36.6425 -35.7619 -31.8817 -31.8785 -31.8772
   -31.8745 -31.8620 -31.8608 -31.8580 -22.4643 -22.4593 -16.9501 -16.7619
   -16.6919  -7.9825  -7.7817  -7.7386  -7.7057  -7.6131  -7.5989  -3.9354
    -2.8927  -2.1157   0.1645   0.2117   0.6924   0.9315   1.0937   1.4073
     1.5931   2.0793   2.3676   2.6021   2.7323   2.9924   3.5223   6.9626
     7.5429   7.6706   7.9535   8.1963   8.6027   8.8157   8.9395

          k = 0.2078-0.1567-0.2247 (  9739 PWs)   bands (ev):

   -74.7593 -36.6633 -36.6453 -36.6426 -35.7619 -31.8817 -31.8785 -31.8772
   -31.8745 -31.8620 -31.8608 -31.8580 -22.4642 -22.4595 -16.9501 -16.7619
   -16.6919  -7.9534  -7.8154  -7.7364  -7.7075  -7.6124  -7.5995  -3.9105
    -2.9161  -2.1158   0.1583   0.2120   0.6973   0.9305   1.1056   1.4564
     1.6121   1.9570   2.3379   2.6758   2.6933   3.0277   3.5228   6.8653
     7.6349   7.6408   8.0115   8.4395   8.4505   8.7854   8.9066

          k = 0.2078-0.1567-0.1124 (  9731 PWs)   bands (ev):

   -74.7593 -36.6634 -36.6453 -36.6425 -35.7619 -31.8817 -31.8785 -31.8772
   -31.8745 -31.8620 -31.8608 -31.8580 -22.4643 -22.4593 -16.9501 -16.7619
   -16.6919  -7.9825  -7.7818  -7.7385  -7.7057  -7.6131  -7.5989  -3.9354
    -2.8926  -2.1158   0.1641   0.2120   0.6924   0.9316   1.0933   1.4079
     1.5931   2.0791   2.3673   2.6022   2.7324   2.9928   3.5220   6.9623
     7.5443   7.6686   7.9561   8.1944   8.6026   8.8183   8.9408

          k = 0.4147-0.0017 0.0000 (  9725 PWs)   bands (ev):

   -74.7593 -36.6636 -36.6453 -36.6424 -35.7617 -31.8817 -31.8786 -31.8772
   -31.8745 -31.8620 -31.8608 -31.8579 -22.4611 -22.4561 -16.9541 -16.7649
   -16.6916  -7.9643  -7.7649  -7.7411  -7.7137  -7.7106  -7.6931  -3.6745
    -2.6298  -2.4321  -0.1205   0.2838   0.6857   1.0510   1.3069   1.4291
     1.5278   1.9881   2.3706   2.3802   2.8080   3.0917   3.7466   7.0790
     7.4733   7.7835   7.8518   8.2018   8.4918   8.7275   9.0525

          k = 0.4147-0.0017 0.1123 (  9734 PWs)   bands (ev):

   -74.7593 -36.6637 -36.6453 -36.6424 -35.7617 -31.8817 -31.8786 -31.8772
   -31.8744 -31.8620 -31.8608 -31.8579 -22.4609 -22.4562 -16.9541 -16.7649
   -16.6916  -7.9445  -7.7699  -7.7578  -7.7153  -7.7087  -7.6945  -3.6595
    -2.6346  -2.4349  -0.1335   0.2824   0.6882   1.0712   1.3246   1.4360
     1.5290   1.8631   2.2901   2.5349   2.8351   3.0747   3.7549   7.0843
     7.4034   7.6345   7.8380   8.4309   8.7491   8.8317   8.9255

          k = 0.4147-0.0017-0.2247 (  9730 PWs)   bands (ev):

   -74.7593 -36.6637 -36.6453 -36.6425 -35.7617 -31.8817 -31.8786 -31.8772
   -31.8744 -31.8620 -31.8608 -31.8579 -22.4608 -22.4564 -16.9541 -16.7649
   -16.6916  -7.9178  -7.7963  -7.7599  -7.7168  -7.7068  -7.6961  -3.6443
    -2.6397  -2.4376  -0.1464   0.2811   0.6907   1.0899   1.3550   1.4273
     1.5661   1.7225   2.2750   2.6087   2.8639   3.0550   3.7633   7.0721
     7.3959   7.5166   7.8395   8.6438   8.7173   8.9221   9.0576

          k = 0.4147-0.0017-0.1123 (  9730 PWs)   bands (ev):

   -74.7593 -36.6637 -36.6454 -36.6424 -35.7617 -31.8817 -31.8785 -31.8772
   -31.8744 -31.8620 -31.8608 -31.8579 -22.4609 -22.4562 -16.9541 -16.7649
   -16.6916  -7.9445  -7.7702  -7.7575  -7.7154  -7.7087  -7.6945  -3.6595
    -2.6345  -2.4349  -0.1336   0.2824   0.6882   1.0712   1.3245   1.4362
     1.5280   1.8645   2.2904   2.5347   2.8344   3.0747   3.7548   7.0846
     7.4043   7.6322   7.8414   8.4299   8.7488   8.8312   8.9244

          k =-0.2060-0.4667-0.0000 (  9727 PWs)   bands (ev):

   -74.7593 -36.6640 -36.6453 -36.6425 -35.7616 -31.8817 -31.8786 -31.8772
   -31.8744 -31.8620 -31.8608 -31.8579 -22.4582 -22.4533 -16.9587 -16.7658
   -16.6913  -7.9452  -7.8348  -7.7960  -7.7267  -7.7129  -7.6912  -3.5646
    -2.5011  -2.4250  -0.0990   0.3332   0.6143   0.9550   1.1355   1.5288
     1.6208   2.0210   2.2103   2.3202   2.7126   2.9313   4.2512   6.7522
     7.3160   7.9534   7.9920   8.2105   8.2190   9.0783   9.1865

          k =-0.2060-0.4667 0.1123 (  9733 PWs)   bands (ev):

   -74.7593 -36.6640 -36.6454 -36.6425 -35.7616 -31.8817 -31.8785 -31.8772
   -31.8744 -31.8620 -31.8608 -31.8579 -22.4580 -22.4534 -16.9587 -16.7658
   -16.6913  -7.9271  -7.8315  -7.7985  -7.7488  -7.7117  -7.6922  -3.5522
    -2.4942  -2.4353  -0.1143   0.3335   0.6117   0.9577   1.1715   1.4727
     1.6406   2.0082   2.1305   2.4287   2.6738   2.9680   4.2401   6.7832
     7.3098   7.7184   7.9899   8.2604   8.5139   9.0996   9.2224

          k =-0.2060-0.4667-0.2247 (  9720 PWs)   bands (ev):

   -74.7593 -36.6639 -36.6454 -36.6424 -35.7616 -31.8817 -31.8785 -31.8772
   -31.8744 -31.8620 -31.8608 -31.8580 -22.4579 -22.4536 -16.9587 -16.7658
   -16.6913  -7.9038  -7.8250  -7.8025  -7.7776  -7.7106  -7.6931  -3.5396
    -2.4833  -2.4497  -0.1296   0.3337   0.6093   0.9596   1.2244   1.4070
     1.6536   1.9961   2.0871   2.5269   2.6131   3.0006   4.2286   6.8102
     7.3730   7.5063   7.9877   8.4253   8.5480   9.1510   9.2058

          k =-0.2060-0.4667-0.1124 (  9732 PWs)   bands (ev):

   -74.7593 -36.6640 -36.6454 -36.6424 -35.7616 -31.8817 -31.8785 -31.8772
   -31.8744 -31.8620 -31.8608 -31.8579 -22.4580 -22.4534 -16.9587 -16.7658
   -16.6913  -7.9271  -7.8315  -7.7986  -7.7488  -7.7117  -7.6922  -3.5522
    -2.4943  -2.4352  -0.1143   0.3334   0.6117   0.9578   1.1713   1.4736
     1.6401   2.0083   2.1295   2.4314   2.6710   2.9691   4.2399   6.7820
     7.3123   7.7179   7.9924   8.2574   8.5134   9.0999   9.2201

          k = 0.0009-0.3117-0.0000 (  9717 PWs)   bands (ev):

   -74.7593 -36.6636 -36.6453 -36.6424 -35.7618 -31.8817 -31.8784 -31.8772
   -31.8744 -31.8620 -31.8608 -31.8581 -22.4616 -22.4564 -16.9545 -16.7631
   -16.6916  -7.9818  -7.7421  -7.7296  -7.7087  -7.6949  -7.6902  -3.8770
    -2.7203  -2.1203   0.3675   0.4151   0.5061   0.5975   1.3246   1.4951
     1.7479   1.8364   2.0756   2.3257   2.5371   3.0550   4.0414   6.9501
     7.1279   8.0106   8.0268   8.1552   8.2421   8.7993   8.8130

          k = 0.0009-0.3117 0.1123 (  9725 PWs)   bands (ev):

   -74.7593 -36.6635 -36.6454 -36.6424 -35.7618 -31.8817 -31.8784 -31.8772
   -31.8745 -31.8620 -31.8608 -31.8581 -22.4614 -22.4565 -16.9545 -16.7631
   -16.6916  -7.9610  -7.7685  -7.7255  -7.7081  -7.6969  -7.6909  -3.8572
    -2.7375  -2.1206   0.3678   0.4065   0.5090   0.5997   1.3352   1.5211
     1.7645   1.8494   2.0203   2.2288   2.5937   3.1108   3.9990   6.7765
     7.3272   7.8187   8.2203   8.2534   8.3013   8.7484   8.8705

          k = 0.0009-0.3117-0.2247 (  9736 PWs)   bands (ev):

   -74.7593 -36.6636 -36.6453 -36.6425 -35.7618 -31.8817 -31.8784 -31.8773
   -31.8745 -31.8620 -31.8608 -31.8580 -22.4613 -22.4567 -16.9545 -16.7631
   -16.6916  -7.9330  -7.8005  -7.7230  -7.7074  -7.6990  -7.6916  -3.8368
    -2.7553  -2.1209   0.3680   0.3989   0.5109   0.6019   1.3460   1.5482
     1.8079   1.8671   1.9357   2.1514   2.6293   3.1694   3.9521   6.6814
     7.5563   7.6006   8.2942   8.3486   8.5167   8.5669   8.9105

          k = 0.0009-0.3117-0.1124 (  9726 PWs)   bands (ev):

   -74.7593 -36.6635 -36.6454 -36.6424 -35.7618 -31.8817 -31.8784 -31.8772
   -31.8745 -31.8620 -31.8608 -31.8581 -22.4614 -22.4565 -16.9545 -16.7631
   -16.6916  -7.9609  -7.7686  -7.7255  -7.7081  -7.6969  -7.6909  -3.8572
    -2.7375  -2.1206   0.3678   0.4068   0.5088   0.5997   1.3353   1.5214
     1.7655   1.8487   2.0167   2.2321   2.5932   3.1111   3.9987   6.7750
     7.3293   7.8189   8.2196   8.2589   8.2979   8.7464   8.8712

          k =-0.4156 0.3134 0.0000 (  9734 PWs)   bands (ev):

   -74.7593 -36.6636 -36.6456 -36.6425 -35.7617 -31.8817 -31.8784 -31.8772
   -31.8745 -31.8620 -31.8608 -31.8579 -22.4607 -22.4558 -16.9555 -16.7648
   -16.6915  -7.9692  -7.8530  -7.8078  -7.7391  -7.6167  -7.6022  -3.6158
    -2.6270  -2.5064  -0.1124   0.1891   0.7328   0.8545   1.3372   1.4322
     1.6441   2.0261   2.4529   2.5421   2.8269   3.0917   3.6521   7.0698
     7.3039   7.6232   7.7917   8.3349   8.9060   8.9830   9.1565

          k =-0.4156 0.3134 0.1124 (  9744 PWs)   bands (ev):

   -74.7593 -36.6635 -36.6456 -36.6425 -35.7617 -31.8817 -31.8785 -31.8772
   -31.8745 -31.8620 -31.8608 -31.8579 -22.4606 -22.4559 -16.9555 -16.7648
   -16.6915  -7.9510  -7.8488  -7.8107  -7.7618  -7.6163  -7.6027  -3.6001
    -2.6256  -2.5152  -0.1295   0.1898   0.7287   0.8688   1.3379   1.3908
     1.7053   1.9784   2.4660   2.5563   2.8394   3.0776   3.6494   6.9584
     7.4255   7.5955   7.9215   8.3334   8.7373   9.0263   9.0768

          k =-0.4156 0.3134-0.2247 (  9712 PWs)   bands (ev):

   -74.7593 -36.6635 -36.6455 -36.6423 -35.7617 -31.8817 -31.8784 -31.8772
   -31.8744 -31.8620 -31.8608 -31.8579 -22.4604 -22.4561 -16.9555 -16.7648
   -16.6915  -7.9278  -7.8409  -7.8150  -7.7917  -7.6157  -7.6031  -3.5842
    -2.6241  -2.5243  -0.1460   0.1901   0.7255   0.8824   1.3412   1.3582
     1.7652   1.9246   2.4732   2.5727   2.8527   3.0627   3.6467   6.8907
     7.5332   7.5476   8.0669   8.4101   8.4896   9.0503   9.0549

          k =-0.2087 0.4684 0.0000 (  9757 PWs)   bands (ev):

   -74.7593 -36.6639 -36.6456 -36.6425 -35.7616 -31.8817 -31.8786 -31.8772
   -31.8744 -31.8620 -31.8608 -31.8580 -22.4579 -22.4529 -16.9597 -16.7661
   -16.6912  -7.9434  -7.8390  -7.7996  -7.7265  -7.7157  -7.6937  -3.5624
    -2.4887  -2.4126  -0.1147   0.3327   0.6099   0.9614   1.1489   1.5667
     1.6261   2.0593   2.1840   2.3262   2.6871   2.9497   4.1581   6.7446
     7.3213   7.9539   7.9921   8.1900   8.2354   9.0666   9.2493

          k =-0.2087 0.4684 0.1124 (  9741 PWs)   bands (ev):

   -74.7593 -36.6639 -36.6456 -36.6424 -35.7616 -31.8817 -31.8785 -31.8772
   -31.8744 -31.8620 -31.8608 -31.8580 -22.4577 -22.4531 -16.9597 -16.7661
   -16.6912  -7.9254  -7.8356  -7.8020  -7.7485  -7.7144  -7.6947  -3.5501
    -2.4816  -2.4229  -0.1306   0.3334   0.6075   0.9645   1.1824   1.5116
     1.6489   2.0457   2.1011   2.4352   2.6585   2.9795   4.1452   6.7764
     7.3097   7.6944   8.0432   8.2351   8.5319   9.1180   9.2510

          k =-0.2087 0.4684-0.2246 (  9746 PWs)   bands (ev):

   -74.7593 -36.6639 -36.6456 -36.6424 -35.7616 -31.8817 -31.8785 -31.8773
   -31.8744 -31.8620 -31.8608 -31.8580 -22.4575 -22.4533 -16.9597 -16.7661
   -16.6912  -7.9024  -7.8291  -7.8053  -7.7777  -7.7132  -7.6958  -3.5376
    -2.4703  -2.4375  -0.1464   0.3340   0.6054   0.9665   1.2290   1.4528
     1.6624   2.0266   2.0613   2.5267   2.6131   3.0067   4.1320   6.8069
     7.3663   7.4771   8.0656   8.3721   8.5919   9.2174   9.2458

          k =-0.2087 0.4684-0.1123 (  9740 PWs)   bands (ev):

   -74.7593 -36.6639 -36.6456 -36.6424 -35.7616 -31.8817 -31.8785 -31.8772
   -31.8744 -31.8620 -31.8608 -31.8580 -22.4577 -22.4531 -16.9597 -16.7661
   -16.6912  -7.9254  -7.8356  -7.8020  -7.7485  -7.7144  -7.6948  -3.5501
    -2.4817  -2.4229  -0.1306   0.3334   0.6076   0.9644   1.1822   1.5118
     1.6488   2.0458   2.1019   2.4331   2.6603   2.9787   4.1452   6.7778
     7.3059   7.6973   8.0468   8.2335   8.5303   9.1172   9.2486

          k =-0.8294 0.0035-0.0000 (  9730 PWs)   bands (ev):

   -74.7593 -36.6640 -36.6457 -36.6424 -35.7614 -31.8816 -31.8785 -31.8772
   -31.8743 -31.8620 -31.8608 -31.8580 -22.4550 -22.4501 -16.9640 -16.7673
   -16.6909  -7.9206  -7.8598  -7.8180  -7.7706  -7.7552  -7.7128  -3.4885
    -2.4687  -2.2241  -0.1335   0.4244   0.5331   0.7691   1.2745   1.7175
     1.7393   1.9128   2.0137   2.1937   2.3227   3.1108   4.6669   6.4782
     7.2243   7.6269   7.7569   8.2479   8.9824   9.1664   9.2075

          k =-0.8294 0.0035 0.1123 (  9730 PWs)   bands (ev):

   -74.7593 -36.6641 -36.6457 -36.6424 -35.7614 -31.8817 -31.8785 -31.8772
   -31.8744 -31.8620 -31.8608 -31.8580 -22.4548 -22.4503 -16.9640 -16.7673
   -16.6909  -7.9038  -7.8550  -7.8207  -7.7702  -7.7557  -7.7342  -3.4780
    -2.4675  -2.2252  -0.1496   0.4234   0.5352   0.7745   1.2791   1.6467
     1.7831   1.9114   2.0201   2.1481   2.3754   3.1248   4.6616   6.5230
     7.1972   7.4637   7.7857   8.4461   8.9810   9.1463   9.1974

          k =-0.8294 0.0034-0.2247 (  9752 PWs)   bands (ev):

   -74.7593 -36.6642 -36.6456 -36.6425 -35.7614 -31.8818 -31.8785 -31.8773
   -31.8744 -31.8620 -31.8608 -31.8580 -22.4546 -22.4504 -16.9640 -16.7673
   -16.6909  -7.8843  -7.8451  -7.8240  -7.7697  -7.7633  -7.7559  -3.4675
    -2.4662  -2.2264  -0.1656   0.4224   0.5370   0.7799   1.2843   1.6062
     1.7947   1.9100   2.0305   2.1151   2.4127   3.1387   4.6562   6.5753
     7.2306   7.2654   7.8076   8.6686   8.9811   9.0869   9.1187

     the Fermi energy is     3.8151 ev

!    total energy              =   -1670.84679231 Ry
     Harris-Foulkes estimate   =   -1670.84679232 Ry
     estimated scf accuracy    <          7.4E-09 Ry

     The total energy is the sum of the following terms:

     one-electron contribution =   -1145.79245826 Ry
     hartree contribution      =     595.77427362 Ry
     xc contribution           =    -215.22530496 Ry
     ewald contribution        =    -353.52306387 Ry
     one-center paw contrib.   =    -552.08032997 Ry
     smearing contrib. (-TS)   =       0.00009114 Ry

     convergence has been achieved in  11 iterations

     Writing output data file 05_Ba2CaReH18.save

     init_run     :     89.03s CPU     59.10s WALL (       1 calls)
     electrons    :   1096.67s CPU    647.66s WALL (       1 calls)

     Called by init_run:
     wfcinit      :     43.66s CPU     17.80s WALL (       1 calls)
     potinit      :     14.39s CPU     14.20s WALL (       1 calls)

     Called by electrons:
     c_bands      :    692.75s CPU    520.20s WALL (      11 calls)
     sum_band     :    314.02s CPU     98.18s WALL (      11 calls)
     v_of_rho     :      4.52s CPU      3.20s WALL (      12 calls)
     newd         :     84.66s CPU     24.21s WALL (      12 calls)
     PAW_pot      :      7.45s CPU      3.76s WALL (      12 calls)
     mix_rho      :      0.44s CPU      0.46s WALL (      11 calls)

     Called by c_bands:
     init_us_2    :     12.84s CPU      8.61s WALL (     828 calls)
     cegterg      :    671.42s CPU    497.86s WALL (     396 calls)

     Called by sum_band:
     sum_band:bec :      2.17s CPU      3.54s WALL (     396 calls)
     addusdens    :    200.83s CPU     32.95s WALL (      11 calls)

     Called by *egterg:
     h_psi        :    537.34s CPU    276.19s WALL (    2093 calls)
     s_psi        :     33.08s CPU     31.27s WALL (    2093 calls)
     g_psi        :      0.95s CPU      1.48s WALL (    1661 calls)
     cdiaghg      :     59.64s CPU    113.40s WALL (    2057 calls)

     Called by h_psi:
     h_psi:pot    :    535.41s CPU    273.98s WALL (    2093 calls)
     h_psi:calbec :     23.48s CPU     26.20s WALL (    2093 calls)
     vloc_psi     :    482.84s CPU    217.10s WALL (    2093 calls)
     add_vuspsi   :     29.06s CPU     30.68s WALL (    2093 calls)

     General routines
     calbec       :     28.88s CPU     34.14s WALL (    2489 calls)
     fft          :      2.50s CPU      1.20s WALL (     188 calls)
     ffts         :      0.08s CPU      0.06s WALL (      23 calls)
     fftw         :    455.67s CPU    163.90s WALL (  121400 calls)
     interpolate  :      0.41s CPU      0.24s WALL (      23 calls)
     davcio       :      0.05s CPU      0.09s WALL (      36 calls)

     Parallel routines
     fft_scatter  :      5.17s CPU     30.36s WALL (  121611 calls)

     PWSCF        : 19m46.59s CPU    11m48.03s WALL


   This run was terminated on:  15:29:19  12Dec2025            

=------------------------------------------------------------------------------=
   JOB DONE.
=------------------------------------------------------------------------------=
