
     Program PWSCF v.6.1 starts on 12Dec2025 at 15:29:19 

     This program is part of the open-source Quantum ESPRESSO suite
     for quantum simulation of materials; please cite
         "P. Giannozzi et al., J. Phys.:Condens. Matter 21 395502 (2009);
          URL http://www.quantum-espresso.org", 
     in publications or presentations arising from this work. More details at
     http://www.quantum-espresso.org/quote

     Parallel version (MPI & OpenMP), running on      12 processor cores
     Number of MPI processes:                 1
     Threads/MPI process:                    12
     Waiting for input...
     Reading input from standard input

     Current dimensions of program PWSCF are:
     Max number of different atomic species (ntypx) = 10
     Max number of k-points (npk) =  40000
     Max angular momentum in pseudopotentials (lmaxx) =  3

     Atomic positions and unit cell read from directory:
     ./tmp/05_Ba2CaReH18.save/

               file H.UPF: wavefunction(s)  1S renormalized
               file Re.UPF: wavefunction(s)  5P 5D 4F renormalized

     Subspace diagonalization in iterative solution of the eigenvalue problem:
     a serial algorithm will be used


     G-vector sticks info
     --------------------
     sticks:   dense  smooth     PW     G-vecs:    dense   smooth      PW
     Sum        2557    1277    377               220261    77895   12387



     bravais-lattice index     =            0
     lattice parameter (alat)  =       9.1169  a.u.
     unit-cell volume          =    1630.7970 (a.u.)^3
     number of atoms/cell      =           22
     number of atomic types    =            4
     number of electrons       =        77.00
     number of Kohn-Sham states=           47
     kinetic-energy cutoff     =      50.0000  Ry
     charge density cutoff     =     400.0000  Ry
     Exchange-correlation      =  SLA  PW   PBX  PBC ( 1  4  3  4 0 0)

     celldm(1)=   9.116876  celldm(2)=   0.000000  celldm(3)=   0.000000
     celldm(4)=   0.000000  celldm(5)=   0.000000  celldm(6)=   0.000000

     crystal axes: (cart. coord. in units of alat)
               a(1) = (   0.599503  -0.800372   0.000041 )  
               a(2) = (   0.606194   0.803832  -0.000054 )  
               a(3) = (  -0.000025  -0.000178   2.225353 )  

     reciprocal axes: (cart. coord. in units 2 pi/alat)
               b(1) = (  0.831194 -0.626829 -0.000041 )  
               b(2) = (  0.827617  0.619910  0.000059 )  
               b(3) = (  0.000005  0.000027  0.449367 )  


     PseudoPot. # 1 for Ba read from file:
     C:/Users/Acer/Desktop/Quantum_Espresso/pseudo/Ba.UPF
     MD5 check sum: e855fb33cc70e888b5d6463e2113a79c
     Pseudo is Ultrasoft + core correction, Zval = 10.0
     Generated by new atomic code, or converted to UPF format
     Using radial grid of  907 points,  6 beta functions with: 
                l(1) =   0
                l(2) =   0
                l(3) =   1
                l(4) =   1
                l(5) =   2
                l(6) =   2
     Q(r) pseudized with  6 coefficients,  rinner =    1.200   1.200   1.200
                                                       1.200   1.200

     PseudoPot. # 2 for Ca read from file:
     C:/Users/Acer/Desktop/Quantum_Espresso/pseudo/Ca.UPF
     MD5 check sum: 0415571acf0fc5e752b4fcf57c560a15
     Pseudo is Ultrasoft + core correction, Zval = 10.0
     Generated by new atomic code, or converted to UPF format
     Using radial grid of  845 points,  6 beta functions with: 
                l(1) =   0
                l(2) =   0
                l(3) =   1
                l(4) =   1
                l(5) =   2
                l(6) =   2
     Q(r) pseudized with  6 coefficients,  rinner =    1.200   1.200   1.200
                                                       1.200   1.200

     PseudoPot. # 3 for  H read from file:
     C:/Users/Acer/Desktop/Quantum_Espresso/pseudo/H.UPF
     MD5 check sum: f872269930354f4c44a8fadb7eac41ed
     Pseudo is Projector augmented-wave, Zval =  1.0
     Generated using "atomic" code by A. Dal Corso  v.5.1.2
     Shape of augmentation charge: PSQ
     Using radial grid of  929 points,  2 beta functions with: 
                l(1) =   0
                l(2) =   0
     Q(r) pseudized with 0 coefficients 


     PseudoPot. # 4 for Re read from file:
     C:/Users/Acer/Desktop/Quantum_Espresso/pseudo/Re.UPF
     MD5 check sum: 87e2101db7594a67200f23eb60e1a004
     Pseudo is Projector augmented-wave + core cor, Zval = 29.0
     Generated using "atomic" code by A. Dal Corso  v.5.1.2
     Shape of augmentation charge: PSQ
     Using radial grid of 1275 points,  8 beta functions with: 
                l(1) =   0
                l(2) =   0
                l(3) =   1
                l(4) =   1
                l(5) =   2
                l(6) =   2
                l(7) =   3
                l(8) =   3
     Q(r) pseudized with 0 coefficients 


     atomic species   valence    mass     pseudopotential
        Ba            10.00     1.00000     Ba( 1.00)
        Ca            10.00     1.00000     Ca( 1.00)
        H              1.00     1.00000      H( 1.00)
        Re            29.00     1.00000     Re( 1.00)

     No symmetry found



   Cartesian axes

     site n.     atom                  positions (alat units)
         1           Ba  tau(   1) = (   0.0006778  -0.0088611   0.0641380  )
         2           Ba  tau(   2) = (   0.0008747  -0.0087575   1.0478909  )
         3           Re  tau(   3) = (   0.6029898   0.2259328   0.5561471  )
         4           Ca  tau(   4) = (   0.5888659  -0.2959554   1.6689077  )
         5           H   tau(   5) = (   0.6033588  -0.0264632   0.3113603  )
         6           H   tau(   6) = (   0.6122448   0.2516208   1.7474598  )
         7           H   tau(   7) = (   0.6034065  -0.0265875   0.8008116  )
         8           H   tau(   8) = (   0.6109949   0.2517078   1.5897566  )
         9           H   tau(   9) = (   0.8214088   0.3412954   0.8068683  )
        10           H   tau(  10) = (   0.8499924  -0.3803050   1.3012715  )
        11           H   tau(  11) = (   0.8215954   0.3412581   0.3052290  )
        12           H   tau(  12) = (   0.8492856  -0.3802014   2.0368549  )
        13           H   tau(  13) = (   0.3551104  -0.3829997   1.2895126  )
        14           H   tau(  14) = (   0.3858663   0.3413741   0.8085887  )
        15           H   tau(  15) = (   0.3552742  -0.3835800   2.0479546  )
        16           H   tau(  16) = (   0.3856528   0.3413182   0.3035190  )
        17           H   tau(  17) = (   0.8964973   0.0409705   0.5560849  )
        18           H   tau(  18) = (   0.9987889  -0.0224917   1.6716168  )
        19           H   tau(  19) = (   0.2000189   0.0166382   1.6695710  )
        20           H   tau(  20) = (   0.3096067   0.0403694   0.5560621  )
        21           H   tau(  21) = (   0.6046646   0.5787590   0.5562134  )
        22           H   tau(  22) = (   0.5995490  -0.8223271   1.6702571  )

     number of k points=   260 (tetrahedron method)

     Number of k-points >= 100: set verbosity='high' to print them.

     Dense  grid:   220261 G-vectors     FFT dimensions: (  60,  60, 135)

     Smooth grid:    77895 G-vectors     FFT dimensions: (  45,  45,  96)

     Estimated max dynamical RAM per process >     151.89MB

     Check: negative/imaginary core charge=   -0.000002    0.000000

     The potential is recalculated from file :
     ./tmp/05_Ba2CaReH18.save/charge-density.dat


     negative rho (up, down):  1.250E-04 0.000E+00
     Starting wfc are   71 randomized atomic wfcs
     Checking if some PAW data can be deallocated... 

     Band Structure Calculation
     Davidson diagonalization with overlap
     c_bands:  1 eigenvalues not converged
     c_bands:  1 eigenvalues not converged
     c_bands:  1 eigenvalues not converged
     c_bands:  1 eigenvalues not converged
     c_bands:  1 eigenvalues not converged
     c_bands:  1 eigenvalues not converged
     c_bands:  1 eigenvalues not converged
     c_bands:  1 eigenvalues not converged
     c_bands:  1 eigenvalues not converged
     c_bands:  1 eigenvalues not converged

     ethr =  1.30E-11,  avg # of iterations = 54.1

     total cpu time spent up to now is     3218.6 secs

     End of band structure calculation

     Number of k-points >= 100: set verbosity='high' to print the bands.

     the Fermi energy is     3.8314 ev

     Writing output data file 05_Ba2CaReH18.save

     init_run     :     31.95s CPU     27.74s WALL (       1 calls)
     electrons    :   4071.86s CPU   3190.24s WALL (       1 calls)

     Called by init_run:
     wfcinit      :      0.00s CPU      0.00s WALL (       1 calls)
     potinit      :      1.05s CPU      0.63s WALL (       1 calls)

     Called by electrons:
     c_bands      :   4071.78s CPU   3190.13s WALL (       1 calls)
     v_of_rho     :      0.39s CPU      0.27s WALL (       1 calls)
     newd         :      6.56s CPU      1.96s WALL (       1 calls)
     PAW_pot      :      0.61s CPU      0.31s WALL (       1 calls)

     Called by c_bands:
     init_us_2    :      3.95s CPU      3.18s WALL (     260 calls)
     cegterg      :   3794.12s CPU   3050.66s WALL (     830 calls)

     Called by sum_band:

     Called by *egterg:
     h_psi        :   2735.67s CPU   1381.24s WALL (   15158 calls)
     s_psi        :    167.12s CPU    154.05s WALL (   15158 calls)
     g_psi        :      8.27s CPU      9.40s WALL (   14068 calls)
     cdiaghg      :    508.22s CPU    910.82s WALL (   14328 calls)

     Called by h_psi:
     h_psi:pot    :   2726.23s CPU   1370.38s WALL (   15158 calls)
     h_psi:calbec :    119.88s CPU    141.88s WALL (   15158 calls)
     vloc_psi     :   2466.12s CPU   1075.61s WALL (   15158 calls)
     add_vuspsi   :    139.98s CPU    152.80s WALL (   15158 calls)

     General routines
     calbec       :    119.73s CPU    141.85s WALL (   15158 calls)
     fft          :      0.16s CPU      0.12s WALL (      13 calls)
     ffts         :      0.00s CPU      0.01s WALL (       1 calls)
     fftw         :   1972.92s CPU    669.10s WALL (  499648 calls)
     interpolate  :      0.02s CPU      0.02s WALL (       1 calls)
     davcio       :      0.61s CPU      1.16s WALL (     260 calls)

     Parallel routines
     fft_scatter  :     24.36s CPU    154.75s WALL (  499662 calls)

     PWSCF        :     1h 8m CPU        0h53m WALL


   This run was terminated on:  16:22:58  12Dec2025            

=------------------------------------------------------------------------------=
   JOB DONE.
=------------------------------------------------------------------------------=
