
     Program PWSCF v.6.1 starts on 23Nov2025 at 20:48:28 

     This program is part of the open-source Quantum ESPRESSO suite
     for quantum simulation of materials; please cite
         "P. Giannozzi et al., J. Phys.:Condens. Matter 21 395502 (2009);
          URL http://www.quantum-espresso.org", 
     in publications or presentations arising from this work. More details at
     http://www.quantum-espresso.org/quote

     Parallel version (MPI & OpenMP), running on      12 processor cores
     Number of MPI processes:                 1
     Threads/MPI process:                    12
     Waiting for input...
     Reading input from standard input

     Current dimensions of program PWSCF are:
     Max number of different atomic species (ntypx) = 10
     Max number of k-points (npk) =  40000
     Max angular momentum in pseudopotentials (lmaxx) =  3
               file H.UPF: wavefunction(s)  1S renormalized

     Subspace diagonalization in iterative solution of the eigenvalue problem:
     a serial algorithm will be used


     G-vector sticks info
     --------------------
     sticks:   dense  smooth     PW     G-vecs:    dense   smooth      PW
     Sum        1375     689    249                32325    11393    2491



     bravais-lattice index     =            0
     lattice parameter (alat)  =       6.7695  a.u.
     unit-cell volume          =     238.8103 (a.u.)^3
     number of atoms/cell      =            5
     number of atomic types    =            2
     number of electrons       =        16.00
     number of Kohn-Sham states=           12
     kinetic-energy cutoff     =      50.0000  Ry
     charge density cutoff     =     400.0000  Ry
     convergence threshold     =      1.0E-08
     mixing beta               =       0.7000
     number of iterations used =            8  plain     mixing
     Exchange-correlation      = SLA  PW   PBE  PBE ( 1  4  3  4 0 0)

     celldm(1)=   6.769527  celldm(2)=   0.000000  celldm(3)=   0.000000
     celldm(4)=   0.000000  celldm(5)=   0.000000  celldm(6)=   0.000000

     crystal axes: (cart. coord. in units of alat)
               a(1) = (  -0.577350   0.577350   0.577350 )  
               a(2) = (   0.577350  -0.577350   0.577350 )  
               a(3) = (   0.577350   0.577350  -0.577350 )  

     reciprocal axes: (cart. coord. in units 2 pi/alat)
               b(1) = (  0.000000  0.866025  0.866025 )  
               b(2) = (  0.866025  0.000000  0.866025 )  
               b(3) = (  0.866025  0.866025  0.000000 )  


     PseudoPot. # 1 for  H read from file:
     C:/Users/Acer/Desktop/Quantum_Espresso/pseudo/H.UPF
     MD5 check sum: 850d63dcbcc06c5de8b44e0ab9f952da
     Pseudo is Projector augmented-wave, Zval =  1.0
     Generated using "atomic" code by A. Dal Corso  v.5.1.2
     Shape of augmentation charge: PSQ
     Using radial grid of  929 points,  2 beta functions with: 
                l(1) =   0
                l(2) =   0
     Q(r) pseudized with 0 coefficients 


     PseudoPot. # 2 for Ti read from file:
     C:/Users/Acer/Desktop/Quantum_Espresso/pseudo/Ti.UPF
     MD5 check sum: 8e4df49b7f0d34bbd5052bf3f5ea0213
     Pseudo is Ultrasoft, Zval = 12.0
     Generated by new atomic code, or converted to UPF format
     Using radial grid of  851 points,  6 beta functions with: 
                l(1) =   0
                l(2) =   0
                l(3) =   1
                l(4) =   1
                l(5) =   2
                l(6) =   2
     Q(r) pseudized with  8 coefficients,  rinner =    1.000   1.000   1.000
                                                       1.000   1.000

     atomic species   valence    mass     pseudopotential
        H              1.00     1.00000      H( 1.00)
        Ti            12.00     1.00000     Ti( 1.00)

     48 Sym. Ops., with inversion, found



   Cartesian axes

     site n.     atom                  positions (alat units)
         1           Ti  tau(   1) = (  -0.0000000  -0.0000000  -0.0000000  )
         2           H   tau(   2) = (   0.2886765   0.2886765   0.2886765  )
         3           H   tau(   3) = (   0.2886765   0.2886765  -0.2886765  )
         4           H   tau(   4) = (   0.2886765  -0.2886765   0.2886765  )
         5           H   tau(   5) = (  -0.2886765   0.2886765   0.2886765  )

     number of k points=     8  Methfessel-Paxton smearing, width (Ry)=  0.0100
                       cart. coord. in units 2pi/alat
        k(    1) = (   0.0000000   0.0000000   0.0000000), wk =   0.0312500
        k(    2) = (   0.2165064   0.2165064   0.0000000), wk =   0.3750000
        k(    3) = (  -0.4330127  -0.4330127   0.0000000), wk =   0.1875000
        k(    4) = (   0.4330127   0.2165064   0.2165064), wk =   0.7500000
        k(    5) = (   0.4330127   0.4330127   0.4330127), wk =   0.0625000
        k(    6) = (   0.0000000   0.0000000   0.4330127), wk =   0.1875000
        k(    7) = (  -0.8660254  -0.2165064  -0.2165064), wk =   0.3750000
        k(    8) = (  -0.8660254  -0.8660254  -0.8660254), wk =   0.0312500

     Dense  grid:    32325 G-vectors     FFT dimensions: (  45,  45,  45)

     Smooth grid:    11393 G-vectors     FFT dimensions: (  32,  32,  32)

     Estimated max dynamical RAM per process >      24.62MB

     Initial potential from superposition of free atoms

     starting charge   14.99992, renormalised to   16.00000
     Starting wfc are   14 randomized atomic wfcs
     Checking if some PAW data can be deallocated... 

     total cpu time spent up to now is        1.6 secs

     Self-consistent Calculation

     iteration #  1     ecut=    50.00 Ry     beta=0.70
     Davidson diagonalization with overlap
     ethr =  1.00E-02,  avg # of iterations =  3.0

     total cpu time spent up to now is        2.6 secs

     total energy              =    -120.77706470 Ry
     Harris-Foulkes estimate   =    -121.52331653 Ry
     estimated scf accuracy    <       1.01156170 Ry

     iteration #  2     ecut=    50.00 Ry     beta=0.70
     Davidson diagonalization with overlap
     ethr =  6.32E-03,  avg # of iterations =  3.1

     total cpu time spent up to now is        3.7 secs

     total energy              =    -120.29996020 Ry
     Harris-Foulkes estimate   =    -121.79801010 Ry
     estimated scf accuracy    <       4.11077415 Ry

     iteration #  3     ecut=    50.00 Ry     beta=0.70
     Davidson diagonalization with overlap
     ethr =  6.32E-03,  avg # of iterations =  3.4

     total cpu time spent up to now is        4.7 secs

     total energy              =    -121.21670503 Ry
     Harris-Foulkes estimate   =    -121.27094964 Ry
     estimated scf accuracy    <       0.16878272 Ry

     iteration #  4     ecut=    50.00 Ry     beta=0.70
     Davidson diagonalization with overlap
     ethr =  1.05E-03,  avg # of iterations =  2.0

     total cpu time spent up to now is        5.5 secs

     total energy              =    -121.22292788 Ry
     Harris-Foulkes estimate   =    -121.23075046 Ry
     estimated scf accuracy    <       0.02682010 Ry

     iteration #  5     ecut=    50.00 Ry     beta=0.70
     Davidson diagonalization with overlap
     ethr =  1.68E-04,  avg # of iterations =  3.1

     total cpu time spent up to now is        6.5 secs

     total energy              =    -121.23112302 Ry
     Harris-Foulkes estimate   =    -121.23116275 Ry
     estimated scf accuracy    <       0.00086225 Ry

     iteration #  6     ecut=    50.00 Ry     beta=0.70
     Davidson diagonalization with overlap
     ethr =  5.39E-06,  avg # of iterations =  2.2

     total cpu time spent up to now is        7.3 secs

     total energy              =    -121.23107076 Ry
     Harris-Foulkes estimate   =    -121.23118357 Ry
     estimated scf accuracy    <       0.00086006 Ry

     iteration #  7     ecut=    50.00 Ry     beta=0.70
     Davidson diagonalization with overlap
     ethr =  5.38E-06,  avg # of iterations =  1.0

     total cpu time spent up to now is        8.1 secs

     total energy              =    -121.23106097 Ry
     Harris-Foulkes estimate   =    -121.23109112 Ry
     estimated scf accuracy    <       0.00043512 Ry

     iteration #  8     ecut=    50.00 Ry     beta=0.70
     Davidson diagonalization with overlap
     ethr =  2.72E-06,  avg # of iterations =  1.0

     total cpu time spent up to now is        8.8 secs

     total energy              =    -121.23098996 Ry
     Harris-Foulkes estimate   =    -121.23106459 Ry
     estimated scf accuracy    <       0.00029304 Ry

     iteration #  9     ecut=    50.00 Ry     beta=0.70
     Davidson diagonalization with overlap
     ethr =  1.83E-06,  avg # of iterations =  1.0

     total cpu time spent up to now is        9.6 secs

     total energy              =    -121.23100679 Ry
     Harris-Foulkes estimate   =    -121.23101237 Ry
     estimated scf accuracy    <       0.00002635 Ry

     iteration # 10     ecut=    50.00 Ry     beta=0.70
     Davidson diagonalization with overlap
     ethr =  1.65E-07,  avg # of iterations =  3.0

     total cpu time spent up to now is       10.6 secs

     total energy              =    -121.23101583 Ry
     Harris-Foulkes estimate   =    -121.23101581 Ry
     estimated scf accuracy    <       0.00000019 Ry

     iteration # 11     ecut=    50.00 Ry     beta=0.70
     Davidson diagonalization with overlap
     ethr =  1.22E-09,  avg # of iterations =  3.5

     total cpu time spent up to now is       11.7 secs

     total energy              =    -121.23101567 Ry
     Harris-Foulkes estimate   =    -121.23101594 Ry
     estimated scf accuracy    <       0.00000039 Ry

     iteration # 12     ecut=    50.00 Ry     beta=0.70
     Davidson diagonalization with overlap
     ethr =  1.22E-09,  avg # of iterations =  4.0

     total cpu time spent up to now is       12.9 secs

     total energy              =    -121.23101579 Ry
     Harris-Foulkes estimate   =    -121.23101649 Ry
     estimated scf accuracy    <       0.00000384 Ry

     iteration # 13     ecut=    50.00 Ry     beta=0.70
     Davidson diagonalization with overlap
     ethr =  1.22E-09,  avg # of iterations =  3.1

     total cpu time spent up to now is       13.9 secs

     total energy              =    -121.23101595 Ry
     Harris-Foulkes estimate   =    -121.23101597 Ry
     estimated scf accuracy    <       0.00000068 Ry

     iteration # 14     ecut=    50.00 Ry     beta=0.70
     Davidson diagonalization with overlap
     ethr =  1.22E-09,  avg # of iterations =  1.0

     total cpu time spent up to now is       14.6 secs

     total energy              =    -121.23101596 Ry
     Harris-Foulkes estimate   =    -121.23101595 Ry
     estimated scf accuracy    <       0.00000057 Ry

     iteration # 15     ecut=    50.00 Ry     beta=0.70
     Davidson diagonalization with overlap
     ethr =  1.22E-09,  avg # of iterations =  1.0

     total cpu time spent up to now is       15.3 secs

     total energy              =    -121.23101580 Ry
     Harris-Foulkes estimate   =    -121.23101596 Ry
     estimated scf accuracy    <       0.00000060 Ry

     iteration # 16     ecut=    50.00 Ry     beta=0.70
     Davidson diagonalization with overlap
     ethr =  1.22E-09,  avg # of iterations =  3.0

     total cpu time spent up to now is       16.2 secs

     total energy              =    -121.23101585 Ry
     Harris-Foulkes estimate   =    -121.23101586 Ry
     estimated scf accuracy    <       0.00000002 Ry

     iteration # 17     ecut=    50.00 Ry     beta=0.70
     Davidson diagonalization with overlap
     ethr =  1.34E-10,  avg # of iterations =  2.0

     total cpu time spent up to now is       17.1 secs

     End of self-consistent calculation

          k = 0.0000 0.0000 0.0000 (  1433 PWs)   bands (ev):

   -51.1927 -27.4095 -27.4095 -27.4095  -2.8330   2.8812   2.8812   2.8812
     7.4733   7.4733  14.3503  14.3503

          k = 0.2165 0.2165 0.0000 (  1428 PWs)   bands (ev):

   -51.1884 -27.4596 -27.4299 -27.4088  -1.7787   2.5382   2.5766   3.9076
     7.1427   7.4478  10.8531  11.0615

          k =-0.4330-0.4330 0.0000 (  1416 PWs)   bands (ev):

   -51.1841 -27.5090 -27.4501 -27.4080   0.2056   1.3724   2.2285   6.2344
     6.9780   7.4614   7.5145   8.4371

          k = 0.4330 0.2165 0.2165 (  1438 PWs)   bands (ev):

   -51.1841 -27.4923 -27.4544 -27.4207   0.0057   2.0586   2.1088   4.9660
     6.9948   7.3734   7.8800   9.7052

          k = 0.4330 0.4330 0.4330 (  1436 PWs)   bands (ev):

   -51.1838 -27.4578 -27.4578 -27.4578   1.6569   1.6569   1.6569   3.0382
     7.4877   7.4877   9.4519   9.4519

          k = 0.0000 0.0000 0.4330 (  1437 PWs)   bands (ev):

   -51.1844 -27.4597 -27.4510 -27.4510  -0.7366   2.7367   2.7367   4.4323
     6.2624   7.2247  10.0019  10.0019

          k =-0.8660-0.2165-0.2165 (  1420 PWs)   bands (ev):

   -51.1804 -27.5015 -27.4721 -27.4512   1.3155   1.9738   2.6644   6.0395
     6.4779   6.6176   7.4263   8.1026

          k =-0.8660-0.8660-0.8660 (  1464 PWs)   bands (ev):

   -51.1767 -27.4939 -27.4939 -27.4939   3.0568   3.0568   3.0568   5.1664
     5.1664   7.3398   7.3398   7.3398

     the Fermi energy is     6.2319 ev

!    total energy              =    -121.23101586 Ry
     Harris-Foulkes estimate   =    -121.23101586 Ry
     estimated scf accuracy    <          5.2E-10 Ry

     The total energy is the sum of the following terms:

     one-electron contribution =     -62.34684378 Ry
     hartree contribution      =      33.30289430 Ry
     xc contribution           =     -17.31648575 Ry
     ewald contribution        =     -74.86985443 Ry
     one-center paw contrib.   =      -0.00056476 Ry
     smearing contrib. (-TS)   =      -0.00016143 Ry

     convergence has been achieved in  17 iterations

     Writing output data file 04_TiH4.save

     init_run     :      1.12s CPU      1.19s WALL (       1 calls)
     electrons    :     17.70s CPU     15.50s WALL (       1 calls)

     Called by init_run:
     wfcinit      :      0.17s CPU      0.23s WALL (       1 calls)
     potinit      :      0.08s CPU      0.10s WALL (       1 calls)

     Called by electrons:
     c_bands      :      6.75s CPU      9.08s WALL (      17 calls)
     sum_band     :      6.69s CPU      3.69s WALL (      17 calls)
     v_of_rho     :      0.95s CPU      0.97s WALL (      18 calls)
     newd         :      3.08s CPU      1.51s WALL (      18 calls)
     PAW_pot      :      0.27s CPU      0.25s WALL (      18 calls)
     mix_rho      :      0.14s CPU      0.10s WALL (      17 calls)

     Called by c_bands:
     init_us_2    :      0.48s CPU      0.98s WALL (     280 calls)
     cegterg      :      6.45s CPU      8.26s WALL (     136 calls)

     Called by sum_band:
     sum_band:bec :      0.09s CPU      0.06s WALL (     136 calls)
     addusdens    :      5.27s CPU      2.13s WALL (      17 calls)

     Called by *egterg:
     h_psi        :      4.66s CPU      4.97s WALL (     468 calls)
     s_psi        :      0.03s CPU      0.14s WALL (     468 calls)
     g_psi        :      0.00s CPU      0.01s WALL (     324 calls)
     cdiaghg      :      1.86s CPU      2.96s WALL (     460 calls)

     Called by h_psi:
     h_psi:pot    :      4.66s CPU      4.93s WALL (     468 calls)
     h_psi:calbec :      0.00s CPU      0.10s WALL (     468 calls)
     vloc_psi     :      4.61s CPU      4.64s WALL (     468 calls)
     add_vuspsi   :      0.05s CPU      0.18s WALL (     468 calls)

     General routines
     calbec       :      0.00s CPU      0.15s WALL (     604 calls)
     fft          :      0.70s CPU      0.28s WALL (     283 calls)
     ffts         :      0.02s CPU      0.02s WALL (      35 calls)
     fftw         :      3.81s CPU      3.94s WALL (    9648 calls)
     interpolate  :      0.09s CPU      0.07s WALL (      35 calls)
     davcio       :      0.00s CPU      0.00s WALL (       8 calls)

     Parallel routines
     fft_scatter  :      0.00s CPU      0.55s WALL (    9966 calls)

     PWSCF        :    18.98s CPU        17.13s WALL


   This run was terminated on:  20:48:45  23Nov2025            

=------------------------------------------------------------------------------=
   JOB DONE.
=------------------------------------------------------------------------------=
