
     Program PWSCF v.6.1 starts on 23Nov2025 at 20:48:45 

     This program is part of the open-source Quantum ESPRESSO suite
     for quantum simulation of materials; please cite
         "P. Giannozzi et al., J. Phys.:Condens. Matter 21 395502 (2009);
          URL http://www.quantum-espresso.org", 
     in publications or presentations arising from this work. More details at
     http://www.quantum-espresso.org/quote

     Parallel version (MPI & OpenMP), running on      12 processor cores
     Number of MPI processes:                 1
     Threads/MPI process:                    12
     Waiting for input...
     Reading input from standard input

     Current dimensions of program PWSCF are:
     Max number of different atomic species (ntypx) = 10
     Max number of k-points (npk) =  40000
     Max angular momentum in pseudopotentials (lmaxx) =  3

     Atomic positions and unit cell read from directory:
     ./tmp/04_TiH4.save/

               file H.UPF: wavefunction(s)  1S renormalized

     Subspace diagonalization in iterative solution of the eigenvalue problem:
     a serial algorithm will be used


     G-vector sticks info
     --------------------
     sticks:   dense  smooth     PW     G-vecs:    dense   smooth      PW
     Sum        1375     689    249                32325    11393    2491



     bravais-lattice index     =            0
     lattice parameter (alat)  =       6.7695  a.u.
     unit-cell volume          =     238.8103 (a.u.)^3
     number of atoms/cell      =            5
     number of atomic types    =            2
     number of electrons       =        16.00
     number of Kohn-Sham states=           12
     kinetic-energy cutoff     =      50.0000  Ry
     charge density cutoff     =     400.0000  Ry
     Exchange-correlation      = SLA  PW   PBE  PBE ( 1  4  3  4 0 0)

     celldm(1)=   6.769527  celldm(2)=   0.000000  celldm(3)=   0.000000
     celldm(4)=   0.000000  celldm(5)=   0.000000  celldm(6)=   0.000000

     crystal axes: (cart. coord. in units of alat)
               a(1) = (  -0.577350   0.577350   0.577350 )  
               a(2) = (   0.577350  -0.577350   0.577350 )  
               a(3) = (   0.577350   0.577350  -0.577350 )  

     reciprocal axes: (cart. coord. in units 2 pi/alat)
               b(1) = (  0.000000  0.866025  0.866025 )  
               b(2) = (  0.866025  0.000000  0.866025 )  
               b(3) = (  0.866025  0.866025  0.000000 )  


     PseudoPot. # 1 for  H read from file:
     C:/Users/Acer/Desktop/Quantum_Espresso/pseudo/H.UPF
     MD5 check sum: f872269930354f4c44a8fadb7eac41ed
     Pseudo is Projector augmented-wave, Zval =  1.0
     Generated using "atomic" code by A. Dal Corso  v.5.1.2
     Shape of augmentation charge: PSQ
     Using radial grid of  929 points,  2 beta functions with: 
                l(1) =   0
                l(2) =   0
     Q(r) pseudized with 0 coefficients 


     PseudoPot. # 2 for Ti read from file:
     C:/Users/Acer/Desktop/Quantum_Espresso/pseudo/Ti.UPF
     MD5 check sum: 2e7572f3128e7cf134dafc4105d62c0f
     Pseudo is Ultrasoft, Zval = 12.0
     Generated by new atomic code, or converted to UPF format
     Using radial grid of  851 points,  6 beta functions with: 
                l(1) =   0
                l(2) =   0
                l(3) =   1
                l(4) =   1
                l(5) =   2
                l(6) =   2
     Q(r) pseudized with  8 coefficients,  rinner =    1.000   1.000   1.000
                                                       1.000   1.000

     atomic species   valence    mass     pseudopotential
        H              1.00     1.00000      H( 1.00)
        Ti            12.00     1.00000     Ti( 1.00)

     48 Sym. Ops., with inversion, found



   Cartesian axes

     site n.     atom                  positions (alat units)
         1           Ti  tau(   1) = (  -0.0000000  -0.0000000  -0.0000000  )
         2           H   tau(   2) = (   0.2886765   0.2886765   0.2886765  )
         3           H   tau(   3) = (   0.2886765   0.2886765  -0.2886765  )
         4           H   tau(   4) = (   0.2886765  -0.2886765   0.2886765  )
         5           H   tau(   5) = (  -0.2886765   0.2886765   0.2886765  )

     number of k points=    29 (tetrahedron method)
                       cart. coord. in units 2pi/alat
        k(    1) = (   0.0000000   0.0000000   0.0000000), wk =   0.0039062
        k(    2) = (   0.1082532   0.1082532   0.0000000), wk =   0.0468750
        k(    3) = (   0.2165064   0.2165064   0.0000000), wk =   0.0468750
        k(    4) = (   0.3247595   0.3247595   0.0000000), wk =   0.0468750
        k(    5) = (  -0.4330127  -0.4330127   0.0000000), wk =   0.0234375
        k(    6) = (   0.2165064   0.1082532   0.1082532), wk =   0.0937500
        k(    7) = (   0.3247595   0.2165064   0.1082532), wk =   0.1875000
        k(    8) = (   0.4330127   0.3247595   0.1082532), wk =   0.1875000
        k(    9) = (   0.4330127   0.2165064   0.2165064), wk =   0.0937500
        k(   10) = (   0.5412659   0.3247595   0.2165064), wk =   0.0937500
        k(   11) = (   0.2165064   0.2165064   0.2165064), wk =   0.0312500
        k(   12) = (   0.3247595   0.3247595   0.2165064), wk =   0.0937500
        k(   13) = (   0.4330127   0.4330127   0.2165064), wk =   0.0468750
        k(   14) = (   0.0000000   0.0000000   0.2165064), wk =   0.0234375
        k(   15) = (   0.4330127   0.3247595   0.3247595), wk =   0.0937500
        k(   16) = (   0.0000000  -0.1082532   0.3247595), wk =   0.0937500
        k(   17) = (   0.0000000  -0.2165064   0.4330127), wk =   0.0937500
        k(   18) = (   0.1082532  -0.1082532   0.4330127), wk =   0.0937500
        k(   19) = (  -0.8660254  -0.3247595  -0.3247595), wk =   0.0468750
        k(   20) = (  -0.7577722  -0.2165064  -0.3247595), wk =   0.1875000
        k(   21) = (  -0.6495191  -0.2165064  -0.2165064), wk =   0.0312500
        k(   22) = (   0.4330127   0.4330127   0.4330127), wk =   0.0078125
        k(   23) = (   0.0000000   0.0000000   0.4330127), wk =   0.0234375
        k(   24) = (   0.0000000  -0.1082532   0.5412659), wk =   0.0937500
        k(   25) = (  -0.8660254  -0.2165064  -0.2165064), wk =   0.0468750
        k(   26) = (  -0.7577722  -0.1082532  -0.2165064), wk =   0.0937500
        k(   27) = (   0.0000000   0.0000000   0.6495191), wk =   0.0234375
        k(   28) = (  -0.8660254  -0.1082532  -0.1082532), wk =   0.0468750
        k(   29) = (  -0.8660254  -0.8660254  -0.8660254), wk =   0.0039062

     Dense  grid:    32325 G-vectors     FFT dimensions: (  45,  45,  45)

     Smooth grid:    11393 G-vectors     FFT dimensions: (  32,  32,  32)

     Estimated max dynamical RAM per process >      13.45MB

     The potential is recalculated from file :
     ./tmp/04_TiH4.save/charge-density.dat

     Starting wfc are   14 randomized atomic wfcs
     Checking if some PAW data can be deallocated... 

     Band Structure Calculation
     Davidson diagonalization with overlap

     ethr =  6.25E-11,  avg # of iterations = 13.0

     total cpu time spent up to now is       11.5 secs

     End of band structure calculation

          k = 0.0000 0.0000 0.0000 (  1433 PWs)   bands (ev):

   -51.1925 -27.4093 -27.4093 -27.4093  -2.8330   2.8813   2.8813   2.8813
     7.4735   7.4735  14.3505  14.3505

          k = 0.1083 0.1083 0.0000 (  1449 PWs)   bands (ev):

   -51.1912 -27.4240 -27.4152 -27.4090  -2.5583   2.7768   2.8231   3.1425
     7.3566   7.4620  13.0799  13.1624

          k = 0.2165 0.2165 0.0000 (  1428 PWs)   bands (ev):

   -51.1881 -27.4593 -27.4296 -27.4085  -1.7787   2.5383   2.5766   3.9077
     7.1429   7.4480  10.8533  11.0616

          k = 0.3248 0.3248 0.0000 (  1436 PWs)   bands (ev):

   -51.1851 -27.4943 -27.4439 -27.4080  -0.6544   2.0012   2.3163   5.1086
     7.0150   7.4533   8.9539   9.0910

          k =-0.4330-0.4330 0.0000 (  1416 PWs)   bands (ev):

   -51.1838 -27.5088 -27.4499 -27.4078   0.2056   1.3724   2.2286   6.2344
     6.9781   7.4616   7.5147   8.4373

          k = 0.2165 0.1083 0.1083 (  1436 PWs)   bands (ev):

   -51.1890 -27.4488 -27.4214 -27.4128  -2.0293   2.6261   2.6674   3.6388
     7.1842   7.4553  11.0953  12.2751

          k = 0.3248 0.2165 0.1083 (  1422 PWs)   bands (ev):

   -51.1860 -27.4803 -27.4378 -27.4139  -1.0589   2.3210   2.3922   4.5255
     7.0278   7.4374   9.0615  10.5487

          k = 0.4330 0.3248 0.1083 (  1418 PWs)   bands (ev):

   -51.1838 -27.5014 -27.4513 -27.4139   0.0929   1.6615   2.2197   5.4986
     6.9931   7.4179   7.8109   9.0034

          k = 0.4330 0.2165 0.2165 (  1438 PWs)   bands (ev):

   -51.1839 -27.4920 -27.4542 -27.4204   0.0057   2.0586   2.1088   4.9660
     6.9950   7.3736   7.8802   9.7054

          k = 0.5413 0.3248 0.2165 (  1433 PWs)   bands (ev):

   -51.1830 -27.4918 -27.4671 -27.4220   0.8905   1.5729   1.9936   4.9015
     7.0577   7.2565   8.0700   8.8471

          k = 0.2165 0.2165 0.2165 (  1430 PWs)   bands (ev):

   -51.1868 -27.4755 -27.4217 -27.4217  -1.2954   2.3787   2.3787   4.2881
     7.3268   7.3268   9.0918  11.9049

          k = 0.3248 0.3248 0.2165 (  1432 PWs)   bands (ev):

   -51.1846 -27.4908 -27.4419 -27.4221  -0.2066   1.9864   2.1238   4.7069
     7.2497   7.4360   7.9109  10.2185

          k = 0.4330 0.4330 0.2165 (  1428 PWs)   bands (ev):

   -51.1837 -27.4936 -27.4537 -27.4222   0.7043   1.4289   2.0260   4.6378
     7.2403   7.4747   8.0333   9.1874

          k = 0.0000 0.0000 0.2165 (  1433 PWs)   bands (ev):

   -51.1900 -27.4257 -27.4213 -27.4213  -2.2845   2.8001   2.8001   3.2819
     7.1110   7.5226  12.4801  12.4801

          k = 0.4330 0.3248 0.3248 (  1435 PWs)   bands (ev):

   -51.1836 -27.4824 -27.4566 -27.4319   0.8803   1.7777   1.7854   3.9648
     7.3614   7.4457   8.3203   9.5221

          k = 0.0000-0.1083 0.3248 (  1422 PWs)   bands (ev):

   -51.1870 -27.4583 -27.4358 -27.4220  -1.5071   2.6345   2.6412   3.9842
     6.7972   7.4606  10.7191  10.8152

          k = 0.0000-0.2165 0.4330 (  1427 PWs)   bands (ev):

   -51.1840 -27.4925 -27.4503 -27.4209  -0.3827   2.1470   2.4379   5.1613
     6.6761   7.3143   8.8786   9.0363

          k = 0.1083-0.1083 0.4330 (  1426 PWs)   bands (ev):

   -51.1840 -27.4810 -27.4518 -27.4299  -0.5492   2.4673   2.5240   4.7788
     6.5129   7.2683   8.9713   9.9102

          k =-0.8660-0.3248-0.3248 (  1428 PWs)   bands (ev):

   -51.1828 -27.5066 -27.4563 -27.4205   0.4982   1.5267   2.3578   6.2754
     6.6814   7.2509   7.4886   8.3557

          k =-0.7578-0.2165-0.3248 (  1425 PWs)   bands (ev):

   -51.1820 -27.4980 -27.4663 -27.4310   0.5990   1.9613   2.3705   5.7026
     6.5162   7.0530   7.7591   8.7148

          k =-0.6495-0.2165-0.2165 (  1418 PWs)   bands (ev):

   -51.1811 -27.4873 -27.4873 -27.4338   1.3388   1.9836   1.9836   5.6382
     6.6768   6.6768   8.1061   8.1061

          k = 0.4330 0.4330 0.4330 (  1436 PWs)   bands (ev):

   -51.1836 -27.4576 -27.4576 -27.4576   1.6569   1.6569   1.6569   3.0382
     7.4879   7.4879   9.4521   9.4521

          k = 0.0000 0.0000 0.4330 (  1437 PWs)   bands (ev):

   -51.1841 -27.4595 -27.4508 -27.4508  -0.7366   2.7368   2.7368   4.4324
     6.2626   7.2248  10.0021  10.0021

          k = 0.0000-0.1083 0.5413 (  1416 PWs)   bands (ev):

   -51.1813 -27.4880 -27.4657 -27.4519   0.3808   2.5360   2.7003   5.4335
     6.0052   6.8221   8.6331   8.7525

          k =-0.8660-0.2165-0.2165 (  1420 PWs)   bands (ev):

   -51.1801 -27.5012 -27.4718 -27.4509   1.3155   1.9737   2.6644   6.0397
     6.4779   6.6177   7.4265   8.1028

          k =-0.7578-0.1083-0.2165 (  1418 PWs)   bands (ev):

   -51.1793 -27.4947 -27.4828 -27.4583   1.4928   2.4658   2.5532   5.9086
     6.1955   6.4297   7.6515   8.1115

          k = 0.0000 0.0000 0.6495 (  1405 PWs)   bands (ev):

   -51.1786 -27.4853 -27.4810 -27.4810   1.4642   2.8940   2.8940   5.4740
     6.1161   6.1443   8.1090   8.1090

          k =-0.8660-0.1083-0.1083 (  1422 PWs)   bands (ev):

   -51.1775 -27.4959 -27.4873 -27.4812   2.4125   2.6251   2.9499   5.4460
     5.7169   6.9529   7.3651   7.6605

          k =-0.8660-0.8660-0.8660 (  1464 PWs)   bands (ev):

   -51.1764 -27.4937 -27.4937 -27.4937   3.0568   3.0568   3.0568   5.1665
     5.1665   7.3400   7.3400   7.3400

     the Fermi energy is     5.9343 ev

     Writing output data file 04_TiH4.save

     init_run     :      0.89s CPU      0.91s WALL (       1 calls)
     electrons    :      5.73s CPU     10.28s WALL (       1 calls)

     Called by init_run:
     wfcinit      :      0.00s CPU      0.00s WALL (       1 calls)
     potinit      :      0.12s CPU      0.09s WALL (       1 calls)

     Called by electrons:
     c_bands      :      5.70s CPU     10.26s WALL (       1 calls)
     v_of_rho     :      0.08s CPU      0.06s WALL (       1 calls)
     newd         :      0.08s CPU      0.09s WALL (       1 calls)
     PAW_pot      :      0.00s CPU      0.02s WALL (       1 calls)

     Called by c_bands:
     init_us_2    :      0.09s CPU      0.14s WALL (      29 calls)
     cegterg      :      5.09s CPU      9.38s WALL (      29 calls)

     Called by sum_band:

     Called by *egterg:
     h_psi        :      3.75s CPU      5.07s WALL (     436 calls)
     s_psi        :      0.02s CPU      0.12s WALL (     436 calls)
     g_psi        :      0.02s CPU      0.02s WALL (     378 calls)
     cdiaghg      :      1.61s CPU      4.21s WALL (     407 calls)

     Called by h_psi:
     h_psi:pot    :      3.75s CPU      5.04s WALL (     436 calls)
     h_psi:calbec :      0.00s CPU      0.11s WALL (     436 calls)
     vloc_psi     :      3.69s CPU      4.75s WALL (     436 calls)
     add_vuspsi   :      0.06s CPU      0.18s WALL (     436 calls)

     General routines
     calbec       :      0.00s CPU      0.11s WALL (     436 calls)
     fft          :      0.05s CPU      0.02s WALL (      12 calls)
     ffts         :      0.05s CPU      0.00s WALL (       1 calls)
     fftw         :      2.52s CPU      3.31s WALL (    7730 calls)
     interpolate  :      0.05s CPU      0.01s WALL (       1 calls)
     davcio       :      0.00s CPU      0.01s WALL (      29 calls)

     Parallel routines
     fft_scatter  :      0.03s CPU      0.37s WALL (    7743 calls)

     PWSCF        :     6.97s CPU        11.72s WALL


   This run was terminated on:  20:48:57  23Nov2025            

=------------------------------------------------------------------------------=
   JOB DONE.
=------------------------------------------------------------------------------=
