
     Program PWSCF v.6.7MaX starts on  9Mar2026 at 12:52: 3 

     This program is part of the open-source Quantum ESPRESSO suite
     for quantum simulation of materials; please cite
         "P. Giannozzi et al., J. Phys.:Condens. Matter 21 395502 (2009);
         "P. Giannozzi et al., J. Phys.:Condens. Matter 29 465901 (2017);
          URL http://www.quantum-espresso.org", 
     in publications or presentations arising from this work. More details at
     http://www.quantum-espresso.org/quote

     Parallel version (MPI), running on     2 processors

     MPI processes distributed on     1 nodes
     R & G space division:  proc/nbgrp/npool/nimage =       2
     Waiting for input...
     Reading input from standard input

     Current dimensions of program PWSCF are:
     Max number of different atomic species (ntypx) = 10
     Max number of k-points (npk) =  40000
     Max angular momentum in pseudopotentials (lmaxx) =  3
     Message from routine read_pp_mesh:
     mismatch in mesh size, discarding the one in header
     file Ga.UPF: wavefunction(s)  4S renormalized
     file H.UPF: wavefunction(s)  1S renormalized

     Subspace diagonalization in iterative solution of the eigenvalue problem:
     a serial algorithm will be used


     Parallelization info
     --------------------
     sticks:   dense  smooth     PW     G-vecs:    dense   smooth      PW
     Min        2643    1322    369               163239    57709    8529
     Max        2644    1323    370               163242    57710    8530
     Sum        5287    2645    739               326481   115419   17059



     bravais-lattice index     =            0
     lattice parameter (alat)  =      14.0156  a.u.
     unit-cell volume          =    2416.4048 (a.u.)^3
     number of atoms/cell      =           28
     number of atomic types    =            4
     number of electrons       =       111.00
     number of Kohn-Sham states=           67
     kinetic-energy cutoff     =      50.0000  Ry
     charge density cutoff     =     400.0000  Ry
     scf convergence threshold =      1.0E-06
     mixing beta               =       0.4000
     number of iterations used =            6  local-TF  mixing
     energy convergence thresh.=      1.0E-04
     force convergence thresh. =      1.0E-03
     press convergence thresh. =      5.0E-01
     Exchange-correlation=  SLA  PW   PBE  PBE
                           (   1   4   3   4   0   0   0)
     nstep                     =          100


     celldm(1)=  14.015577  celldm(2)=   0.000000  celldm(3)=   0.000000
     celldm(4)=   0.000000  celldm(5)=   0.000000  celldm(6)=   0.000000

     crystal axes: (cart. coord. in units of alat)
               a(1) = (   0.999362   0.034544  -0.009076 )  
               a(2) = (   0.032663   0.846759   0.031288 )  
               a(3) = (   0.022162   0.877761   1.071119 )  

     reciprocal axes: (cart. coord. in units 2 pi/alat)
               b(1) = (  1.002092 -0.039072  0.011285 )  
               b(2) = ( -0.051234  1.219847 -0.998581 )  
               b(3) = (  0.009988 -0.035963  0.962868 )  


     PseudoPot. # 1 for Ga read from file:
     /home/marco/ZOS_Cloud_Compute/pseudo/Ga.UPF
     MD5 check sum: 79e63b61437c88080bf469cc04ca4be8
     Pseudo is Projector augmented-wave + core cor, Zval = 13.0
     Generated using "atomic" code by A. Dal Corso  v.5.1.2
     Shape of augmentation charge: PSQ
     Using radial grid of 1205 points,  6 beta functions with: 
                l(1) =   0
                l(2) =   0
                l(3) =   1
                l(4) =   1
                l(5) =   2
                l(6) =   2
     Q(r) pseudized with 0 coefficients 


     PseudoPot. # 2 for H  read from file:
     /home/marco/ZOS_Cloud_Compute/pseudo/H.UPF
     MD5 check sum: 850d63dcbcc06c5de8b44e0ab9f952da
     Pseudo is Projector augmented-wave, Zval =  1.0
     Generated using "atomic" code by A. Dal Corso  v.5.1.2
     Shape of augmentation charge: PSQ
     Using radial grid of  929 points,  2 beta functions with: 
                l(1) =   0
                l(2) =   0
     Q(r) pseudized with 0 coefficients 


     PseudoPot. # 3 for Mg read from file:
     /home/marco/ZOS_Cloud_Compute/pseudo/Mg.UPF
     MD5 check sum: a77e51077e70c6c73445c6cac60d158f
     Pseudo is Projector augmented-wave + core cor, Zval = 10.0
     Generated using ATOMPAW code
     Shape of augmentation charge: BESSEL
     Using radial grid of 1171 points,  6 beta functions with: 
                l(1) =   0
                l(2) =   0
                l(3) =   0
                l(4) =   0
                l(5) =   1
                l(6) =   1
     Q(r) pseudized with 0 coefficients 


     PseudoPot. # 4 for Zr read from file:
     /home/marco/ZOS_Cloud_Compute/pseudo/Zr.UPF
     MD5 check sum: 56bebf6edcd38415d7dd1a973c3f3403
     Pseudo is Ultrasoft + core correction, Zval = 12.0
     Generated by new atomic code, or converted to UPF format
     Using radial grid of  887 points,  6 beta functions with: 
                l(1) =   0
                l(2) =   0
                l(3) =   1
                l(4) =   1
                l(5) =   2
                l(6) =   2
     Q(r) pseudized with  6 coefficients,  rinner =    1.200   1.200   1.200
                                                       1.200   1.200

     atomic species   valence    mass     pseudopotential
        Ga            13.00     1.00000     Ga( 1.00)
        H              1.00     1.00000     H ( 1.00)
        Mg            10.00     1.00000     Mg( 1.00)
        Zr            12.00     1.00000     Zr( 1.00)

     No symmetry found



   Cartesian axes

     site n.     atom                  positions (alat units)
         1           Mg  tau(   1) = (   0.3824435   1.0990390   0.8228110  )
         2           Mg  tau(   2) = (   0.6535306   0.6648810   0.2685353  )
         3           Mg  tau(   3) = (   0.9083776   1.1034667   0.8131899  )
         4           Mg  tau(   4) = (   0.1534594   0.6522818   0.2828181  )
         5           Ga  tau(   5) = (   0.4309727   1.5080585   0.9767481  )
         6           Zr  tau(   6) = (   0.6165249   0.2808327   0.0563486  )
         7           Ga  tau(   7) = (   0.8845007   0.6916380   0.6533244  )
         8           Ga  tau(   8) = (   0.1613397   1.0688085   0.4496255  )
         9           H   tau(   9) = (   0.0784066   0.6655220   0.5554979  )
        10           H   tau(  10) = (   0.9673977   1.0925927   0.5286628  )
        11           H   tau(  11) = (   0.6214595   1.4739532   1.0752797  )
        12           H   tau(  12) = (   0.3755779   0.2392750   0.0258652  )
        13           H   tau(  13) = (   0.4097646   1.3647045   0.8160597  )
        14           H   tau(  14) = (   0.6481250   0.4047211   0.2750797  )
        15           H   tau(  15) = (   0.8845514   0.8438692   0.8041198  )
        16           H   tau(  16) = (   0.1662388   0.9068006   0.2908915  )
        17           H   tau(  17) = (   0.9201530   1.3676190   0.8099639  )
        18           H   tau(  18) = (   0.1304677   0.4007706   0.2862007  )
        19           H   tau(  19) = (   0.4157884   0.8340454   0.8187781  )
        20           H   tau(  20) = (   0.6520849   0.9138620   0.2655922  )
        21           H   tau(  21) = (   0.1505867   1.0792118   0.8516210  )
        22           H   tau(  22) = (   0.8987729   0.6753801   0.2111806  )
        23           H   tau(  23) = (   0.6498186   1.1114380   0.8537687  )
        24           H   tau(  24) = (   0.4072907   0.6521863   0.3335878  )
        25           H   tau(  25) = (   0.3598907   1.0798927   0.5499652  )
        26           H   tau(  26) = (   0.7084037   0.6828488   0.5353345  )
        27           H   tau(  27) = (   0.8993700   1.1285747   1.0789317  )
        28           H   tau(  28) = (   0.2233285   0.6406246   0.0168440  )

     number of k points=     8  Methfessel-Paxton smearing, width (Ry)=  0.0200
                       cart. coord. in units 2pi/alat
        k(    1) = (   0.0000000   0.0000000   0.0000000), wk =   0.2500000
        k(    2) = (  -0.0049938   0.0179815  -0.4814338), wk =   0.2500000
        k(    3) = (   0.0256171  -0.6099235   0.4992904), wk =   0.2500000
        k(    4) = (   0.0206233  -0.5919420   0.0178566), wk =   0.2500000
        k(    5) = (  -0.5010458   0.0195362  -0.0056425), wk =   0.2500000
        k(    6) = (  -0.5060396   0.0375177  -0.4870763), wk =   0.2500000
        k(    7) = (  -0.4754286  -0.5903873   0.4936478), wk =   0.2500000
        k(    8) = (  -0.4804224  -0.5724058   0.0122141), wk =   0.2500000

     Dense  grid:   326481 G-vectors     FFT dimensions: (  90,  75, 125)

     Smooth grid:   115419 G-vectors     FFT dimensions: (  64,  54,  90)

     Estimated max dynamical RAM per process >     806.29 MB

     Estimated total dynamical RAM >       1.57 GB

     Initial potential from superposition of free atoms

     starting charge  110.98546, renormalised to  111.00000

     negative rho (up, down):  6.079E-02 0.000E+00
     Starting wfcs are  100 randomized atomic wfcs
     Checking if some PAW data can be deallocated... 

     total cpu time spent up to now is       40.7 secs

     Self-consistent Calculation

     iteration #  1     ecut=    50.00 Ry     beta= 0.40
     Davidson diagonalization with overlap
     ethr =  1.00E-02,  avg # of iterations =  3.0

     negative rho (up, down):  6.089E-02 0.000E+00

     total cpu time spent up to now is       61.9 secs

     total energy              =   -1521.04329895 Ry
     estimated scf accuracy    <       1.40952046 Ry

     iteration #  2     ecut=    50.00 Ry     beta= 0.40
     Davidson diagonalization with overlap
     ethr =  1.27E-03,  avg # of iterations =  2.0

     negative rho (up, down):  6.174E-02 0.000E+00

     total cpu time spent up to now is       80.0 secs

     total energy              =   -1520.79897348 Ry
     estimated scf accuracy    <       0.67293728 Ry

     iteration #  3     ecut=    50.00 Ry     beta= 0.40
     Davidson diagonalization with overlap
     ethr =  6.06E-04,  avg # of iterations =  5.4

     negative rho (up, down):  6.249E-02 0.000E+00

     total cpu time spent up to now is      101.0 secs

     total energy              =   -1520.91451828 Ry
     estimated scf accuracy    <       0.04563318 Ry

     iteration #  4     ecut=    50.00 Ry     beta= 0.40
     Davidson diagonalization with overlap
     c_bands:  1 eigenvalues not converged
     ethr =  4.11E-05,  avg # of iterations = 13.0

     negative rho (up, down):  6.263E-02 0.000E+00

     total cpu time spent up to now is      138.9 secs

     total energy              =   -1520.99308569 Ry
     estimated scf accuracy    <       0.03341379 Ry

     iteration #  5     ecut=    50.00 Ry     beta= 0.40
     Davidson diagonalization with overlap
     ethr =  3.01E-05,  avg # of iterations =  1.9

     negative rho (up, down):  6.257E-02 0.000E+00

     total cpu time spent up to now is      157.2 secs

     total energy              =   -1520.99061070 Ry
     estimated scf accuracy    <       0.02140574 Ry

     iteration #  6     ecut=    50.00 Ry     beta= 0.40
     Davidson diagonalization with overlap
     c_bands:  1 eigenvalues not converged
     ethr =  1.93E-05,  avg # of iterations =  4.2

     negative rho (up, down):  6.223E-02 0.000E+00

     total cpu time spent up to now is      177.9 secs

     total energy              =   -1520.99066814 Ry
     estimated scf accuracy    <       0.00372919 Ry

     iteration #  7     ecut=    50.00 Ry     beta= 0.40
     Davidson diagonalization with overlap
     ethr =  3.36E-06,  avg # of iterations = 12.2

     negative rho (up, down):  6.215E-02 0.000E+00

     total cpu time spent up to now is      204.1 secs

     total energy              =   -1520.99055686 Ry
     estimated scf accuracy    <       0.00096474 Ry

     iteration #  8     ecut=    50.00 Ry     beta= 0.40
     Davidson diagonalization with overlap
     ethr =  8.69E-07,  avg # of iterations =  7.6

     negative rho (up, down):  6.225E-02 0.000E+00

     total cpu time spent up to now is      231.7 secs

     total energy              =   -1520.99109184 Ry
     estimated scf accuracy    <       0.00125332 Ry

     iteration #  9     ecut=    50.00 Ry     beta= 0.40
     Davidson diagonalization with overlap
     ethr =  8.69E-07,  avg # of iterations =  1.0

     negative rho (up, down):  6.226E-02 0.000E+00

     total cpu time spent up to now is      249.2 secs

     total energy              =   -1520.99105835 Ry
     estimated scf accuracy    <       0.00060782 Ry

     iteration # 10     ecut=    50.00 Ry     beta= 0.40
     Davidson diagonalization with overlap
     ethr =  5.48E-07,  avg # of iterations =  1.0

     negative rho (up, down):  6.226E-02 0.000E+00

     total cpu time spent up to now is      267.0 secs

     total energy              =   -1520.99102000 Ry
     estimated scf accuracy    <       0.00013049 Ry

     iteration # 11     ecut=    50.00 Ry     beta= 0.40
     Davidson diagonalization with overlap
     ethr =  1.18E-07,  avg # of iterations =  6.8

     negative rho (up, down):  6.228E-02 0.000E+00

     total cpu time spent up to now is      289.4 secs

     total energy              =   -1520.99104285 Ry
     estimated scf accuracy    <       0.00001453 Ry

     iteration # 12     ecut=    50.00 Ry     beta= 0.40
     Davidson diagonalization with overlap
     ethr =  1.31E-08,  avg # of iterations =  8.4

     negative rho (up, down):  6.228E-02 0.000E+00

     total cpu time spent up to now is      320.9 secs

     total energy              =   -1520.99105681 Ry
     estimated scf accuracy    <       0.00000816 Ry

     iteration # 13     ecut=    50.00 Ry     beta= 0.40
     Davidson diagonalization with overlap
     ethr =  7.35E-09,  avg # of iterations =  2.0

     negative rho (up, down):  6.230E-02 0.000E+00

     total cpu time spent up to now is      340.2 secs

     total energy              =   -1520.99105328 Ry
     estimated scf accuracy    <       0.00000673 Ry

     iteration # 14     ecut=    50.00 Ry     beta= 0.40
     Davidson diagonalization with overlap
     ethr =  6.06E-09,  avg # of iterations =  6.0

     negative rho (up, down):  6.230E-02 0.000E+00

     total cpu time spent up to now is      365.3 secs

     total energy              =   -1520.99105579 Ry
     estimated scf accuracy    <       0.00000119 Ry

     iteration # 15     ecut=    50.00 Ry     beta= 0.40
     Davidson diagonalization with overlap
     ethr =  1.07E-09,  avg # of iterations =  6.4

     negative rho (up, down):  6.230E-02 0.000E+00

     total cpu time spent up to now is      391.4 secs

     total energy              =   -1520.99105625 Ry
     estimated scf accuracy    <       0.00000132 Ry

     iteration # 16     ecut=    50.00 Ry     beta= 0.40
     Davidson diagonalization with overlap
     ethr =  1.07E-09,  avg # of iterations =  1.1

     negative rho (up, down):  6.230E-02 0.000E+00

     total cpu time spent up to now is      408.2 secs

     End of self-consistent calculation

          k = 0.0000 0.0000 0.0000 ( 14439 PWs)   bands (ev):

   -72.7664 -72.7071 -72.4781 -72.0379 -46.2877 -39.8799 -39.8565 -39.8223
   -39.8186 -39.7982 -39.7597 -39.6169 -39.5837 -39.4973 -39.2015 -39.1047
   -39.0723 -24.5110 -24.3243 -24.2265 -12.3619 -12.3575 -12.3096 -12.2074
   -12.2017 -12.1315 -12.1062 -12.0986 -12.0714 -12.0566 -12.0231 -12.0004
   -11.9761 -11.9235 -11.9141  -6.2654  -5.5729  -5.0127  -2.9972  -2.6897
    -2.0277  -1.9626  -1.5727  -1.4045  -1.2325  -1.0713  -0.9466  -0.9136
    -0.7473  -0.2332  -0.0455   0.1395   0.3894   0.4639   1.1870   3.7125
     3.9341   3.9897   4.7282   5.1299   5.5350   5.6832   5.9367   6.3186
     6.9151   7.2367   7.2601

          k =-0.0050 0.0180-0.4814 ( 14410 PWs)   bands (ev):

   -72.7664 -72.7071 -72.4781 -72.0379 -46.2877 -39.8799 -39.8565 -39.8223
   -39.8186 -39.7982 -39.7597 -39.6169 -39.5837 -39.4973 -39.2015 -39.1047
   -39.0723 -24.5110 -24.3243 -24.2265 -12.3619 -12.3575 -12.3096 -12.2074
   -12.2017 -12.1315 -12.1062 -12.0986 -12.0714 -12.0566 -12.0231 -12.0004
   -11.9761 -11.9235 -11.9141  -6.1077  -5.7812  -5.0042  -2.9719  -2.7582
    -2.2556  -1.5619  -1.5377  -1.4270  -1.1297  -1.1077  -1.0407  -0.8395
    -0.7589  -0.3280  -0.1378   0.1233   0.3506   0.5439   1.2956   3.6592
     3.8466   4.0869   4.8855   5.0666   5.6703   6.0427   6.2216   6.4334
     6.7138   6.7900   7.0230

          k = 0.0256-0.6099 0.4993 ( 14392 PWs)   bands (ev):

   -72.7664 -72.7071 -72.4781 -72.0379 -46.2877 -39.8799 -39.8565 -39.8223
   -39.8186 -39.7982 -39.7597 -39.6169 -39.5837 -39.4973 -39.2015 -39.1047
   -39.0723 -24.5110 -24.3245 -24.2265 -12.3618 -12.3578 -12.3095 -12.2075
   -12.2016 -12.1308 -12.1066 -12.0993 -12.0707 -12.0568 -12.0229 -12.0005
   -11.9761 -11.9235 -11.9141  -5.8973  -5.4279  -5.3146  -3.5886  -2.7638
    -2.2748  -2.1716  -1.6522  -1.6025  -1.3132  -1.1084  -0.8106  -0.5208
    -0.4128  -0.2393   0.0609   0.2329   0.4978   0.7677   1.5188   3.6597
     3.8137   3.9746   4.9786   5.2565   5.6229   6.3232   6.4839   6.6013
     6.7207   6.8469   7.0024

          k = 0.0206-0.5919 0.0179 ( 14398 PWs)   bands (ev):

   -72.7664 -72.7071 -72.4781 -72.0379 -46.2877 -39.8799 -39.8565 -39.8223
   -39.8186 -39.7982 -39.7597 -39.6169 -39.5837 -39.4973 -39.2015 -39.1047
   -39.0723 -24.5110 -24.3245 -24.2265 -12.3618 -12.3578 -12.3095 -12.2075
   -12.2016 -12.1308 -12.1065 -12.0993 -12.0707 -12.0568 -12.0228 -12.0006
   -11.9761 -11.9235 -11.9142  -5.9601  -5.4004  -5.3161  -3.4139  -2.5909
    -2.4090  -2.2503  -1.6039  -1.5846  -1.3116  -1.2542  -0.9234  -0.4649
    -0.4417  -0.1617   0.0207   0.1709   0.4994   0.7329   1.4711   3.6354
     3.8656   3.9257   4.8756   5.2064   5.7252   6.0392   6.4127   6.5460
     6.8927   6.9545   6.9647

          k =-0.5010 0.0195-0.0056 ( 14460 PWs)   bands (ev):

   -72.7664 -72.7071 -72.4781 -72.0379 -46.2877 -39.8799 -39.8565 -39.8223
   -39.8186 -39.7982 -39.7598 -39.6169 -39.5837 -39.4973 -39.2015 -39.1047
   -39.0723 -24.5110 -24.3243 -24.2265 -12.3619 -12.3575 -12.3096 -12.2074
   -12.2017 -12.1314 -12.1062 -12.0986 -12.0714 -12.0566 -12.0231 -12.0004
   -11.9761 -11.9235 -11.9141  -6.0294  -5.8771  -4.9846  -2.7845  -2.6869
    -2.3767  -1.9944  -1.4695  -1.3904  -1.2579  -1.2204  -0.8753  -0.8009
    -0.6230  -0.5601  -0.1063   0.0527   0.6574   0.9608   1.0735   3.6720
     3.8419   3.9627   4.9704   5.0539   5.6779   6.0138   6.1414   6.2525
     6.5460   6.7673   7.1612

          k =-0.5060 0.0375-0.4871 ( 14440 PWs)   bands (ev):

   -72.7664 -72.7071 -72.4781 -72.0379 -46.2877 -39.8799 -39.8565 -39.8223
   -39.8186 -39.7982 -39.7598 -39.6169 -39.5837 -39.4973 -39.2015 -39.1047
   -39.0723 -24.5110 -24.3243 -24.2265 -12.3619 -12.3575 -12.3096 -12.2074
   -12.2017 -12.1314 -12.1062 -12.0986 -12.0714 -12.0566 -12.0231 -12.0004
   -11.9761 -11.9235 -11.9141  -5.9676  -5.8482  -5.0927  -3.1751  -2.7188
    -2.1550  -1.6262  -1.5491  -1.3348  -1.2609  -1.0556  -0.9009  -0.8257
    -0.7546  -0.5019  -0.0812   0.0160   0.6271   0.8516   1.0994   3.6766
     3.9021   3.9637   4.8898   5.2946   5.7017   5.8260   5.9413   6.2732
     6.5526   6.8147   7.2162

          k =-0.4754-0.5904 0.4936 ( 14434 PWs)   bands (ev):

   -72.7664 -72.7071 -72.4781 -72.0379 -46.2877 -39.8799 -39.8565 -39.8223
   -39.8186 -39.7982 -39.7598 -39.6169 -39.5837 -39.4973 -39.2016 -39.1047
   -39.0723 -24.5110 -24.3245 -24.2265 -12.3618 -12.3578 -12.3095 -12.2075
   -12.2016 -12.1308 -12.1066 -12.0993 -12.0708 -12.0567 -12.0229 -12.0006
   -11.9761 -11.9235 -11.9142  -5.8253  -5.4840  -5.2963  -3.3504  -2.7619
    -2.7119  -2.6616  -1.8346  -1.4810  -1.0687  -0.9234  -0.5755  -0.4106
    -0.2987  -0.2550  -0.0778   0.3317   0.7794   0.9977   1.2125   3.6648
     3.7099   3.9320   5.0471   5.2960   5.7206   5.9908   6.2102   6.2986
     6.6177   6.7391   7.2307

          k =-0.4804-0.5724 0.0122 ( 14446 PWs)   bands (ev):

   -72.7664 -72.7071 -72.4781 -72.0379 -46.2877 -39.8799 -39.8565 -39.8223
   -39.8186 -39.7982 -39.7598 -39.6169 -39.5837 -39.4973 -39.2016 -39.1047
   -39.0723 -24.5110 -24.3245 -24.2265 -12.3618 -12.3578 -12.3095 -12.2075
   -12.2016 -12.1308 -12.1066 -12.0993 -12.0707 -12.0567 -12.0228 -12.0006
   -11.9761 -11.9235 -11.9142  -5.8419  -5.5000  -5.3244  -3.4519  -2.5382
    -2.4209  -2.3025  -1.8655  -1.5370  -1.4374  -1.1638  -0.8040  -0.7002
    -0.4261  -0.0943   0.0853   0.2191   0.9148   1.0633   1.1741   3.6655
     3.8034   4.0004   5.2045   5.5962   5.7419   5.9687   6.2757   6.5341
     6.6843   6.8476   7.0806

     the Fermi energy is     3.6546 ev

!    total energy              =   -1520.99105591 Ry
     estimated scf accuracy    <       0.00000073 Ry
     smearing contrib. (-TS)   =      -0.00366326 Ry
     internal energy E=F+TS    =   -1520.98739265 Ry

     The total energy is F=E-TS. E is the sum of the following terms:
     one-electron contribution =    -991.02251241 Ry
     hartree contribution      =     413.29189334 Ry
     xc contribution           =    -195.27542672 Ry
     ewald contribution        =    -444.00191756 Ry
     one-center paw contrib.   =    -303.97942930 Ry

     convergence has been achieved in  16 iterations

     negative rho (up, down):  6.230E-02 0.000E+00

     Forces acting on atoms (cartesian axes, Ry/au):

     atom    1 type  3   force =    -0.00631744   -0.00011712    0.00549715
     atom    2 type  3   force =     0.00061630    0.00107056    0.01479819
     atom    3 type  3   force =     0.02510663    0.00303924    0.00607425
     atom    4 type  3   force =    -0.00260043    0.00192492    0.00345733
     atom    5 type  1   force =    -0.03618651    0.00300481   -0.01847457
     atom    6 type  4   force =     0.05047677   -0.00029482    0.07369038
     atom    7 type  1   force =     0.02181516   -0.00206588   -0.01383525
     atom    8 type  1   force =     0.02073333    0.00009479   -0.04976054
     atom    9 type  2   force =    -0.01413106   -0.00038613    0.00674229
     atom   10 type  2   force =    -0.00692583    0.00094801    0.01622118
     atom   11 type  2   force =     0.01143902   -0.01951025    0.00818803
     atom   12 type  2   force =    -0.03006739   -0.02161070   -0.04113228
     atom   13 type  2   force =    -0.00275749   -0.00292678   -0.00842838
     atom   14 type  2   force =     0.00885121    0.01499741    0.01492539
     atom   15 type  2   force =    -0.00398238    0.00613284    0.00042453
     atom   16 type  2   force =     0.00088055    0.02812806    0.02193917
     atom   17 type  2   force =    -0.00273908   -0.01260825    0.00696329
     atom   18 type  2   force =     0.00029224   -0.02390959    0.01128728
     atom   19 type  2   force =     0.00794460    0.00277969    0.00117358
     atom   20 type  2   force =    -0.00417232    0.03710890   -0.02248538
     atom   21 type  2   force =    -0.01212636   -0.00376005   -0.00086966
     atom   22 type  2   force =     0.01475568    0.00034149   -0.00557996
     atom   23 type  2   force =    -0.00738249    0.00250696   -0.00279715
     atom   24 type  2   force =    -0.00914683   -0.00339769    0.00078175
     atom   25 type  2   force =    -0.01569380   -0.00521619    0.00096880
     atom   26 type  2   force =    -0.00329612    0.00519396    0.00170323
     atom   27 type  2   force =    -0.01419240   -0.01135866   -0.02494712
     atom   28 type  2   force =     0.00880645   -0.00010955   -0.00652552

     Total force =     0.158726     Total SCF correction =     0.001504


     Computing stress (Cartesian axis) and pressure


     negative rho (up, down):  6.230E-02 0.000E+00
          total   stress  (Ry/bohr**3)                   (kbar)     P=        8.56
   0.00004497  -0.00002738   0.00004750            6.62       -4.03        6.99
  -0.00002738   0.00006886   0.00002322           -4.03       10.13        3.42
   0.00004750   0.00002322   0.00006076            6.99        3.42        8.94


     BFGS Geometry Optimization
     Energy error            =      0.0E+00
     Gradient error          =      7.4E-02
     Cell gradient error     =      6.9E-05


     number of scf cycles    =   1
     number of bfgs steps    =   0

     enthalpy new            =   -1520.9910559119 Ry

     new trust radius        =       0.0893211223 bohr
     new conv_thr            =       0.0000010000 Ry

     new unit-cell volume =   2426.96156 a.u.^3 (   359.63860 Ang^3 )
     density =      0.12928 g/cm^3

CELL_PARAMETERS (angstrom)
   7.420070226   0.251532129  -0.058465927
   0.238504867   6.290959135   0.236337294
   0.169532892   6.525817796   7.960234544

ATOMIC_POSITIONS (angstrom)
Mg            2.8379905794        8.1668445300        6.1228414955
Mg            4.8518304977        4.9381381637        2.0111394160
Mg            6.7596238767        8.1986903653        6.0563537456
Mg            1.1372486626        4.8475832705        2.1067616445
Ga            3.1817623903       11.2077266236        7.2557509574
Zr            4.6035941795        2.0834051812        0.4642820447
Ga            6.5812653019        5.1357339752        4.8563358611
Ga            1.2074435390        7.9418487304        3.3194774265
H             0.5762054235        4.9462866544        4.1333535475
H             7.1784385900        8.1152838905        3.9487192836
H             4.6224353663       10.9418543099        8.0033274472
H             2.7717559878        1.7644392262        0.1746396324
H             3.0413213722       10.1389417749        6.0666991258
H             4.8174295722        3.0127176385        2.0586601504
H             6.5685360872        6.2717434748        5.9846423230
H             1.2327613669        6.7523931874        2.1777443693
H             6.8309418794       10.1528501444        6.0340814227
H             0.9693874067        2.9654211125        2.1347458586
H             3.0944403778        6.1994195566        6.0897561179
H             4.8372330646        6.8070285484        1.9705861234
H             1.1137134752        8.0189086666        6.3313356142
H             6.6796902112        5.0142512768        1.5765230171
H             4.8229064897        8.2591274874        6.3508077806
H             3.0189420985        4.8429840428        2.4846899695
H             2.6632603849        8.0208357479        4.0934572789
H             5.2594431914        5.0746829778        3.9865404217
H             6.6741209142        8.3787925054        8.0138403923
H             1.6597855032        4.7583907696        0.1263892835



     Writing output data file ./tmp/Mg4ZrGa3H20.save/
