
     Program PWSCF v.6.7MaX starts on  7Feb2026 at 12:36:48 

     This program is part of the open-source Quantum ESPRESSO suite
     for quantum simulation of materials; please cite
         "P. Giannozzi et al., J. Phys.:Condens. Matter 21 395502 (2009);
         "P. Giannozzi et al., J. Phys.:Condens. Matter 29 465901 (2017);
          URL http://www.quantum-espresso.org", 
     in publications or presentations arising from this work. More details at
     http://www.quantum-espresso.org/quote

     Parallel version (MPI), running on     2 processors

     MPI processes distributed on     1 nodes
     R & G space division:  proc/nbgrp/npool/nimage =       2
     Waiting for input...
     Reading input from standard input

     Current dimensions of program PWSCF are:
     Max number of different atomic species (ntypx) = 10
     Max number of k-points (npk) =  40000
     Max angular momentum in pseudopotentials (lmaxx) =  3
     file Ga.UPF: wavefunction(s)  4S renormalized
     file H.UPF: wavefunction(s)  1S renormalized
     file Rb.UPF: wavefunction(s)  4S renormalized

     Subspace diagonalization in iterative solution of the eigenvalue problem:
     a serial algorithm will be used


     Parallelization info
     --------------------
     sticks:   dense  smooth     PW     G-vecs:    dense   smooth      PW
     Min        2190    1091    312               182631    64584    9711
     Max        2191    1092    313               182632    64587    9714
     Sum        4381    2183    625               365263   129171   19425



     bravais-lattice index     =            0
     lattice parameter (alat)  =       9.4812  a.u.
     unit-cell volume          =    2704.7298 (a.u.)^3
     number of atoms/cell      =           24
     number of atomic types    =            5
     number of electrons       =       102.00
     number of Kohn-Sham states=           61
     kinetic-energy cutoff     =      50.0000  Ry
     charge density cutoff     =     400.0000  Ry
     scf convergence threshold =      1.0E-06
     mixing beta               =       0.7000
     number of iterations used =            8  plain     mixing
     energy convergence thresh.=      1.0E-04
     force convergence thresh. =      1.0E-03
     press convergence thresh. =      5.0E-01
     Exchange-correlation= SLA  PW   PBX  PBC
                           (   1   4   3   4   0   0   0)
     nstep                     =           50


     celldm(1)=   9.481170  celldm(2)=   0.000000  celldm(3)=   0.000000
     celldm(4)=   0.000000  celldm(5)=   0.000000  celldm(6)=   0.000000

     crystal axes: (cart. coord. in units of alat)
               a(1) = (   1.000000  -0.000021   0.000004 )  
               a(2) = (  -0.000027   1.520341  -0.156098 )  
               a(3) = (   0.000007  -0.194172   2.107295 )  

     reciprocal axes: (cart. coord. in units 2 pi/alat)
               b(1) = (  1.000000  0.000018 -0.000001 )  
               b(2) = (  0.000013  0.664029  0.061185 )  
               b(3) = ( -0.000001  0.049188  0.479074 )  


     PseudoPot. # 1 for Ba read from file:
     /home/marco/ZOS_Cloud_Compute/pseudo/Ba.UPF
     MD5 check sum: a011de417d3466d8e94df216395bc359
     Pseudo is Ultrasoft + core correction, Zval = 10.0
     Generated by new atomic code, or converted to UPF format
     Using radial grid of  907 points,  6 beta functions with: 
                l(1) =   0
                l(2) =   0
                l(3) =   1
                l(4) =   1
                l(5) =   2
                l(6) =   2
     Q(r) pseudized with  6 coefficients,  rinner =    1.200   1.200   1.200
                                                       1.200   1.200

     PseudoPot. # 2 for Ca read from file:
     /home/marco/ZOS_Cloud_Compute/pseudo/Ca.UPF
     MD5 check sum: 0c1c990b756df134246005b196012f4b
     Pseudo is Ultrasoft + core correction, Zval = 10.0
     Generated by new atomic code, or converted to UPF format
     Using radial grid of  845 points,  6 beta functions with: 
                l(1) =   0
                l(2) =   0
                l(3) =   1
                l(4) =   1
                l(5) =   2
                l(6) =   2
     Q(r) pseudized with  6 coefficients,  rinner =    1.200   1.200   1.200
                                                       1.200   1.200

     PseudoPot. # 3 for Ga read from file:
     /home/marco/ZOS_Cloud_Compute/pseudo/Ga.UPF
     MD5 check sum: 79e63b61437c88080bf469cc04ca4be8
     Pseudo is Projector augmented-wave + core cor, Zval = 13.0
     Generated using "atomic" code by A. Dal Corso  v.5.1.2
     Shape of augmentation charge: PSQ
     Using radial grid of 1205 points,  6 beta functions with: 
                l(1) =   0
                l(2) =   0
                l(3) =   1
                l(4) =   1
                l(5) =   2
                l(6) =   2
     Q(r) pseudized with 0 coefficients 


     PseudoPot. # 4 for H  read from file:
     /home/marco/ZOS_Cloud_Compute/pseudo/H.UPF
     MD5 check sum: 850d63dcbcc06c5de8b44e0ab9f952da
     Pseudo is Projector augmented-wave, Zval =  1.0
     Generated using "atomic" code by A. Dal Corso  v.5.1.2
     Shape of augmentation charge: PSQ
     Using radial grid of  929 points,  2 beta functions with: 
                l(1) =   0
                l(2) =   0
     Q(r) pseudized with 0 coefficients 


     PseudoPot. # 5 for Rb read from file:
     /home/marco/ZOS_Cloud_Compute/pseudo/Rb.UPF
     MD5 check sum: 2771e311bc20ea25cdd5c0a9866b789c
     Pseudo is Projector augmented-wave + core cor, Zval =  9.0
     Generated using "atomic" code by A. Dal Corso  v.5.1.2
     Shape of augmentation charge: PSQ
     Using radial grid of 1219 points,  6 beta functions with: 
                l(1) =   0
                l(2) =   0
                l(3) =   1
                l(4) =   1
                l(5) =   2
                l(6) =   2
     Q(r) pseudized with 0 coefficients 


     atomic species   valence    mass     pseudopotential
        Ba            10.00     1.00000     Ba( 1.00)
        Ca            10.00     1.00000     Ca( 1.00)
        Ga            13.00     1.00000     Ga( 1.00)
        H              1.00     1.00000     H ( 1.00)
        Rb             9.00     1.00000     Rb( 1.00)

     No symmetry found



   Cartesian axes

     site n.     atom                  positions (alat units)
         1           Rb  tau(   1) = (   0.2499959   0.3448859   1.3542819  )
         2           Rb  tau(   2) = (   0.2499975   0.1680509   0.3434249  )
         3           Rb  tau(   3) = (   0.7499844   0.9349084   0.6447468  )
         4           Ca  tau(   4) = (   0.7499818   1.1571474   1.5801309  )
         5           Ba  tau(   5) = (   0.2499837   0.9228268   0.0120738  )
         6           Ga  tau(   6) = (   0.2499815   1.1039412   1.1118335  )
         7           Ga  tau(   7) = (   0.7499972   0.3085311   1.9035165  )
         8           Ga  tau(   8) = (   0.7499988   0.1919659   0.9053908  )
         9           H   tau(   9) = (   0.2499869   0.8824903   1.6175110  )
        10           H   tau(  10) = (   0.2499797   1.2125247   0.8069062  )
        11           H   tau(  11) = (   0.7499894   0.6153662   0.1195473  )
        12           H   tau(  12) = (   0.7500007   0.0641415   1.2028454  )
        13           H   tau(  13) = (   0.2499875   0.7536831   0.4779367  )
        14           H   tau(  14) = (   0.2499783   1.3307007   1.3347434  )
        15           H   tau(  15) = (   0.7499928   0.5485656   1.7076827  )
        16           H   tau(  16) = (   0.7500015  -0.0304635   0.6794836  )
        17           H   tau(  17) = (   0.9855436   0.0896535   1.8685909  )
        18           H   tau(  18) = (   0.5031542   0.3825448   0.8843953  )
        19           H   tau(  19) = (   0.6110347   1.2851231  -0.0909010  )
        20           H   tau(  20) = (  -0.0165658   0.9449348   1.1440960  )
        21           H   tau(  21) = (  -0.1110807   1.2851382  -0.0909039  )
        22           H   tau(  22) = (   0.5165364   0.9449233   1.1440982  )
        23           H   tau(  23) = (   0.5144591   0.0896636   1.8685890  )
        24           H   tau(  24) = (   0.9968341   0.3825336   0.8843977  )

     number of k points=     8  Methfessel-Paxton smearing, width (Ry)=  0.0200
                       cart. coord. in units 2pi/alat
        k(    1) = (   0.0000000   0.0000000   0.0000000), wk =   0.2500000
        k(    2) = (   0.0000004  -0.0245939  -0.2395371), wk =   0.2500000
        k(    3) = (  -0.0000067  -0.3320147  -0.0305927), wk =   0.2500000
        k(    4) = (  -0.0000062  -0.3566086  -0.2701298), wk =   0.2500000
        k(    5) = (  -0.5000000  -0.0000088   0.0000007), wk =   0.2500000
        k(    6) = (  -0.4999996  -0.0246028  -0.2395364), wk =   0.2500000
        k(    7) = (  -0.5000067  -0.3320235  -0.0305920), wk =   0.2500000
        k(    8) = (  -0.5000062  -0.3566174  -0.2701291), wk =   0.2500000

     Dense  grid:   365263 G-vectors     FFT dimensions: (  64,  96, 128)

     Smooth grid:   129171 G-vectors     FFT dimensions: (  45,  72,  96)

     Estimated max dynamical RAM per process >     877.69 MB

     Estimated total dynamical RAM >       1.71 GB

     Initial potential from superposition of free atoms

     starting charge  101.90202, renormalised to  102.00000

     negative rho (up, down):  1.784E-04 0.000E+00
     Starting wfcs are   90 randomized atomic wfcs
     Checking if some PAW data can be deallocated... 

     total cpu time spent up to now is       51.6 secs

     Self-consistent Calculation

     iteration #  1     ecut=    50.00 Ry     beta= 0.70
     Davidson diagonalization with overlap
     ethr =  1.00E-02,  avg # of iterations =  3.9

     negative rho (up, down):  1.736E-04 0.000E+00

     total cpu time spent up to now is       75.8 secs

     total energy              =   -1736.87184848 Ry
     estimated scf accuracy    <       1.28431155 Ry

     iteration #  2     ecut=    50.00 Ry     beta= 0.70
     Davidson diagonalization with overlap
     ethr =  1.26E-03,  avg # of iterations =  5.8

     negative rho (up, down):  1.597E-04 0.000E+00

     total cpu time spent up to now is      101.9 secs

     total energy              =   -1736.87465912 Ry
     estimated scf accuracy    <       0.67844014 Ry

     iteration #  3     ecut=    50.00 Ry     beta= 0.70
     Davidson diagonalization with overlap
     ethr =  6.65E-04,  avg # of iterations =  5.9

     negative rho (up, down):  1.588E-04 0.000E+00

     total cpu time spent up to now is      128.3 secs

     total energy              =   -1737.20411896 Ry
     estimated scf accuracy    <       0.29592602 Ry

     iteration #  4     ecut=    50.00 Ry     beta= 0.70
     Davidson diagonalization with overlap
     ethr =  2.90E-04,  avg # of iterations =  6.5

     negative rho (up, down):  1.569E-04 0.000E+00

     total cpu time spent up to now is      154.0 secs

     total energy              =   -1737.24615423 Ry
     estimated scf accuracy    <       0.04833706 Ry

     iteration #  5     ecut=    50.00 Ry     beta= 0.70
     Davidson diagonalization with overlap
     c_bands:  2 eigenvalues not converged
     ethr =  4.74E-05,  avg # of iterations = 10.5

     negative rho (up, down):  1.568E-04 0.000E+00

     total cpu time spent up to now is      184.8 secs

     total energy              =   -1737.26030177 Ry
     estimated scf accuracy    <       0.01540272 Ry

     iteration #  6     ecut=    50.00 Ry     beta= 0.70
     Davidson diagonalization with overlap
     c_bands:  1 eigenvalues not converged
     ethr =  1.51E-05,  avg # of iterations = 11.5

     negative rho (up, down):  1.548E-04 0.000E+00

     total cpu time spent up to now is      212.4 secs

     total energy              =   -1737.26148565 Ry
     estimated scf accuracy    <       0.00270016 Ry

     iteration #  7     ecut=    50.00 Ry     beta= 0.70
     Davidson diagonalization with overlap
     c_bands:  1 eigenvalues not converged
     c_bands:  1 eigenvalues not converged
     ethr =  2.65E-06,  avg # of iterations = 12.8

     negative rho (up, down):  1.553E-04 0.000E+00

     total cpu time spent up to now is      245.0 secs

     total energy              =   -1737.26236709 Ry
     estimated scf accuracy    <       0.00035960 Ry

     iteration #  8     ecut=    50.00 Ry     beta= 0.70
     Davidson diagonalization with overlap
     c_bands:  1 eigenvalues not converged
     ethr =  3.53E-07,  avg # of iterations =  8.8

     negative rho (up, down):  1.551E-04 0.000E+00

     total cpu time spent up to now is      275.7 secs

     total energy              =   -1737.26257931 Ry
     estimated scf accuracy    <       0.00003292 Ry

     iteration #  9     ecut=    50.00 Ry     beta= 0.70
     Davidson diagonalization with overlap
     ethr =  3.23E-08,  avg # of iterations =  8.0

     negative rho (up, down):  1.551E-04 0.000E+00

     total cpu time spent up to now is      309.1 secs

     total energy              =   -1737.26222238 Ry
     estimated scf accuracy    <       0.00003387 Ry

     iteration # 10     ecut=    50.00 Ry     beta= 0.70
     Davidson diagonalization with overlap
     ethr =  3.23E-08,  avg # of iterations =  2.5

     negative rho (up, down):  1.551E-04 0.000E+00

     total cpu time spent up to now is      331.1 secs

     total energy              =   -1737.26222099 Ry
     estimated scf accuracy    <       0.00001750 Ry

     iteration # 11     ecut=    50.00 Ry     beta= 0.70
     Davidson diagonalization with overlap
     ethr =  1.72E-08,  avg # of iterations =  3.5

     negative rho (up, down):  1.551E-04 0.000E+00

     total cpu time spent up to now is      354.6 secs

     total energy              =   -1737.26222259 Ry
     estimated scf accuracy    <       0.00000111 Ry

     iteration # 12     ecut=    50.00 Ry     beta= 0.70
     Davidson diagonalization with overlap
     ethr =  1.09E-09,  avg # of iterations =  9.5

     negative rho (up, down):  1.551E-04 0.000E+00

     total cpu time spent up to now is      392.5 secs

     End of self-consistent calculation

          k = 0.0000 0.0000 0.0000 ( 16169 PWs)   bands (ev):

   -37.7995 -23.7698 -23.5948 -23.4526 -23.2424 -18.9182 -18.7182 -18.6964
   -11.7343 -11.7261 -11.6939 -11.6023 -11.5946 -10.7867 -10.7646 -10.7222
   -10.7058 -10.7056 -10.6962 -10.6273 -10.6090 -10.5667 -10.5548  -9.2537
    -9.0707  -8.8875  -7.8024  -7.7038  -7.7004  -7.6187  -7.5864  -7.5728
    -7.5247  -7.4003  -7.2602  -5.0450  -4.4209  -3.9744  -1.2172  -0.7496
    -0.2480  -0.0525   0.0188   0.3654   0.3864   0.5367   0.7681   1.1850
     1.9853   2.8769   4.4069   5.3832   5.7122   5.9117   5.9196   6.3635
     6.4833   6.6600   7.0277   7.2300   7.3734

          k = 0.0000-0.0246-0.2395 ( 16186 PWs)   bands (ev):

   -37.7995 -23.7698 -23.5949 -23.4526 -23.2424 -18.9182 -18.7182 -18.6964
   -11.7343 -11.7261 -11.6939 -11.6023 -11.5946 -10.7867 -10.7646 -10.7222
   -10.7058 -10.7056 -10.6962 -10.6273 -10.6091 -10.5667 -10.5548  -9.2537
    -9.0706  -8.8872  -7.7956  -7.7001  -7.6973  -7.6191  -7.5983  -7.5728
    -7.5305  -7.4004  -7.2601  -5.0051  -4.4586  -3.9837  -1.1976  -0.6349
    -0.3950  -0.0695   0.1446   0.2531   0.3686   0.5371   0.7459   1.1798
     2.2685   2.6517   4.4091   5.2411   5.7181   5.9291   6.1186   6.2802
     6.4835   6.6788   7.0747   7.1711   7.1908

          k =-0.0000-0.3320-0.0306 ( 16164 PWs)   bands (ev):

   -37.7995 -23.7682 -23.5966 -23.4526 -23.2424 -18.9183 -18.7182 -18.6964
   -11.7342 -11.7262 -11.6939 -11.6023 -11.5945 -10.7866 -10.7646 -10.7225
   -10.7057 -10.7056 -10.6960 -10.6276 -10.6090 -10.5666 -10.5551  -9.2439
    -9.0699  -8.8747  -7.8262  -7.7014  -7.6990  -7.6184  -7.6113  -7.5920
    -7.5129  -7.4057  -7.2603  -4.9808  -4.3441  -4.0154  -1.4112  -0.6822
    -0.2689   0.0078   0.1305   0.3528   0.3958   0.5546   0.5865   1.1448
     1.9581   2.9054   4.5384   5.4192   5.5391   5.8744   6.1501   6.1734
     6.4942   6.6790   6.8195   7.1416   7.4714

          k =-0.0000-0.3566-0.2701 ( 16154 PWs)   bands (ev):

   -37.7995 -23.7682 -23.5966 -23.4526 -23.2424 -18.9183 -18.7182 -18.6964
   -11.7342 -11.7262 -11.6939 -11.6023 -11.5945 -10.7866 -10.7645 -10.7225
   -10.7057 -10.7056 -10.6960 -10.6276 -10.6090 -10.5667 -10.5551  -9.2439
    -9.0699  -8.8743  -7.8146  -7.7106  -7.7009  -7.6198  -7.6189  -7.5901
    -7.5097  -7.4048  -7.2603  -4.9733  -4.3306  -4.0332  -1.4497  -0.6556
    -0.1742   0.0089   0.0558   0.3524   0.3560   0.5547   0.5833   1.1404
     2.2209   2.6386   4.5396   5.4539   5.5187   5.7391   6.1771   6.2124
     6.4787   6.8009   6.8647   6.9438   7.3720

          k =-0.5000-0.0000 0.0000 ( 16102 PWs)   bands (ev):

   -37.7994 -23.7655 -23.5934 -23.4507 -23.2410 -18.9178 -18.7176 -18.7013
   -11.7348 -11.7252 -11.6915 -11.6031 -11.5945 -10.7816 -10.7685 -10.7211
   -10.7086 -10.7032 -10.6955 -10.6266 -10.6094 -10.5664 -10.5536  -9.2428
    -9.2127  -8.8629  -7.7871  -7.7752  -7.7471  -7.6478  -7.5742  -7.5522
    -7.4989  -7.3910  -7.3722  -4.7953  -4.0920  -3.9425  -0.8626  -0.7827
    -0.7179  -0.5608  -0.0450   0.0486   0.3546   0.4649   0.5496   0.8088
     2.0234   2.8760   4.3502   5.4260   5.5001   5.8623   5.9068   6.6352
     6.8282   6.9722   7.3880   7.4180   7.6192

          k =-0.5000-0.0246-0.2395 ( 16120 PWs)   bands (ev):

   -37.7994 -23.7655 -23.5934 -23.4507 -23.2410 -18.9178 -18.7176 -18.7013
   -11.7348 -11.7252 -11.6915 -11.6031 -11.5945 -10.7816 -10.7685 -10.7211
   -10.7086 -10.7032 -10.6955 -10.6266 -10.6094 -10.5665 -10.5536  -9.2430
    -9.2126  -8.8630  -7.7790  -7.7740  -7.7546  -7.6436  -7.5827  -7.5514
    -7.4996  -7.3910  -7.3697  -4.7935  -4.0928  -3.9433  -0.8632  -0.8535
    -0.7140  -0.4663  -0.0194   0.0697   0.3020   0.4365   0.5455   0.7858
     2.1017   2.8259   4.3438   5.4288   5.5210   5.8351   6.0083   6.4639
     7.0261   7.0491   7.2440   7.4913   7.5437

          k =-0.5000-0.3320-0.0306 ( 16136 PWs)   bands (ev):

   -37.7994 -23.7639 -23.5951 -23.4507 -23.2410 -18.9178 -18.7176 -18.7013
   -11.7348 -11.7252 -11.6915 -11.6031 -11.5944 -10.7815 -10.7685 -10.7208
   -10.7090 -10.7033 -10.6952 -10.6269 -10.6094 -10.5664 -10.5540  -9.2407
    -9.2048  -8.8487  -7.7983  -7.7958  -7.7443  -7.6457  -7.5888  -7.5668
    -7.5005  -7.3911  -7.3648  -4.7880  -4.0326  -3.8892  -1.1194  -0.7470
    -0.7354  -0.4788   0.0113   0.0400   0.2879   0.3256   0.6206   0.8773
     2.0191   2.8941   4.2507   5.2835   5.7662   6.0420   6.3984   6.4285
     6.9114   7.1097   7.2467   7.3964   7.4653

          k =-0.5000-0.3566-0.2701 ( 16140 PWs)   bands (ev):

   -37.7994 -23.7639 -23.5951 -23.4507 -23.2410 -18.9178 -18.7176 -18.7013
   -11.7348 -11.7253 -11.6915 -11.6031 -11.5944 -10.7815 -10.7685 -10.7208
   -10.7090 -10.7033 -10.6953 -10.6269 -10.6094 -10.5664 -10.5540  -9.2408
    -9.2047  -8.8489  -7.7927  -7.7877  -7.7548  -7.6509  -7.5904  -7.5614
    -7.5009  -7.3910  -7.3662  -4.7862  -4.0332  -3.8908  -1.1168  -0.7269
    -0.7064  -0.4993  -0.0162   0.0191   0.3010   0.3040   0.6090   0.8566
     2.1877   2.7819   4.2255   5.4324   5.8511   5.8823   6.2152   6.4363
     6.9934   7.2473   7.3411   7.3724   7.4598

     the Fermi energy is     5.1360 ev

!    total energy              =   -1737.26222424 Ry
     estimated scf accuracy    <       0.00000054 Ry
     smearing contrib. (-TS)   =       0.00253930 Ry
     internal energy E=F+TS    =   -1737.26476354 Ry

     The total energy is F=E-TS. E is the sum of the following terms:
     one-electron contribution =    -546.51731503 Ry
     hartree contribution      =     324.74218957 Ry
     xc contribution           =    -243.94445611 Ry
     ewald contribution        =    -391.41225701 Ry
     one-center paw contrib.   =    -880.13292496 Ry

     convergence has been achieved in  12 iterations

     negative rho (up, down):  1.551E-04 0.000E+00

     Forces acting on atoms (cartesian axes, Ry/au):

     atom    1 type  5   force =     0.00000486    0.01102549    0.00305020
     atom    2 type  5   force =    -0.00000187    0.00371375    0.00291388
     atom    3 type  5   force =    -0.00000098   -0.00613607    0.00644337
     atom    4 type  2   force =    -0.00000334   -0.02329298    0.03955604
     atom    5 type  1   force =     0.00000269    0.02888072   -0.03731653
     atom    6 type  3   force =     0.00004952    0.01398714   -0.01249523
     atom    7 type  3   force =     0.00000003   -0.04003731    0.03980751
     atom    8 type  3   force =    -0.00002478   -0.00454826    0.00762927
     atom    9 type  4   force =     0.00000280   -0.00400413    0.00068063
     atom   10 type  4   force =     0.00000122    0.00891401    0.00575392
     atom   11 type  4   force =    -0.00000079   -0.00957382   -0.03454790
     atom   12 type  4   force =    -0.00000357   -0.00321079   -0.00134892
     atom   13 type  4   force =    -0.00000191   -0.00427349   -0.00746662
     atom   14 type  4   force =    -0.00000017    0.00986628    0.00601199
     atom   15 type  4   force =     0.00000148    0.01019823   -0.00654250
     atom   16 type  4   force =    -0.00000276   -0.00089308   -0.00411750
     atom   17 type  4   force =     0.00764445    0.01509258   -0.00020667
     atom   18 type  4   force =    -0.01173735    0.00143374   -0.00677347
     atom   19 type  4   force =    -0.05027333   -0.00173102   -0.00567432
     atom   20 type  4   force =    -0.01255977   -0.01011050    0.00865006
     atom   21 type  4   force =     0.05027091   -0.00174251   -0.00567022
     atom   22 type  4   force =     0.01253156   -0.01009080    0.00864578
     atom   23 type  4   force =    -0.00766143    0.01507568   -0.00020743
     atom   24 type  4   force =     0.01176251    0.00145713   -0.00677531

     Total force =     0.129308     Total SCF correction =     0.001289


     Computing stress (Cartesian axis) and pressure


     negative rho (up, down):  1.551E-04 0.000E+00
          total   stress  (Ry/bohr**3)                   (kbar)     P=        2.70
   0.00013462   0.00000006  -0.00000000           19.80        0.01       -0.00
   0.00000006  -0.00002449   0.00000693            0.01       -3.60        1.02
  -0.00000000   0.00000693  -0.00005512           -0.00        1.02       -8.11


     BFGS Geometry Optimization
     Energy error            =      0.0E+00
     Gradient error          =      5.0E-02
     Cell gradient error     =      1.3E-04


     number of scf cycles    =   1
     number of bfgs steps    =   0

     enthalpy new            =   -1737.2622242402 Ry

     new trust radius        =       0.0564590506 bohr
     new conv_thr            =       0.0000010000 Ry

     new unit-cell volume =   2708.43292 a.u.^3 (   401.34835 Ang^3 )
     density =      0.09930 g/cm^3

CELL_PARAMETERS (angstrom)
   5.034104434  -0.000095327   0.000019579
  -0.000124835   7.623076361  -0.780775079
   0.000030842  -0.971773602  10.558021699

ATOMIC_POSITIONS (angstrom)
Rb            1.2585099930        1.7363187135        6.7872776544
Rb            1.2585134727        0.8448964279        1.7223496137
Rb            3.7755061553        4.6850893649        3.2345948571
Ca            3.7754931817        5.7911712480        7.9388442536
Ba            1.2584525517        4.6424714334        0.0415784272
Ga            1.2584673301        5.5436877598        5.5649821810
Ga            3.7755656416        1.5275102951        9.5584979264
Ga            3.7755600130        0.9609333116        4.5404816854
H             1.2584677274        4.4242261741        8.1053493657
H             1.2584335918        6.0851948243        4.0469411975
H             3.7755291053        3.0805797211        0.5812454131
H             3.7755802267        0.3209681022        6.0259644894
H             1.2584676855        3.7772340884        2.3913173541
H             1.2584265272        6.6787092271        6.6918057512
H             3.7755462808        2.7574715775        8.5530306785
H             3.7755841460       -0.1526247196        3.4022171065
H             4.9653882072        0.4591491389        9.3621796971
H             2.5267015136        1.9196659357        4.4278430657
H             3.0493293596        6.4428053273       -0.4573233130
H            -0.0900556828        4.7336901095        5.7376609612
H            -0.5324900866        6.4428697905       -0.4573358452
H             2.6069584253        4.7336466402        5.7376694751
H             2.5857729586        0.4591875741        9.3621694977
H             5.0244149563        1.9196261143        4.4278538848



     Writing output data file ./tmp/Rb3BaCaGa3H16.save/
     NEW-OLD atomic charge density approx. for the potential

     negative rho (up, down):  1.769E-04 0.000E+00
     extrapolated charge  102.13933, renormalised to  102.00000

     total cpu time spent up to now is      586.9 secs

     Self-consistent Calculation

     iteration #  1     ecut=    50.00 Ry     beta= 0.70
     Davidson diagonalization with overlap
     ethr =  1.00E-06,  avg # of iterations = 10.0

     negative rho (up, down):  1.785E-04 0.000E+00

     total cpu time spent up to now is      634.3 secs

     total energy              =   -1737.26746710 Ry
     estimated scf accuracy    <       0.02802280 Ry

     iteration #  2     ecut=    50.00 Ry     beta= 0.70
     Davidson diagonalization with overlap
     ethr =  2.75E-05,  avg # of iterations =  5.5

     negative rho (up, down):  1.752E-04 0.000E+00

     total cpu time spent up to now is      660.9 secs

     total energy              =   -1737.27635377 Ry
     estimated scf accuracy    <       0.01294761 Ry

     iteration #  3     ecut=    50.00 Ry     beta= 0.70
     Davidson diagonalization with overlap
     ethr =  1.27E-05,  avg # of iterations =  3.0

     negative rho (up, down):  1.756E-04 0.000E+00

     total cpu time spent up to now is      684.1 secs

     total energy              =   -1737.27803340 Ry
     estimated scf accuracy    <       0.00340510 Ry

     iteration #  4     ecut=    50.00 Ry     beta= 0.70
     Davidson diagonalization with overlap
     ethr =  3.34E-06,  avg # of iterations =  3.5

     negative rho (up, down):  1.754E-04 0.000E+00

     total cpu time spent up to now is      707.0 secs

     total energy              =   -1737.27815534 Ry
     estimated scf accuracy    <       0.00206932 Ry

     iteration #  5     ecut=    50.00 Ry     beta= 0.70
     Davidson diagonalization with overlap
     ethr =  2.03E-06,  avg # of iterations =  6.2

     negative rho (up, down):  1.755E-04 0.000E+00

     total cpu time spent up to now is      730.8 secs

     total energy              =   -1737.27839864 Ry
     estimated scf accuracy    <       0.00122016 Ry

     iteration #  6     ecut=    50.00 Ry     beta= 0.70
     Davidson diagonalization with overlap
     ethr =  1.20E-06,  avg # of iterations =  4.1

     negative rho (up, down):  1.754E-04 0.000E+00

     total cpu time spent up to now is      753.4 secs

     total energy              =   -1737.27855208 Ry
     estimated scf accuracy    <       0.00088223 Ry

     iteration #  7     ecut=    50.00 Ry     beta= 0.70
     Davidson diagonalization with overlap
     ethr =  8.65E-07,  avg # of iterations =  2.2

     negative rho (up, down):  1.755E-04 0.000E+00

     total cpu time spent up to now is      775.4 secs

     total energy              =   -1737.27872716 Ry
     estimated scf accuracy    <       0.00062305 Ry

     iteration #  8     ecut=    50.00 Ry     beta= 0.70
     Davidson diagonalization with overlap
     ethr =  6.11E-07,  avg # of iterations =  3.9

     negative rho (up, down):  1.753E-04 0.000E+00

     total cpu time spent up to now is      798.7 secs

     total energy              =   -1737.27877096 Ry
     estimated scf accuracy    <       0.00010687 Ry

     iteration #  9     ecut=    50.00 Ry     beta= 0.70
     Davidson diagonalization with overlap
     ethr =  1.05E-07,  avg # of iterations =  6.9

     negative rho (up, down):  1.753E-04 0.000E+00

     total cpu time spent up to now is      825.1 secs

     total energy              =   -1737.27881435 Ry
     estimated scf accuracy    <       0.00002770 Ry

     iteration # 10     ecut=    50.00 Ry     beta= 0.70
     Davidson diagonalization with overlap
     ethr =  2.72E-08,  avg # of iterations =  6.4

     negative rho (up, down):  1.752E-04 0.000E+00

     total cpu time spent up to now is      851.3 secs

     total energy              =   -1737.27882067 Ry
     estimated scf accuracy    <       0.00001778 Ry

     iteration # 11     ecut=    50.00 Ry     beta= 0.70
     Davidson diagonalization with overlap
     ethr =  1.74E-08,  avg # of iterations =  6.1

     negative rho (up, down):  1.752E-04 0.000E+00

     total cpu time spent up to now is      876.0 secs

     total energy              =   -1737.27882358 Ry
     estimated scf accuracy    <       0.00000182 Ry

     iteration # 12     ecut=    50.00 Ry     beta= 0.70
     Davidson diagonalization with overlap
     ethr =  1.78E-09,  avg # of iterations =  7.0

     negative rho (up, down):  1.752E-04 0.000E+00

     total cpu time spent up to now is      905.2 secs

     total energy              =   -1737.27882378 Ry
     estimated scf accuracy    <       0.00000448 Ry

     iteration # 13     ecut=    50.00 Ry     beta= 0.70
     Davidson diagonalization with overlap
     ethr =  1.78E-09,  avg # of iterations =  3.0

     negative rho (up, down):  1.752E-04 0.000E+00

     total cpu time spent up to now is      927.9 secs

     total energy              =   -1737.27882327 Ry
     estimated scf accuracy    <       0.00000168 Ry

     iteration # 14     ecut=    50.00 Ry     beta= 0.70
     Davidson diagonalization with overlap
     ethr =  1.65E-09,  avg # of iterations =  7.0

     negative rho (up, down):  1.752E-04 0.000E+00

     total cpu time spent up to now is      953.9 secs

     End of self-consistent calculation

          k = 0.0000 0.0000 0.0000 ( 16169 PWs)   bands (ev):

   -37.8032 -23.7764 -23.6143 -23.4553 -23.2533 -18.9236 -18.7173 -18.7021
   -11.7400 -11.7102 -11.6996 -11.5994 -11.5918 -10.7793 -10.7552 -10.7255
   -10.7116 -10.7050 -10.7026 -10.6280 -10.6091 -10.5730 -10.5614  -9.2599
    -9.0765  -8.8962  -7.8219  -7.7198  -7.7093  -7.6199  -7.6034  -7.5749
    -7.5315  -7.4116  -7.2729  -5.0651  -4.4015  -3.9546  -1.1992  -0.7263
    -0.1593  -0.0532   0.0160   0.2783   0.4109   0.5788   0.7543   1.1833
     1.9825   2.8664   4.2426   5.3962   5.7070   5.9147   5.9256   6.3613
     6.4847   6.6335   7.0057   7.2206   7.3755

          k = 0.0000-0.0246-0.2399 ( 16186 PWs)   bands (ev):

   -37.8032 -23.7764 -23.6143 -23.4553 -23.2533 -18.9236 -18.7173 -18.7021
   -11.7400 -11.7102 -11.6996 -11.5994 -11.5918 -10.7793 -10.7552 -10.7255
   -10.7116 -10.7050 -10.7026 -10.6280 -10.6091 -10.5730 -10.5614  -9.2599
    -9.0765  -8.8958  -7.8162  -7.7196  -7.6999  -7.6202  -7.6169  -7.5754
    -7.5372  -7.4116  -7.2728  -5.0277  -4.4377  -3.9627  -1.1731  -0.6245
    -0.3442  -0.0630   0.2115   0.2457   0.2812   0.5792   0.7346   1.1784
     2.2512   2.6535   4.2447   5.2609   5.7101   5.9372   6.0933   6.2726
     6.4687   6.6935   7.0607   7.1590   7.1820

          k =-0.0000-0.3322-0.0306 ( 16164 PWs)   bands (ev):

   -37.8032 -23.7747 -23.6161 -23.4553 -23.2533 -18.9237 -18.7173 -18.7021
   -11.7400 -11.7102 -11.6996 -11.5994 -11.5917 -10.7791 -10.7551 -10.7257
   -10.7113 -10.7052 -10.7024 -10.6282 -10.6091 -10.5730 -10.5618  -9.2499
    -9.0758  -8.8842  -7.8451  -7.7208  -7.7042  -7.6262  -7.6196  -7.5964
    -7.5192  -7.4171  -7.2730  -5.0046  -4.3156  -4.0010  -1.3761  -0.6886
    -0.2458   0.0569   0.1797   0.2657   0.4154   0.5566   0.5995   1.1391
     1.9505   2.8966   4.3669   5.4322   5.5482   5.8635   6.1340   6.2046
     6.4542   6.6842   6.7716   7.1494   7.4792

          k =-0.0000-0.3568-0.2704 ( 16154 PWs)   bands (ev):

   -37.8032 -23.7747 -23.6161 -23.4553 -23.2533 -18.9237 -18.7173 -18.7021
   -11.7400 -11.7102 -11.6996 -11.5994 -11.5917 -10.7791 -10.7551 -10.7257
   -10.7113 -10.7052 -10.7024 -10.6282 -10.6091 -10.5730 -10.5618  -9.2498
    -9.0758  -8.8838  -7.8349  -7.7204  -7.7148  -7.6308  -7.6200  -7.5984
    -7.5156  -7.4162  -7.2730  -4.9970  -4.3031  -4.0178  -1.4197  -0.6437
    -0.1759   0.0374   0.1266   0.2686   0.3806   0.5577   0.5994   1.1351
     2.2019   2.6409   4.3681   5.4454   5.5102   5.7557   6.1984   6.2077
     6.4949   6.7539   6.8365   6.9465   7.3789

          k =-0.4983-0.0000 0.0000 ( 16102 PWs)   bands (ev):

   -37.8031 -23.7723 -23.6128 -23.4535 -23.2519 -18.9232 -18.7168 -18.7067
   -11.7407 -11.7089 -11.6975 -11.6002 -11.5918 -10.7747 -10.7589 -10.7242
   -10.7094 -10.7080 -10.7016 -10.6273 -10.6094 -10.5728 -10.5603  -9.2417
    -9.2203  -8.8727  -7.8001  -7.7959  -7.7483  -7.6549  -7.5907  -7.5550
    -7.5063  -7.4026  -7.3825  -4.8218  -4.0611  -3.9353  -0.8167  -0.7786
    -0.7503  -0.5709   0.0379   0.0488   0.3806   0.4435   0.5569   0.8080
     2.0039   2.8715   4.2193   5.4442   5.5511   5.8537   5.8905   6.6265
     6.8043   6.9881   7.3837   7.3938   7.6057

          k =-0.4983-0.0246-0.2399 ( 16120 PWs)   bands (ev):

   -37.8031 -23.7723 -23.6128 -23.4535 -23.2519 -18.9232 -18.7168 -18.7067
   -11.7407 -11.7089 -11.6975 -11.6002 -11.5918 -10.7747 -10.7589 -10.7242
   -10.7094 -10.7080 -10.7016 -10.6273 -10.6094 -10.5728 -10.5603  -9.2419
    -9.2203  -8.8727  -7.7949  -7.7944  -7.7535  -7.6483  -7.6012  -7.5545
    -7.5070  -7.4026  -7.3800  -4.8201  -4.0619  -3.9360  -0.8544  -0.7892
    -0.7748  -0.4732   0.0573   0.0896   0.3102   0.4167   0.5575   0.7850
     2.0823   2.8222   4.2136   5.4506   5.5664   5.8181   6.0102   6.4541
     6.9912   7.0653   7.2515   7.4765   7.5037

          k =-0.4983-0.3322-0.0306 ( 16136 PWs)   bands (ev):

   -37.8031 -23.7706 -23.6147 -23.4534 -23.2519 -18.9232 -18.7168 -18.7067
   -11.7407 -11.7090 -11.6975 -11.6002 -11.5917 -10.7745 -10.7589 -10.7240
   -10.7095 -10.7084 -10.7013 -10.6275 -10.6094 -10.5728 -10.5607  -9.2396
    -9.2122  -8.8592  -7.8160  -7.8112  -7.7455  -7.6522  -7.6057  -7.5696
    -7.5080  -7.4028  -7.3749  -4.8150  -4.0012  -3.8817  -1.0676  -0.8017
    -0.6834  -0.5310   0.0213   0.0978   0.3125   0.3417   0.6240   0.8701
     2.0014   2.8869   4.1210   5.3131   5.7784   6.0399   6.3830   6.4242
     6.9179   7.1102   7.2468   7.3796   7.4945

          k =-0.4983-0.3568-0.2704 ( 16140 PWs)   bands (ev):

   -37.8031 -23.7706 -23.6147 -23.4534 -23.2519 -18.9232 -18.7168 -18.7067
   -11.7407 -11.7090 -11.6975 -11.6002 -11.5917 -10.7745 -10.7589 -10.7240
   -10.7095 -10.7084 -10.7014 -10.6275 -10.6094 -10.5728 -10.5607  -9.2397
    -9.2122  -8.8595  -7.8131  -7.8033  -7.7535  -7.6578  -7.6061  -7.5649
    -7.5083  -7.4027  -7.3764  -4.8133  -4.0018  -3.8831  -1.0546  -0.7831
    -0.6769  -0.5413   0.0032   0.0713   0.2852   0.3533   0.6182   0.8502
     2.1690   2.7776   4.0988   5.4563   5.8685   5.8862   6.1911   6.4359
     6.9964   7.2704   7.3342   7.3541   7.4542

     the Fermi energy is     5.1596 ev

!    total energy              =   -1737.27882356 Ry
     estimated scf accuracy    <       0.00000080 Ry
     smearing contrib. (-TS)   =       0.00242990 Ry
     internal energy E=F+TS    =   -1737.28125346 Ry

     The total energy is F=E-TS. E is the sum of the following terms:
     one-electron contribution =    -546.03064683 Ry
     hartree contribution      =     324.46764076 Ry
     xc contribution           =    -243.93887600 Ry
     ewald contribution        =    -391.65621969 Ry
     one-center paw contrib.   =    -880.12315170 Ry

     convergence has been achieved in  14 iterations

     negative rho (up, down):  1.752E-04 0.000E+00

     Forces acting on atoms (cartesian axes, Ry/au):

     atom    1 type  5   force =    -0.00000082    0.01118032    0.00309092
     atom    2 type  5   force =    -0.00000130    0.00362143    0.00351205
     atom    3 type  5   force =     0.00000014   -0.00636238    0.00586354
     atom    4 type  2   force =    -0.00000172   -0.02370947    0.03744373
     atom    5 type  1   force =     0.00000082    0.02592738   -0.03449388
     atom    6 type  3   force =     0.00000745    0.00593177   -0.00488478
     atom    7 type  3   force =     0.00001031   -0.02184519    0.02282473
     atom    8 type  3   force =    -0.00000342    0.00110830    0.00374855
     atom    9 type  4   force =     0.00000318   -0.00381912    0.00039935
     atom   10 type  4   force =     0.00000157    0.00983058    0.00188160
     atom   11 type  4   force =    -0.00000097   -0.00805169   -0.02598168
     atom   12 type  4   force =    -0.00000290   -0.00379721    0.00041743
     atom   13 type  4   force =    -0.00000147   -0.00379382   -0.00833018
     atom   14 type  4   force =     0.00000089    0.00836689    0.00465395
     atom   15 type  4   force =     0.00000150   -0.00109734    0.00245858
     atom   16 type  4   force =    -0.00000286   -0.00062001   -0.00363902
     atom   17 type  4   force =     0.00913882    0.01176794   -0.00013416
     atom   18 type  4   force =    -0.00721125   -0.00117485   -0.00631522
     atom   19 type  4   force =    -0.04979197   -0.00106010   -0.00579403
     atom   20 type  4   force =    -0.00572667   -0.00596382    0.00776074
     atom   21 type  4   force =     0.04978997   -0.00107063   -0.00579071
     atom   22 type  4   force =     0.00572311   -0.00595984    0.00775963
     atom   23 type  4   force =    -0.00915246    0.01175526   -0.00013525
     atom   24 type  4   force =     0.00722005   -0.00116438   -0.00631588

     Total force =     0.110067     Total SCF correction =     0.000501


     Computing stress (Cartesian axis) and pressure


     negative rho (up, down):  1.752E-04 0.000E+00
          total   stress  (Ry/bohr**3)                   (kbar)     P=        1.75
   0.00011155   0.00000003  -0.00000000           16.41        0.00       -0.00
   0.00000003  -0.00003245   0.00001208            0.00       -4.77        1.78
  -0.00000000   0.00001208  -0.00004337           -0.00        1.78       -6.38

     Energy error            =      1.7E-02
     Gradient error          =      5.0E-02
     Cell gradient error     =      1.1E-04


     number of scf cycles    =   2
     number of bfgs steps    =   1

     enthalpy old            =   -1737.2622242402 Ry
     enthalpy new            =   -1737.2788235648 Ry

     CASE: enthalpy_new < enthalpy_old


     WARNING: bfgs curvature condition failed, Theta= 0.971
     new trust radius        =       0.0845898108 bohr
     new conv_thr            =       0.0000004979 Ry

     new unit-cell volume =   2712.82645 a.u.^3 (   401.99940 Ang^3 )
     density =      0.09914 g/cm^3

CELL_PARAMETERS (angstrom)
   5.058529859  -0.000087231   0.000018909
  -0.000113337   7.612888580  -0.775758620
   0.000028235  -0.965651962  10.537225631

ATOMIC_POSITIONS (angstrom)
Rb            1.2646186208        1.7470638734        6.7777218381
Rb            1.2646196377        0.8478232505        1.7224050977
Rb            3.7938317640        4.6749721707        3.2357952129
Ca            3.7938180908        5.7665272262        7.9596157146
Ba            1.2645670678        4.6599552983        0.0127004115
Ga            1.2645962789        5.5458788505        5.5510619216
Ga            3.7938931055        1.5072085230        9.5641164690
Ga            3.7938728144        0.9617003731        4.5362160822
H             1.2645825921        4.4188526864        8.0921688923
H             1.2645499964        6.0877317518        4.0443462163
H             3.7938518665        3.0694593368        0.5569989698
H             3.7938963737        0.3200955385        6.0145280996
H             1.2645780184        3.7700201013        2.3812640267
H             1.2645427711        6.6808685880        6.6863531029
H             3.7938698864        2.7590469183        8.5382748198
H             3.7939000604       -0.1514553920        3.3922888909
H             4.9973753273        0.4739131922        9.3442232837
H             2.5316369159        1.9186908069        4.4145367766
H             3.0194600898        6.4332246543       -0.4585617572
H            -0.0969266485        4.7241798793        5.7357915891
H            -0.4903905974        6.4332742571       -0.4585707728
H             2.6260469882        4.7241472955        5.7357981701
H             2.5904105089        0.4739357311        9.3442125028
H             5.0561335408        1.9186667604        4.4145464685



     Writing output data file ./tmp/Rb3BaCaGa3H16.save/
     NEW-OLD atomic charge density approx. for the potential

     negative rho (up, down):  1.530E-04 0.000E+00
     extrapolated charge  102.16503, renormalised to  102.00000

     total cpu time spent up to now is     1147.5 secs

     Self-consistent Calculation

     iteration #  1     ecut=    50.00 Ry     beta= 0.70
     Davidson diagonalization with overlap
     ethr =  1.00E-06,  avg # of iterations = 11.2

     negative rho (up, down):  1.522E-04 0.000E+00

     total cpu time spent up to now is     1199.5 secs

     total energy              =   -1737.28505474 Ry
     estimated scf accuracy    <       0.03465317 Ry

     iteration #  2     ecut=    50.00 Ry     beta= 0.70
     Davidson diagonalization with overlap
     ethr =  3.40E-05,  avg # of iterations =  5.9

     negative rho (up, down):  1.485E-04 0.000E+00

     total cpu time spent up to now is     1226.2 secs

     total energy              =   -1737.29612490 Ry
     estimated scf accuracy    <       0.01674682 Ry

     iteration #  3     ecut=    50.00 Ry     beta= 0.70
     Davidson diagonalization with overlap
     ethr =  1.64E-05,  avg # of iterations =  2.6

     negative rho (up, down):  1.484E-04 0.000E+00

     total cpu time spent up to now is     1248.8 secs

     total energy              =   -1737.29826681 Ry
     estimated scf accuracy    <       0.00427614 Ry

     iteration #  4     ecut=    50.00 Ry     beta= 0.70
     Davidson diagonalization with overlap
     ethr =  4.19E-06,  avg # of iterations =  4.5

     negative rho (up, down):  1.481E-04 0.000E+00

     total cpu time spent up to now is     1272.1 secs

     total energy              =   -1737.29886681 Ry
     estimated scf accuracy    <       0.00238616 Ry

     iteration #  5     ecut=    50.00 Ry     beta= 0.70
     Davidson diagonalization with overlap
     ethr =  2.34E-06,  avg # of iterations =  6.9

     negative rho (up, down):  1.482E-04 0.000E+00

     total cpu time spent up to now is     1297.8 secs

     total energy              =   -1737.29917545 Ry
     estimated scf accuracy    <       0.00129513 Ry

     iteration #  6     ecut=    50.00 Ry     beta= 0.70
     Davidson diagonalization with overlap
     ethr =  1.27E-06,  avg # of iterations =  4.6

     negative rho (up, down):  1.482E-04 0.000E+00

     total cpu time spent up to now is     1322.8 secs

     total energy              =   -1737.29928673 Ry
     estimated scf accuracy    <       0.00113587 Ry

     iteration #  7     ecut=    50.00 Ry     beta= 0.70
     Davidson diagonalization with overlap
     ethr =  1.11E-06,  avg # of iterations =  1.6

     negative rho (up, down):  1.484E-04 0.000E+00

     total cpu time spent up to now is     1345.6 secs

     total energy              =   -1737.29948217 Ry
     estimated scf accuracy    <       0.00106108 Ry

     iteration #  8     ecut=    50.00 Ry     beta= 0.70
     Davidson diagonalization with overlap
     ethr =  1.04E-06,  avg # of iterations =  1.6

     negative rho (up, down):  1.479E-04 0.000E+00

     total cpu time spent up to now is     1368.4 secs

     total energy              =   -1737.29962856 Ry
     estimated scf accuracy    <       0.00036870 Ry

     iteration #  9     ecut=    50.00 Ry     beta= 0.70
     Davidson diagonalization with overlap
     ethr =  3.61E-07,  avg # of iterations =  5.9

     negative rho (up, down):  1.479E-04 0.000E+00

     total cpu time spent up to now is     1393.9 secs

     total energy              =   -1737.29966619 Ry
     estimated scf accuracy    <       0.00020265 Ry

     iteration # 10     ecut=    50.00 Ry     beta= 0.70
     Davidson diagonalization with overlap
     ethr =  1.99E-07,  avg # of iterations =  2.0

     negative rho (up, down):  1.477E-04 0.000E+00

     total cpu time spent up to now is     1417.4 secs

     total energy              =   -1737.29962230 Ry
     estimated scf accuracy    <       0.00018835 Ry

     iteration # 11     ecut=    50.00 Ry     beta= 0.70
     Davidson diagonalization with overlap
     ethr =  1.85E-07,  avg # of iterations =  3.8
