
     Program PWSCF v.6.7MaX starts on  8Feb2026 at  2: 8:26 

     This program is part of the open-source Quantum ESPRESSO suite
     for quantum simulation of materials; please cite
         "P. Giannozzi et al., J. Phys.:Condens. Matter 21 395502 (2009);
         "P. Giannozzi et al., J. Phys.:Condens. Matter 29 465901 (2017);
          URL http://www.quantum-espresso.org", 
     in publications or presentations arising from this work. More details at
     http://www.quantum-espresso.org/quote

     Parallel version (MPI), running on     2 processors

     MPI processes distributed on     1 nodes
     R & G space division:  proc/nbgrp/npool/nimage =       2
     Waiting for input...
     Reading input from standard input

     Current dimensions of program PWSCF are:
     Max number of different atomic species (ntypx) = 10
     Max number of k-points (npk) =  40000
     Max angular momentum in pseudopotentials (lmaxx) =  3
     file Ga.UPF: wavefunction(s)  4S renormalized
     file H.UPF: wavefunction(s)  1S renormalized
     file Rb.UPF: wavefunction(s)  4S renormalized

     Subspace diagonalization in iterative solution of the eigenvalue problem:
     a serial algorithm will be used


     Parallelization info
     --------------------
     sticks:   dense  smooth     PW     G-vecs:    dense   smooth      PW
     Min        2190    1091    312               182631    64584    9711
     Max        2191    1092    313               182632    64587    9714
     Sum        4381    2183    625               365263   129171   19425



     bravais-lattice index     =            0
     lattice parameter (alat)  =       9.4812  a.u.
     unit-cell volume          =    2704.7298 (a.u.)^3
     number of atoms/cell      =           24
     number of atomic types    =            5
     number of electrons       =       102.00
     number of Kohn-Sham states=           61
     kinetic-energy cutoff     =      50.0000  Ry
     charge density cutoff     =     400.0000  Ry
     scf convergence threshold =      1.0E-06
     mixing beta               =       0.7000
     number of iterations used =            8  plain     mixing
     energy convergence thresh.=      1.0E-04
     force convergence thresh. =      1.0E-03
     press convergence thresh. =      5.0E-01
     Exchange-correlation= SLA  PW   PBX  PBC
                           (   1   4   3   4   0   0   0)
     nstep                     =            0


     celldm(1)=   9.481170  celldm(2)=   0.000000  celldm(3)=   0.000000
     celldm(4)=   0.000000  celldm(5)=   0.000000  celldm(6)=   0.000000

     crystal axes: (cart. coord. in units of alat)
               a(1) = (   1.000000  -0.000021   0.000004 )  
               a(2) = (  -0.000027   1.520341  -0.156098 )  
               a(3) = (   0.000007  -0.194172   2.107295 )  

     reciprocal axes: (cart. coord. in units 2 pi/alat)
               b(1) = (  1.000000  0.000018 -0.000001 )  
               b(2) = (  0.000013  0.664029  0.061185 )  
               b(3) = ( -0.000001  0.049188  0.479074 )  


     PseudoPot. # 1 for Ba read from file:
     /home/marco/ZOS_Cloud_Compute/pseudo/Ba.UPF
     MD5 check sum: a011de417d3466d8e94df216395bc359
     Pseudo is Ultrasoft + core correction, Zval = 10.0
     Generated by new atomic code, or converted to UPF format
     Using radial grid of  907 points,  6 beta functions with: 
                l(1) =   0
                l(2) =   0
                l(3) =   1
                l(4) =   1
                l(5) =   2
                l(6) =   2
     Q(r) pseudized with  6 coefficients,  rinner =    1.200   1.200   1.200
                                                       1.200   1.200

     PseudoPot. # 2 for Ca read from file:
     /home/marco/ZOS_Cloud_Compute/pseudo/Ca.UPF
     MD5 check sum: 0c1c990b756df134246005b196012f4b
     Pseudo is Ultrasoft + core correction, Zval = 10.0
     Generated by new atomic code, or converted to UPF format
     Using radial grid of  845 points,  6 beta functions with: 
                l(1) =   0
                l(2) =   0
                l(3) =   1
                l(4) =   1
                l(5) =   2
                l(6) =   2
     Q(r) pseudized with  6 coefficients,  rinner =    1.200   1.200   1.200
                                                       1.200   1.200

     PseudoPot. # 3 for Ga read from file:
     /home/marco/ZOS_Cloud_Compute/pseudo/Ga.UPF
     MD5 check sum: 79e63b61437c88080bf469cc04ca4be8
     Pseudo is Projector augmented-wave + core cor, Zval = 13.0
     Generated using "atomic" code by A. Dal Corso  v.5.1.2
     Shape of augmentation charge: PSQ
     Using radial grid of 1205 points,  6 beta functions with: 
                l(1) =   0
                l(2) =   0
                l(3) =   1
                l(4) =   1
                l(5) =   2
                l(6) =   2
     Q(r) pseudized with 0 coefficients 


     PseudoPot. # 4 for H  read from file:
     /home/marco/ZOS_Cloud_Compute/pseudo/H.UPF
     MD5 check sum: 850d63dcbcc06c5de8b44e0ab9f952da
     Pseudo is Projector augmented-wave, Zval =  1.0
     Generated using "atomic" code by A. Dal Corso  v.5.1.2
     Shape of augmentation charge: PSQ
     Using radial grid of  929 points,  2 beta functions with: 
                l(1) =   0
                l(2) =   0
     Q(r) pseudized with 0 coefficients 


     PseudoPot. # 5 for Rb read from file:
     /home/marco/ZOS_Cloud_Compute/pseudo/Rb.UPF
     MD5 check sum: 2771e311bc20ea25cdd5c0a9866b789c
     Pseudo is Projector augmented-wave + core cor, Zval =  9.0
     Generated using "atomic" code by A. Dal Corso  v.5.1.2
     Shape of augmentation charge: PSQ
     Using radial grid of 1219 points,  6 beta functions with: 
                l(1) =   0
                l(2) =   0
                l(3) =   1
                l(4) =   1
                l(5) =   2
                l(6) =   2
     Q(r) pseudized with 0 coefficients 


     atomic species   valence    mass     pseudopotential
        Ba            10.00     1.00000     Ba( 1.00)
        Ca            10.00     1.00000     Ca( 1.00)
        Ga            13.00     1.00000     Ga( 1.00)
        H              1.00     1.00000     H ( 1.00)
        Rb             9.00     1.00000     Rb( 1.00)

     No symmetry found



   Cartesian axes

     site n.     atom                  positions (alat units)
         1           Rb  tau(   1) = (   0.2499959   0.3448859   1.3542819  )
         2           Rb  tau(   2) = (   0.2499975   0.1680509   0.3434249  )
         3           Rb  tau(   3) = (   0.7499844   0.9349084   0.6447468  )
         4           Ca  tau(   4) = (   0.7499818   1.1571474   1.5801309  )
         5           Ba  tau(   5) = (   0.2499837   0.9228268   0.0120738  )
         6           Ga  tau(   6) = (   0.2499815   1.1039412   1.1118335  )
         7           Ga  tau(   7) = (   0.7499972   0.3085311   1.9035165  )
         8           Ga  tau(   8) = (   0.7499988   0.1919659   0.9053908  )
         9           H   tau(   9) = (   0.2499869   0.8824903   1.6175110  )
        10           H   tau(  10) = (   0.2499797   1.2125247   0.8069062  )
        11           H   tau(  11) = (   0.7499894   0.6153662   0.1195473  )
        12           H   tau(  12) = (   0.7500007   0.0641415   1.2028454  )
        13           H   tau(  13) = (   0.2499875   0.7536831   0.4779367  )
        14           H   tau(  14) = (   0.2499783   1.3307007   1.3347434  )
        15           H   tau(  15) = (   0.7499928   0.5485656   1.7076827  )
        16           H   tau(  16) = (   0.7500015  -0.0304635   0.6794836  )
        17           H   tau(  17) = (   0.9855436   0.0896535   1.8685909  )
        18           H   tau(  18) = (   0.5031542   0.3825448   0.8843953  )
        19           H   tau(  19) = (   0.6110347   1.2851231  -0.0909010  )
        20           H   tau(  20) = (  -0.0165658   0.9449348   1.1440960  )
        21           H   tau(  21) = (  -0.1110807   1.2851382  -0.0909039  )
        22           H   tau(  22) = (   0.5165364   0.9449233   1.1440982  )
        23           H   tau(  23) = (   0.5144591   0.0896636   1.8685890  )
        24           H   tau(  24) = (   0.9968341   0.3825336   0.8843977  )

     number of k points=     8  Methfessel-Paxton smearing, width (Ry)=  0.0200
                       cart. coord. in units 2pi/alat
        k(    1) = (   0.0000000   0.0000000   0.0000000), wk =   0.2500000
        k(    2) = (   0.0000004  -0.0245939  -0.2395371), wk =   0.2500000
        k(    3) = (  -0.0000067  -0.3320147  -0.0305927), wk =   0.2500000
        k(    4) = (  -0.0000062  -0.3566086  -0.2701298), wk =   0.2500000
        k(    5) = (  -0.5000000  -0.0000088   0.0000007), wk =   0.2500000
        k(    6) = (  -0.4999996  -0.0246028  -0.2395364), wk =   0.2500000
        k(    7) = (  -0.5000067  -0.3320235  -0.0305920), wk =   0.2500000
        k(    8) = (  -0.5000062  -0.3566174  -0.2701291), wk =   0.2500000

     Dense  grid:   365263 G-vectors     FFT dimensions: (  64,  96, 128)

     Smooth grid:   129171 G-vectors     FFT dimensions: (  45,  72,  96)

     Estimated max dynamical RAM per process >     877.69 MB

     Estimated total dynamical RAM >       1.71 GB

     Writing output data file ./tmp/Rb3BaCaGa3H16.save/
     Message from routine add_xml_clocks_pw: label not found :
     electrons


     Called by init_run:

     Called by electrons:

     Called by c_bands:

     Called by *egterg:

     Called by h_psi:

     General routines

     Parallel routines

     PWSCF        :      0.64s CPU      0.97s WALL


   This run was terminated on:   2: 8:27   8Feb2026            

=------------------------------------------------------------------------------=
   JOB DONE.
=------------------------------------------------------------------------------=
STOP 255
STOP 255
--------------------------------------------------------------------------
Primary job  terminated normally, but 1 process returned
a non-zero exit code. Per user-direction, the job has been aborted.
--------------------------------------------------------------------------
--------------------------------------------------------------------------
mpirun detected that one or more processes exited with non-zero status, thus causing
the job to be terminated. The first process to do so was:

  Process name: [[28734,1],0]
  Exit code:    255
--------------------------------------------------------------------------
