
     Program PWSCF v.6.7MaX starts on  1Feb2026 at  6:16:27 

     This program is part of the open-source Quantum ESPRESSO suite
     for quantum simulation of materials; please cite
         "P. Giannozzi et al., J. Phys.:Condens. Matter 21 395502 (2009);
         "P. Giannozzi et al., J. Phys.:Condens. Matter 29 465901 (2017);
          URL http://www.quantum-espresso.org", 
     in publications or presentations arising from this work. More details at
     http://www.quantum-espresso.org/quote

     Parallel version (MPI), running on     2 processors

     MPI processes distributed on     1 nodes
     R & G space division:  proc/nbgrp/npool/nimage =       2
     Waiting for input...
     Reading input from standard input

     Current dimensions of program PWSCF are:
     Max number of different atomic species (ntypx) = 10
     Max number of k-points (npk) =  40000
     Max angular momentum in pseudopotentials (lmaxx) =  3
     file H.UPF: wavefunction(s)  1S renormalized
     file S.UPF: wavefunction(s)  3S 3P renormalized

     Subspace diagonalization in iterative solution of the eigenvalue problem:
     a serial algorithm will be used


     Parallelization info
     --------------------
     sticks:   dense  smooth     PW     G-vecs:    dense   smooth      PW
     Min       10097    5045   1410               367021   129764   19206
     Max       10098    5046   1411               367022   129765   19207
     Sum       20195   10091   2821               734043   259529   38413



     bravais-lattice index     =            0
     lattice parameter (alat)  =      24.8902  a.u.
     unit-cell volume          =    5433.6270 (a.u.)^3
     number of atoms/cell      =           48
     number of atomic types    =            3
     number of electrons       =       133.00
     number of Kohn-Sham states=           80
     kinetic-energy cutoff     =      50.0000  Ry
     charge density cutoff     =     400.0000  Ry
     scf convergence threshold =      1.0E-06
     mixing beta               =       0.7000
     number of iterations used =            8  plain     mixing
     energy convergence thresh.=      1.0E-04
     force convergence thresh. =      1.0E-03
     press convergence thresh. =      5.0E-01
     Exchange-correlation= SLA  PW   PBX  PBC
                           (   1   4   3   4   0   0   0)
     nstep                     =           50


     celldm(1)=  24.890239  celldm(2)=   0.000000  celldm(3)=   0.000000
     celldm(4)=   0.000000  celldm(5)=   0.000000  celldm(6)=   0.000000

     crystal axes: (cart. coord. in units of alat)
               a(1) = (   0.999401  -0.034204  -0.005278 )  
               a(2) = (  -0.034193   1.025507   0.002618 )  
               a(3) = (  -0.001701   0.000844   0.344218 )  

     reciprocal axes: (cart. coord. in units 2 pi/alat)
               b(1) = (  1.001768  0.033389  0.004870 )  
               b(2) = (  0.033400  0.976247 -0.002228 )  
               b(3) = (  0.015107 -0.006912  2.905225 )  


     PseudoPot. # 1 for H  read from file:
     /home/marco/ZOS_Cloud_Compute/pseudo/H.UPF
     MD5 check sum: 850d63dcbcc06c5de8b44e0ab9f952da
     Pseudo is Projector augmented-wave, Zval =  1.0
     Generated using "atomic" code by A. Dal Corso  v.5.1.2
     Shape of augmentation charge: PSQ
     Using radial grid of  929 points,  2 beta functions with: 
                l(1) =   0
                l(2) =   0
     Q(r) pseudized with 0 coefficients 


     PseudoPot. # 2 for La read from file:
     /home/marco/ZOS_Cloud_Compute/pseudo/La.UPF
     MD5 check sum: b2f11743f52dde65f77d1302becd7929
     Pseudo is Ultrasoft + core correction, Zval = 11.0
     Generated by new atomic code, or converted to UPF format
     Using radial grid of  907 points,  6 beta functions with: 
                l(1) =   0
                l(2) =   0
                l(3) =   1
                l(4) =   1
                l(5) =   2
                l(6) =   2
     Q(r) pseudized with  6 coefficients,  rinner =    1.200   1.200   1.200
                                                       1.200   1.200

     PseudoPot. # 3 for S  read from file:
     /home/marco/ZOS_Cloud_Compute/pseudo/S.UPF
     MD5 check sum: cb96b46a5ee63c4f5db34501b74ad364
     Pseudo is Projector augmented-wave + core cor, Zval =  6.0
     Generated using "atomic" code by A. Dal Corso  v.5.1.2
     Shape of augmentation charge: PSQ
     Using radial grid of 1151 points,  6 beta functions with: 
                l(1) =   0
                l(2) =   0
                l(3) =   1
                l(4) =   1
                l(5) =   2
                l(6) =   2
     Q(r) pseudized with 0 coefficients 


     atomic species   valence    mass     pseudopotential
        H              1.00     1.00000     H ( 1.00)
        La            11.00     1.00000     La( 1.00)
        S              6.00     1.00000     S ( 1.00)

     No symmetry found



   Cartesian axes

     site n.     atom                  positions (alat units)
         1           H   tau(   1) = (   0.1022826   0.8272066   0.2221231  )
         2           H   tau(   2) = (   0.8612884   0.1657870   0.2206286  )
         3           H   tau(   3) = (   0.7726013   0.8607683   0.0505209  )
         4           H   tau(   4) = (   0.1892116   0.1298302   0.0531587  )
         5           H   tau(   5) = (   0.0276771   0.9028621   0.1271290  )
         6           H   tau(   6) = (   0.9395244   0.0869995   0.1173903  )
         7           H   tau(   7) = (   0.8484920   0.9319633   0.2870379  )
         8           H   tau(   8) = (   0.1128818   0.0547923   0.2937742  )
         9           H   tau(   9) = (   0.1082477   0.3163084   0.2268149  )
        10           H   tau(  10) = (   0.8307364   0.6939063   0.2580886  )
        11           H   tau(  11) = (   0.2816452   0.8894133   0.0593352  )
        12           H   tau(  12) = (   0.6825700   0.1021128   0.0553185  )
        13           H   tau(  13) = (   0.0421966   0.3953300   0.1288709  )
        14           H   tau(  14) = (   0.9317237   0.5750184   0.0922813  )
        15           H   tau(  15) = (   0.3555035   0.9581508   0.2954497  )
        16           H   tau(  16) = (   0.6060495   0.0364260   0.2925927  )
        17           H   tau(  17) = (   0.5961521   0.8160274   0.2177322  )
        18           H   tau(  18) = (   0.3640904   0.1793447   0.2182399  )
        19           H   tau(  19) = (   0.7898077   0.3466046   0.0369580  )
        20           H   tau(  20) = (   0.1628708   0.6352442   0.0547652  )
        21           H   tau(  21) = (   0.5244384   0.8923079   0.1211253  )
        22           H   tau(  22) = (   0.4397319   0.0986528   0.1157893  )
        23           H   tau(  23) = (   0.8682390   0.4433527   0.2755408  )
        24           H   tau(  24) = (   0.0908048   0.5649129   0.2914586  )
        25           H   tau(  25) = (   0.6119985   0.3103830   0.1085849  )
        26           H   tau(  26) = (   0.3618426   0.6860348   0.1179750  )
        27           H   tau(  27) = (   0.3057450   0.3822545   0.2860007  )
        28           H   tau(  28) = (   0.6636008   0.6008214   0.2713312  )
        29           H   tau(  29) = (   0.5418145   0.3949772   0.2254669  )
        30           H   tau(  30) = (   0.4223690   0.6108815   0.2210060  )
        31           H   tau(  31) = (   0.3794783   0.4425283   0.0510687  )
        32           H   tau(  32) = (   0.5739952   0.5432433   0.0358770  )
        33           S   tau(  33) = (   0.1166241   0.9185556   0.1768846  )
        34           S   tau(  34) = (   0.8512815   0.0769214   0.1698186  )
        35           S   tau(  35) = (   0.8630819   0.8491154   0.0045475  )
        36           S   tau(  36) = (   0.1007255   0.1417600   0.0009975  )
        37           S   tau(  37) = (   0.1322547   0.4031780   0.1778337  )
        38           La  tau(  38) = (   0.8008507   0.5669809   0.1728326  )
        39           S   tau(  39) = (   0.3629824   0.8671591   0.0011313  )
        40           S   tau(  40) = (   0.6018828   0.1263979  -0.0042353  )
        41           S   tau(  41) = (   0.6141983   0.9052356   0.1705882  )
        42           S   tau(  42) = (   0.3512115   0.0905579   0.1681542  )
        43           S   tau(  43) = (   0.8816598   0.3538970   0.3414794  )
        44           S   tau(  44) = (   0.0829721   0.6567927   0.3353567  )
        45           S   tau(  45) = (   0.6332587   0.3878783   0.1750702  )
        46           S   tau(  46) = (   0.3342703   0.6016353   0.1690929  )
        47           S   tau(  47) = (   0.3884794   0.3567945   0.3417084  )
        48           S   tau(  48) = (   0.6188155   0.6342145   0.3666950  )

     number of k points=     8  Methfessel-Paxton smearing, width (Ry)=  0.0200
                       cart. coord. in units 2pi/alat
        k(    1) = (   0.0000000   0.0000000   0.0000000), wk =   0.2500000
        k(    2) = (  -0.0075533   0.0034561  -1.4526127), wk =   0.2500000
        k(    3) = (  -0.0166999  -0.4881235   0.0011141), wk =   0.2500000
        k(    4) = (  -0.0242531  -0.4846674  -1.4514985), wk =   0.2500000
        k(    5) = (  -0.5008839  -0.0166945  -0.0024348), wk =   0.2500000
        k(    6) = (  -0.5084372  -0.0132383  -1.4550474), wk =   0.2500000
        k(    7) = (  -0.5175838  -0.5048179  -0.0013206), wk =   0.2500000
        k(    8) = (  -0.5251371  -0.5013618  -1.4539333), wk =   0.2500000

     Dense  grid:   734043 G-vectors     FFT dimensions: ( 160, 180,  60)

     Smooth grid:   259529 G-vectors     FFT dimensions: ( 120, 120,  40)

     Estimated max dynamical RAM per process >       2.03 GB

     Estimated total dynamical RAM >       4.06 GB

     Initial potential from superposition of free atoms

     starting charge  132.96714, renormalised to  133.00000
     Starting wfcs are  105 randomized atomic wfcs
     Checking if some PAW data can be deallocated... 

     total cpu time spent up to now is       67.7 secs

     Self-consistent Calculation

     iteration #  1     ecut=    50.00 Ry     beta= 0.70
     Davidson diagonalization with overlap
     ethr =  1.00E-02,  avg # of iterations =  3.0

     total cpu time spent up to now is      127.2 secs

     total energy              =   -1130.11955355 Ry
     estimated scf accuracy    <       1.79011713 Ry

     iteration #  2     ecut=    50.00 Ry     beta= 0.70
     Davidson diagonalization with overlap
     ethr =  1.35E-03,  avg # of iterations =  6.2

     total cpu time spent up to now is      194.2 secs

     total energy              =   -1128.87436006 Ry
     estimated scf accuracy    <       6.19901678 Ry

     iteration #  3     ecut=    50.00 Ry     beta= 0.70
     Davidson diagonalization with overlap
     ethr =  1.35E-03,  avg # of iterations =  5.9

     total cpu time spent up to now is      257.9 secs

     total energy              =   -1130.53906701 Ry
     estimated scf accuracy    <       0.94298256 Ry

     iteration #  4     ecut=    50.00 Ry     beta= 0.70
     Davidson diagonalization with overlap
     ethr =  7.09E-04,  avg # of iterations =  2.0

     total cpu time spent up to now is      307.3 secs

     total energy              =   -1130.55644925 Ry
     estimated scf accuracy    <       0.24691684 Ry

     iteration #  5     ecut=    50.00 Ry     beta= 0.70
     Davidson diagonalization with overlap
     ethr =  1.86E-04,  avg # of iterations =  7.0

     total cpu time spent up to now is      363.1 secs

     total energy              =   -1130.55954361 Ry
     estimated scf accuracy    <       0.07478598 Ry

     iteration #  6     ecut=    50.00 Ry     beta= 0.70
     Davidson diagonalization with overlap
     ethr =  5.62E-05,  avg # of iterations = 11.5

     total cpu time spent up to now is      427.6 secs

     total energy              =   -1130.55357705 Ry
     estimated scf accuracy    <       0.03565852 Ry

     iteration #  7     ecut=    50.00 Ry     beta= 0.70
     Davidson diagonalization with overlap
     ethr =  2.68E-05,  avg # of iterations =  5.4

     total cpu time spent up to now is      482.9 secs

     total energy              =   -1130.55252341 Ry
     estimated scf accuracy    <       0.00874151 Ry

     iteration #  8     ecut=    50.00 Ry     beta= 0.70
     Davidson diagonalization with overlap
     c_bands:  1 eigenvalues not converged
     c_bands:  1 eigenvalues not converged
     ethr =  6.57E-06,  avg # of iterations = 15.9

     total cpu time spent up to now is      559.4 secs

     total energy              =   -1130.55395016 Ry
     estimated scf accuracy    <       0.00566769 Ry

     iteration #  9     ecut=    50.00 Ry     beta= 0.70
     Davidson diagonalization with overlap
     c_bands:  1 eigenvalues not converged
     ethr =  4.26E-06,  avg # of iterations =  7.9

     total cpu time spent up to now is      613.0 secs

     total energy              =   -1130.55437220 Ry
     estimated scf accuracy    <       0.00055878 Ry

     iteration # 10     ecut=    50.00 Ry     beta= 0.70
     Davidson diagonalization with overlap
     ethr =  4.20E-07,  avg # of iterations =  8.9

     total cpu time spent up to now is      671.5 secs

     total energy              =   -1130.55446351 Ry
     estimated scf accuracy    <       0.00021469 Ry

     iteration # 11     ecut=    50.00 Ry     beta= 0.70
     Davidson diagonalization with overlap
     ethr =  1.61E-07,  avg # of iterations =  2.6

     total cpu time spent up to now is      720.9 secs

     total energy              =   -1130.55446775 Ry
     estimated scf accuracy    <       0.00003479 Ry

     iteration # 12     ecut=    50.00 Ry     beta= 0.70
     Davidson diagonalization with overlap
     ethr =  2.62E-08,  avg # of iterations =  5.5

     total cpu time spent up to now is      776.1 secs

     total energy              =   -1130.55447482 Ry
     estimated scf accuracy    <       0.00000303 Ry

     iteration # 13     ecut=    50.00 Ry     beta= 0.70
     Davidson diagonalization with overlap
     ethr =  2.28E-09,  avg # of iterations =  4.0

     total cpu time spent up to now is      833.2 secs

     End of self-consistent calculation

          k = 0.0000 0.0000 0.0000 ( 32479 PWs)   bands (ev):

   -31.1162 -15.0690 -14.9778 -14.7300 -13.9034 -13.6053 -13.4075 -13.3582
   -13.3346 -13.2661 -13.1668 -13.1017 -13.0664 -12.9683 -12.8917 -12.7916
   -12.6795 -12.5362 -12.3713  -6.6295  -6.0769  -5.9288  -5.7259  -5.6275
    -5.5470  -5.4317  -5.3417  -5.2578  -5.2246  -5.1546  -5.1471  -4.9515
    -4.9124  -4.8785  -4.7351  -4.5547  -4.3858  -4.2402  -4.1849  -4.0647
    -3.9133  -3.6416  -3.6118  -3.4851  -3.4186  -3.1887  -3.0696  -2.9101
    -2.7707  -1.9685  -1.5749  -1.3792  -1.3363  -1.1106  -0.9402  -0.8687
    -0.8208  -0.7918  -0.7552  -0.6924  -0.6467  -0.6192  -0.5681  -0.4179
     0.8212   1.1142   2.4484   2.5750   3.1633   3.3601   3.6722   3.7996
     3.9618   4.1469   4.3317   4.4347   4.6125   4.6225   4.7295   4.9259

          k =-0.0076 0.0035-1.4526 ( 32404 PWs)   bands (ev):

   -31.1102 -15.0621 -14.9121 -14.8592 -13.7935 -13.5419 -13.3508 -13.3461
   -13.2482 -13.1721 -13.1135 -13.0788 -13.0673 -12.8945 -12.8677 -12.8248
   -12.6399 -12.5369 -12.3659  -6.8271  -6.1772  -6.1162  -5.9291  -5.7649
    -5.7190  -5.6161  -5.4911  -5.4510  -5.3722  -5.3597  -5.3161  -5.1064
    -5.0847  -4.9137  -4.5181  -4.3326  -4.2221  -4.1449  -3.9311  -3.8707
    -3.8503  -3.7470  -3.6852  -3.5577  -3.5011  -3.2773  -3.2042  -3.1529
    -2.8269  -2.1889  -1.7626  -1.6364  -1.5559  -1.3543  -1.1824  -1.1429
    -1.1063  -1.0231  -0.9731  -0.9159  -0.8808  -0.8088  -0.7617  -0.6710
     0.7684   1.2313   2.6963   3.1284   3.4239   3.6286   3.8039   3.9398
     3.9534   4.1466   4.2998   4.5065   4.5627   4.7341   4.8737   4.9345

          k =-0.0167-0.4881 0.0011 ( 32458 PWs)   bands (ev):

   -31.1162 -15.0690 -14.9778 -14.7300 -13.9030 -13.6038 -13.4150 -13.3717
   -13.3139 -13.2676 -13.1633 -13.0990 -13.0698 -12.9712 -12.8931 -12.7952
   -12.6696 -12.5411 -12.3712  -6.6287  -6.0769  -5.9212  -5.7435  -5.6086
    -5.5552  -5.4303  -5.3410  -5.2459  -5.2321  -5.1585  -5.1493  -4.9369
    -4.9108  -4.8788  -4.7350  -4.5585  -4.4932  -4.2355  -4.1434  -4.0363
    -3.7979  -3.7070  -3.6393  -3.5166  -3.3757  -3.1915  -3.0644  -2.9331
    -2.7590  -1.9638  -1.5776  -1.3780  -1.3391  -1.1046  -0.9387  -0.8808
    -0.8273  -0.7875  -0.7571  -0.6904  -0.6462  -0.6251  -0.5818  -0.4230
     0.8228   1.1412   2.4454   2.6049   3.1857   3.3784   3.6753   3.8324
     4.0328   4.1574   4.2453   4.4363   4.4769   4.6264   4.7276   4.8921

          k =-0.0243-0.4847-1.4515 ( 32382 PWs)   bands (ev):

   -31.1102 -15.0621 -14.9121 -14.8592 -13.7935 -13.5419 -13.3509 -13.3461
   -13.2482 -13.1721 -13.1136 -13.0790 -13.0670 -12.8946 -12.8677 -12.8249
   -12.6397 -12.5370 -12.3659  -6.8267  -6.1771  -6.1131  -5.9314  -5.7731
    -5.7082  -5.6208  -5.4919  -5.4330  -5.4002  -5.3523  -5.3154  -5.1092
    -5.0828  -4.9154  -4.5211  -4.3244  -4.2178  -4.1435  -3.9294  -3.8894
    -3.8385  -3.7494  -3.6599  -3.5478  -3.5235  -3.3122  -3.1877  -3.1370
    -2.8371  -2.1886  -1.7534  -1.6214  -1.5477  -1.3630  -1.1864  -1.1443
    -1.1096  -1.0005  -0.9848  -0.9034  -0.8713  -0.8418  -0.7804  -0.6882
     0.7658   1.2533   2.7129   3.1509   3.4104   3.6525   3.8538   3.9721
     3.9784   4.0821   4.3727   4.5231   4.5967   4.6801   4.7530   4.9265

          k =-0.5009-0.0167-0.0024 ( 32486 PWs)   bands (ev):

   -31.1162 -15.0690 -14.9778 -14.7300 -13.9018 -13.6112 -13.4052 -13.3537
   -13.3307 -13.2623 -13.1839 -13.1036 -13.0684 -12.9457 -12.8972 -12.8019
   -12.6743 -12.5349 -12.3737  -6.6263  -6.0859  -5.9203  -5.7293  -5.6206
    -5.5431  -5.4376  -5.3458  -5.2498  -5.2226  -5.1615  -5.1423  -4.9521
    -4.9026  -4.8667  -4.7347  -4.6466  -4.3643  -4.2373  -4.1792  -4.0615
    -3.8925  -3.6347  -3.5800  -3.4794  -3.3717  -3.2746  -3.0758  -2.8868
    -2.7775  -1.9707  -1.5721  -1.3737  -1.3443  -1.0951  -0.9389  -0.8507
    -0.8357  -0.7894  -0.7414  -0.6899  -0.6630  -0.6267  -0.6104  -0.4323
     0.8502   1.1260   2.4386   2.6041   3.0903   3.4523   3.7200   3.8904
     3.9895   4.0829   4.2800   4.4493   4.6090   4.7096   4.7855   4.9168

          k =-0.5084-0.0132-1.4550 ( 32424 PWs)   bands (ev):

   -31.1102 -15.0621 -14.9121 -14.8592 -13.7935 -13.5420 -13.3536 -13.3433
   -13.2480 -13.1719 -13.1137 -13.0792 -13.0672 -12.8958 -12.8659 -12.8254
   -12.6399 -12.5369 -12.3659  -6.8264  -6.1739  -6.1193  -5.9287  -5.7647
    -5.7164  -5.6159  -5.4937  -5.4487  -5.3791  -5.3632  -5.3142  -5.1074
    -5.0892  -4.9158  -4.5088  -4.3209  -4.2269  -4.1585  -3.9135  -3.8672
    -3.8340  -3.7536  -3.6977  -3.5539  -3.5178  -3.2690  -3.2190  -3.1353
    -2.8354  -2.1889  -1.7543  -1.6133  -1.5866  -1.3352  -1.1450  -1.1076
    -1.0723  -1.0215  -1.0132  -0.9407  -0.9104  -0.8192  -0.8001  -0.6904
     0.7824   1.2401   2.7062   3.1469   3.5089   3.6425   3.7620   3.8953
     4.0299   4.1268   4.3180   4.5158   4.6230   4.7903   4.8595   4.9554

          k =-0.5176-0.5048-0.0013 ( 32472 PWs)   bands (ev):

   -31.1162 -15.0690 -14.9778 -14.7300 -13.9015 -13.6098 -13.4133 -13.3637
   -13.3117 -13.2688 -13.1744 -13.1039 -13.0715 -12.9477 -12.8986 -12.8057
   -12.6647 -12.5399 -12.3736  -6.6255  -6.0853  -5.9138  -5.7441  -5.6027
    -5.5527  -5.4372  -5.3423  -5.2458  -5.2234  -5.1642  -5.1465  -4.9461
    -4.8891  -4.8715  -4.7336  -4.6447  -4.4662  -4.3064  -4.0629  -3.9656
    -3.8904  -3.7168  -3.5431  -3.4326  -3.4260  -3.2983  -3.0292  -2.9229
    -2.7681  -1.9648  -1.5754  -1.3727  -1.3452  -1.0897  -0.9407  -0.8876
    -0.8336  -0.7841  -0.7402  -0.6901  -0.6546  -0.6361  -0.6067  -0.4388
     0.8489   1.1483   2.4385   2.6242   3.1215   3.4644   3.7421   3.9640
     3.9887   4.1203   4.2887   4.4211   4.5737   4.6194   4.7133   4.7728

          k =-0.5251-0.5014-1.4539 ( 32424 PWs)   bands (ev):

   -31.1102 -15.0621 -14.9121 -14.8592 -13.7935 -13.5420 -13.3537 -13.3434
   -13.2479 -13.1719 -13.1137 -13.0789 -13.0674 -12.8959 -12.8659 -12.8255
   -12.6397 -12.5370 -12.3659  -6.8261  -6.1736  -6.1167  -5.9307  -5.7724
    -5.7073  -5.6176  -5.4936  -5.4328  -5.4078  -5.3554  -5.3141  -5.1075
    -5.0893  -4.9176  -4.5110  -4.3139  -4.2241  -4.1568  -3.9153  -3.8521
    -3.8414  -3.7505  -3.6816  -3.5805  -3.5206  -3.3010  -3.1909  -3.1244
    -2.8403  -2.1909  -1.7507  -1.5953  -1.5790  -1.3352  -1.1489  -1.1293
    -1.0580  -1.0156  -1.0093  -0.9349  -0.9004  -0.8403  -0.8261  -0.7087
     0.7797   1.2615   2.7244   3.1722   3.4851   3.6485   3.7986   3.9730
     4.0087   4.1317   4.3441   4.5527   4.6760   4.7411   4.7978   4.9126

     the Fermi energy is     2.5163 ev

!    total energy              =   -1130.55447549 Ry
     estimated scf accuracy    <       0.00000051 Ry
     smearing contrib. (-TS)   =      -0.00396488 Ry
     internal energy E=F+TS    =   -1130.55051061 Ry

     The total energy is F=E-TS. E is the sum of the following terms:
     one-electron contribution =    -126.36825934 Ry
     hartree contribution      =     103.03314469 Ry
     xc contribution           =    -143.65801619 Ry
     ewald contribution        =    -271.48190954 Ry
     one-center paw contrib.   =    -692.07547022 Ry

     convergence has been achieved in  13 iterations

     Forces acting on atoms (cartesian axes, Ry/au):

     atom    1 type  1   force =     0.01035180   -0.00382206    0.00900717
     atom    2 type  1   force =     0.00404171    0.00289547    0.00008022
     atom    3 type  1   force =    -0.01004113    0.00553486    0.00509820
     atom    4 type  1   force =    -0.00113937    0.00172326    0.00003353
     atom    5 type  1   force =    -0.00420744    0.01069697   -0.00893046
     atom    6 type  1   force =     0.00229892    0.00311617   -0.00074933
     atom    7 type  1   force =    -0.00136820    0.00102284    0.00657059
     atom    8 type  1   force =    -0.00107551   -0.00800632   -0.00467211
     atom    9 type  1   force =     0.00856373   -0.00889615    0.01044118
     atom   10 type  1   force =    -0.01142723   -0.00749121   -0.00085991
     atom   11 type  1   force =    -0.01118318    0.00063117    0.00644655
     atom   12 type  1   force =     0.00388172    0.00343799    0.00309423
     atom   13 type  1   force =    -0.00258307    0.01034312   -0.00914287
     atom   14 type  1   force =     0.00218105   -0.00283651   -0.01203218
     atom   15 type  1   force =     0.00100180    0.00077113   -0.00124012
     atom   16 type  1   force =    -0.00242913   -0.00821336   -0.00831943
     atom   17 type  1   force =     0.00820298   -0.00358538    0.00820238
     atom   18 type  1   force =     0.00283169   -0.00131577   -0.00264746
     atom   19 type  1   force =    -0.01503367    0.00991288   -0.00816455
     atom   20 type  1   force =    -0.00262747    0.00199668   -0.00156164
     atom   21 type  1   force =    -0.00274255    0.00877276   -0.00838902
     atom   22 type  1   force =     0.00355679    0.00422015   -0.00149939
     atom   23 type  1   force =    -0.00410602   -0.03869593    0.04541378
     atom   24 type  1   force =     0.00226832   -0.01035729   -0.00840474
     atom   25 type  1   force =    -0.00691822    0.01110005    0.01789662
     atom   26 type  1   force =    -0.00703203    0.00348691   -0.00915116
     atom   27 type  1   force =     0.00190751   -0.00470641   -0.00255747
     atom   28 type  1   force =    -0.03569411    0.01426674   -0.00245072
     atom   29 type  1   force =     0.00105116   -0.01208296   -0.01065408
     atom   30 type  1   force =     0.00148542   -0.00730207    0.00834207
     atom   31 type  1   force =     0.00148723    0.01263301    0.01245943
     atom   32 type  1   force =    -0.00578626   -0.00701162   -0.00074746
     atom   33 type  3   force =    -0.00657830   -0.00725212   -0.00021480
     atom   34 type  3   force =    -0.00628062   -0.00476070   -0.00054969
     atom   35 type  3   force =     0.01970947    0.02175444    0.00371474
     atom   36 type  3   force =     0.00142962    0.00730220    0.00425778
     atom   37 type  3   force =    -0.00923877   -0.00436820   -0.00064741
     atom   38 type  2   force =    -0.00430954   -0.00559496   -0.02975532
     atom   39 type  3   force =     0.00927642   -0.00029421   -0.00409098
     atom   40 type  3   force =     0.00047153    0.00272677    0.00665877
     atom   41 type  3   force =    -0.00901661   -0.00498661    0.00133921
     atom   42 type  3   force =    -0.00435439   -0.00448602    0.00407426
     atom   43 type  3   force =     0.02874298    0.00253353   -0.01551302
     atom   44 type  3   force =     0.01339203    0.01696460   -0.00111374
     atom   45 type  3   force =     0.00040487   -0.00140574   -0.00327204
     atom   46 type  3   force =     0.01297545    0.00279731   -0.00104299
     atom   47 type  3   force =    -0.00057054   -0.00313130   -0.01048780
     atom   48 type  3   force =     0.02422913   -0.00003806    0.01573120

     Total force =     0.120456     Total SCF correction =     0.001216


     Computing stress (Cartesian axis) and pressure

          total   stress  (Ry/bohr**3)                   (kbar)     P=        9.75
   0.00006772   0.00000055  -0.00001574            9.96        0.08       -2.32
   0.00000055   0.00007656   0.00000539            0.08       11.26        0.79
  -0.00001574   0.00000539   0.00005456           -2.32        0.79        8.03


     BFGS Geometry Optimization
     Energy error            =      0.0E+00
     Gradient error          =      4.5E-02
     Cell gradient error     =      7.7E-05


     number of scf cycles    =   1
     number of bfgs steps    =   0

     enthalpy new            =   -1130.5544754896 Ry

     new trust radius        =       0.0598050628 bohr
     new conv_thr            =       0.0000010000 Ry

     new unit-cell volume =   5460.68132 a.u.^3 (   809.18949 Ang^3 )
     density =      0.09850 g/cm^3

CELL_PARAMETERS (angstrom)
  13.185765320  -0.451201255  -0.074854464
  -0.450954961  13.533156442   0.036523700
  -0.024230879   0.011747008   4.540012569

ATOMIC_POSITIONS (angstrom)
H             1.3539659394       10.9146653459        2.9353594396
H            11.3645653536        2.1899013295        2.9058119271
H            10.1880011078       11.3623436176        0.6665632750
H             2.4955357484        1.7143544343        0.7003949641
H             0.3624397388       11.9205727667        1.6734726853
H            12.3963801367        1.1501251238        1.5431855788
H            11.1926605746       12.2999140183        3.7865716871
H             1.4872415014        0.7193671457        3.8717160740
H             1.4316012780        4.1698883710        2.9970637775
H            10.9531756878        9.1538115347        3.4004830931
H             3.7098533642       11.7376849892        0.7861284995
H             9.0073765873        1.3495829492        0.7278954152
H             0.5547639658        5.2227145046        1.6953588531
H            12.2936191951        7.5870917532        1.2069420409
H             4.6895627342       12.6452891595        3.8959790756
H             7.9932084318        0.4769719993        3.8516116983
H             7.8687873610       10.7673472700        2.8744419775
H             4.8040835467        2.3664891788        2.8754626223
H            10.4123496773        4.5794513091        0.4796501295
H             2.1472997644        8.3842213167        0.7217715940
H             6.9173383568       11.7803535479        1.5919808310
H             5.8029718371        1.3044001251        1.5242822992
H            11.4517057500        5.8308630654        3.6545431192
H             1.1978434936        7.4499469509        3.8402166663
H             8.0703159431        4.1021772462        1.4390254576
H             4.7698124521        9.0554207468        1.5505044602
H             4.0334913044        5.0425112975        3.7698912597
H             8.7350991158        7.9369395179        3.5750086702
H             7.1479725597        5.2064310830        2.9660000017
H             5.5723396459        8.0581302448        2.9182325069
H             5.0073054811        5.8467084037        0.6789820503
H             7.5699365526        7.1653914763        0.4707875110
S             1.5344616107       12.1182611148        2.3339000793
S            11.2273138135        1.0130307456        2.2352249975
S            11.3977764312       11.2170993376        0.0589785347
S             1.3297139032        1.8746356477        0.0151429228
S             1.7391760830        5.3185844539        2.3451927535
La           10.5630718711        7.4796794323        2.2606319632
S             4.7941321115       11.4434262734        0.0124095731
S             7.9413239225        1.6695658615       -0.0552277144
S             8.0980172070       11.9437631882        2.2490765074
S             4.6305971635        1.1930372810        2.2183390237
S            11.6458423231        4.6723318221        4.4917114691
S             1.1001861211        8.6770070424        4.4232691682
S             8.3543716949        5.1183388262        2.3047286441
S             4.4163559609        7.9413589358        2.2289992258
S             5.1234540661        4.7074749820        4.4999614522
S             8.1754890079        8.3701919138        4.8427044717



     Writing output data file ./tmp/LaH32S15.save/
