
     Program PWSCF v.6.1 starts on 24Dec2025 at  8:17:26 

     This program is part of the open-source Quantum ESPRESSO suite
     for quantum simulation of materials; please cite
         "P. Giannozzi et al., J. Phys.:Condens. Matter 21 395502 (2009);
          URL http://www.quantum-espresso.org", 
     in publications or presentations arising from this work. More details at
     http://www.quantum-espresso.org/quote

     Parallel version (MPI & OpenMP), running on      12 processor cores
     Number of MPI processes:                 1
     Threads/MPI process:                    12
     Waiting for input...
     Reading input from standard input

     Current dimensions of program PWSCF are:
     Max number of different atomic species (ntypx) = 10
     Max number of k-points (npk) =  40000
     Max angular momentum in pseudopotentials (lmaxx) =  3
               file H.UPF: wavefunction(s)  1S renormalized

     Subspace diagonalization in iterative solution of the eigenvalue problem:
     a serial algorithm will be used


     G-vector sticks info
     --------------------
     sticks:   dense  smooth     PW     G-vecs:    dense   smooth      PW
     Sum        1369     685    211                33487    11935    2085



     bravais-lattice index     =            0
     lattice parameter (alat)  =       7.0609  a.u.
     unit-cell volume          =     248.9437 (a.u.)^3
     number of atoms/cell      =            3
     number of atomic types    =            2
     number of electrons       =        13.00
     number of Kohn-Sham states=           11
     kinetic-energy cutoff     =      50.0000  Ry
     charge density cutoff     =     400.0000  Ry
     convergence threshold     =      1.0E-08
     mixing beta               =       0.7000
     number of iterations used =            8  plain     mixing
     Exchange-correlation      =  SLA  PW   PBE  PBE ( 1  4  3  4 0 0)

     celldm(1)=   7.060921  celldm(2)=   0.000000  celldm(3)=   0.000000
     celldm(4)=   0.000000  celldm(5)=   0.000000  celldm(6)=   0.000000

     crystal axes: (cart. coord. in units of alat)
               a(1) = (   0.866016   0.000008   0.500016 )  
               a(2) = (   0.288678   0.816544   0.500016 )  
               a(3) = (   0.000000   0.000000   1.000030 )  

     reciprocal axes: (cart. coord. in units 2 pi/alat)
               b(1) = (  1.154717 -0.408235  0.000000 )  
               b(2) = ( -0.000011  1.224677  0.000000 )  
               b(3) = ( -0.577354 -0.408222  0.999970 )  


     PseudoPot. # 1 for  H read from file:
     C:/Users/Acer/Desktop/Quantum_Espresso/pseudo/H.UPF
     MD5 check sum: 850d63dcbcc06c5de8b44e0ab9f952da
     Pseudo is Projector augmented-wave, Zval =  1.0
     Generated using "atomic" code by A. Dal Corso  v.5.1.2
     Shape of augmentation charge: PSQ
     Using radial grid of  929 points,  2 beta functions with: 
                l(1) =   0
                l(2) =   0
     Q(r) pseudized with 0 coefficients 


     PseudoPot. # 2 for Y  read from file:
     C:/Users/Acer/Desktop/Quantum_Espresso/pseudo/Y.UPF
     MD5 check sum: e11e343c2e9fd2e6ee9cb5aa0e490caa
     Pseudo is Ultrasoft + core correction, Zval = 11.0
     Generated by new atomic code, or converted to UPF format
     Using radial grid of  885 points,  6 beta functions with: 
                l(1) =   0
                l(2) =   0
                l(3) =   1
                l(4) =   1
                l(5) =   2
                l(6) =   2
     Q(r) pseudized with  6 coefficients,  rinner =    1.200   1.200   1.200
                                                       1.200   1.200

     atomic species   valence    mass     pseudopotential
        H              1.00     1.00000      H( 1.00)
        Y             11.00     1.00000     Y ( 1.00)

      2 Sym. Ops., with inversion, found



   Cartesian axes

     site n.     atom                  positions (alat units)
         1           Y   tau(   1) = (   0.0000000   0.0000000   0.0000000  )
         2           H   tau(   2) = (   0.8660214   0.6124136   1.5000462  )
         3           H   tau(   3) = (   0.2886729   0.2041387   0.5000163  )

     number of k points=    36  Methfessel-Paxton smearing, width (Ry)=  0.0100
                       cart. coord. in units 2pi/alat
        k(    1) = (   0.0000000   0.0000000   0.0000000), wk =   0.0312500
        k(    2) = (  -0.1443386  -0.1020556   0.2499925), wk =   0.0625000
        k(    3) = (   0.2886771   0.2041112  -0.4999851), wk =   0.0312500
        k(    4) = (  -0.0000028   0.3061693   0.0000000), wk =   0.0625000
        k(    5) = (  -0.1443414   0.2041137   0.2499925), wk =   0.0625000
        k(    6) = (   0.2886743   0.5102806  -0.4999851), wk =   0.0625000
        k(    7) = (   0.1443357   0.4082249  -0.2499925), wk =   0.0625000
        k(    8) = (   0.0000057  -0.6123387   0.0000000), wk =   0.0312500
        k(    9) = (  -0.1443329  -0.7143943   0.2499925), wk =   0.0625000
        k(   10) = (   0.2886828  -0.4082274  -0.4999851), wk =   0.0312500
        k(   11) = (   0.2886792  -0.1020587   0.0000000), wk =   0.0625000
        k(   12) = (   0.1443406  -0.2041143   0.2499925), wk =   0.0625000
        k(   13) = (   0.5773564   0.1020526  -0.4999851), wk =   0.0625000
        k(   14) = (   0.4330178  -0.0000030  -0.2499925), wk =   0.0625000
        k(   15) = (   0.2886764   0.2041107   0.0000000), wk =   0.0625000
        k(   16) = (   0.1443378   0.1020551   0.2499925), wk =   0.0625000
        k(   17) = (   0.5773535   0.4082219  -0.4999851), wk =   0.0625000
        k(   18) = (   0.4330150   0.3061663  -0.2499925), wk =   0.0625000
        k(   19) = (   0.2886849  -0.7143973   0.0000000), wk =   0.0625000
        k(   20) = (   0.1443463  -0.8164529   0.2499925), wk =   0.0625000
        k(   21) = (   0.5773620  -0.5102861  -0.4999851), wk =   0.0625000
        k(   22) = (   0.4330235  -0.6123417  -0.2499925), wk =   0.0625000
        k(   23) = (   0.2886821  -0.4082280   0.0000000), wk =   0.0625000
        k(   24) = (   0.1443435  -0.5102836   0.2499925), wk =   0.0625000
        k(   25) = (   0.5773592  -0.2041168  -0.4999851), wk =   0.0625000
        k(   26) = (   0.4330206  -0.3061724  -0.2499925), wk =   0.0625000
        k(   27) = (  -0.5773584   0.2041173   0.0000000), wk =   0.0312500
        k(   28) = (  -0.7216970   0.1020617   0.2499925), wk =   0.0625000
        k(   29) = (  -0.2886813   0.4082285  -0.4999851), wk =   0.0312500
        k(   30) = (  -0.5773613   0.5102866   0.0000000), wk =   0.0625000
        k(   31) = (  -0.7216998   0.4082310   0.2499925), wk =   0.0625000
        k(   32) = (  -0.2886841   0.7143979  -0.4999851), wk =   0.0625000
        k(   33) = (  -0.4330227   0.6123423  -0.2499925), wk =   0.0625000
        k(   34) = (  -0.5773528  -0.4082214   0.0000000), wk =   0.0312500
        k(   35) = (  -0.7216913  -0.5102770   0.2499925), wk =   0.0625000
        k(   36) = (  -0.2886756  -0.2041101  -0.4999851), wk =   0.0312500

     Dense  grid:    33487 G-vectors     FFT dimensions: (  45,  45,  45)

     Smooth grid:    11935 G-vectors     FFT dimensions: (  32,  32,  32)

     Estimated max dynamical RAM per process >      31.80MB

     Check: negative/imaginary core charge=   -0.000004    0.000000

     Initial potential from superposition of free atoms
     Check: negative starting charge=   -0.042663

     starting charge   12.99551, renormalised to   13.00000

     negative rho (up, down):  4.268E-02 0.000E+00
     Starting wfc are   15 randomized atomic wfcs
     Checking if some PAW data can be deallocated... 

     total cpu time spent up to now is        3.9 secs

     Self-consistent Calculation

     iteration #  1     ecut=    50.00 Ry     beta=0.70
     Davidson diagonalization with overlap
     ethr =  1.00E-02,  avg # of iterations =  2.1

     negative rho (up, down):  4.252E-02 0.000E+00

     total cpu time spent up to now is        5.9 secs

     total energy              =     -89.96162760 Ry
     Harris-Foulkes estimate   =     -90.03651258 Ry
     estimated scf accuracy    <       0.13550508 Ry

     iteration #  2     ecut=    50.00 Ry     beta=0.70
     Davidson diagonalization with overlap
     ethr =  1.04E-03,  avg # of iterations =  2.0

     negative rho (up, down):  4.295E-02 0.000E+00

     total cpu time spent up to now is        7.8 secs

     total energy              =     -89.98537761 Ry
     Harris-Foulkes estimate   =     -89.98768518 Ry
     estimated scf accuracy    <       0.00356272 Ry

     iteration #  3     ecut=    50.00 Ry     beta=0.70
     Davidson diagonalization with overlap
     ethr =  2.74E-05,  avg # of iterations =  3.7

     negative rho (up, down):  4.287E-02 0.000E+00

     total cpu time spent up to now is       10.7 secs

     total energy              =     -89.98628753 Ry
     Harris-Foulkes estimate   =     -89.98628269 Ry
     estimated scf accuracy    <       0.00008253 Ry

     iteration #  4     ecut=    50.00 Ry     beta=0.70
     Davidson diagonalization with overlap
     ethr =  6.35E-07,  avg # of iterations =  2.2

     negative rho (up, down):  4.280E-02 0.000E+00

     total cpu time spent up to now is       12.7 secs

     total energy              =     -89.98630412 Ry
     Harris-Foulkes estimate   =     -89.98630087 Ry
     estimated scf accuracy    <       0.00000252 Ry

     iteration #  5     ecut=    50.00 Ry     beta=0.70
     Davidson diagonalization with overlap
     ethr =  1.94E-08,  avg # of iterations =  2.2

     negative rho (up, down):  4.280E-02 0.000E+00

     total cpu time spent up to now is       14.7 secs

     total energy              =     -89.98630463 Ry
     Harris-Foulkes estimate   =     -89.98630464 Ry
     estimated scf accuracy    <       0.00000002 Ry

     iteration #  6     ecut=    50.00 Ry     beta=0.70
     Davidson diagonalization with overlap
     ethr =  1.56E-10,  avg # of iterations =  2.7

     negative rho (up, down):  4.279E-02 0.000E+00

     total cpu time spent up to now is       17.1 secs

     End of self-consistent calculation

          k = 0.0000 0.0000 0.0000 (  1459 PWs)   bands (ev):

   -33.7400 -13.5414 -13.5414 -13.5414   1.1672   7.7937  10.1699  10.1701
    10.1705  12.4212  12.4213

          k =-0.1443-0.1021 0.2500 (  1477 PWs)   bands (ev):

   -33.7187 -13.7716 -13.5692 -13.5691   2.2282   5.7890  10.4964  10.4971
    12.3012  12.3014  13.1569

          k = 0.2887 0.2041-0.5000 (  1476 PWs)   bands (ev):

   -33.6972 -13.9894 -13.5967 -13.5967   3.2349   5.2571  10.2381  10.2387
    13.3119  13.6057  13.6061

          k =-0.0000 0.3062 0.0000 (  1477 PWs)   bands (ev):

   -33.7187 -13.7716 -13.5692 -13.5691   2.2281   5.7891  10.4966  10.4970
    12.3014  12.3015  13.1566

          k =-0.1443 0.2041 0.2500 (  1491 PWs)   bands (ev):

   -33.7116 -13.7718 -13.6151 -13.6150   2.6774   5.2938   9.9374  11.1974
    11.1978  13.0156  14.3820

          k = 0.2887 0.5103-0.5000 (  1491 PWs)   bands (ev):

   -33.6902 -13.9171 -13.7154 -13.6425   3.9853   4.7620   8.6011  11.3604
    13.0799  13.6898  14.9259

          k = 0.1443 0.4082-0.2500 (  1478 PWs)   bands (ev):

   -33.6973 -13.8628 -13.7272 -13.5970   3.5192   4.9394   9.2704  11.2522
    11.8005  14.0663  15.3146

          k = 0.0000-0.6123 0.0000 (  1476 PWs)   bands (ev):

   -33.6972 -13.9894 -13.5967 -13.5966   3.2348   5.2569  10.2382  10.2387
    13.3120  13.6057  13.6060

          k =-0.1443-0.7144 0.2500 (  1491 PWs)   bands (ev):

   -33.6902 -13.9171 -13.7154 -13.6425   3.9853   4.7618   8.6012  11.3604
    13.0800  13.6896  14.9256

          k = 0.2887-0.4082-0.5000 (  1524 PWs)   bands (ev):

   -33.6832 -13.9813 -13.6878 -13.6877   4.1337   5.1280   7.2404  13.7462
    13.8287  13.8288  15.0991

          k = 0.2887-0.1021 0.0000 (  1477 PWs)   bands (ev):

   -33.7187 -13.7716 -13.5692 -13.5692   2.2283   5.7890  10.4966  10.4968
    12.3011  12.3012  13.1572

          k = 0.1443-0.2041 0.2500 (  1491 PWs)   bands (ev):

   -33.7116 -13.7718 -13.6151 -13.6150   2.6774   5.2938   9.9374  11.1974
    11.1978  13.0156  14.3820

          k = 0.5774 0.1021-0.5000 (  1491 PWs)   bands (ev):

   -33.6902 -13.9170 -13.7154 -13.6425   3.9853   4.7619   8.6012  11.3600
    13.0805  13.6895  14.9255

          k = 0.4330-0.0000-0.2500 (  1478 PWs)   bands (ev):

   -33.6973 -13.8628 -13.7272 -13.5970   3.5195   4.9392   9.2706  11.2517
    11.8003  14.0669  15.3145

          k = 0.2887 0.2041 0.0000 (  1491 PWs)   bands (ev):

   -33.7116 -13.7718 -13.6150 -13.6150   2.6775   5.2938   9.9375  11.1975
    11.1975  13.0156  14.3821

          k = 0.1443 0.1021 0.2500 (  1477 PWs)   bands (ev):

   -33.7187 -13.7716 -13.5692 -13.5691   2.2282   5.7890  10.4964  10.4971
    12.3013  12.3014  13.1569

          k = 0.5774 0.4082-0.5000 (  1478 PWs)   bands (ev):

   -33.6973 -13.8628 -13.7272 -13.5970   3.5193   4.9393   9.2705  11.2519
    11.8004  14.0665  15.3146

          k = 0.4330 0.3062-0.2500 (  1491 PWs)   bands (ev):

   -33.6902 -13.9171 -13.7154 -13.6425   3.9853   4.7619   8.6012  11.3602
    13.0801  13.6897  14.9257

          k = 0.2887-0.7144 0.0000 (  1491 PWs)   bands (ev):

   -33.6902 -13.9170 -13.7154 -13.6425   3.9854   4.7618   8.6013  11.3602
    13.0803  13.6894  14.9254

          k = 0.1443-0.8165 0.2500 (  1478 PWs)   bands (ev):

   -33.6973 -13.8628 -13.7272 -13.5970   3.5192   4.9394   9.2704  11.2522
    11.8005  14.0663  15.3147

          k = 0.5774-0.5103-0.5000 (  1491 PWs)   bands (ev):

   -33.6902 -13.9170 -13.7154 -13.6425   3.9853   4.7619   8.6012  11.3600
    13.0805  13.6895  14.9255

          k = 0.4330-0.6123-0.2500 (  1480 PWs)   bands (ev):

   -33.6831 -13.8369 -13.8369 -13.6923   4.6108   4.6111   8.1794  10.9556
    13.8374  14.4976  14.4978

          k = 0.2887-0.4082 0.0000 (  1478 PWs)   bands (ev):

   -33.6973 -13.8628 -13.7272 -13.5970   3.5193   4.9393   9.2705  11.2519
    11.8003  14.0666  15.3145

          k = 0.1443-0.5103 0.2500 (  1491 PWs)   bands (ev):

   -33.6902 -13.9171 -13.7154 -13.6424   3.9853   4.7618   8.6012  11.3604
    13.0800  13.6896  14.9256

          k = 0.5774-0.2041-0.5000 (  1480 PWs)   bands (ev):

   -33.6831 -13.8369 -13.8369 -13.6923   4.6109   4.6110   8.1794  10.9557
    13.8373  14.4976  14.4976

          k = 0.4330-0.3062-0.2500 (  1491 PWs)   bands (ev):

   -33.6902 -13.9171 -13.7154 -13.6425   3.9853   4.7620   8.6011  11.3600
    13.0803  13.6898  14.9259

          k =-0.5774 0.2041 0.0000 (  1476 PWs)   bands (ev):

   -33.6972 -13.9894 -13.5967 -13.5967   3.2349   5.2573  10.2381  10.2384
    13.3117  13.6059  13.6062

          k =-0.7217 0.1021 0.2500 (  1491 PWs)   bands (ev):

   -33.6902 -13.9171 -13.7154 -13.6425   3.9853   4.7620   8.6011  11.3600
    13.0803  13.6898  14.9259

          k =-0.2887 0.4082-0.5000 (  1524 PWs)   bands (ev):

   -33.6832 -13.9813 -13.6878 -13.6877   4.1337   5.1280   7.2404  13.7462
    13.8287  13.8288  15.0988

          k =-0.5774 0.5103 0.0000 (  1491 PWs)   bands (ev):

   -33.6902 -13.9171 -13.7154 -13.6425   3.9853   4.7621   8.6011  11.3602
    13.0800  13.6899  14.9261

          k =-0.7217 0.4082 0.2500 (  1478 PWs)   bands (ev):

   -33.6973 -13.8628 -13.7272 -13.5970   3.5195   4.9392   9.2706  11.2517
    11.8003  14.0669  15.3145

          k =-0.2887 0.7144-0.5000 (  1491 PWs)   bands (ev):

   -33.6902 -13.9171 -13.7154 -13.6425   3.9853   4.7620   8.6011  11.3604
    13.0799  13.6898  14.9259

          k =-0.4330 0.6123-0.2500 (  1480 PWs)   bands (ev):

   -33.6831 -13.8369 -13.8369 -13.6923   4.6108   4.6111   8.1794  10.9556
    13.8374  14.4976  14.4976

          k =-0.5774-0.4082 0.0000 (  1524 PWs)   bands (ev):

   -33.6832 -13.9813 -13.6878 -13.6878   4.1336   5.1281   7.2404  13.7462
    13.8287  13.8287  15.0988

          k =-0.7217-0.5103 0.2500 (  1491 PWs)   bands (ev):

   -33.6902 -13.9171 -13.7154 -13.6425   3.9853   4.7619   8.6012  11.3602
    13.0801  13.6897  14.9257

          k =-0.2887-0.2041-0.5000 (  1476 PWs)   bands (ev):

   -33.6972 -13.9894 -13.5967 -13.5967   3.2348   5.2571  10.2381  10.2387
    13.3119  13.6057  13.6061

     the Fermi energy is     8.6958 ev

!    total energy              =     -89.98630464 Ry
     Harris-Foulkes estimate   =     -89.98630464 Ry
     estimated scf accuracy    <          2.6E-09 Ry

     The total energy is the sum of the following terms:

     one-electron contribution =     -19.61619922 Ry
     hartree contribution      =      13.25465863 Ry
     xc contribution           =     -23.39925600 Ry
     ewald contribution        =     -60.22520558 Ry
     one-center paw contrib.   =      -0.00028145 Ry
     smearing contrib. (-TS)   =      -0.00002102 Ry

     convergence has been achieved in   6 iterations

     Writing output data file 07_YH2.save

     init_run     :      3.58s CPU      3.74s WALL (       1 calls)
     electrons    :      9.75s CPU     13.18s WALL (       1 calls)

     Called by init_run:
     wfcinit      :      0.55s CPU      0.79s WALL (       1 calls)
     potinit      :      0.97s CPU      0.98s WALL (       1 calls)

     Called by electrons:
     c_bands      :      6.56s CPU     10.16s WALL (       6 calls)
     sum_band     :      2.34s CPU      2.21s WALL (       6 calls)
     v_of_rho     :      0.28s CPU      0.34s WALL (       7 calls)
     newd         :      0.70s CPU      0.51s WALL (       7 calls)
     PAW_pot      :      0.08s CPU      0.05s WALL (       7 calls)
     mix_rho      :      0.02s CPU      0.03s WALL (       6 calls)

     Called by c_bands:
     init_us_2    :      0.62s CPU      1.23s WALL (     468 calls)
     cegterg      :      6.09s CPU      8.90s WALL (     216 calls)

     Called by sum_band:
     sum_band:bec :      0.11s CPU      0.05s WALL (     216 calls)
     addusdens    :      0.95s CPU      0.63s WALL (       6 calls)

     Called by *egterg:
     h_psi        :      4.66s CPU      6.57s WALL (     786 calls)
     s_psi        :      0.03s CPU      0.24s WALL (     786 calls)
     g_psi        :      0.00s CPU      0.02s WALL (     534 calls)
     cdiaghg      :      1.80s CPU      2.03s WALL (     750 calls)

     Called by h_psi:
     h_psi:pot    :      4.64s CPU      6.54s WALL (     786 calls)
     h_psi:calbec :      0.02s CPU      0.19s WALL (     786 calls)
     vloc_psi     :      4.62s CPU      6.25s WALL (     786 calls)
     add_vuspsi   :      0.00s CPU      0.09s WALL (     786 calls)

     General routines
     calbec       :      0.02s CPU      0.27s WALL (    1002 calls)
     fft          :      0.09s CPU      0.12s WALL (     108 calls)
     ffts         :      0.00s CPU      0.01s WALL (      13 calls)
     fftw         :      4.12s CPU      4.67s WALL (   15312 calls)
     interpolate  :      0.02s CPU      0.03s WALL (      13 calls)
     davcio       :      0.00s CPU      0.00s WALL (      36 calls)

     Parallel routines
     fft_scatter  :      0.05s CPU      0.61s WALL (   15433 calls)

     PWSCF        :    13.55s CPU        17.25s WALL


   This run was terminated on:   8:17:43  24Dec2025            

=------------------------------------------------------------------------------=
   JOB DONE.
=------------------------------------------------------------------------------=
