
     Program PWSCF v.6.1 starts on 24Dec2025 at  8:17:43 

     This program is part of the open-source Quantum ESPRESSO suite
     for quantum simulation of materials; please cite
         "P. Giannozzi et al., J. Phys.:Condens. Matter 21 395502 (2009);
          URL http://www.quantum-espresso.org", 
     in publications or presentations arising from this work. More details at
     http://www.quantum-espresso.org/quote

     Parallel version (MPI & OpenMP), running on      12 processor cores
     Number of MPI processes:                 1
     Threads/MPI process:                    12
     Waiting for input...
     Reading input from standard input

     Current dimensions of program PWSCF are:
     Max number of different atomic species (ntypx) = 10
     Max number of k-points (npk) =  40000
     Max angular momentum in pseudopotentials (lmaxx) =  3

     Atomic positions and unit cell read from directory:
     ./tmp/07_YH2.save/

               file H.UPF: wavefunction(s)  1S renormalized

     Subspace diagonalization in iterative solution of the eigenvalue problem:
     a serial algorithm will be used


     G-vector sticks info
     --------------------
     sticks:   dense  smooth     PW     G-vecs:    dense   smooth      PW
     Sum        1369     685    211                33487    11935    2109



     bravais-lattice index     =            0
     lattice parameter (alat)  =       7.0609  a.u.
     unit-cell volume          =     248.9437 (a.u.)^3
     number of atoms/cell      =            3
     number of atomic types    =            2
     number of electrons       =        13.00
     number of Kohn-Sham states=           11
     kinetic-energy cutoff     =      50.0000  Ry
     charge density cutoff     =     400.0000  Ry
     Exchange-correlation      =  SLA  PW   PBE  PBE ( 1  4  3  4 0 0)

     celldm(1)=   7.060921  celldm(2)=   0.000000  celldm(3)=   0.000000
     celldm(4)=   0.000000  celldm(5)=   0.000000  celldm(6)=   0.000000

     crystal axes: (cart. coord. in units of alat)
               a(1) = (   0.866016   0.000008   0.500016 )  
               a(2) = (   0.288678   0.816544   0.500016 )  
               a(3) = (   0.000000   0.000000   1.000030 )  

     reciprocal axes: (cart. coord. in units 2 pi/alat)
               b(1) = (  1.154717 -0.408235  0.000000 )  
               b(2) = ( -0.000011  1.224677  0.000000 )  
               b(3) = ( -0.577354 -0.408222  0.999970 )  


     PseudoPot. # 1 for  H read from file:
     C:/Users/Acer/Desktop/Quantum_Espresso/pseudo/H.UPF
     MD5 check sum: f872269930354f4c44a8fadb7eac41ed
     Pseudo is Projector augmented-wave, Zval =  1.0
     Generated using "atomic" code by A. Dal Corso  v.5.1.2
     Shape of augmentation charge: PSQ
     Using radial grid of  929 points,  2 beta functions with: 
                l(1) =   0
                l(2) =   0
     Q(r) pseudized with 0 coefficients 


     PseudoPot. # 2 for Y  read from file:
     C:/Users/Acer/Desktop/Quantum_Espresso/pseudo/Y.UPF
     MD5 check sum: 3b2d2de21dfc3047ddb0f22bc419bc04
     Pseudo is Ultrasoft + core correction, Zval = 11.0
     Generated by new atomic code, or converted to UPF format
     Using radial grid of  885 points,  6 beta functions with: 
                l(1) =   0
                l(2) =   0
                l(3) =   1
                l(4) =   1
                l(5) =   2
                l(6) =   2
     Q(r) pseudized with  6 coefficients,  rinner =    1.200   1.200   1.200
                                                       1.200   1.200

     atomic species   valence    mass     pseudopotential
        H              1.00     1.00000      H( 1.00)
        Y             11.00     1.00000     Y ( 1.00)

      2 Sym. Ops., with inversion, found



   Cartesian axes

     site n.     atom                  positions (alat units)
         1           Y   tau(   1) = (   0.0000000   0.0000000   0.0000000  )
         2           H   tau(   2) = (   0.8660214   0.6124136   1.5000462  )
         3           H   tau(   3) = (   0.2886729   0.2041387   0.5000163  )

     number of k points=   260 (tetrahedron method)

     Number of k-points >= 100: set verbosity='high' to print them.

     Dense  grid:    33487 G-vectors     FFT dimensions: (  45,  45,  45)

     Smooth grid:    11935 G-vectors     FFT dimensions: (  32,  32,  32)

     Estimated max dynamical RAM per process >      13.44MB

     Check: negative/imaginary core charge=   -0.000004    0.000000

     The potential is recalculated from file :
     ./tmp/07_YH2.save/charge-density.dat


     negative rho (up, down):  4.279E-02 0.000E+00
     Starting wfc are   15 randomized atomic wfcs
     Checking if some PAW data can be deallocated... 

     Band Structure Calculation
     Davidson diagonalization with overlap

     ethr =  7.69E-11,  avg # of iterations = 19.8

     total cpu time spent up to now is       82.3 secs

     End of band structure calculation

     Number of k-points >= 100: set verbosity='high' to print the bands.

     the Fermi energy is     9.0679 ev

     Writing output data file 07_YH2.save

     init_run     :      1.97s CPU      2.10s WALL (       1 calls)
     electrons    :     44.50s CPU     80.12s WALL (       1 calls)

     Called by init_run:
     wfcinit      :      0.00s CPU      0.00s WALL (       1 calls)
     potinit      :      0.05s CPU      0.06s WALL (       1 calls)

     Called by electrons:
     c_bands      :     44.48s CPU     80.09s WALL (       1 calls)
     v_of_rho     :      0.03s CPU      0.05s WALL (       1 calls)
     newd         :      0.03s CPU      0.08s WALL (       1 calls)
     PAW_pot      :      0.00s CPU      0.01s WALL (       1 calls)

     Called by c_bands:
     init_us_2    :      0.42s CPU      1.05s WALL (     260 calls)
     cegterg      :     40.20s CPU     73.66s WALL (     352 calls)

     Called by sum_band:

     Called by *egterg:
     h_psi        :     28.72s CPU     44.62s WALL (    5755 calls)
     s_psi        :      0.33s CPU      1.60s WALL (    5755 calls)
     g_psi        :      0.05s CPU      0.12s WALL (    5143 calls)
     cdiaghg      :     13.48s CPU     25.37s WALL (    5403 calls)

     Called by h_psi:
     h_psi:pot    :     28.64s CPU     44.33s WALL (    5755 calls)
     h_psi:calbec :      0.08s CPU      0.84s WALL (    5755 calls)
     vloc_psi     :     28.48s CPU     42.44s WALL (    5755 calls)
     add_vuspsi   :      0.08s CPU      1.00s WALL (    5755 calls)

     General routines
     calbec       :      0.08s CPU      0.83s WALL (    5755 calls)
     fft          :      0.00s CPU      0.02s WALL (      13 calls)
     ffts         :      0.00s CPU      0.00s WALL (       1 calls)
     fftw         :     20.27s CPU     29.57s WALL (   75302 calls)
     interpolate  :      0.00s CPU      0.00s WALL (       1 calls)
     davcio       :      0.00s CPU      0.03s WALL (     260 calls)

     Parallel routines
     fft_scatter  :      0.06s CPU      4.19s WALL (   75316 calls)

     PWSCF        :  0m46.81s CPU     1m23.33s WALL


   This run was terminated on:   8:19: 7  24Dec2025            

=------------------------------------------------------------------------------=
   JOB DONE.
=------------------------------------------------------------------------------=
