
     Program PWSCF v.6.7MaX starts on 14Feb2026 at  9:48:48 

     This program is part of the open-source Quantum ESPRESSO suite
     for quantum simulation of materials; please cite
         "P. Giannozzi et al., J. Phys.:Condens. Matter 21 395502 (2009);
         "P. Giannozzi et al., J. Phys.:Condens. Matter 29 465901 (2017);
          URL http://www.quantum-espresso.org", 
     in publications or presentations arising from this work. More details at
     http://www.quantum-espresso.org/quote

     Parallel version (MPI), running on     2 processors

     MPI processes distributed on     1 nodes
     R & G space division:  proc/nbgrp/npool/nimage =       2
     Waiting for input...
     Reading input from standard input

     Current dimensions of program PWSCF are:
     Max number of different atomic species (ntypx) = 10
     Max number of k-points (npk) =  40000
     Max angular momentum in pseudopotentials (lmaxx) =  3
     file H.UPF: wavefunction(s)  1S renormalized

     Subspace diagonalization in iterative solution of the eigenvalue problem:
     a serial algorithm will be used

     Message from routine setup:
     using ibrav=0 with symmetry is DISCOURAGED, use correct ibrav instead

     Parallelization info
     --------------------
     sticks:   dense  smooth     PW     G-vecs:    dense   smooth      PW
     Min        1733     868    256                61247    21646    3476
     Max        1734     869    257                61248    21647    3477
     Sum        3467    1737    513               122495    43293    6953



     bravais-lattice index     =            0
     lattice parameter (alat)  =      11.1470  a.u.
     unit-cell volume          =     906.9026 (a.u.)^3
     number of atoms/cell      =           14
     number of atomic types    =            3
     number of electrons       =        35.00
     number of Kohn-Sham states=           22
     kinetic-energy cutoff     =      50.0000  Ry
     charge density cutoff     =     400.0000  Ry
     scf convergence threshold =      1.0E-06
     mixing beta               =       0.7000
     number of iterations used =            8  plain     mixing
     energy convergence thresh.=      1.0E-04
     force convergence thresh. =      1.0E-03
     press convergence thresh. =      5.0E-01
     Exchange-correlation=  SLA  PW   PBE  PBE
                           (   1   4   3   4   0   0   0)
     nstep                     =           50


     celldm(1)=  11.147050  celldm(2)=   0.000000  celldm(3)=   0.000000
     celldm(4)=   0.000000  celldm(5)=   0.000000  celldm(6)=   0.000000

     crystal axes: (cart. coord. in units of alat)
               a(1) = (   0.804366   0.589876   0.071006 )  
               a(2) = (  -0.769723   0.520256   0.054659 )  
               a(3) = (   0.026942   0.435611   0.799806 )  

     reciprocal axes: (cart. coord. in units 2 pi/alat)
               b(1) = (  0.599144  0.942489 -0.533504 )  
               b(2) = ( -0.673310  0.979635 -0.510873 )  
               b(3) = ( -0.007177 -0.150622  1.332580 )  


     PseudoPot. # 1 for H  read from file:
     /home/marco/ZOS_Cloud_Compute/pseudo/H.UPF
     MD5 check sum: 850d63dcbcc06c5de8b44e0ab9f952da
     Pseudo is Projector augmented-wave, Zval =  1.0
     Generated using "atomic" code by A. Dal Corso  v.5.1.2
     Shape of augmentation charge: PSQ
     Using radial grid of  929 points,  2 beta functions with: 
                l(1) =   0
                l(2) =   0
     Q(r) pseudized with 0 coefficients 


     PseudoPot. # 2 for Sc read from file:
     /home/marco/ZOS_Cloud_Compute/pseudo/Sc.UPF
     MD5 check sum: ff19847cdcb3487ca1f25e4b0e9f43ec
     Pseudo is Ultrasoft + core correction, Zval = 11.0
     Generated by new atomic code, or converted to UPF format
     Using radial grid of  849 points,  6 beta functions with: 
                l(1) =   0
                l(2) =   0
                l(3) =   1
                l(4) =   1
                l(5) =   2
                l(6) =   2
     Q(r) pseudized with  6 coefficients,  rinner =    1.200   1.200   1.200
                                                       1.200   1.200

     PseudoPot. # 3 for Zr read from file:
     /home/marco/ZOS_Cloud_Compute/pseudo/Zr.UPF
     MD5 check sum: 56bebf6edcd38415d7dd1a973c3f3403
     Pseudo is Ultrasoft + core correction, Zval = 12.0
     Generated by new atomic code, or converted to UPF format
     Using radial grid of  887 points,  6 beta functions with: 
                l(1) =   0
                l(2) =   0
                l(3) =   1
                l(4) =   1
                l(5) =   2
                l(6) =   2
     Q(r) pseudized with  6 coefficients,  rinner =    1.200   1.200   1.200
                                                       1.200   1.200

     atomic species   valence    mass     pseudopotential
        H              1.00     1.00000     H ( 1.00)
        Sc            11.00     1.00000     Sc( 1.00)
        Zr            12.00     1.00000     Zr( 1.00)

      2 Sym. Ops., with inversion, found



   Cartesian axes

     site n.     atom                  positions (alat units)
         1           Zr  tau(   1) = (  -0.3848614   0.2601282   0.0273295  )
         2           Sc  tau(   2) = (   0.4156541   0.5127433   0.4354062  )
         3           H   tau(   3) = (  -0.1025396   0.1902959   0.2096352  )
         4           H   tau(   4) = (   0.1641242   1.3554465   0.7158360  )
         5           H   tau(   5) = (   0.3533916   0.9578531   0.8572207  )
         6           H   tau(   6) = (  -0.0680865   1.1625900   0.3163413  )
         7           H   tau(   7) = (  -0.2918069   0.5878892   0.0682506  )
         8           H   tau(   8) = (   0.1296712   0.3831522   0.6091299  )
         9           H   tau(   9) = (   0.2282751   0.8290787   0.3744045  )
        10           H   tau(  10) = (   0.3521251   0.8545674   0.4747038  )
        11           H   tau(  11) = (  -0.1666905   0.7166639   0.5510669  )
        12           H   tau(  12) = (  -0.2905403   0.6911750   0.4507674  )
        13           H   tau(  13) = (   0.2249854   0.5592301   0.1585317  )
        14           H   tau(  14) = (  -0.1634006   0.9865121   0.7669397  )

     number of k points=     8  Methfessel-Paxton smearing, width (Ry)=  0.0200
                       cart. coord. in units 2pi/alat
        k(    1) = (   0.0000000   0.0000000   0.0000000), wk =   0.2500000
        k(    2) = (   0.0035887   0.0753110  -0.6662902), wk =   0.2500000
        k(    3) = (   0.3366549  -0.4898176   0.2554364), wk =   0.2500000
        k(    4) = (   0.3402436  -0.4145066  -0.4108538), wk =   0.2500000
        k(    5) = (  -0.2995719  -0.4712444   0.2667522), wk =   0.2500000
        k(    6) = (  -0.2959832  -0.3959334  -0.3995380), wk =   0.2500000
        k(    7) = (   0.0370830  -0.9610620   0.5221886), wk =   0.2500000
        k(    8) = (   0.0406717  -0.8857510  -0.1441016), wk =   0.2500000

     Dense  grid:   122495 G-vectors     FFT dimensions: (  72,  72,  72)

     Smooth grid:    43293 G-vectors     FFT dimensions: (  54,  48,  45)

     Estimated max dynamical RAM per process >     268.13 MB

     Estimated total dynamical RAM >     536.25 MB

     Initial potential from superposition of free atoms

     starting charge   34.99533, renormalised to   35.00000

     negative rho (up, down):  6.032E-02 0.000E+00
     Starting wfcs are   35 randomized atomic wfcs
     Checking if some PAW data can be deallocated... 

     total cpu time spent up to now is        9.2 secs

     Self-consistent Calculation

     iteration #  1     ecut=    50.00 Ry     beta= 0.70
     Davidson diagonalization with overlap
     ethr =  1.00E-02,  avg # of iterations =  2.0

     negative rho (up, down):  5.797E-02 0.000E+00

     total cpu time spent up to now is       13.6 secs

     total energy              =    -206.85775518 Ry
     estimated scf accuracy    <       0.77506084 Ry

     iteration #  2     ecut=    50.00 Ry     beta= 0.70
     Davidson diagonalization with overlap
     ethr =  2.21E-03,  avg # of iterations =  4.5

     negative rho (up, down):  5.844E-02 0.000E+00

     total cpu time spent up to now is       18.3 secs

     total energy              =    -206.64004289 Ry
     estimated scf accuracy    <       2.71382548 Ry

     iteration #  3     ecut=    50.00 Ry     beta= 0.70
     Davidson diagonalization with overlap
     ethr =  2.21E-03,  avg # of iterations =  4.6

     negative rho (up, down):  5.853E-02 0.000E+00

     total cpu time spent up to now is       23.1 secs

     total energy              =    -207.05269434 Ry
     estimated scf accuracy    <       0.50637596 Ry

     iteration #  4     ecut=    50.00 Ry     beta= 0.70
     Davidson diagonalization with overlap
     ethr =  1.45E-03,  avg # of iterations =  3.4

     negative rho (up, down):  5.916E-02 0.000E+00

     total cpu time spent up to now is       27.3 secs

     total energy              =    -207.12557896 Ry
     estimated scf accuracy    <       0.01884472 Ry

     iteration #  5     ecut=    50.00 Ry     beta= 0.70
     Davidson diagonalization with overlap
     ethr =  5.38E-05,  avg # of iterations =  5.9

     negative rho (up, down):  5.935E-02 0.000E+00

     total cpu time spent up to now is       32.3 secs

     total energy              =    -207.13349407 Ry
     estimated scf accuracy    <       0.00670637 Ry

     iteration #  6     ecut=    50.00 Ry     beta= 0.70
     Davidson diagonalization with overlap
     ethr =  1.92E-05,  avg # of iterations =  3.4

     negative rho (up, down):  5.926E-02 0.000E+00

     total cpu time spent up to now is       36.5 secs

     total energy              =    -207.13408346 Ry
     estimated scf accuracy    <       0.00071712 Ry

     iteration #  7     ecut=    50.00 Ry     beta= 0.70
     Davidson diagonalization with overlap
     ethr =  2.05E-06,  avg # of iterations =  5.6

     negative rho (up, down):  5.927E-02 0.000E+00

     total cpu time spent up to now is       41.7 secs

     total energy              =    -207.13438932 Ry
     estimated scf accuracy    <       0.00020987 Ry

     iteration #  8     ecut=    50.00 Ry     beta= 0.70
     Davidson diagonalization with overlap
     ethr =  6.00E-07,  avg # of iterations =  2.9

     negative rho (up, down):  5.927E-02 0.000E+00

     total cpu time spent up to now is       45.8 secs

     total energy              =    -207.13436683 Ry
     estimated scf accuracy    <       0.00007642 Ry

     iteration #  9     ecut=    50.00 Ry     beta= 0.70
     Davidson diagonalization with overlap
     ethr =  2.18E-07,  avg # of iterations =  4.9

     negative rho (up, down):  5.925E-02 0.000E+00

     total cpu time spent up to now is       50.7 secs

     total energy              =    -207.13438922 Ry
     estimated scf accuracy    <       0.00000546 Ry

     iteration # 10     ecut=    50.00 Ry     beta= 0.70
     Davidson diagonalization with overlap
     ethr =  1.56E-08,  avg # of iterations =  4.5

     negative rho (up, down):  5.924E-02 0.000E+00

     total cpu time spent up to now is       55.4 secs

     total energy              =    -207.13439071 Ry
     estimated scf accuracy    <       0.00000137 Ry

     iteration # 11     ecut=    50.00 Ry     beta= 0.70
     Davidson diagonalization with overlap
     ethr =  3.92E-09,  avg # of iterations =  2.9

     negative rho (up, down):  5.924E-02 0.000E+00

     total cpu time spent up to now is       59.4 secs

     End of self-consistent calculation

          k = 0.0000 0.0000 0.0000 (  5429 PWs)   bands (ev):

   -45.4833 -44.5622 -24.5466 -24.2382 -24.1430 -22.7493 -22.7364 -22.6945
    -6.5687  -5.1869  -4.4604  -4.0130  -3.8946  -2.9736   1.6613   2.4671
     2.6850   5.0177   5.1492   5.3908   5.5403   5.6374

          k = 0.0036 0.0753-0.6663 (  5402 PWs)   bands (ev):

   -45.4769 -44.5704 -24.3447 -24.2240 -24.1352 -22.9747 -22.7497 -22.7373
    -5.4912  -5.0305  -4.8894  -4.2127  -4.0376  -4.0233   2.8259   3.3058
     3.3336   4.0731   4.2825   5.0345   6.1051   6.1646

          k = 0.3367-0.4898 0.2554 (  5430 PWs)   bands (ev):

   -45.4769 -44.5704 -24.3447 -24.2234 -24.1357 -22.9744 -22.7487 -22.7381
    -5.5193  -5.1816  -4.6429  -4.5741  -4.2028  -3.4078   2.2362   3.0244
     3.4351   4.2812   4.4455   5.0493   6.0501   6.5968

          k = 0.3402-0.4145-0.4109 (  5420 PWs)   bands (ev):

   -45.4833 -44.5622 -24.5466 -24.2389 -24.1442 -22.7511 -22.7372 -22.6952
    -5.8944  -5.0125  -4.4639  -4.4470  -4.0996  -3.8749   2.1920   3.0635
     3.3786   4.3278   5.3223   5.3820   5.6407   5.7367

          k =-0.2996-0.4712 0.2668 (  5412 PWs)   bands (ev):

   -45.4769 -44.5704 -24.3449 -24.2234 -24.1351 -22.9746 -22.7491 -22.7366
    -5.6384  -5.1832  -4.8878  -4.3163  -3.9343  -3.5258   2.3715   2.8478
     3.4992   4.1618   4.2113   4.9579   5.7546   6.7371

          k =-0.2960-0.3959-0.3995 (  5402 PWs)   bands (ev):

   -45.4833 -44.5622 -24.5467 -24.2392 -24.1433 -22.7513 -22.7368 -22.6947
    -5.8810  -4.9761  -4.7383  -4.5219  -4.1495  -3.4785   2.1443   3.0082
     3.1420   4.2775   5.2650   5.4816   5.7434   6.0187

          k = 0.0371-0.9611 0.5222 (  5400 PWs)   bands (ev):

   -45.4833 -44.5622 -24.5468 -24.2386 -24.1439 -22.7493 -22.7379 -22.6952
    -5.9262  -4.9086  -4.8672  -4.3223  -4.2574  -3.3108   1.5218   2.7749
     3.6273   4.1985   4.9431   5.4409   5.5488   6.9858

          k = 0.0407-0.8858-0.1441 (  5398 PWs)   bands (ev):

   -45.4769 -44.5703 -24.3447 -24.2240 -24.1358 -22.9745 -22.7501 -22.7387
    -5.1230  -4.9595  -4.6834  -4.5835  -4.4331  -4.0309   3.1418   3.6644
     4.0177   4.2212   4.2704   4.9281   5.6454   6.0934

     the Fermi energy is     4.1985 ev

!    total energy              =    -207.13439085 Ry
     estimated scf accuracy    <       0.00000001 Ry
     smearing contrib. (-TS)   =      -0.00519463 Ry
     internal energy E=F+TS    =    -207.12919622 Ry

     The total energy is F=E-TS. E is the sum of the following terms:
     one-electron contribution =    -140.28382224 Ry
     hartree contribution      =      73.64099983 Ry
     xc contribution           =     -39.63575806 Ry
     ewald contribution        =    -100.84894026 Ry
     one-center paw contrib.   =      -0.00167549 Ry

     convergence has been achieved in  11 iterations

     negative rho (up, down):  5.924E-02 0.000E+00

     Forces acting on atoms (cartesian axes, Ry/au):

     atom    1 type  3   force =     0.00000000    0.00000000    0.00000000
     atom    2 type  2   force =     0.00000000    0.00000000    0.00000000
     atom    3 type  1   force =     0.01263235    0.02906996    0.02187962
     atom    4 type  1   force =    -0.01263235   -0.02906996   -0.02187962
     atom    5 type  1   force =     0.01889129   -0.02443671   -0.00222754
     atom    6 type  1   force =    -0.00462308   -0.02031947   -0.03238207
     atom    7 type  1   force =    -0.01889129    0.02443671    0.00222754
     atom    8 type  1   force =     0.00462308    0.02031947    0.03238207
     atom    9 type  1   force =    -0.01436882   -0.00919558    0.02291530
     atom   10 type  1   force =     0.00684647    0.01258075   -0.02590523
     atom   11 type  1   force =     0.01436882    0.00919558   -0.02291530
     atom   12 type  1   force =    -0.00684647   -0.01258075    0.02590523
     atom   13 type  1   force =    -0.02456193    0.02046306   -0.01020632
     atom   14 type  1   force =     0.02456193   -0.02046306    0.01020632

     Total force =     0.116136     Total SCF correction =     0.000042


     Computing stress (Cartesian axis) and pressure


     negative rho (up, down):  5.924E-02 0.000E+00
          total   stress  (Ry/bohr**3)                   (kbar)     P=       15.31
   0.00018077   0.00003628  -0.00008883           26.59        5.34      -13.07
   0.00003628   0.00013560   0.00015092            5.34       19.95       22.20
  -0.00008883   0.00015092  -0.00000413          -13.07       22.20       -0.61


     BFGS Geometry Optimization
     Energy error            =      0.0E+00
     Gradient error          =      3.2E-02
     Cell gradient error     =      1.8E-04


     number of scf cycles    =   1
     number of bfgs steps    =   0

     enthalpy new            =    -207.1343908484 Ry

     new trust radius        =       0.0385143719 bohr
     new conv_thr            =       0.0000010000 Ry

     new unit-cell volume =    913.97672 a.u.^3 (   135.43738 Ang^3 )
     density =      0.17165 g/cm^3

CELL_PARAMETERS (angstrom)
   4.768434696   3.497215891   0.421397249
  -4.558868648   3.076372288   0.344048082
   0.151495697   2.596219108   4.726722848

ATOMIC_POSITIONS (angstrom)
Zr           -2.2794328172        1.5381861452        0.1720240378
Sc            2.4599656985        3.0467190070        2.5740605528
H            -0.6026152928        1.1459183896        1.2536598822
H             0.9636760324        8.0238888965        4.2385082988
H             2.0979225511        5.6773018715        5.0714598502
H            -0.4037947043        6.8769133083        1.8754271638
H            -1.7368608079        3.4925044121        0.4207083249
H             0.7648564475        2.2928929753        3.6167410113
H             1.3444876293        4.9118289607        2.2358809716
H             2.0885188603        5.0770607233        2.8005933333
H            -0.9834268910        4.2579793325        3.2562882131
H            -1.7274571161        4.0927465637        2.6915748455
H             1.3210139534        3.3255147315        0.9392126647
H            -0.9599522125        5.8442915559        4.5529565103



     Writing output data file ./tmp/ZrScH12.save/
     NEW-OLD atomic charge density approx. for the potential

     negative rho (up, down):  5.970E-02 0.000E+00
     extrapolated charge   35.27086, renormalised to   35.00000

     total cpu time spent up to now is       88.9 secs

     Self-consistent Calculation

     iteration #  1     ecut=    50.00 Ry     beta= 0.70
     Davidson diagonalization with overlap
     c_bands:  1 eigenvalues not converged
     c_bands:  1 eigenvalues not converged
     ethr =  1.00E-06,  avg # of iterations = 13.6

     negative rho (up, down):  5.942E-02 0.000E+00

     total cpu time spent up to now is       97.3 secs

     total energy              =    -207.11200817 Ry
     estimated scf accuracy    <       0.03295804 Ry

     iteration #  2     ecut=    50.00 Ry     beta= 0.70
     Davidson diagonalization with overlap
     ethr =  9.42E-05,  avg # of iterations =  6.5

     negative rho (up, down):  5.925E-02 0.000E+00

     total cpu time spent up to now is      103.3 secs

     total energy              =    -207.13079940 Ry
     estimated scf accuracy    <       0.23327657 Ry

     iteration #  3     ecut=    50.00 Ry     beta= 0.70
     Davidson diagonalization with overlap
     ethr =  9.42E-05,  avg # of iterations =  4.1

     negative rho (up, down):  5.930E-02 0.000E+00

     total cpu time spent up to now is      108.0 secs

     total energy              =    -207.14567407 Ry
     estimated scf accuracy    <       0.08333720 Ry

     iteration #  4     ecut=    50.00 Ry     beta= 0.70
     Davidson diagonalization with overlap
     ethr =  9.42E-05,  avg # of iterations =  3.2

     negative rho (up, down):  5.925E-02 0.000E+00

     total cpu time spent up to now is      111.8 secs

     total energy              =    -207.14700138 Ry
     estimated scf accuracy    <       0.01489089 Ry

     iteration #  5     ecut=    50.00 Ry     beta= 0.70
     Davidson diagonalization with overlap
     ethr =  4.25E-05,  avg # of iterations =  3.4

     negative rho (up, down):  5.920E-02 0.000E+00

     total cpu time spent up to now is      116.2 secs

     total energy              =    -207.14725859 Ry
     estimated scf accuracy    <       0.00394512 Ry

     iteration #  6     ecut=    50.00 Ry     beta= 0.70
     Davidson diagonalization with overlap
     ethr =  1.13E-05,  avg # of iterations =  4.4

     negative rho (up, down):  5.921E-02 0.000E+00

     total cpu time spent up to now is      120.9 secs

     total energy              =    -207.14820064 Ry
     estimated scf accuracy    <       0.00040420 Ry

     iteration #  7     ecut=    50.00 Ry     beta= 0.70
     Davidson diagonalization with overlap
     ethr =  1.15E-06,  avg # of iterations =  6.2

     negative rho (up, down):  5.927E-02 0.000E+00

     total cpu time spent up to now is      125.6 secs

     total energy              =    -207.14822962 Ry
     estimated scf accuracy    <       0.00008010 Ry

     iteration #  8     ecut=    50.00 Ry     beta= 0.70
     Davidson diagonalization with overlap
     ethr =  2.29E-07,  avg # of iterations =  4.6

     negative rho (up, down):  5.926E-02 0.000E+00

     total cpu time spent up to now is      130.2 secs

     total energy              =    -207.14824170 Ry
     estimated scf accuracy    <       0.00004868 Ry

     iteration #  9     ecut=    50.00 Ry     beta= 0.70
     Davidson diagonalization with overlap
     ethr =  1.39E-07,  avg # of iterations =  3.0

     negative rho (up, down):  5.926E-02 0.000E+00

     total cpu time spent up to now is      134.5 secs

     total energy              =    -207.14824486 Ry
     estimated scf accuracy    <       0.00000734 Ry

     iteration # 10     ecut=    50.00 Ry     beta= 0.70
     Davidson diagonalization with overlap
     ethr =  2.10E-08,  avg # of iterations =  5.1

     negative rho (up, down):  5.927E-02 0.000E+00

     total cpu time spent up to now is      139.1 secs

     End of self-consistent calculation

          k = 0.0000 0.0000 0.0000 (  5429 PWs)   bands (ev):

   -45.5456 -44.6573 -24.6246 -24.2939 -24.1898 -22.8374 -22.8186 -22.7746
    -6.5094  -5.0275  -4.4775  -3.9006  -3.7535  -3.0313   1.5828   2.3788
     2.5632   4.9738   5.1121   5.3643   5.4327   5.6005

          k = 0.0020 0.0776-0.6666 (  5402 PWs)   bands (ev):

   -45.5386 -44.6660 -24.4146 -24.2813 -24.1834 -23.0591 -22.8310 -22.8271
    -5.3846  -4.9577  -4.7437  -4.1092  -4.0961  -4.0025   2.7025   3.2146
     3.2540   3.9840   4.2169   4.9903   6.0454   6.1023

          k = 0.3362-0.4894 0.2581 (  5430 PWs)   bands (ev):

   -45.5386 -44.6660 -24.4146 -24.2807 -24.1838 -23.0589 -22.8309 -22.8270
    -5.4828  -5.0429  -4.4930  -4.4650  -4.1986  -3.4610   2.1482   2.9543
     3.3564   4.1639   4.3614   5.0049   5.9886   6.3501

          k = 0.3382-0.4119-0.4086 (  5420 PWs)   bands (ev):

   -45.5455 -44.6572 -24.6247 -24.2945 -24.1909 -22.8392 -22.8193 -22.7751
    -5.8029  -4.8461  -4.5159  -4.3345  -4.0309  -3.8731   2.0831   2.9819
     3.2940   4.3135   5.2808   5.3041   5.5977   5.5983

          k =-0.2972-0.4704 0.2679 (  5412 PWs)   bands (ev):

   -45.5386 -44.6660 -24.4148 -24.2807 -24.1833 -23.0591 -22.8297 -22.8272
    -5.5330  -5.1519  -4.7797  -4.1482  -3.9484  -3.5320   2.3210   2.7697
     3.3514   4.0800   4.1553   4.9047   5.6774   6.5640

          k =-0.2952-0.3928-0.3988 (  5402 PWs)   bands (ev):

   -45.5455 -44.6572 -24.6247 -24.2948 -24.1901 -22.8387 -22.8195 -22.7747
    -5.8125  -4.8234  -4.6372  -4.5236  -4.0140  -3.5497   2.0673   2.8804
     3.0504   4.2594   5.2557   5.3813   5.6985   5.8512

          k = 0.0389-0.9598 0.5260 (  5400 PWs)   bands (ev):

   -45.5455 -44.6572 -24.6249 -24.2941 -24.1906 -22.8378 -22.8197 -22.7751
    -5.8788  -4.7796  -4.6758  -4.3344  -4.1802  -3.3657   1.4560   2.6773
     3.5171   4.1706   4.8797   5.4095   5.5162   6.2856

          k = 0.0410-0.8823-0.1407 (  5398 PWs)   bands (ev):

   -45.5386 -44.6660 -24.4146 -24.2813 -24.1840 -23.0590 -22.8318 -22.8280
    -4.9938  -4.8273  -4.5529  -4.4936  -4.4579  -4.1033   3.0030   3.5679
     3.9404   4.1622   4.1799   4.8827   5.5768   6.0349

     the Fermi energy is     4.1341 ev

!    total energy              =    -207.14824684 Ry
     estimated scf accuracy    <       0.00000014 Ry
     smearing contrib. (-TS)   =      -0.00483160 Ry
     internal energy E=F+TS    =    -207.14341523 Ry

     The total energy is F=E-TS. E is the sum of the following terms:
     one-electron contribution =    -140.86084446 Ry
     hartree contribution      =      73.85182767 Ry
     xc contribution           =     -39.57641707 Ry
     ewald contribution        =    -100.55630238 Ry
     one-center paw contrib.   =      -0.00167899 Ry

     convergence has been achieved in  10 iterations

     negative rho (up, down):  5.927E-02 0.000E+00

     Forces acting on atoms (cartesian axes, Ry/au):

     atom    1 type  3   force =     0.00000000    0.00000000    0.00000000
     atom    2 type  2   force =     0.00000000    0.00000000    0.00000000
     atom    3 type  1   force =     0.00925107    0.00879726    0.01919671
     atom    4 type  1   force =    -0.00925107   -0.00879726   -0.01919671
     atom    5 type  1   force =     0.01314715   -0.01786673    0.00586947
     atom    6 type  1   force =    -0.00788725   -0.00050636   -0.03008216
     atom    7 type  1   force =    -0.01314715    0.01786673   -0.00586947
     atom    8 type  1   force =     0.00788725    0.00050636    0.03008216
     atom    9 type  1   force =    -0.01033141   -0.00935365    0.02012418
     atom   10 type  1   force =     0.00584962    0.01128986   -0.02606084
     atom   11 type  1   force =     0.01033141    0.00935365   -0.02012418
     atom   12 type  1   force =    -0.00584962   -0.01128986    0.02606084
     atom   13 type  1   force =    -0.01533538    0.01855738   -0.01536552
     atom   14 type  1   force =     0.01533538   -0.01855738    0.01536552

     Total force =     0.092532     Total SCF correction =     0.000177


     Computing stress (Cartesian axis) and pressure


     negative rho (up, down):  5.927E-02 0.000E+00
          total   stress  (Ry/bohr**3)                   (kbar)     P=        2.76
   0.00009952   0.00002524  -0.00007042           14.64        3.71      -10.36
   0.00002524   0.00001372   0.00014604            3.71        2.02       21.48
  -0.00007042   0.00014604  -0.00005688          -10.36       21.48       -8.37

     Energy error            =      1.4E-02
     Gradient error          =      3.0E-02
     Cell gradient error     =      1.5E-04


     number of scf cycles    =   2
     number of bfgs steps    =   1

     enthalpy old            =    -207.1343908484 Ry
     enthalpy new            =    -207.1482468367 Ry

     CASE: enthalpy_new < enthalpy_old

     new trust radius        =       0.0425879085 bohr
     new conv_thr            =       0.0000003008 Ry

     new unit-cell volume =    917.62504 a.u.^3 (   135.97800 Ang^3 )
     density =      0.17097 g/cm^3

CELL_PARAMETERS (angstrom)
   4.789785327   3.509062324   0.425972506
  -4.575080008   3.078332670   0.370098060
   0.142700814   2.623516251   4.732112039

ATOMIC_POSITIONS (angstrom)
Zr           -2.2875384912        1.5391663377        0.1850490227
Sc            2.4662435755        3.0662908001        2.5790427824
H            -0.5999313119        1.1634567598        1.2729945940
H             0.9573364369        8.0474544833        4.2551880155
H             2.1093651381        5.6989201454        5.0889724565
H            -0.4084794162        6.8917090304        1.8858796403
H            -1.7519590064        3.5119900947        0.4392101395
H             0.7658855479        2.3192012096        3.6423029558
H             1.3406846099        4.9250139315        2.2679553686
H             2.0991516266        5.1084784898        2.7979344520
H            -0.9832794877        4.2858983252        3.2602282480
H            -1.7417454930        4.1024327551        2.7302481527
H             1.3145338935        3.3497380677        0.9412400172
H            -0.9571277665        5.8611721810        4.5869435773



     Writing output data file ./tmp/ZrScH12.save/
     NEW-OLD atomic charge density approx. for the potential

     negative rho (up, down):  5.949E-02 0.000E+00
     extrapolated charge   35.13914, renormalised to   35.00000

     total cpu time spent up to now is      168.6 secs

     Self-consistent Calculation

     iteration #  1     ecut=    50.00 Ry     beta= 0.70
     Davidson diagonalization with overlap
     ethr =  1.00E-06,  avg # of iterations =  9.5

     negative rho (up, down):  5.938E-02 0.000E+00

     total cpu time spent up to now is      176.4 secs

     total energy              =    -207.15071275 Ry
     estimated scf accuracy    <       0.00988710 Ry

     iteration #  2     ecut=    50.00 Ry     beta= 0.70
     Davidson diagonalization with overlap
     ethr =  2.82E-05,  avg # of iterations =  6.0

     negative rho (up, down):  5.927E-02 0.000E+00

     total cpu time spent up to now is      182.2 secs

     total energy              =    -207.15407546 Ry
     estimated scf accuracy    <       0.08206398 Ry

     iteration #  3     ecut=    50.00 Ry     beta= 0.70
     Davidson diagonalization with overlap
     ethr =  2.82E-05,  avg # of iterations =  4.1

     negative rho (up, down):  5.931E-02 0.000E+00

     total cpu time spent up to now is      187.0 secs

     total energy              =    -207.15968189 Ry
     estimated scf accuracy    <       0.02961991 Ry

     iteration #  4     ecut=    50.00 Ry     beta= 0.70
     Davidson diagonalization with overlap
     ethr =  2.82E-05,  avg # of iterations =  3.2

     negative rho (up, down):  5.928E-02 0.000E+00

     total cpu time spent up to now is      191.1 secs

     total energy              =    -207.16011496 Ry
     estimated scf accuracy    <       0.00405856 Ry

     iteration #  5     ecut=    50.00 Ry     beta= 0.70
     Davidson diagonalization with overlap
     ethr =  1.16E-05,  avg # of iterations =  4.8

     negative rho (up, down):  5.927E-02 0.000E+00

     total cpu time spent up to now is      195.8 secs

     total energy              =    -207.16094577 Ry
     estimated scf accuracy    <       0.00085878 Ry

     iteration #  6     ecut=    50.00 Ry     beta= 0.70
     Davidson diagonalization with overlap
     ethr =  2.45E-06,  avg # of iterations =  2.8

     negative rho (up, down):  5.927E-02 0.000E+00

     total cpu time spent up to now is      200.1 secs

     total energy              =    -207.16099149 Ry
     estimated scf accuracy    <       0.00015609 Ry

     iteration #  7     ecut=    50.00 Ry     beta= 0.70
     Davidson diagonalization with overlap
     ethr =  4.46E-07,  avg # of iterations =  2.5

     negative rho (up, down):  5.928E-02 0.000E+00

     total cpu time spent up to now is      204.3 secs

     total energy              =    -207.16100302 Ry
     estimated scf accuracy    <       0.00001797 Ry

     iteration #  8     ecut=    50.00 Ry     beta= 0.70
     Davidson diagonalization with overlap
     ethr =  5.13E-08,  avg # of iterations =  5.1

     negative rho (up, down):  5.929E-02 0.000E+00

     total cpu time spent up to now is      208.8 secs

     total energy              =    -207.16100917 Ry
     estimated scf accuracy    <       0.00000451 Ry

     iteration #  9     ecut=    50.00 Ry     beta= 0.70
     Davidson diagonalization with overlap
     ethr =  1.29E-08,  avg # of iterations =  1.8

     negative rho (up, down):  5.929E-02 0.000E+00

     total cpu time spent up to now is      212.9 secs

     total energy              =    -207.16100918 Ry
     estimated scf accuracy    <       0.00000123 Ry

     iteration # 10     ecut=    50.00 Ry     beta= 0.70
     Davidson diagonalization with overlap
     ethr =  3.50E-09,  avg # of iterations =  2.5

     negative rho (up, down):  5.930E-02 0.000E+00

     total cpu time spent up to now is      217.0 secs

     End of self-consistent calculation

          k = 0.0000 0.0000 0.0000 (  5429 PWs)   bands (ev):

   -45.5697 -44.7218 -24.6819 -24.3102 -24.1977 -22.8985 -22.8708 -22.8207
    -6.4656  -4.9046  -4.4933  -3.8436  -3.6115  -3.0585   1.5226   2.2893
     2.4753   4.9865   5.1255   5.3801   5.4141   5.6002

          k = 0.0003 0.0807-0.6680 (  5402 PWs)   bands (ev):

   -45.5617 -44.7318 -24.4544 -24.2989 -24.1915 -23.1218 -22.8932 -22.8802
    -5.2980  -4.9226  -4.6400  -4.1334  -4.0128  -3.9645   2.6050   3.1537
     3.1968   3.9265   4.1877   4.9833   6.0192   6.0825

          k = 0.3359-0.4903 0.2617 (  5430 PWs)   bands (ev):

   -45.5617 -44.7318 -24.4545 -24.2984 -24.1919 -23.1216 -22.8939 -22.8794
    -5.4529  -4.9360  -4.4231  -4.3564  -4.1660  -3.4947   2.0822   2.9180
     3.3144   4.0773   4.3041   4.9963   5.9676   6.3577

          k = 0.3362-0.4096-0.4063 (  5420 PWs)   bands (ev):

   -45.5697 -44.7218 -24.6820 -24.3107 -24.1988 -22.9002 -22.8717 -22.8211
    -5.7344  -4.7153  -4.5574  -4.3175  -3.9457  -3.8140   1.9892   2.9148
     3.2217   4.3649   5.1999   5.3299   5.5161   5.5947

          k =-0.2949-0.4707 0.2699 (  5412 PWs)   bands (ev):

   -45.5617 -44.7318 -24.4545 -24.2984 -24.1914 -23.1218 -22.8925 -22.8798
    -5.4655  -5.1177  -4.6864  -4.0372  -3.9513  -3.5153   2.2977   2.7245
     3.2275   4.0378   4.1329   4.8862   5.6375   6.5564

          k =-0.2946-0.3900-0.3982 (  5402 PWs)   bands (ev):

   -45.5697 -44.7218 -24.6820 -24.3111 -24.1981 -22.8995 -22.8721 -22.8207
    -5.7709  -4.7004  -4.5620  -4.5171  -3.9040  -3.5927   2.0062   2.7689
     2.9797   4.2953   5.2897   5.3096   5.6909   5.7339

          k = 0.0410-0.9610 0.5316 (  5400 PWs)   bands (ev):

   -45.5697 -44.7218 -24.6822 -24.3105 -24.1986 -22.8993 -22.8716 -22.8212
    -5.8412  -4.6952  -4.5319  -4.3414  -4.1031  -3.3962   1.4099   2.6033
     3.4244   4.1941   4.8530   5.4165   5.5253   6.0874

          k = 0.0413-0.8803-0.1365 (  5398 PWs)   bands (ev):

   -45.5617 -44.7318 -24.4544 -24.2989 -24.1921 -23.1217 -22.8944 -22.8807
    -4.9180  -4.7093  -4.5270  -4.4764  -4.3326  -4.1457   2.8801   3.4814
     3.8858   4.1124   4.1460   4.8868   5.5512   6.0166

     the Fermi energy is     4.1036 ev

!    total energy              =    -207.16100923 Ry
     estimated scf accuracy    <       0.00000008 Ry
     smearing contrib. (-TS)   =      -0.00395255 Ry
     internal energy E=F+TS    =    -207.15705668 Ry

     The total energy is F=E-TS. E is the sum of the following terms:
     one-electron contribution =    -141.55656107 Ry
     hartree contribution      =      74.16056895 Ry
     xc contribution           =     -39.54364841 Ry
     ewald contribution        =    -100.21573548 Ry
     one-center paw contrib.   =      -0.00168068 Ry

     convergence has been achieved in  10 iterations

     negative rho (up, down):  5.930E-02 0.000E+00

     Forces acting on atoms (cartesian axes, Ry/au):

     atom    1 type  3   force =     0.00000000    0.00000000    0.00000000
     atom    2 type  2   force =     0.00000000    0.00000000    0.00000000
     atom    3 type  1   force =     0.00534074   -0.00238007    0.01755404
     atom    4 type  1   force =    -0.00534074    0.00238007   -0.01755404
     atom    5 type  1   force =     0.00950274   -0.01244214    0.01129683
     atom    6 type  1   force =    -0.01013106    0.00945139   -0.02827080
     atom    7 type  1   force =    -0.00950274    0.01244214   -0.01129683
     atom    8 type  1   force =     0.01013106   -0.00945139    0.02827080
     atom    9 type  1   force =    -0.00699384   -0.00952235    0.01663393
     atom   10 type  1   force =     0.00545192    0.01020278   -0.02450943
     atom   11 type  1   force =     0.00699384    0.00952235   -0.01663393
     atom   12 type  1   force =    -0.00545192   -0.01020278    0.02450943
     atom   13 type  1   force =    -0.00870881    0.01631828   -0.01797438
     atom   14 type  1   force =     0.00870881   -0.01631828    0.01797438

     Total force =     0.083932     Total SCF correction =     0.000124


     Computing stress (Cartesian axis) and pressure


     negative rho (up, down):  5.930E-02 0.000E+00
          total   stress  (Ry/bohr**3)                   (kbar)     P=       -5.23
   0.00003593   0.00001284  -0.00005268            5.29        1.89       -7.75
   0.00001284  -0.00005961   0.00014091            1.89       -8.77       20.73
  -0.00005268   0.00014091  -0.00008308           -7.75       20.73      -12.22

     Energy error            =      1.3E-02
     Gradient error          =      2.8E-02
     Cell gradient error     =      1.4E-04


     number of scf cycles    =   3
     number of bfgs steps    =   2

     enthalpy old            =    -207.1482468367 Ry
     enthalpy new            =    -207.1610092334 Ry

     CASE: enthalpy_new < enthalpy_old

     new trust radius        =       0.0638627581 bohr
     new conv_thr            =       0.0000002827 Ry

     new unit-cell volume =    919.19088 a.u.^3 (   136.21004 Ang^3 )
     density =      0.17067 g/cm^3

CELL_PARAMETERS (angstrom)
   4.813721212   3.519105397   0.434818326
  -4.593329389   3.077001158   0.408014922
   0.130106942   2.660695789   4.737089470

ATOMIC_POSITIONS (angstrom)
Zr           -2.2966631751        1.5385005837        0.2040074486
Sc            2.4719145839        3.0899021108        2.5859544161
H            -0.5969956649        1.1830592034        1.3009724131
H             0.9474934164        8.0737431382        4.2789503130
H             2.1220358736        5.7239196480        5.1160324017
H            -0.4177982662        6.9061987454        1.9013271711
H            -1.7715371120        3.5328816912        0.4638902999
H             0.7682970278        2.3506025938        3.6785955305
H             1.3334575631        4.9355754332        2.3143154068
H             2.1117732420        5.1457778976        2.7937018170
H            -0.9829598168        4.3212279300        3.2656083311
H            -1.7612744774        4.1110244470        2.7862209009
H             1.3052232683        3.3789637701        0.9431337348
H            -0.9547245148        5.8778375855        4.6367899623



     Writing output data file ./tmp/ZrScH12.save/
     NEW-OLD atomic charge density approx. for the potential

     negative rho (up, down):  5.936E-02 0.000E+00
     extrapolated charge   35.05961, renormalised to   35.00000

     total cpu time spent up to now is      246.5 secs

     Self-consistent Calculation

     iteration #  1     ecut=    50.00 Ry     beta= 0.70
     Davidson diagonalization with overlap
     ethr =  1.00E-06,  avg # of iterations =  9.4

     negative rho (up, down):  5.943E-02 0.000E+00

     total cpu time spent up to now is      254.5 secs

     total energy              =    -207.17371200 Ry
     estimated scf accuracy    <       0.00371981 Ry

     iteration #  2     ecut=    50.00 Ry     beta= 0.70
     Davidson diagonalization with overlap
     ethr =  1.06E-05,  avg # of iterations =  6.0

     negative rho (up, down):  5.934E-02 0.000E+00

     total cpu time spent up to now is      260.3 secs

     total energy              =    -207.17196848 Ry
     estimated scf accuracy    <       0.04172294 Ry

     iteration #  3     ecut=    50.00 Ry     beta= 0.70
     Davidson diagonalization with overlap
     ethr =  1.06E-05,  avg # of iterations =  4.2

     negative rho (up, down):  5.937E-02 0.000E+00

     total cpu time spent up to now is      265.2 secs

     total energy              =    -207.17583146 Ry
     estimated scf accuracy    <       0.00791906 Ry

     iteration #  4     ecut=    50.00 Ry     beta= 0.70
     Davidson diagonalization with overlap
     ethr =  1.06E-05,  avg # of iterations =  3.4

     negative rho (up, down):  5.936E-02 0.000E+00

     total cpu time spent up to now is      269.4 secs

     total energy              =    -207.17628393 Ry
     estimated scf accuracy    <       0.00046127 Ry

     iteration #  5     ecut=    50.00 Ry     beta= 0.70
     Davidson diagonalization with overlap
     ethr =  1.32E-06,  avg # of iterations =  4.9

     negative rho (up, down):  5.937E-02 0.000E+00

     total cpu time spent up to now is      274.4 secs

     total energy              =    -207.17647459 Ry
     estimated scf accuracy    <       0.00015202 Ry

     iteration #  6     ecut=    50.00 Ry     beta= 0.70
     Davidson diagonalization with overlap
     ethr =  4.34E-07,  avg # of iterations =  1.5

     negative rho (up, down):  5.938E-02 0.000E+00

     total cpu time spent up to now is      278.3 secs

     total energy              =    -207.17647092 Ry
     estimated scf accuracy    <       0.00003051 Ry

     iteration #  7     ecut=    50.00 Ry     beta= 0.70
     Davidson diagonalization with overlap
     ethr =  8.72E-08,  avg # of iterations =  4.8

     negative rho (up, down):  5.938E-02 0.000E+00

     total cpu time spent up to now is      282.7 secs

     total energy              =    -207.17648121 Ry
     estimated scf accuracy    <       0.00001038 Ry

     iteration #  8     ecut=    50.00 Ry     beta= 0.70
     Davidson diagonalization with overlap
     ethr =  2.97E-08,  avg # of iterations =  1.6

     negative rho (up, down):  5.938E-02 0.000E+00

     total cpu time spent up to now is      286.7 secs

     total energy              =    -207.17648133 Ry
     estimated scf accuracy    <       0.00000200 Ry

     iteration #  9     ecut=    50.00 Ry     beta= 0.70
     Davidson diagonalization with overlap
     ethr =  5.70E-09,  avg # of iterations =  4.5

     negative rho (up, down):  5.939E-02 0.000E+00

     total cpu time spent up to now is      291.3 secs

     End of self-consistent calculation

          k = 0.0000 0.0000 0.0000 (  5429 PWs)   bands (ev):

   -45.5747 -44.7952 -24.7447 -24.3048 -24.1848 -22.9668 -22.9281 -22.8659
    -6.4131  -4.7596  -4.5014  -3.7801  -3.4325  -3.0399   1.4501   2.1526
     2.3806   5.0425   5.1730   5.4262   5.4545   5.6207

          k =-0.0021 0.0858-0.6707 (  5402 PWs)   bands (ev):

   -45.5641 -44.8081 -24.4809 -24.2943 -24.1774 -23.2065 -22.9627 -22.9393
    -5.1925  -4.8898  -4.5378  -4.1351  -3.9009  -3.8638   2.4825   3.0909
     3.1293   3.8697   4.1703   4.9994   6.0078   6.0870

          k = 0.3359-0.4925 0.2674 (  5430 PWs)   bands (ev):

   -45.5641 -44.8081 -24.4810 -24.2938 -24.1776 -23.2063 -22.9635 -22.9384
    -5.4137  -4.8055  -4.3300  -4.2751  -4.0627  -3.5040   2.0072   2.8932
     3.2684   3.9749   4.2452   5.0103   5.9687   6.3783

          k = 0.3338-0.4068-0.4033 (  5420 PWs)   bands (ev):

   -45.5747 -44.7951 -24.7448 -24.3054 -24.1859 -22.9683 -22.9290 -22.8662
    -5.6577  -4.5921  -4.5553  -4.3382  -3.8009  -3.6949   1.8665   2.8250
     3.1214   4.4823   5.1142   5.3898   5.4474   5.6153

          k =-0.2921-0.4723 0.2733 (  5412 PWs)   bands (ev):

   -45.5641 -44.8081 -24.4810 -24.2939 -24.1772 -23.2066 -22.9621 -22.9387
    -5.3902  -5.0654  -4.5716  -3.9317  -3.9291  -3.4407   2.2788   2.6872
     3.0655   4.0022   4.1232   4.8890   5.6146   6.5602

          k =-0.2942-0.3865-0.3974 (  5402 PWs)   bands (ev):

   -45.5747 -44.7952 -24.7448 -24.3057 -24.1851 -22.9675 -22.9295 -22.8659
    -5.7289  -4.5695  -4.4720  -4.4717  -3.7936  -3.5744   1.9286   2.6247
     2.8893   4.3810   5.2065   5.3588   5.6444   5.7026

          k = 0.0438-0.9648 0.5407 (  5400 PWs)   bands (ev):

   -45.5747 -44.7952 -24.7449 -24.3051 -24.1856 -22.9677 -22.9286 -22.8663
    -5.7958  -4.6018  -4.3629  -4.3347  -3.9936  -3.3961   1.3566   2.5125
     3.3016   4.2645   4.8460   5.4504   5.5603   5.8532

          k = 0.0417-0.8791-0.1300 (  5398 PWs)   bands (ev):

   -45.5641 -44.8080 -24.4809 -24.2943 -24.1779 -23.2064 -22.9639 -22.9396
    -4.8563  -4.5794  -4.5035  -4.4041  -4.2204  -4.0950   2.7253   3.3606
     3.8255   4.0359   4.1488   4.9258   5.5505   6.0216

     the Fermi energy is     4.0739 ev

!    total energy              =    -207.17648179 Ry
     estimated scf accuracy    <       0.00000001 Ry
     smearing contrib. (-TS)   =      -0.00260949 Ry
     internal energy E=F+TS    =    -207.17387230 Ry

     The total energy is F=E-TS. E is the sum of the following terms:
     one-electron contribution =    -142.55763403 Ry
     hartree contribution      =      74.63012463 Ry
     xc contribution           =     -39.51491632 Ry
     ewald contribution        =     -99.72976460 Ry
     one-center paw contrib.   =      -0.00168198 Ry

     convergence has been achieved in   9 iterations

     negative rho (up, down):  5.939E-02 0.000E+00

     Forces acting on atoms (cartesian axes, Ry/au):

     atom    1 type  3   force =     0.00000000    0.00000000    0.00000000
     atom    2 type  2   force =     0.00000000    0.00000000    0.00000000
     atom    3 type  1   force =    -0.00041148   -0.01278230    0.01488129
     atom    4 type  1   force =     0.00041148    0.01278230   -0.01488129
     atom    5 type  1   force =     0.00594034   -0.00604012    0.01591716
     atom    6 type  1   force =    -0.01140983    0.01721600   -0.02463446
     atom    7 type  1   force =    -0.00594034    0.00604012   -0.01591716
     atom    8 type  1   force =     0.01140983   -0.01721600    0.02463446
     atom    9 type  1   force =    -0.00294937   -0.00916658    0.01164044
     atom   10 type  1   force =     0.00488360    0.00851166   -0.02041860
     atom   11 type  1   force =     0.00294937    0.00916658   -0.01164044
     atom   12 type  1   force =    -0.00488360   -0.00851166    0.02041860
     atom   13 type  1   force =    -0.00232317    0.01228507   -0.01908853
     atom   14 type  1   force =     0.00232317   -0.01228507    0.01908853

     Total force =     0.077533     Total SCF correction =     0.000055


     Computing stress (Cartesian axis) and pressure


     negative rho (up, down):  5.939E-02 0.000E+00
          total   stress  (Ry/bohr**3)                   (kbar)     P=      -13.15
  -0.00004096  -0.00000485  -0.00002869           -6.03       -0.71       -4.22
  -0.00000485  -0.00013069   0.00012348           -0.71      -19.23       18.17
  -0.00002869   0.00012348  -0.00009644           -4.22       18.17      -14.19

     Energy error            =      1.5E-02
     Gradient error          =      2.5E-02
     Cell gradient error     =      1.3E-04


     number of scf cycles    =   4
     number of bfgs steps    =   3

     enthalpy old            =    -207.1610092334 Ry
     enthalpy new            =    -207.1764817888 Ry

     CASE: enthalpy_new < enthalpy_old

     new trust radius        =       0.0954611169 bohr
     new conv_thr            =       0.0000002463 Ry

     new unit-cell volume =    916.73138 a.u.^3 (   135.84557 Ang^3 )
     density =      0.17113 g/cm^3

CELL_PARAMETERS (angstrom)
   4.837499729   3.524092605   0.450424343
  -4.612131013   3.070602545   0.462305995
   0.112057485   2.710961345   4.742009063

ATOMIC_POSITIONS (angstrom)
Zr           -2.3060639798        1.5353012786        0.2311529783
Sc            2.4747791155        3.1175284965        2.5962172333
H            -0.5951453504        1.2051323963        1.3413960082
H             0.9325705341        8.1005240940        4.3133434055
H             2.1349098283        5.7517930532        5.1577641621
H            -0.4346996739        6.9164532704        1.9241851244
H            -1.7974836310        3.5538624375        0.4969752112
H             0.7721258712        2.3892022203        3.7305542489
H             1.3199487677        4.9401376213        2.3808018918
H             2.1255508608        5.1885551474        2.7886570191
H            -0.9825235926        4.3655199006        3.2739385400
H            -1.7881246595        4.1171013471        2.8660823818
H             1.2902583934        3.4126264850        0.9453327882
H            -0.9528322089        5.8930290335        4.7094075756



     Writing output data file ./tmp/ZrScH12.save/
     NEW-OLD atomic charge density approx. for the potential

     negative rho (up, down):  5.918E-02 0.000E+00
     extrapolated charge   34.90611, renormalised to   35.00000

     total cpu time spent up to now is      320.9 secs

     Self-consistent Calculation

     iteration #  1     ecut=    50.00 Ry     beta= 0.70
     Davidson diagonalization with overlap
     ethr =  1.00E-06,  avg # of iterations =  9.2

     negative rho (up, down):  5.956E-02 0.000E+00

     total cpu time spent up to now is      329.5 secs

     total energy              =    -207.18835619 Ry
     estimated scf accuracy    <       0.00515230 Ry

     iteration #  2     ecut=    50.00 Ry     beta= 0.70
     Davidson diagonalization with overlap
     ethr =  1.47E-05,  avg # of iterations =  7.2

     negative rho (up, down):  5.951E-02 0.000E+00

     total cpu time spent up to now is      335.3 secs

     total energy              =    -207.18896707 Ry
     estimated scf accuracy    <       0.03963551 Ry

     iteration #  3     ecut=    50.00 Ry     beta= 0.70
     Davidson diagonalization with overlap
     ethr =  1.47E-05,  avg # of iterations =  5.4

     negative rho (up, down):  5.954E-02 0.000E+00

     total cpu time spent up to now is      340.6 secs

     total energy              =    -207.19273151 Ry
     estimated scf accuracy    <       0.00502237 Ry

     iteration #  4     ecut=    50.00 Ry     beta= 0.70
     Davidson diagonalization with overlap
     ethr =  1.43E-05,  avg # of iterations =  1.8

     negative rho (up, down):  5.965E-02 0.000E+00

     total cpu time spent up to now is      344.6 secs

     total energy              =    -207.19226949 Ry
     estimated scf accuracy    <       0.00147928 Ry

     iteration #  5     ecut=    50.00 Ry     beta= 0.70
     Davidson diagonalization with overlap
     ethr =  4.23E-06,  avg # of iterations =  4.5

     negative rho (up, down):  5.964E-02 0.000E+00

     total cpu time spent up to now is      349.3 secs

     total energy              =    -207.19280341 Ry
     estimated scf accuracy    <       0.00042443 Ry

     iteration #  6     ecut=    50.00 Ry     beta= 0.70
     Davidson diagonalization with overlap
     ethr =  1.21E-06,  avg # of iterations =  1.8

     negative rho (up, down):  5.962E-02 0.000E+00

     total cpu time spent up to now is      353.3 secs

     total energy              =    -207.19276967 Ry
     estimated scf accuracy    <       0.00015310 Ry

     iteration #  7     ecut=    50.00 Ry     beta= 0.70
     Davidson diagonalization with overlap
     ethr =  4.37E-07,  avg # of iterations =  3.1

     negative rho (up, down):  5.961E-02 0.000E+00

     total cpu time spent up to now is      357.7 secs

     total energy              =    -207.19278767 Ry
     estimated scf accuracy    <       0.00001219 Ry

     iteration #  8     ecut=    50.00 Ry     beta= 0.70
     Davidson diagonalization with overlap
     ethr =  3.48E-08,  avg # of iterations =  4.9

     negative rho (up, down):  5.961E-02 0.000E+00

     total cpu time spent up to now is      362.5 secs

     total energy              =    -207.19279463 Ry
     estimated scf accuracy    <       0.00000443 Ry

     iteration #  9     ecut=    50.00 Ry     beta= 0.70
     Davidson diagonalization with overlap
     ethr =  1.27E-08,  avg # of iterations =  1.5

     negative rho (up, down):  5.961E-02 0.000E+00

     total cpu time spent up to now is      366.5 secs

     total energy              =    -207.19279397 Ry
     estimated scf accuracy    <       0.00000186 Ry

     iteration # 10     ecut=    50.00 Ry     beta= 0.70
     Davidson diagonalization with overlap
     ethr =  5.31E-09,  avg # of iterations =  4.5

     negative rho (up, down):  5.961E-02 0.000E+00

     total cpu time spent up to now is      370.7 secs

     total energy              =    -207.19279465 Ry
     estimated scf accuracy    <       0.00000032 Ry

     iteration # 11     ecut=    50.00 Ry     beta= 0.70
     Davidson diagonalization with overlap
     ethr =  9.19E-10,  avg # of iterations =  2.1

     negative rho (up, down):  5.961E-02 0.000E+00

     total cpu time spent up to now is      374.7 secs

     End of self-consistent calculation

          k = 0.0000 0.0000 0.0000 (  5429 PWs)   bands (ev):

   -45.5547 -44.8910 -24.8276 -24.2651 -24.1495 -23.0517 -23.0029 -22.9146
    -6.3377  -4.5798  -4.4739  -3.6886  -3.1934  -2.9135   1.3526   1.9410
     2.2620   5.1563   5.2515   5.5102   5.5742   5.6634

          k =-0.0053 0.0937-0.6754 (  5402 PWs)   bands (ev):

   -45.5375 -44.9113 -24.4882 -24.2529 -24.1387 -23.3400 -23.0519 -23.0173
    -5.0480  -4.8404  -4.4451  -4.0457  -3.7341  -3.6709   2.3142   3.0190
     3.0340   3.8106   4.1673   5.0440   6.0182   6.1191

          k = 0.3363-0.4969 0.2762 (  5430 PWs)   bands (ev):

   -45.5375 -44.9113 -24.4883 -24.2525 -24.1389 -23.3399 -23.0526 -23.0165
    -5.3469  -4.6301  -4.1953  -4.1849  -3.8659  -3.4531   1.9149   2.8818
     3.1902   3.8401   4.1881   5.0537   6.0002   6.3851

          k = 0.3310-0.4033-0.3992 (  5420 PWs)   bands (ev):

   -45.5547 -44.8910 -24.8277 -24.2656 -24.1507 -23.0532 -23.0037 -22.9148
    -5.5589  -4.5892  -4.3526  -4.3515  -3.5798  -3.4819   1.6939   2.6919
     2.9648   4.6871   5.0280   5.3936   5.4909   5.6666

          k =-0.2889-0.4760 0.2789 (  5412 PWs)   bands (ev):

   -45.5375 -44.9114 -24.4883 -24.2525 -24.1385 -23.3401 -23.0513 -23.0168
    -5.2898  -4.9721  -4.4173  -3.8572  -3.8121  -3.2548   2.2560   2.6574
     2.8352   3.9610   4.1269   4.9274   5.6194   6.5655

          k =-0.2943-0.3823-0.3965 (  5402 PWs)   bands (ev):

   -45.5547 -44.8910 -24.8277 -24.2659 -24.1499 -23.0523 -23.0042 -22.9146
    -5.6736  -4.4636  -4.3498  -4.3080  -3.7023  -3.3999   1.8146   2.4281
     2.7572   4.5325   5.0503   5.4634   5.5980   5.7367

          k = 0.0474-0.9729 0.5551 (  5400 PWs)   bands (ev):

   -45.5547 -44.8910 -24.8278 -24.2654 -24.1504 -23.0526 -23.0034 -22.9149
    -5.7269  -4.4794  -4.2965  -4.1430  -3.8266  -3.3196   1.2863   2.3863
     3.1197   4.4009   4.8624   5.5148   5.5654   5.6258

          k = 0.0420-0.8793-0.1203 (  5398 PWs)   bands (ev):

   -45.5375 -44.9113 -24.4883 -24.2529 -24.1392 -23.3399 -23.0530 -23.0176
    -4.8116  -4.4618  -4.3522  -4.3282  -4.0951  -3.8735   2.5227   3.1753
     3.7538   3.9407   4.1718   5.0093   5.5875   6.0541

     the Fermi energy is     4.0330 ev

!    total energy              =    -207.19279452 Ry
     estimated scf accuracy    <       0.00000018 Ry
     smearing contrib. (-TS)   =      -0.00138692 Ry
     internal energy E=F+TS    =    -207.19140760 Ry

     The total energy is F=E-TS. E is the sum of the following terms:
     one-electron contribution =    -143.95753895 Ry
     hartree contribution      =      75.31799776 Ry
     xc contribution           =     -39.48849344 Ry
     ewald contribution        =     -99.06169005 Ry
     one-center paw contrib.   =      -0.00168293 Ry

     convergence has been achieved in  11 iterations

     negative rho (up, down):  5.961E-02 0.000E+00

     Forces acting on atoms (cartesian axes, Ry/au):

     atom    1 type  3   force =     0.00000000    0.00000000    0.00000000
     atom    2 type  2   force =     0.00000000    0.00000000    0.00000000
     atom    3 type  1   force =    -0.00794660   -0.02297858    0.00953482
     atom    4 type  1   force =     0.00794660    0.02297858   -0.00953482
     atom    5 type  1   force =     0.00203546    0.00208083    0.01915158
     atom    6 type  1   force =    -0.01045409    0.02288855   -0.01683636
     atom    7 type  1   force =    -0.00203546   -0.00208083   -0.01915158
     atom    8 type  1   force =     0.01045409   -0.02288855    0.01683636
     atom    9 type  1   force =     0.00242509   -0.00718166    0.00488282
     atom   10 type  1   force =     0.00312650    0.00562116   -0.01286112
     atom   11 type  1   force =    -0.00242509    0.00718166   -0.00488282
     atom   12 type  1   force =    -0.00312650   -0.00562116    0.01286112
     atom   13 type  1   force =     0.00352425    0.00511158   -0.01761383
     atom   14 type  1   force =    -0.00352425   -0.00511158    0.01761383

     Total force =     0.072261     Total SCF correction =     0.000192


     Computing stress (Cartesian axis) and pressure


     negative rho (up, down):  5.961E-02 0.000E+00
          total   stress  (Ry/bohr**3)                   (kbar)     P=      -17.87
  -0.00011558  -0.00002988  -0.00000002          -17.00       -4.40       -0.00
  -0.00002988  -0.00016916   0.00007815           -4.40      -24.88       11.50
  -0.00000002   0.00007815  -0.00007964           -0.00       11.50      -11.72

     Energy error            =      1.6E-02
     Gradient error          =      2.3E-02
     Cell gradient error     =      1.7E-04


     number of scf cycles    =   5
     number of bfgs steps    =   4

     enthalpy old            =    -207.1764817888 Ry
     enthalpy new            =    -207.1927945157 Ry

     CASE: enthalpy_new < enthalpy_old

     new trust radius        =       0.1387367816 bohr
     new conv_thr            =       0.0000002298 Ry

     new unit-cell volume =    907.14429 a.u.^3 (   134.42491 Ang^3 )
     density =      0.17294 g/cm^3

CELL_PARAMETERS (angstrom)
   4.851655542   3.516372234   0.475556305
  -4.627455434   3.058643348   0.536830811
   0.085676451   2.776078470   4.748340454

ATOMIC_POSITIONS (angstrom)
Zr           -2.3137261857        1.5293216812        0.2684153776
Sc            2.4686665045        3.1462268748        2.6119489275
H            -0.5993104692        1.2250280868        1.3979822711
H             0.9091860075        8.1260659609        4.3627453180
H             2.1420800170        5.7806382585        5.2236760486
H            -0.4663382839        6.9186041089        1.9566793288
H            -1.8322034623        3.5704547949        0.5370514778
H             0.7762148387        2.4324889445        3.8040481976
H             1.2948999843        4.9322931432        2.4731108671
H             2.1346993524        5.2325078485        2.7838491507
H            -0.9850244602        4.4188019476        3.2876177491
H            -1.8248227932        4.1185862038        2.9768784197
H             1.2641723873        3.4459002022        0.9465344668
H            -0.9542958512        5.9051928954        4.8141940428



     Writing output data file ./tmp/ZrScH12.save/
     NEW-OLD atomic charge density approx. for the potential

     negative rho (up, down):  5.889E-02 0.000E+00
     extrapolated charge   34.63015, renormalised to   35.00000

     total cpu time spent up to now is      404.2 secs

     Self-consistent Calculation

     iteration #  1     ecut=    50.00 Ry     beta= 0.70
     Davidson diagonalization with overlap
     ethr =  1.00E-06,  avg # of iterations = 13.1

     negative rho (up, down):  5.971E-02 0.000E+00

     total cpu time spent up to now is      414.2 secs

     total energy              =    -207.13340607 Ry
     estimated scf accuracy    <       0.06136270 Ry

     iteration #  2     ecut=    50.00 Ry     beta= 0.70
     Davidson diagonalization with overlap
     ethr =  1.75E-04,  avg # of iterations =  8.0

     negative rho (up, down):  5.967E-02 0.000E+00

     total cpu time spent up to now is      420.3 secs

     total energy              =    -207.18541666 Ry
     estimated scf accuracy    <       0.34209927 Ry

     iteration #  3     ecut=    50.00 Ry     beta= 0.70
     Davidson diagonalization with overlap
     ethr =  1.75E-04,  avg # of iterations =  4.5

     negative rho (up, down):  5.974E-02 0.000E+00

     total cpu time spent up to now is      425.2 secs

     total energy              =    -207.20918987 Ry
     estimated scf accuracy    <       0.04429634 Ry

     iteration #  4     ecut=    50.00 Ry     beta= 0.70
     Davidson diagonalization with overlap
     ethr =  1.27E-04,  avg # of iterations =  1.6

     negative rho (up, down):  6.025E-02 0.000E+00

     total cpu time spent up to now is      429.2 secs

     total energy              =    -207.19464319 Ry
     estimated scf accuracy    <       0.02982577 Ry

     iteration #  5     ecut=    50.00 Ry     beta= 0.70
     Davidson diagonalization with overlap
     ethr =  8.52E-05,  avg # of iterations =  4.6

     negative rho (up, down):  6.013E-02 0.000E+00

     total cpu time spent up to now is      433.9 secs

     total energy              =    -207.20418209 Ry
     estimated scf accuracy    <       0.00408124 Ry

     iteration #  6     ecut=    50.00 Ry     beta= 0.70
     Davidson diagonalization with overlap
     ethr =  1.17E-05,  avg # of iterations =  5.8

     negative rho (up, down):  6.008E-02 0.000E+00

     total cpu time spent up to now is      438.3 secs

     total energy              =    -207.20414663 Ry
     estimated scf accuracy    <       0.00187347 Ry

     iteration #  7     ecut=    50.00 Ry     beta= 0.70
     Davidson diagonalization with overlap
     ethr =  5.35E-06,  avg # of iterations =  2.0

     negative rho (up, down):  5.995E-02 0.000E+00

     total cpu time spent up to now is      442.3 secs

     total energy              =    -207.20384935 Ry
     estimated scf accuracy    <       0.00083585 Ry

     iteration #  8     ecut=    50.00 Ry     beta= 0.70
     Davidson diagonalization with overlap
     ethr =  2.39E-06,  avg # of iterations =  4.5

     negative rho (up, down):  5.993E-02 0.000E+00

     total cpu time spent up to now is      447.0 secs

     total energy              =    -207.20409924 Ry
     estimated scf accuracy    <       0.00006899 Ry

     iteration #  9     ecut=    50.00 Ry     beta= 0.70
     Davidson diagonalization with overlap
     ethr =  1.97E-07,  avg # of iterations =  4.0

     negative rho (up, down):  5.995E-02 0.000E+00

     total cpu time spent up to now is      451.4 secs

     total energy              =    -207.20409429 Ry
     estimated scf accuracy    <       0.00005545 Ry

     iteration # 10     ecut=    50.00 Ry     beta= 0.70
     Davidson diagonalization with overlap
     ethr =  1.58E-07,  avg # of iterations =  3.0

     negative rho (up, down):  5.996E-02 0.000E+00

     total cpu time spent up to now is      455.6 secs

     total energy              =    -207.20409726 Ry
     estimated scf accuracy    <       0.00000782 Ry

     iteration # 11     ecut=    50.00 Ry     beta= 0.70
     Davidson diagonalization with overlap
     ethr =  2.23E-08,  avg # of iterations =  4.0

     negative rho (up, down):  5.995E-02 0.000E+00

     total cpu time spent up to now is      460.0 secs

     total energy              =    -207.20409910 Ry
     estimated scf accuracy    <       0.00000037 Ry

     iteration # 12     ecut=    50.00 Ry     beta= 0.70
     Davidson diagonalization with overlap
     ethr =  1.06E-09,  avg # of iterations =  5.9

     negative rho (up, down):  5.995E-02 0.000E+00

     total cpu time spent up to now is      465.5 secs

     total energy              =    -207.20409948 Ry
     estimated scf accuracy    <       0.00000134 Ry

     iteration # 13     ecut=    50.00 Ry     beta= 0.70
     Davidson diagonalization with overlap
     ethr =  1.06E-09,  avg # of iterations =  3.0

     negative rho (up, down):  5.995E-02 0.000E+00

     total cpu time spent up to now is      469.8 secs

     total energy              =    -207.20409932 Ry
     estimated scf accuracy    <       0.00000047 Ry

     iteration # 14     ecut=    50.00 Ry     beta= 0.70
     Davidson diagonalization with overlap
     ethr =  1.06E-09,  avg # of iterations =  4.6

     negative rho (up, down):  5.995E-02 0.000E+00

     total cpu time spent up to now is      474.3 secs

     End of self-consistent calculation

          k = 0.0000 0.0000 0.0000 (  5429 PWs)   bands (ev):

   -45.4938 -44.9567 -24.9455 -24.1714 -24.0635 -23.1099 -23.0561 -22.8995
    -6.2178  -4.4507  -4.2956  -3.5205  -2.8860  -2.6189   1.2373   1.6501
     2.1326   5.3413   5.3720   5.6655   5.7519   5.8182

          k =-0.0095 0.1054-0.6826 (  5402 PWs)   bands (ev):

   -45.4578 -44.9975 -24.4640 -24.1532 -24.0444 -23.4839 -23.1227 -23.0783
    -4.8493  -4.7287  -4.3342  -3.8387  -3.4630  -3.3864   2.1031   2.9119
     2.9469   3.7602   4.2311   5.1420   6.0803   6.1928

          k = 0.3374-0.5046 0.2889 (  5430 PWs)   bands (ev):

   -45.4578 -44.9975 -24.4641 -24.1528 -24.0446 -23.4838 -23.1234 -23.0776
    -5.2175  -4.3850  -4.0673  -3.9593  -3.5994  -3.2945   1.8198   2.9022
     3.0537   3.6763   4.1986   5.1535   6.0839   6.3608

          k = 0.3279-0.3991-0.3937 (  5420 PWs)   bands (ev):

   -45.4937 -44.9567 -24.9456 -24.1719 -24.0648 -23.1113 -23.0568 -22.8996
    -5.4222  -4.5190  -4.2981  -4.0936  -3.2764  -3.1358   1.4699   2.5197
     2.7485   4.9660   5.0037   5.3788   5.6597   5.7774

          k =-0.2860-0.4831 0.2876 (  5412 PWs)   bands (ev):

   -45.4578 -44.9975 -24.4641 -24.1529 -24.0442 -23.4840 -23.1221 -23.0778
    -5.1407  -4.7986  -4.2214  -3.6837  -3.6477  -2.9423   2.2370   2.5366
     2.6534   3.9078   4.1909   5.0381   5.6897   6.5895

          k =-0.2955-0.3777-0.3950 (  5402 PWs)   bands (ev):

   -45.4937 -44.9567 -24.9456 -24.1723 -24.0639 -23.1104 -23.0573 -22.8995
    -5.5783  -4.3267  -4.1776  -4.0520  -3.5371  -3.0766   1.6587   2.1872
     2.5931   4.7739   4.8731   5.5866   5.6037   5.8220

          k = 0.0514-0.9877 0.5765 (  5400 PWs)   bands (ev):

   -45.4937 -44.9567 -24.9457 -24.1718 -24.0644 -23.1108 -23.0566 -22.8997
    -5.6045  -4.3015  -4.1964  -3.8786  -3.5892  -3.1058   1.2119   2.2379
     2.8705   4.6351   4.9036   5.2566   5.6246   5.7521

          k = 0.0419-0.8822-0.1061 (  5398 PWs)   bands (ev):

   -45.4578 -44.9975 -24.4640 -24.1532 -24.0449 -23.4838 -23.1239 -23.0785
    -4.7356  -4.2825  -4.2573  -4.0525  -3.8526  -3.5514   2.2852   2.9109
     3.6762   3.8259   4.2630   5.1678   5.6955   6.1348

     the Fermi energy is     4.0200 ev

!    total energy              =    -207.20409944 Ry
     estimated scf accuracy    <       0.00000001 Ry
     smearing contrib. (-TS)   =       0.00062397 Ry
     internal energy E=F+TS    =    -207.20472341 Ry

     The total energy is F=E-TS. E is the sum of the following terms:
     one-electron contribution =    -145.93707982 Ry
     hartree contribution      =      76.34274755 Ry
     xc contribution           =     -39.47820041 Ry
     ewald contribution        =     -98.13050717 Ry
     one-center paw contrib.   =      -0.00168356 Ry

     convergence has been achieved in  14 iterations

     negative rho (up, down):  5.995E-02 0.000E+00

     Forces acting on atoms (cartesian axes, Ry/au):

     atom    1 type  3   force =     0.00000000    0.00000000    0.00000000
     atom    2 type  2   force =     0.00000000    0.00000000    0.00000000
     atom    3 type  1   force =    -0.01664918   -0.03069721    0.00156384
     atom    4 type  1   force =     0.01664918    0.03069721   -0.00156384
     atom    5 type  1   force =    -0.00129743    0.01069150    0.01861413
     atom    6 type  1   force =    -0.00611140    0.02321933   -0.00427193
     atom    7 type  1   force =     0.00129743   -0.01069150   -0.01861413
     atom    8 type  1   force =     0.00611140   -0.02321933    0.00427193
     atom    9 type  1   force =     0.00931400   -0.00262388   -0.00307297
     atom   10 type  1   force =    -0.00089340    0.00102303   -0.00096394
     atom   11 type  1   force =    -0.00931400    0.00262388    0.00307297
     atom   12 type  1   force =     0.00089340   -0.00102303    0.00096394
     atom   13 type  1   force =     0.00812257   -0.00427510   -0.01183153
     atom   14 type  1   force =    -0.00812257    0.00427510    0.01183153

     Total force =     0.072239     Total SCF correction =     0.000060


     Computing stress (Cartesian axis) and pressure


     negative rho (up, down):  5.995E-02 0.000E+00
          total   stress  (Ry/bohr**3)                   (kbar)     P=      -20.12
  -0.00019943  -0.00006926   0.00002751          -29.34      -10.19        4.05
  -0.00006926  -0.00017384  -0.00000197          -10.19      -25.57       -0.29
   0.00002751  -0.00000197  -0.00003714            4.05       -0.29       -5.46

     Energy error            =      1.1E-02
     Gradient error          =      3.1E-02
     Cell gradient error     =      2.0E-04


     number of scf cycles    =   6
     number of bfgs steps    =   5

     enthalpy old            =    -207.1927945157 Ry
     enthalpy new            =    -207.2040994370 Ry

     CASE: enthalpy_new < enthalpy_old

     new trust radius        =       0.0312135080 bohr
     new conv_thr            =       0.0000003070 Ry

     new unit-cell volume =    900.12234 a.u.^3 (   133.38437 Ang^3 )
     density =      0.17429 g/cm^3

CELL_PARAMETERS (angstrom)
   4.831870809   3.499507613   0.481168905
  -4.618815236   3.056268316   0.548036579
   0.078081572   2.781232042   4.749119420

ATOMIC_POSITIONS (angstrom)
Zr           -2.3094060913        1.5281341630        0.2740182605
Sc            2.4549766944        3.1403713465        2.6151447137
H            -0.6074967424        1.2166985861        1.4079716312
H             0.8986328696        8.1203093826        4.3703532928
H             2.1294664401        5.7736185579        5.2422540295
H            -0.4823734060        6.9092640481        1.9599791562
H            -1.8383292979        3.5633884184        0.5360708284
H             0.7735105481        2.4277429282        3.8183457017
H             1.2829224754        4.9165278245        2.4882967914
H             2.1211615880        5.2255426386        2.7829161854
H            -0.9917863645        4.4204811870        3.2900291611
H            -1.8300244429        4.1114653333        2.9954087192
H             1.2514711982        3.4394205877        0.9423785261
H            -0.9603340754        5.8975864356        4.8359473137



     Writing output data file ./tmp/ZrScH12.save/
     NEW-OLD atomic charge density approx. for the potential

     negative rho (up, down):  5.947E-02 0.000E+00
     extrapolated charge   34.72700, renormalised to   35.00000

     total cpu time spent up to now is      503.8 secs

     Self-consistent Calculation

     iteration #  1     ecut=    50.00 Ry     beta= 0.70
     Davidson diagonalization with overlap
     ethr =  1.00E-06,  avg # of iterations = 10.4

     negative rho (up, down):  5.985E-02 0.000E+00

     total cpu time spent up to now is      512.1 secs

     total energy              =    -207.16655752 Ry
     estimated scf accuracy    <       0.03727895 Ry

     iteration #  2     ecut=    50.00 Ry     beta= 0.70
     Davidson diagonalization with overlap
     ethr =  1.07E-04,  avg # of iterations =  7.5

     negative rho (up, down):  5.981E-02 0.000E+00

     total cpu time spent up to now is      518.1 secs

     total energy              =    -207.19728021 Ry
     estimated scf accuracy    <       0.18979977 Ry

     iteration #  3     ecut=    50.00 Ry     beta= 0.70
     Davidson diagonalization with overlap
     ethr =  1.07E-04,  avg # of iterations =  4.5

     negative rho (up, down):  5.988E-02 0.000E+00

     total cpu time spent up to now is      522.9 secs

     total energy              =    -207.21100474 Ry
     estimated scf accuracy    <       0.02454719 Ry

     iteration #  4     ecut=    50.00 Ry     beta= 0.70
     Davidson diagonalization with overlap
     ethr =  7.01E-05,  avg # of iterations =  1.6

     negative rho (up, down):  5.998E-02 0.000E+00

     total cpu time spent up to now is      527.0 secs

     total energy              =    -207.20898717 Ry
     estimated scf accuracy    <       0.01569092 Ry

     iteration #  5     ecut=    50.00 Ry     beta= 0.70
     Davidson diagonalization with overlap
     ethr =  4.48E-05,  avg # of iterations =  1.9

     negative rho (up, down):  6.005E-02 0.000E+00

     total cpu time spent up to now is      530.9 secs

     total energy              =    -207.20766467 Ry
     estimated scf accuracy    <       0.00748010 Ry

     iteration #  6     ecut=    50.00 Ry     beta= 0.70
     Davidson diagonalization with overlap
     ethr =  2.14E-05,  avg # of iterations =  3.6

     negative rho (up, down):  6.007E-02 0.000E+00

     total cpu time spent up to now is      535.2 secs

     total energy              =    -207.20839337 Ry
     estimated scf accuracy    <       0.00117825 Ry

     iteration #  7     ecut=    50.00 Ry     beta= 0.70
     Davidson diagonalization with overlap
     ethr =  3.37E-06,  avg # of iterations =  4.5

     negative rho (up, down):  6.004E-02 0.000E+00

     total cpu time spent up to now is      539.9 secs

     total energy              =    -207.20870638 Ry
     estimated scf accuracy    <       0.00021919 Ry

     iteration #  8     ecut=    50.00 Ry     beta= 0.70
     Davidson diagonalization with overlap
     ethr =  6.26E-07,  avg # of iterations =  1.9

     negative rho (up, down):  6.005E-02 0.000E+00

     total cpu time spent up to now is      543.9 secs

     total energy              =    -207.20868251 Ry
     estimated scf accuracy    <       0.00043067 Ry

     iteration #  9     ecut=    50.00 Ry     beta= 0.70
     Davidson diagonalization with overlap
     ethr =  6.26E-07,  avg # of iterations =  1.0

     negative rho (up, down):  6.003E-02 0.000E+00

     total cpu time spent up to now is      547.8 secs

     total energy              =    -207.20865997 Ry
     estimated scf accuracy    <       0.00034059 Ry

     iteration # 10     ecut=    50.00 Ry     beta= 0.70
     Davidson diagonalization with overlap
     ethr =  6.26E-07,  avg # of iterations =  1.0

     negative rho (up, down):  5.999E-02 0.000E+00

     total cpu time spent up to now is      551.5 secs

     total energy              =    -207.20862816 Ry
     estimated scf accuracy    <       0.00026450 Ry

     iteration # 11     ecut=    50.00 Ry     beta= 0.70
     Davidson diagonalization with overlap
     ethr =  6.26E-07,  avg # of iterations =  1.0

     negative rho (up, down):  5.999E-02 0.000E+00

     total cpu time spent up to now is      555.4 secs

     total energy              =    -207.20860529 Ry
     estimated scf accuracy    <       0.00015900 Ry

     iteration # 12     ecut=    50.00 Ry     beta= 0.70
     Davidson diagonalization with overlap
     ethr =  4.54E-07,  avg # of iterations =  1.8

     negative rho (up, down):  6.000E-02 0.000E+00

     total cpu time spent up to now is      559.6 secs

     total energy              =    -207.20859644 Ry
     estimated scf accuracy    <       0.00006826 Ry

     iteration # 13     ecut=    50.00 Ry     beta= 0.70
     Davidson diagonalization with overlap
     ethr =  1.95E-07,  avg # of iterations =  3.0

     negative rho (up, down):  6.001E-02 0.000E+00

     total cpu time spent up to now is      563.7 secs

     total energy              =    -207.20859466 Ry
     estimated scf accuracy    <       0.00001669 Ry

     iteration # 14     ecut=    50.00 Ry     beta= 0.70
     Davidson diagonalization with overlap
     ethr =  4.77E-08,  avg # of iterations =  4.8

     negative rho (up, down):  6.000E-02 0.000E+00

     total cpu time spent up to now is      568.3 secs

     total energy              =    -207.20860115 Ry
     estimated scf accuracy    <       0.00000215 Ry

     iteration # 15     ecut=    50.00 Ry     beta= 0.70
     Davidson diagonalization with overlap
     ethr =  6.14E-09,  avg # of iterations =  2.1

     negative rho (up, down):  6.000E-02 0.000E+00

     total cpu time spent up to now is      572.4 secs

     total energy              =    -207.20860099 Ry
     estimated scf accuracy    <       0.00000080 Ry

     iteration # 16     ecut=    50.00 Ry     beta= 0.70
     Davidson diagonalization with overlap
     ethr =  2.27E-09,  avg # of iterations =  4.5

     negative rho (up, down):  6.001E-02 0.000E+00

     total cpu time spent up to now is      576.6 secs

     End of self-consistent calculation

          k = 0.0000 0.0000 0.0000 (  5429 PWs)   bands (ev):

   -45.4233 -44.8945 -24.9215 -24.0943 -23.9906 -23.0509 -23.0024 -22.8232
    -6.2028  -4.4612  -4.2976  -3.4716  -2.8510  -2.5988   1.2711   1.6422
     2.1535   5.4124   5.5013   5.7498   5.8281   5.9581

          k =-0.0099 0.1077-0.6839 (  5402 PWs)   bands (ev):

   -45.3819 -44.9411 -24.4037 -24.0743 -23.9691 -23.4479 -23.0685 -23.0273
    -4.8333  -4.7031  -4.3145  -3.8433  -3.4473  -3.3425   2.1120   2.9381
     2.9935   3.8104   4.3012   5.2102   6.1817   6.2608

          k = 0.3379-0.5066 0.2911 (  5430 PWs)   bands (ev):

   -45.3819 -44.9411 -24.4038 -24.0739 -23.9693 -23.4478 -23.0692 -23.0266
    -5.1880  -4.3448  -4.0691  -3.9389  -3.6123  -3.2648   1.8585   2.9691
     3.0691   3.7108   4.2629   5.2221   6.1814   6.4175

          k = 0.3280-0.3989-0.3928 (  5420 PWs)   bands (ev):

   -45.4233 -44.8944 -24.9216 -24.0948 -23.9920 -23.0523 -23.0031 -22.8233
    -5.4108  -4.5102  -4.2744  -4.1030  -3.2440  -3.0910   1.4727   2.5384
     2.7548   5.0241   5.1069   5.4395   5.7401   5.8600

          k =-0.2872-0.4860 0.2893 (  5412 PWs)   bands (ev):

   -45.3819 -44.9411 -24.4038 -24.0740 -23.9689 -23.4480 -23.0679 -23.0268
    -5.1235  -4.7536  -4.2202  -3.6697  -3.6254  -2.9389   2.2800   2.5427
     2.7175   3.9502   4.2568   5.1110   5.7888   6.6525

          k =-0.2971-0.3783-0.3946 (  5402 PWs)   bands (ev):

   -45.4233 -44.8944 -24.9216 -24.0953 -23.9910 -23.0514 -23.0036 -22.8232
    -5.5642  -4.3235  -4.1472  -4.0576  -3.4954  -3.0546   1.6692   2.1983
     2.6123   4.8762   4.9172   5.6547   5.6768   5.8939

          k = 0.0507-0.9926 0.5804 (  5400 PWs)   bands (ev):

   -45.4233 -44.8945 -24.9218 -24.0948 -23.9916 -23.0519 -23.0029 -22.8233
    -5.5798  -4.2680  -4.1962  -3.8992  -3.5653  -3.0730   1.2512   2.2670
     2.8682   4.7358   4.9770   5.2905   5.7000   5.8305

          k = 0.0408-0.8849-0.1035 (  5398 PWs)   bands (ev):

   -45.3819 -44.9411 -24.4037 -24.0743 -23.9696 -23.4478 -23.0696 -23.0276
    -4.7109  -4.2845  -4.2263  -4.0370  -3.8092  -3.5440   2.3056   2.9051
     3.7081   3.8459   4.3439   5.2555   5.8018   6.2079

     the Fermi energy is     4.0739 ev

!    total energy              =    -207.20860124 Ry
     estimated scf accuracy    <       0.00000002 Ry
     smearing contrib. (-TS)   =       0.00101303 Ry
     internal energy E=F+TS    =    -207.20961427 Ry

     The total energy is F=E-TS. E is the sum of the following terms:
     one-electron contribution =    -146.20549317 Ry
     hartree contribution      =      76.55016417 Ry
     xc contribution           =     -39.51304110 Ry
     ewald contribution        =     -98.03956074 Ry
     one-center paw contrib.   =      -0.00168343 Ry

     convergence has been achieved in  16 iterations

     negative rho (up, down):  6.001E-02 0.000E+00

     Forces acting on atoms (cartesian axes, Ry/au):

     atom    1 type  3   force =     0.00000000    0.00000000    0.00000000
     atom    2 type  2   force =     0.00000000    0.00000000    0.00000000
     atom    3 type  1   force =    -0.01602328   -0.02898108    0.00190106
     atom    4 type  1   force =     0.01602328    0.02898108   -0.00190106
     atom    5 type  1   force =    -0.00096545    0.00983346    0.01623158
     atom    6 type  1   force =    -0.00408512    0.01965235   -0.00290133
     atom    7 type  1   force =     0.00096545   -0.00983346   -0.01623158
     atom    8 type  1   force =     0.00408512   -0.01965235    0.00290133
     atom    9 type  1   force =     0.00775258   -0.00194613   -0.00436757
     atom   10 type  1   force =     0.00007117    0.00102442    0.00195988
     atom   11 type  1   force =    -0.00775258    0.00194613    0.00436757
     atom   12 type  1   force =    -0.00007117   -0.00102442   -0.00195988
     atom   13 type  1   force =     0.00653879   -0.00617232   -0.00948436
     atom   14 type  1   force =    -0.00653879    0.00617232    0.00948436

     Total force =     0.065289     Total SCF correction =     0.000056


     Computing stress (Cartesian axis) and pressure


     negative rho (up, down):  6.001E-02 0.000E+00
          total   stress  (Ry/bohr**3)                   (kbar)     P=      -14.87
  -0.00016712  -0.00007124   0.00003444          -24.58      -10.48        5.07
  -0.00007124  -0.00013018  -0.00001097          -10.48      -19.15       -1.61
   0.00003444  -0.00001097  -0.00000605            5.07       -1.61       -0.89

     Energy error            =      4.5E-03
     Gradient error          =      2.9E-02
     Cell gradient error     =      1.7E-04


     number of scf cycles    =   7
     number of bfgs steps    =   6

     enthalpy old            =    -207.2040994370 Ry
     enthalpy new            =    -207.2086012386 Ry

     CASE: enthalpy_new < enthalpy_old


     WARNING: bfgs curvature condition failed, Theta= 0.991
     new trust radius        =       0.0466273045 bohr
     new conv_thr            =       0.0000002898 Ry

     new unit-cell volume =    891.26102 a.u.^3 (   132.07126 Ang^3 )
     density =      0.17602 g/cm^3

CELL_PARAMETERS (angstrom)
   4.795753504   3.472113417   0.488266943
  -4.603793647   3.057517831   0.553391264
   0.070167815   2.780335520   4.752997888

ATOMIC_POSITIONS (angstrom)
Zr           -2.3018953048        1.5287589158        0.2766956029
Sc            2.4329611564        3.1262259805        2.6206329694
H            -0.6217800966        1.1979780098        1.4174160750
H             0.8839067568        8.1119887574        4.3772400392
H             2.1072379617        5.7588257815        5.2683326008
H            -0.5064047039        6.8971710389        1.9602993280
H            -1.8451102889        3.5511399945        0.5263234454
H             0.7685323768        2.4127947370        3.8343567182
H             1.2653883040        4.8925118977        2.5002496650
H             2.0968496921        5.2090269033        2.7855769816
H            -1.0032616631        4.4174559104        3.2944074794
H            -1.8347220194        4.1009398642        3.0090791132
H             1.2327760854        3.4230109250        0.9353502633
H            -0.9706484317        5.8869549003        4.8593067646



     Writing output data file ./tmp/ZrScH12.save/
     NEW-OLD atomic charge density approx. for the potential

     negative rho (up, down):  5.942E-02 0.000E+00
     extrapolated charge   34.65206, renormalised to   35.00000

     total cpu time spent up to now is      606.3 secs

     Self-consistent Calculation

     iteration #  1     ecut=    50.00 Ry     beta= 0.70
     Davidson diagonalization with overlap
     ethr =  1.00E-06,  avg # of iterations = 10.8

     negative rho (up, down):  5.986E-02 0.000E+00

     total cpu time spent up to now is      614.9 secs

     total energy              =    -207.14579785 Ry
     estimated scf accuracy    <       0.06175070 Ry

     iteration #  2     ecut=    50.00 Ry     beta= 0.70
     Davidson diagonalization with overlap
     ethr =  1.76E-04,  avg # of iterations =  7.2

     negative rho (up, down):  5.978E-02 0.000E+00

     total cpu time spent up to now is      620.9 secs

     total energy              =    -207.19906300 Ry
     estimated scf accuracy    <       0.28893406 Ry

     iteration #  3     ecut=    50.00 Ry     beta= 0.70
     Davidson diagonalization with overlap
     ethr =  1.76E-04,  avg # of iterations =  4.8

     negative rho (up, down):  5.987E-02 0.000E+00

     total cpu time spent up to now is      625.8 secs

     total energy              =    -207.21858258 Ry
     estimated scf accuracy    <       0.03590616 Ry

     iteration #  4     ecut=    50.00 Ry     beta= 0.70
     Davidson diagonalization with overlap
     ethr =  1.03E-04,  avg # of iterations =  1.6

     negative rho (up, down):  6.001E-02 0.000E+00

     total cpu time spent up to now is      629.9 secs

     total energy              =    -207.21544980 Ry
     estimated scf accuracy    <       0.02254925 Ry

     iteration #  5     ecut=    50.00 Ry     beta= 0.70
     Davidson diagonalization with overlap
     ethr =  6.44E-05,  avg # of iterations =  2.1

     negative rho (up, down):  6.009E-02 0.000E+00

     total cpu time spent up to now is      633.9 secs

     total energy              =    -207.21378278 Ry
     estimated scf accuracy    <       0.01012911 Ry

     iteration #  6     ecut=    50.00 Ry     beta= 0.70
     Davidson diagonalization with overlap
     ethr =  2.89E-05,  avg # of iterations =  3.4

     negative rho (up, down):  6.012E-02 0.000E+00

     total cpu time spent up to now is      638.1 secs

     total energy              =    -207.21473504 Ry
     estimated scf accuracy    <       0.00173067 Ry

     iteration #  7     ecut=    50.00 Ry     beta= 0.70
     Davidson diagonalization with overlap
     ethr =  4.94E-06,  avg # of iterations =  4.6

     negative rho (up, down):  6.009E-02 0.000E+00

     total cpu time spent up to now is      642.6 secs

     total energy              =    -207.21507825 Ry
     estimated scf accuracy    <       0.00042753 Ry

     iteration #  8     ecut=    50.00 Ry     beta= 0.70
     Davidson diagonalization with overlap
     ethr =  1.22E-06,  avg # of iterations =  2.8

     negative rho (up, down):  5.999E-02 0.000E+00

     total cpu time spent up to now is      646.6 secs

     total energy              =    -207.21522287 Ry
     estimated scf accuracy    <       0.00051123 Ry

     iteration #  9     ecut=    50.00 Ry     beta= 0.70
     Davidson diagonalization with overlap
     ethr =  1.22E-06,  avg # of iterations =  2.0

     negative rho (up, down):  6.002E-02 0.000E+00

     total cpu time spent up to now is      650.6 secs

     total energy              =    -207.21491428 Ry
     estimated scf accuracy    <       0.00094646 Ry

     iteration # 10     ecut=    50.00 Ry     beta= 0.70
     Davidson diagonalization with overlap
     ethr =  1.22E-06,  avg # of iterations =  2.9

     negative rho (up, down):  6.005E-02 0.000E+00

     total cpu time spent up to now is      655.0 secs

     total energy              =    -207.21495102 Ry
     estimated scf accuracy    <       0.00014780 Ry

     iteration # 11     ecut=    50.00 Ry     beta= 0.70
     Davidson diagonalization with overlap
     ethr =  4.22E-07,  avg # of iterations =  3.5

     negative rho (up, down):  6.004E-02 0.000E+00

     total cpu time spent up to now is      659.5 secs

     total energy              =    -207.21497889 Ry
     estimated scf accuracy    <       0.00001805 Ry

     iteration # 12     ecut=    50.00 Ry     beta= 0.70
     Davidson diagonalization with overlap
     ethr =  5.16E-08,  avg # of iterations =  4.0

     negative rho (up, down):  6.003E-02 0.000E+00

     total cpu time spent up to now is      664.0 secs

     total energy              =    -207.21498050 Ry
     estimated scf accuracy    <       0.00001831 Ry

     iteration # 13     ecut=    50.00 Ry     beta= 0.70
     Davidson diagonalization with overlap
     ethr =  5.16E-08,  avg # of iterations =  1.0

     negative rho (up, down):  6.004E-02 0.000E+00

     total cpu time spent up to now is      667.9 secs

     total energy              =    -207.21497577 Ry
     estimated scf accuracy    <       0.00001620 Ry

     iteration # 14     ecut=    50.00 Ry     beta= 0.70
     Davidson diagonalization with overlap
     ethr =  4.63E-08,  avg # of iterations =  1.8

     negative rho (up, down):  6.004E-02 0.000E+00

     total cpu time spent up to now is      671.9 secs

     total energy              =    -207.21497628 Ry
     estimated scf accuracy    <       0.00000387 Ry

     iteration # 15     ecut=    50.00 Ry     beta= 0.70
     Davidson diagonalization with overlap
     ethr =  1.11E-08,  avg # of iterations =  4.2

     negative rho (up, down):  6.004E-02 0.000E+00

     total cpu time spent up to now is      676.1 secs

     total energy              =    -207.21497690 Ry
     estimated scf accuracy    <       0.00000074 Ry

     iteration # 16     ecut=    50.00 Ry     beta= 0.70
     Davidson diagonalization with overlap
     ethr =  2.10E-09,  avg # of iterations =  4.0

     negative rho (up, down):  6.004E-02 0.000E+00

     total cpu time spent up to now is      680.4 secs

     total energy              =    -207.21497694 Ry
     estimated scf accuracy    <       0.00000041 Ry

     iteration # 17     ecut=    50.00 Ry     beta= 0.70
     Davidson diagonalization with overlap
     ethr =  1.17E-09,  avg # of iterations =  1.8

     negative rho (up, down):  6.004E-02 0.000E+00

     total cpu time spent up to now is      684.4 secs

     End of self-consistent calculation

          k = 0.0000 0.0000 0.0000 (  5429 PWs)   bands (ev):

   -45.3239 -44.7932 -24.8651 -23.9897 -23.8932 -22.9541 -22.9161 -22.7142
    -6.2012  -4.5001  -4.3443  -3.4154  -2.8645  -2.6265   1.3438   1.6716
     2.2031   5.5158   5.6783   5.8555   5.9333   6.1470

          k =-0.0096 0.1095-0.6844 (  5402 PWs)   bands (ev):

   -45.2781 -44.8449 -24.3148 -23.9678 -23.8695 -23.3743 -22.9769 -22.9440
    -4.8501  -4.6815  -4.3009  -3.8946  -3.4911  -3.3140   2.1573   2.9948
     3.0766   3.8965   4.3952   5.2982   6.3329   6.3610

          k = 0.3382-0.5083 0.2923 (  5430 PWs)   bands (ev):

   -45.2781 -44.8449 -24.3149 -23.9675 -23.8698 -23.3742 -22.9778 -22.9431
    -5.1611  -4.3321  -4.1042  -3.9419  -3.6910  -3.2494   1.9344   3.0742
     3.1125   3.7886   4.3539   5.3083   6.3247   6.5173

          k = 0.3287-0.3988-0.3921 (  5420 PWs)   bands (ev):

   -45.3239 -44.7932 -24.8652 -23.9902 -23.8947 -22.9556 -22.9169 -22.7143
    -5.4215  -4.5064  -4.2468  -4.1719  -3.2700  -3.0708   1.5103   2.5929
     2.7960   5.1168   5.2152   5.5322   5.8374   5.9727

          k =-0.2902-0.4895 0.2906 (  5412 PWs)   bands (ev):

   -45.2781 -44.8449 -24.3149 -23.9676 -23.8693 -23.3744 -22.9764 -22.9435
    -5.1270  -4.7075  -4.2510  -3.6880  -3.6218  -3.0062   2.3480   2.6010
     2.8197   4.0245   4.3429   5.2042   5.9406   6.7428

          k =-0.2997-0.3801-0.3938 (  5402 PWs)   bands (ev):

   -45.3239 -44.7932 -24.8652 -23.9907 -23.8937 -22.9546 -22.9175 -22.7142
    -5.5601  -4.3487  -4.1294  -4.1169  -3.4588  -3.0880   1.7049   2.2554
     2.6668   5.0027   5.0113   5.7602   5.7756   5.9890

          k = 0.0480-0.9978 0.5830 (  5400 PWs)   bands (ev):

   -45.3239 -44.7932 -24.8653 -23.9903 -23.8942 -22.9552 -22.9166 -22.7144
    -5.5596  -4.2476  -4.2201  -3.9888  -3.5677  -3.0709   1.3287   2.3372
     2.8987   4.8581   5.0907   5.3764   5.8024   5.9314

          k = 0.0385-0.8883-0.1015 (  5398 PWs)   bands (ev):

   -45.2781 -44.8449 -24.3148 -23.9679 -23.8701 -23.3743 -22.9782 -22.9443
    -4.6822  -4.3326  -4.1893  -4.0623  -3.7853  -3.6048   2.3780   2.9309
     3.7631   3.8883   4.4537   5.3659   5.9624   6.3094

     the Fermi energy is     4.1556 ev

!    total energy              =    -207.21497674 Ry
     estimated scf accuracy    <       0.00000024 Ry
     smearing contrib. (-TS)   =       0.00125343 Ry
     internal energy E=F+TS    =    -207.21623017 Ry

     The total energy is F=E-TS. E is the sum of the following terms:
     one-electron contribution =    -146.35938868 Ry
     hartree contribution      =      76.72698437 Ry
     xc contribution           =     -39.56868937 Ry
     ewald contribution        =     -98.01345342 Ry
     one-center paw contrib.   =      -0.00168306 Ry

     convergence has been achieved in  17 iterations

     negative rho (up, down):  6.004E-02 0.000E+00

     Forces acting on atoms (cartesian axes, Ry/au):

     atom    1 type  3   force =     0.00000000    0.00000000    0.00000000
     atom    2 type  2   force =     0.00000000    0.00000000    0.00000000
     atom    3 type  1   force =    -0.01345641   -0.02446582    0.00397232
     atom    4 type  1   force =     0.01345641    0.02446582   -0.00397232
     atom    5 type  1   force =    -0.00000841    0.00692739    0.01246204
     atom    6 type  1   force =    -0.00157597    0.01345153   -0.00298803
     atom    7 type  1   force =     0.00000841   -0.00692739   -0.01246204
     atom    8 type  1   force =     0.00157597   -0.01345153    0.00298803
     atom    9 type  1   force =     0.00435443   -0.00164543   -0.00513403
     atom   10 type  1   force =     0.00218534    0.00149649    0.00415588
     atom   11 type  1   force =    -0.00435443    0.00164543    0.00513403
     atom   12 type  1   force =    -0.00218534   -0.00149649   -0.00415588
     atom   13 type  1   force =     0.00332187   -0.00794920   -0.00646490
     atom   14 type  1   force =    -0.00332187    0.00794920    0.00646490

     Total force =     0.052524     Total SCF correction =     0.000252


     Computing stress (Cartesian axis) and pressure


     negative rho (up, down):  6.004E-02 0.000E+00
          total   stress  (Ry/bohr**3)                   (kbar)     P=       -6.72
  -0.00010473  -0.00006559   0.00004100          -15.41       -9.65        6.03
  -0.00006559  -0.00006043  -0.00001108           -9.65       -8.89       -1.63
   0.00004100  -0.00001108   0.00002805            6.03       -1.63        4.13

     Energy error            =      6.4E-03
     Gradient error          =      2.4E-02
     Cell gradient error     =      1.0E-04


     number of scf cycles    =   8
     number of bfgs steps    =   7

     enthalpy old            =    -207.2086012386 Ry
     enthalpy new            =    -207.2149767412 Ry

     CASE: enthalpy_new < enthalpy_old

     new trust radius        =       0.0693918584 bohr
     new conv_thr            =       0.0000002447 Ry

     new unit-cell volume =    882.10324 a.u.^3 (   130.71421 Ang^3 )
     density =      0.17785 g/cm^3

CELL_PARAMETERS (angstrom)
   4.746864525   3.436496330   0.500010522
  -4.586642074   3.065398587   0.555065394
   0.062136720   2.778873225   4.763160770

ATOMIC_POSITIONS (angstrom)
Zr           -2.2933195283        1.5326992869        0.2775326694
Sc            2.4045011089        3.1076862822        2.6315862041
H            -0.6421895084        1.1706549098        1.4309556648
H             0.8645476740        8.1101132365        4.3872810399
H             2.0784735235        5.7420085843        5.3087737924
H            -0.5400506743        6.8879946071        1.9593554728
H            -1.8561143474        3.5387585706        0.5094628434
H             0.7624098504        2.3927725478        3.8588811630
H             1.2410459561        4.8640778857        2.5144385895
H             2.0649845878        5.1899513488        2.7949801970
H            -1.0186878133        4.4166912993        3.3037991483
H            -1.8426254166        4.0908167933        3.0232564893
H             1.2066102216        3.3997993513        0.9267846089
H            -0.9842510635        5.8809678551        4.8914530097



     Writing output data file ./tmp/ZrScH12.save/
     NEW-OLD atomic charge density approx. for the potential

     negative rho (up, down):  5.945E-02 0.000E+00
     extrapolated charge   34.63669, renormalised to   35.00000

     total cpu time spent up to now is      714.0 secs

     Self-consistent Calculation

     iteration #  1     ecut=    50.00 Ry     beta= 0.70
     Davidson diagonalization with overlap
     ethr =  1.00E-06,  avg # of iterations = 11.6

     negative rho (up, down):  5.992E-02 0.000E+00

     total cpu time spent up to now is      722.8 secs

     total energy              =    -207.14731454 Ry
     estimated scf accuracy    <       0.06630374 Ry

     iteration #  2     ecut=    50.00 Ry     beta= 0.70
     Davidson diagonalization with overlap
     ethr =  1.89E-04,  avg # of iterations =  7.2

     negative rho (up, down):  5.983E-02 0.000E+00

     total cpu time spent up to now is      728.7 secs

     total energy              =    -207.20474997 Ry
     estimated scf accuracy    <       0.30122643 Ry

     iteration #  3     ecut=    50.00 Ry     beta= 0.70
     Davidson diagonalization with overlap
     ethr =  1.89E-04,  avg # of iterations =  4.9

     negative rho (up, down):  5.992E-02 0.000E+00

     total cpu time spent up to now is      733.6 secs

     total energy              =    -207.22516147 Ry
     estimated scf accuracy    <       0.03700154 Ry

     iteration #  4     ecut=    50.00 Ry     beta= 0.70
     Davidson diagonalization with overlap
     ethr =  1.06E-04,  avg # of iterations =  1.6

     negative rho (up, down):  6.009E-02 0.000E+00

     total cpu time spent up to now is      737.7 secs

     total energy              =    -207.22114425 Ry
     estimated scf accuracy    <       0.02282629 Ry

     iteration #  5     ecut=    50.00 Ry     beta= 0.70
     Davidson diagonalization with overlap
     ethr =  6.52E-05,  avg # of iterations =  2.0

     negative rho (up, down):  6.018E-02 0.000E+00

     total cpu time spent up to now is      741.7 secs

     total energy              =    -207.21980138 Ry
     estimated scf accuracy    <       0.00839548 Ry

     iteration #  6     ecut=    50.00 Ry     beta= 0.70
     Davidson diagonalization with overlap
     ethr =  2.40E-05,  avg # of iterations =  4.5

     negative rho (up, down):  6.018E-02 0.000E+00

     total cpu time spent up to now is      746.2 secs

     total energy              =    -207.22138220 Ry
     estimated scf accuracy    <       0.00044909 Ry

     iteration #  7     ecut=    50.00 Ry     beta= 0.70
     Davidson diagonalization with overlap
     ethr =  1.28E-06,  avg # of iterations =  4.8

     negative rho (up, down):  6.013E-02 0.000E+00

     total cpu time spent up to now is      751.2 secs

     total energy              =    -207.22154166 Ry
     estimated scf accuracy    <       0.00008266 Ry

     iteration #  8     ecut=    50.00 Ry     beta= 0.70
     Davidson diagonalization with overlap
     ethr =  2.36E-07,  avg # of iterations =  2.0

     negative rho (up, down):  6.001E-02 0.000E+00

     total cpu time spent up to now is      755.2 secs

     total energy              =    -207.22156212 Ry
     estimated scf accuracy    <       0.00017994 Ry

     iteration #  9     ecut=    50.00 Ry     beta= 0.70
     Davidson diagonalization with overlap
     ethr =  2.36E-07,  avg # of iterations =  2.0

     negative rho (up, down):  6.008E-02 0.000E+00

     total cpu time spent up to now is      759.2 secs

     total energy              =    -207.22146078 Ry
     estimated scf accuracy    <       0.00023907 Ry

     iteration # 10     ecut=    50.00 Ry     beta= 0.70
     Davidson diagonalization with overlap
     ethr =  2.36E-07,  avg # of iterations =  4.4

     negative rho (up, down):  6.009E-02 0.000E+00

     total cpu time spent up to now is      763.8 secs

     total energy              =    -207.22149486 Ry
     estimated scf accuracy    <       0.00000526 Ry

     iteration # 11     ecut=    50.00 Ry     beta= 0.70
     Davidson diagonalization with overlap
     ethr =  1.50E-08,  avg # of iterations =  4.5

     negative rho (up, down):  6.007E-02 0.000E+00

     total cpu time spent up to now is      768.3 secs

     total energy              =    -207.22149750 Ry
     estimated scf accuracy    <       0.00000169 Ry

     iteration # 12     ecut=    50.00 Ry     beta= 0.70
     Davidson diagonalization with overlap
     ethr =  4.82E-09,  avg # of iterations =  4.0

     negative rho (up, down):  6.008E-02 0.000E+00

     total cpu time spent up to now is      772.8 secs

     total energy              =    -207.22149556 Ry
     estimated scf accuracy    <       0.00000809 Ry

     iteration # 13     ecut=    50.00 Ry     beta= 0.70
     Davidson diagonalization with overlap
     ethr =  4.82E-09,  avg # of iterations =  4.4

     negative rho (up, down):  6.008E-02 0.000E+00

     total cpu time spent up to now is      777.3 secs

     total energy              =    -207.22149582 Ry
     estimated scf accuracy    <       0.00000132 Ry

     iteration # 14     ecut=    50.00 Ry     beta= 0.70
     Davidson diagonalization with overlap
     ethr =  3.77E-09,  avg # of iterations =  2.0

     negative rho (up, down):  6.009E-02 0.000E+00

     total cpu time spent up to now is      781.3 secs

     total energy              =    -207.22149566 Ry
     estimated scf accuracy    <       0.00000049 Ry

     iteration # 15     ecut=    50.00 Ry     beta= 0.70
     Davidson diagonalization with overlap
     ethr =  1.39E-09,  avg # of iterations =  4.6

     negative rho (up, down):  6.009E-02 0.000E+00

     total cpu time spent up to now is      786.1 secs

     End of self-consistent calculation

          k = 0.0000 0.0000 0.0000 (  5429 PWs)   bands (ev):

   -45.2199 -44.6827 -24.8013 -23.8802 -23.7941 -22.8474 -22.8239 -22.5992
    -6.2081  -4.5633  -4.4076  -3.3411  -2.9306  -2.6656   1.4339   1.7055
     2.2596   5.6291   5.8863   5.9649   6.0434   6.3642

          k =-0.0085 0.1112-0.6840 (  5402 PWs)   bands (ev):

   -45.1702 -44.7387 -24.2207 -23.8563 -23.7685 -23.2920 -22.8755 -22.8549
    -4.8945  -4.6567  -4.2954  -3.9559  -3.5743  -3.2927   2.2140   3.0571
     3.1702   3.9929   4.4927   5.3870   6.4416   6.5408

          k = 0.3380-0.5095 0.2928 (  5430 PWs)   bands (ev):

   -45.1702 -44.7387 -24.2208 -23.8560 -23.7688 -23.2920 -22.8767 -22.8537
    -5.1300  -4.3602  -4.1637  -3.9291  -3.8090  -3.2393   2.0270   3.1544
     3.1964   3.8766   4.4507   5.3916   6.4838   6.6380

          k = 0.3295-0.3983-0.3912 (  5420 PWs)   bands (ev):

   -45.2198 -44.6827 -24.8014 -23.8807 -23.7957 -22.8488 -22.8247 -22.5993
    -5.4528  -4.4910  -4.2777  -4.2098  -3.3474  -3.0526   1.5570   2.6568
     2.8454   5.2135   5.3140   5.6347   5.9356   6.0928

          k =-0.2946-0.4937 0.2919 (  5412 PWs)   bands (ev):

   -45.1702 -44.7387 -24.2208 -23.8561 -23.7683 -23.2921 -22.8752 -22.8542
    -5.1482  -4.6519  -4.2874  -3.7281  -3.6319  -3.1199   2.4172   2.6855
     2.9370   4.1036   4.4292   5.3004   6.1247   6.8354

          k =-0.3031-0.3825-0.3921 (  5402 PWs)   bands (ev):

   -45.2198 -44.6827 -24.8014 -23.8813 -23.7946 -22.8478 -22.8253 -22.5993
    -5.5639  -4.3923  -4.2019  -4.1198  -3.4170  -3.1558   1.7391   2.3354
     2.7330   5.1232   5.1398   5.8688   5.8837   6.0892

          k = 0.0433-1.0032 0.5847 (  5400 PWs)   bands (ev):

   -45.2198 -44.6827 -24.8016 -23.8809 -23.7952 -22.8487 -22.8243 -22.5994
    -5.5384  -4.2654  -4.2388  -4.1132  -3.5744  -3.0910   1.4278   2.4255
     2.9325   4.9867   5.2169   5.4680   5.9115   6.0377

          k = 0.0349-0.8920-0.0993 (  5398 PWs)   bands (ev):

   -45.1702 -44.7387 -24.2208 -23.8564 -23.7691 -23.2920 -22.8770 -22.8552
    -4.6518  -4.4043  -4.1365  -4.1084  -3.7745  -3.7153   2.4789   2.9564
     3.8126   3.9267   4.5729   5.4794   6.1580   6.4202

     the Fermi energy is     4.2432 ev

!    total energy              =    -207.22149582 Ry
     estimated scf accuracy    <       0.00000005 Ry
     smearing contrib. (-TS)   =       0.00136086 Ry
     internal energy E=F+TS    =    -207.22285668 Ry

     The total energy is F=E-TS. E is the sum of the following terms:
     one-electron contribution =    -146.54780886 Ry
     hartree contribution      =      76.93523605 Ry
     xc contribution           =     -39.63445598 Ry
     ewald contribution        =     -97.97414557 Ry
     one-center paw contrib.   =      -0.00168232 Ry

     convergence has been achieved in  15 iterations

     negative rho (up, down):  6.009E-02 0.000E+00

     Forces acting on atoms (cartesian axes, Ry/au):

     atom    1 type  3   force =     0.00000000    0.00000000    0.00000000
     atom    2 type  2   force =     0.00000000    0.00000000    0.00000000
     atom    3 type  1   force =    -0.00976530   -0.01719105    0.00713064
     atom    4 type  1   force =     0.00976530    0.01719105   -0.00713064
     atom    5 type  1   force =     0.00129422    0.00268353    0.00752758
     atom    6 type  1   force =     0.00122455    0.00473435   -0.00410141
     atom    7 type  1   force =    -0.00129422   -0.00268353   -0.00752758
     atom    8 type  1   force =    -0.00122455   -0.00473435    0.00410141
     atom    9 type  1   force =     0.00064091   -0.00134457   -0.00548212
     atom   10 type  1   force =     0.00430041    0.00156017    0.00537267
     atom   11 type  1   force =    -0.00064091    0.00134457    0.00548212
     atom   12 type  1   force =    -0.00430041   -0.00156017   -0.00537267
     atom   13 type  1   force =    -0.00071477   -0.00971060   -0.00255536
     atom   14 type  1   force =     0.00071477    0.00971060    0.00255536

     Total force =     0.038247     Total SCF correction =     0.000121


     Computing stress (Cartesian axis) and pressure


     negative rho (up, down):  6.009E-02 0.000E+00
          total   stress  (Ry/bohr**3)                   (kbar)     P=        4.89
  -0.00001277  -0.00005412   0.00004460           -1.88       -7.96        6.56
  -0.00005412   0.00003957  -0.00000367           -7.96        5.82       -0.54
   0.00004460  -0.00000367   0.00007295            6.56       -0.54       10.73

     Energy error            =      6.5E-03
     Gradient error          =      1.7E-02
     Cell gradient error     =      7.3E-05


     number of scf cycles    =   9
     number of bfgs steps    =   8

     enthalpy old            =    -207.2149767412 Ry
     enthalpy new            =    -207.2214958226 Ry

     CASE: enthalpy_new < enthalpy_old

     new trust radius        =       0.1030304429 bohr
     new conv_thr            =       0.0000001719 Ry

     new unit-cell volume =    875.38088 a.u.^3 (   129.71806 Ang^3 )
     density =      0.17922 g/cm^3

CELL_PARAMETERS (angstrom)
   4.686075806   3.394172101   0.521570632
  -4.572850163   3.087413269   0.554036914
   0.054186105   2.783784693   4.787450930

ATOMIC_POSITIONS (angstrom)
Zr           -2.2864235848        1.5437066179        0.2770184329
Sc            2.3701314289        3.0889798945        2.6545113460
H            -0.6716293263        1.1342182133        1.4555917548
H             0.8390400769        8.1311518603        4.4074667376
H             2.0445811843        5.7320226448        5.3784210677
H            -0.5887682984        6.8925043476        1.9591277256
H            -1.8771694237        3.5333464338        0.4846373555
H             0.7561800591        2.3728647310        3.9039306977
H             1.2076490881        4.8368109094        2.5379986280
H             2.0262157237        5.1768574421        2.8180313544
H            -1.0402383651        4.4285602027        3.3250609039
H            -1.8588039752        4.0885126205        3.0450271219
H             1.1697318270        3.3720764379        0.9182234700
H            -1.0023200819        5.8932926952        4.9448359396



     Writing output data file ./tmp/ZrScH12.save/
     NEW-OLD atomic charge density approx. for the potential

     negative rho (up, down):  5.965E-02 0.000E+00
     extrapolated charge   34.73126, renormalised to   35.00000

     total cpu time spent up to now is      815.4 secs

     Self-consistent Calculation

     iteration #  1     ecut=    50.00 Ry     beta= 0.70
     Davidson diagonalization with overlap
     ethr =  1.00E-06,  avg # of iterations = 11.2

     negative rho (up, down):  6.005E-02 0.000E+00

     total cpu time spent up to now is      824.1 secs

     total energy              =    -207.18851284 Ry
     estimated scf accuracy    <       0.03457759 Ry

     iteration #  2     ecut=    50.00 Ry     beta= 0.70
     Davidson diagonalization with overlap
     ethr =  9.88E-05,  avg # of iterations =  7.2

     negative rho (up, down):  5.998E-02 0.000E+00

     total cpu time spent up to now is      830.0 secs

     total energy              =    -207.21558575 Ry
     estimated scf accuracy    <       0.16681673 Ry

     iteration #  3     ecut=    50.00 Ry     beta= 0.70
     Davidson diagonalization with overlap
     ethr =  9.88E-05,  avg # of iterations =  4.5

     negative rho (up, down):  6.004E-02 0.000E+00

     total cpu time spent up to now is      835.0 secs

     total energy              =    -207.22855841 Ry
     estimated scf accuracy    <       0.01969737 Ry

     iteration #  4     ecut=    50.00 Ry     beta= 0.70
     Davidson diagonalization with overlap
     ethr =  5.63E-05,  avg # of iterations =  1.6

     negative rho (up, down):  6.023E-02 0.000E+00

     total cpu time spent up to now is      838.9 secs

     total energy              =    -207.22465261 Ry
     estimated scf accuracy    <       0.01160549 Ry

     iteration #  5     ecut=    50.00 Ry     beta= 0.70
     Davidson diagonalization with overlap
     ethr =  3.32E-05,  avg # of iterations =  3.0

     negative rho (up, down):  6.025E-02 0.000E+00

     total cpu time spent up to now is      843.2 secs

     total energy              =    -207.22655752 Ry
     estimated scf accuracy    <       0.00038261 Ry

     iteration #  6     ecut=    50.00 Ry     beta= 0.70
     Davidson diagonalization with overlap
     ethr =  1.09E-06,  avg # of iterations =  6.5

     negative rho (up, down):  6.019E-02 0.000E+00

     total cpu time spent up to now is      848.8 secs

     total energy              =    -207.22695415 Ry
     estimated scf accuracy    <       0.00025106 Ry

     iteration #  7     ecut=    50.00 Ry     beta= 0.70
     Davidson diagonalization with overlap
     ethr =  7.17E-07,  avg # of iterations =  2.8

     negative rho (up, down):  6.009E-02 0.000E+00

     total cpu time spent up to now is      852.8 secs

     total energy              =    -207.22695711 Ry
     estimated scf accuracy    <       0.00003019 Ry

     iteration #  8     ecut=    50.00 Ry     beta= 0.70
     Davidson diagonalization with overlap
     ethr =  8.63E-08,  avg # of iterations =  5.6

     negative rho (up, down):  6.012E-02 0.000E+00

     total cpu time spent up to now is      858.1 secs

     total energy              =    -207.22696484 Ry
     estimated scf accuracy    <       0.00010947 Ry

     iteration #  9     ecut=    50.00 Ry     beta= 0.70
     Davidson diagonalization with overlap
     ethr =  8.63E-08,  avg # of iterations =  4.6

     negative rho (up, down):  6.013E-02 0.000E+00

     total cpu time spent up to now is      863.0 secs

     total energy              =    -207.22698136 Ry
     estimated scf accuracy    <       0.00000105 Ry

     iteration # 10     ecut=    50.00 Ry     beta= 0.70
     Davidson diagonalization with overlap
     ethr =  2.99E-09,  avg # of iterations =  5.6

     negative rho (up, down):  6.012E-02 0.000E+00

     total cpu time spent up to now is      868.3 secs

     total energy              =    -207.22698193 Ry
     estimated scf accuracy    <       0.00000314 Ry

     iteration # 11     ecut=    50.00 Ry     beta= 0.70
     Davidson diagonalization with overlap
     ethr =  2.99E-09,  avg # of iterations =  4.2

     negative rho (up, down):  6.012E-02 0.000E+00

     total cpu time spent up to now is      872.8 secs

     End of self-consistent calculation

          k = 0.0000 0.0000 0.0000 (  5429 PWs)   bands (ev):

   -45.1381 -44.5951 -24.7526 -23.7916 -23.7206 -22.7616 -22.7545 -22.5104
    -6.2281  -4.6489  -4.4705  -3.2635  -3.0325  -2.7146   1.5229   1.7052
     2.2998   5.7148   6.0539   6.1039   6.1174   6.5761

          k =-0.0061 0.1133-0.6819 (  5402 PWs)   bands (ev):

   -45.0854 -44.6546 -24.1472 -23.7657 -23.6937 -23.2298 -22.7939 -22.7889
    -4.9694  -4.6375  -4.3296  -3.9797  -3.6802  -3.2858   2.2530   3.0959
     3.2451   4.0667   4.5631   5.4493   6.5085   6.7434

          k = 0.3364-0.5094 0.2924 (  5430 PWs)   bands (ev):

   -45.0854 -44.6546 -24.1473 -23.7654 -23.6939 -23.2298 -22.7953 -22.7875
    -5.1021  -4.4498  -4.2447  -3.9484  -3.8735  -3.2391   2.1169   3.1544
     3.3050   3.9393   4.5224   5.4417   6.6140   6.7536

          k = 0.3303-0.3962-0.3894 (  5420 PWs)   bands (ev):

   -45.1381 -44.5951 -24.7528 -23.7921 -23.7222 -22.7626 -22.7557 -22.5105
    -5.5159  -4.4532  -4.4052  -4.1714  -3.4596  -3.0454   1.5840   2.7010
     2.8751   5.2751   5.3708   5.7149   6.0089   6.1810

          k =-0.3010-0.4984 0.2932 (  5412 PWs)   bands (ev):

   -45.0854 -44.6546 -24.1473 -23.7656 -23.6934 -23.2299 -22.7943 -22.7877
    -5.1903  -4.5911  -4.3110  -3.7925  -3.6693  -3.2612   2.4538   2.7743
     3.0439   4.1494   4.4853   5.3744   6.3168   6.8958

          k =-0.3071-0.3852-0.3886 (  5402 PWs)   bands (ev):

   -45.1381 -44.5951 -24.7528 -23.7927 -23.7211 -22.7621 -22.7559 -22.5104
    -5.5889  -4.4467  -4.2941  -4.1249  -3.3743  -3.2442   1.7397   2.4177
     2.7855   5.2123   5.2616   5.9346   5.9745   6.1695

          k = 0.0354-1.0079 0.5857 (  5400 PWs)   bands (ev):

   -45.1381 -44.5951 -24.7530 -23.7924 -23.7217 -22.7632 -22.7548 -22.5105
    -5.5247  -4.3605  -4.2485  -4.2203  -3.5724  -3.1419   1.5352   2.5070
     2.9356   5.0922   5.3169   5.5040   5.9970   6.1246

          k = 0.0293-0.8946-0.0962 (  5398 PWs)   bands (ev):

   -45.0854 -44.6546 -24.1472 -23.7658 -23.6942 -23.2298 -22.7955 -22.7892
    -4.6659  -4.4403  -4.1738  -4.0814  -3.8568  -3.7838   2.5889   2.9429
     3.8144   3.9254   4.6728   5.5676   6.3604   6.5157

     the Fermi energy is     4.3039 ev

!    total energy              =    -207.22698221 Ry
     estimated scf accuracy    <       0.00000013 Ry
     smearing contrib. (-TS)   =       0.00132928 Ry
     internal energy E=F+TS    =    -207.22831149 Ry

     The total energy is F=E-TS. E is the sum of the following terms:
     one-electron contribution =    -146.98040607 Ry
     hartree contribution      =      77.23308111 Ry
     xc contribution           =     -39.69378078 Ry
     ewald contribution        =     -97.78552437 Ry
     one-center paw contrib.   =      -0.00168138 Ry

     convergence has been achieved in  11 iterations

     negative rho (up, down):  6.012E-02 0.000E+00

     Forces acting on atoms (cartesian axes, Ry/au):

     atom    1 type  3   force =     0.00000000    0.00000000    0.00000000
     atom    2 type  2   force =     0.00000000    0.00000000    0.00000000
     atom    3 type  1   force =    -0.00557449   -0.00734090    0.01012301
     atom    4 type  1   force =     0.00557449    0.00734090   -0.01012301
     atom    5 type  1   force =     0.00262031   -0.00232633    0.00136442
     atom    6 type  1   force =     0.00411874   -0.00569210   -0.00549476
     atom    7 type  1   force =    -0.00262031    0.00232633   -0.00136442
     atom    8 type  1   force =    -0.00411874    0.00569210    0.00549476
     atom    9 type  1   force =    -0.00205506   -0.00067120   -0.00528865
     atom   10 type  1   force =     0.00522752    0.00024874    0.00500984
     atom   11 type  1   force =     0.00205506    0.00067120    0.00528865
     atom   12 type  1   force =    -0.00522752   -0.00024874   -0.00500984
     atom   13 type  1   force =    -0.00475254   -0.01133068    0.00252675
     atom   14 type  1   force =     0.00475254    0.01133068   -0.00252675

     Total force =     0.032361     Total SCF correction =     0.000190


     Computing stress (Cartesian axis) and pressure


     negative rho (up, down):  6.012E-02 0.000E+00
          total   stress  (Ry/bohr**3)                   (kbar)     P=       14.64
   0.00006948  -0.00003563   0.00003903           10.22       -5.24        5.74
  -0.00003563   0.00013375   0.00000595           -5.24       19.68        0.88
   0.00003903   0.00000595   0.00009523            5.74        0.88       14.01

     Energy error            =      5.5E-03
     Gradient error          =      1.1E-02
     Cell gradient error     =      1.3E-04


     number of scf cycles    =  10
     number of bfgs steps    =   9

     enthalpy old            =    -207.2214958226 Ry
     enthalpy new            =    -207.2269822117 Ry

     CASE: enthalpy_new < enthalpy_old

     new trust radius        =       0.0902159719 bohr
     new conv_thr            =       0.0000001133 Ry

     new unit-cell volume =    876.12851 a.u.^3 (   129.82885 Ang^3 )
     density =      0.17906 g/cm^3

CELL_PARAMETERS (angstrom)
   4.644887524   3.369455359   0.544339767
  -4.572002422   3.117429733   0.550642952
   0.050790261   2.796584137   4.816201601

ATOMIC_POSITIONS (angstrom)
Zr           -2.2859997207        1.5587148408        0.2753214559
Sc            2.3478393555        3.0830212454        2.6802712563
H            -0.6970041472        1.1074562353        1.4826114842
H             0.8206785170        8.1760130110        4.4285728499
H             2.0240081791        5.7400617091        5.4467128038
H            -0.6291580505        6.9154876097        1.9593122888
H            -1.9003327973        3.5434065355        0.4644714614
H             0.7528334322        2.3679806349        3.9518719764
H             1.1819368329        4.8299306786        2.5606004800
H             2.0007636127        5.1819070022        2.8458435680
H            -1.0582624942        4.4535396094        3.3505849006
H            -1.8770882494        4.1015622271        3.0653407526
H             1.1393906489        3.3550948114        0.9156939460
H            -1.0157152797        5.9283734903        4.9954913104



     Writing output data file ./tmp/ZrScH12.save/
     NEW-OLD atomic charge density approx. for the potential

     negative rho (up, down):  6.018E-02 0.000E+00
     extrapolated charge   35.02986, renormalised to   35.00000

     total cpu time spent up to now is      902.4 secs

     Self-consistent Calculation

     iteration #  1     ecut=    50.00 Ry     beta= 0.70
     Davidson diagonalization with overlap
     ethr =  1.00E-06,  avg # of iterations =  9.4

     negative rho (up, down):  6.014E-02 0.000E+00

     total cpu time spent up to now is      909.9 secs

     total energy              =    -207.22960900 Ry
     estimated scf accuracy    <       0.00057111 Ry

     iteration #  2     ecut=    50.00 Ry     beta= 0.70
     Davidson diagonalization with overlap
     ethr =  1.63E-06,  avg # of iterations =  5.9

     negative rho (up, down):  6.014E-02 0.000E+00

     total cpu time spent up to now is      915.4 secs

     total energy              =    -207.22975079 Ry
     estimated scf accuracy    <       0.00133037 Ry

     iteration #  3     ecut=    50.00 Ry     beta= 0.70
     Davidson diagonalization with overlap
     ethr =  1.63E-06,  avg # of iterations =  4.0

     negative rho (up, down):  6.013E-02 0.000E+00

     total cpu time spent up to now is      920.0 secs

     total energy              =    -207.22989014 Ry
     estimated scf accuracy    <       0.00006307 Ry

     iteration #  4     ecut=    50.00 Ry     beta= 0.70
     Davidson diagonalization with overlap
     ethr =  1.80E-07,  avg # of iterations =  4.8

     negative rho (up, down):  6.013E-02 0.000E+00

     total cpu time spent up to now is      924.6 secs

     total energy              =    -207.22991291 Ry
     estimated scf accuracy    <       0.00004765 Ry

     iteration #  5     ecut=    50.00 Ry     beta= 0.70
     Davidson diagonalization with overlap
     ethr =  1.36E-07,  avg # of iterations =  3.0

     negative rho (up, down):  6.013E-02 0.000E+00

     total cpu time spent up to now is      928.8 secs

     total energy              =    -207.22991405 Ry
     estimated scf accuracy    <       0.00001237 Ry

     iteration #  6     ecut=    50.00 Ry     beta= 0.70
     Davidson diagonalization with overlap
     ethr =  3.54E-08,  avg # of iterations =  4.1

     negative rho (up, down):  6.013E-02 0.000E+00

     total cpu time spent up to now is      933.3 secs

     total energy              =    -207.22991675 Ry
     estimated scf accuracy    <       0.00000203 Ry

     iteration #  7     ecut=    50.00 Ry     beta= 0.70
     Davidson diagonalization with overlap
     ethr =  5.81E-09,  avg # of iterations =  3.6

     negative rho (up, down):  6.013E-02 0.000E+00

     total cpu time spent up to now is      937.4 secs

     End of self-consistent calculation

          k = 0.0000 0.0000 0.0000 (  5429 PWs)   bands (ev):

   -45.1415 -44.6025 -24.7601 -23.7889 -23.7314 -22.7717 -22.7604 -22.5214
    -6.2481  -4.6898  -4.5078  -3.2504  -3.0580  -2.7729   1.5539   1.6470
     2.2855   5.6998   6.0582   6.0981   6.1989   6.6434

          k =-0.0036 0.1146-0.6789 (  5402 PWs)   bands (ev):

   -45.0883 -44.6624 -24.1518 -23.7624 -23.7046 -23.2428 -22.8063 -22.7940
    -5.0212  -4.6373  -4.3734  -3.9645  -3.7382  -3.3034   2.2362   3.0716
     3.2453   4.0568   4.5474   5.4325   6.4913   6.8324

          k = 0.3341-0.5076 0.2912 (  5430 PWs)   bands (ev):

   -45.0883 -44.6624 -24.1519 -23.7622 -23.7048 -23.2429 -22.8054 -22.7949
    -5.0988  -4.5289  -4.2849  -4.0279  -3.8213  -3.2560   2.1474   3.0892
     3.3150   3.9259   4.5064   5.4124   6.6275   6.7862

          k = 0.3305-0.3929-0.3877 (  5420 PWs)   bands (ev):

   -45.1415 -44.6025 -24.7604 -23.7893 -23.7330 -22.7724 -22.7619 -22.5215
    -5.5695  -4.4765  -4.4148  -4.1565  -3.5241  -3.0666   1.5621   2.6831
     2.8515   5.2523   5.3383   5.7065   6.0008   6.1666

          k =-0.3061-0.5009 0.2941 (  5412 PWs)   bands (ev):

   -45.0883 -44.6624 -24.1519 -23.7625 -23.7044 -23.2429 -22.8062 -22.7936
    -5.2112  -4.5665  -4.3122  -3.8474  -3.7143  -3.3416   2.4158   2.8085
     3.0683   4.1124   4.4606   5.3670   6.3976   6.8700

          k =-0.3097-0.3862-0.3849 (  5402 PWs)   bands (ev):

   -45.1415 -44.6025 -24.7603 -23.7900 -23.7319 -22.7731 -22.7608 -22.5215
    -5.6199  -4.4667  -4.3475  -4.1381  -3.3608  -3.2960   1.6848   2.4487
     2.7790   5.2077   5.2870   5.9052   5.9772   6.1718

          k = 0.0280-1.0084 0.5853 (  5400 PWs)   bands (ev):

   -45.1415 -44.6025 -24.7605 -23.7898 -23.7324 -22.7724 -22.7616 -22.5215
    -5.5306  -4.4215  -4.2635  -4.2539  -3.5692  -3.2071   1.5847   2.5239
     2.8867   5.0974   5.3127   5.4338   5.9943   6.1246

          k = 0.0244-0.8938-0.0936 (  5398 PWs)   bands (ev):

   -45.0883 -44.6624 -24.1519 -23.7627 -23.7051 -23.2428 -22.8069 -22.7953
    -4.6977  -4.4195  -4.2268  -4.0931  -3.9064  -3.8153   2.6412   2.8776
     3.7389   3.8652   4.6785   5.5641   6.4348   6.5334

     the Fermi energy is     4.2811 ev

!    total energy              =    -207.22991716 Ry
     estimated scf accuracy    <       0.00000005 Ry
     smearing contrib. (-TS)   =       0.00126424 Ry
     internal energy E=F+TS    =    -207.23118140 Ry

     The total energy is F=E-TS. E is the sum of the following terms:
     one-electron contribution =    -147.50240396 Ry
     hartree contribution      =      77.48099288 Ry
     xc contribution           =     -39.70468147 Ry
     ewald contribution        =     -97.50340759 Ry
     one-center paw contrib.   =      -0.00168125 Ry

     convergence has been achieved in   7 iterations

     negative rho (up, down):  6.013E-02 0.000E+00

     Forces acting on atoms (cartesian axes, Ry/au):

     atom    1 type  3   force =     0.00000000    0.00000000    0.00000000
     atom    2 type  2   force =     0.00000000    0.00000000    0.00000000
     atom    3 type  1   force =    -0.00323678   -0.00178588    0.00891962
     atom    4 type  1   force =     0.00323678    0.00178588   -0.00891962
     atom    5 type  1   force =     0.00274666   -0.00460253   -0.00258159
     atom    6 type  1   force =     0.00492972   -0.00993925   -0.00438694
     atom    7 type  1   force =    -0.00274666    0.00460253    0.00258159
     atom    8 type  1   force =    -0.00492972    0.00993925    0.00438694
     atom    9 type  1   force =    -0.00192544    0.00002859   -0.00441426
     atom   10 type  1   force =     0.00403494   -0.00207817    0.00303039
     atom   11 type  1   force =     0.00192544   -0.00002859    0.00441426
     atom   12 type  1   force =    -0.00403494    0.00207817   -0.00303039
     atom   13 type  1   force =    -0.00554919   -0.01152269    0.00605280
     atom   14 type  1   force =     0.00554919    0.01152269   -0.00605280

     Total force =     0.032377     Total SCF correction =     0.000116


     Computing stress (Cartesian axis) and pressure


     negative rho (up, down):  6.013E-02 0.000E+00
          total   stress  (Ry/bohr**3)                   (kbar)     P=       16.04
   0.00009360  -0.00001850   0.00002319           13.77       -2.72        3.41
  -0.00001850   0.00015659   0.00000927           -2.72       23.03        1.36
   0.00002319   0.00000927   0.00007697            3.41        1.36       11.32

     Energy error            =      2.9E-03
     Gradient error          =      1.2E-02
     Cell gradient error     =      1.6E-04


     number of scf cycles    =  11
     number of bfgs steps    =  10

     enthalpy old            =    -207.2269822117 Ry
     enthalpy new            =    -207.2299171638 Ry

     CASE: enthalpy_new < enthalpy_old

     new trust radius        =       0.0734892552 bohr
     new conv_thr            =       0.0000001152 Ry

     new unit-cell volume =    883.59574 a.u.^3 (   130.93538 Ang^3 )
     density =      0.17755 g/cm^3

CELL_PARAMETERS (angstrom)
   4.622880030   3.363138797   0.564058497
  -4.581136179   3.152884006   0.542066648
   0.052336126   2.811910083   4.844358180

ATOMIC_POSITIONS (angstrom)
Zr           -2.2905666009        1.5764419703        0.2710333084
Sc            2.3376085342        3.0875259417        2.7042089165
H            -0.7179900241        1.0884934423        1.5057933420
H             0.8120690089        8.2394394647        4.4446899944
H             2.0154911505        5.7619451625        5.5020494810
H            -0.6570494227        6.9537813071        1.9579482313
H            -1.9214111499        3.5659867336        0.4484337886
H             0.7511294234        2.3741505890        3.9925350382
H             1.1668702311        4.8423604666        2.5740749437
H             1.9878217264        5.1994702529        2.8737357198
H            -1.0727912793        4.4855734876        3.3764094456
H            -1.8937417492        4.1284626324        3.0767476062
H             1.1188980526        3.3460743144        0.9191597788
H            -1.0248180614        5.9818576397        5.0313244872



     Writing output data file ./tmp/ZrScH12.save/
     NEW-OLD atomic charge density approx. for the potential

     negative rho (up, down):  6.066E-02 0.000E+00
     extrapolated charge   35.29574, renormalised to   35.00000

     total cpu time spent up to now is      967.0 secs

     Self-consistent Calculation

     iteration #  1     ecut=    50.00 Ry     beta= 0.70
     Davidson diagonalization with overlap
     c_bands:  1 eigenvalues not converged
     ethr =  1.00E-06,  avg # of iterations = 11.8

     negative rho (up, down):  6.007E-02 0.000E+00

     total cpu time spent up to now is      975.4 secs

     total energy              =    -207.19711829 Ry
     estimated scf accuracy    <       0.02947165 Ry

     iteration #  2     ecut=    50.00 Ry     beta= 0.70
     Davidson diagonalization with overlap
     ethr =  8.42E-05,  avg # of iterations =  6.8

     negative rho (up, down):  6.014E-02 0.000E+00

     total cpu time spent up to now is      981.2 secs

     total energy              =    -207.21770581 Ry
     estimated scf accuracy    <       0.19294359 Ry

     iteration #  3     ecut=    50.00 Ry     beta= 0.70
     Davidson diagonalization with overlap
     ethr =  8.42E-05,  avg # of iterations =  4.5

     negative rho (up, down):  6.009E-02 0.000E+00

     total cpu time spent up to now is      986.6 secs

     total energy              =    -207.23325166 Ry
     estimated scf accuracy    <       0.02685140 Ry

     iteration #  4     ecut=    50.00 Ry     beta= 0.70
     Davidson diagonalization with overlap
     ethr =  7.67E-05,  avg # of iterations =  1.5

     negative rho (up, down):  6.003E-02 0.000E+00

     total cpu time spent up to now is      990.5 secs

     total energy              =    -207.23130868 Ry
     estimated scf accuracy    <       0.01263276 Ry

     iteration #  5     ecut=    50.00 Ry     beta= 0.70
     Davidson diagonalization with overlap
     ethr =  3.61E-05,  avg # of iterations =  2.0

     negative rho (up, down):  5.998E-02 0.000E+00

     total cpu time spent up to now is      994.5 secs

     total energy              =    -207.23093927 Ry
     estimated scf accuracy    <       0.00373075 Ry

     iteration #  6     ecut=    50.00 Ry     beta= 0.70
     Davidson diagonalization with overlap
     ethr =  1.07E-05,  avg # of iterations =  4.5

     negative rho (up, down):  6.001E-02 0.000E+00

     total cpu time spent up to now is      999.0 secs

     total energy              =    -207.23218362 Ry
     estimated scf accuracy    <       0.00010264 Ry

     iteration #  7     ecut=    50.00 Ry     beta= 0.70
     Davidson diagonalization with overlap
     ethr =  2.93E-07,  avg # of iterations =  4.4

     negative rho (up, down):  6.007E-02 0.000E+00

     total cpu time spent up to now is     1003.7 secs

     total energy              =    -207.23218801 Ry
     estimated scf accuracy    <       0.00008098 Ry

     iteration #  8     ecut=    50.00 Ry     beta= 0.70
     Davidson diagonalization with overlap
     ethr =  2.31E-07,  avg # of iterations =  3.9

     negative rho (up, down):  6.014E-02 0.000E+00

     total cpu time spent up to now is     1008.0 secs

     total energy              =    -207.23219671 Ry
     estimated scf accuracy    <       0.00000620 Ry

     iteration #  9     ecut=    50.00 Ry     beta= 0.70
     Davidson diagonalization with overlap
     ethr =  1.77E-08,  avg # of iterations =  4.9

     negative rho (up, down):  6.012E-02 0.000E+00

     total cpu time spent up to now is     1012.8 secs

     total energy              =    -207.23219865 Ry
     estimated scf accuracy    <       0.00000925 Ry

     iteration # 10     ecut=    50.00 Ry     beta= 0.70
     Davidson diagonalization with overlap
     ethr =  1.77E-08,  avg # of iterations =  4.0

     negative rho (up, down):  6.012E-02 0.000E+00

     total cpu time spent up to now is     1017.5 secs

     total energy              =    -207.23220021 Ry
     estimated scf accuracy    <       0.00000160 Ry

     iteration # 11     ecut=    50.00 Ry     beta= 0.70
     Davidson diagonalization with overlap
     ethr =  4.58E-09,  avg # of iterations =  3.6

     negative rho (up, down):  6.012E-02 0.000E+00

     total cpu time spent up to now is     1021.7 secs

     total energy              =    -207.23220007 Ry
     estimated scf accuracy    <       0.00000113 Ry

     iteration # 12     ecut=    50.00 Ry     beta= 0.70
     Davidson diagonalization with overlap
     ethr =  3.22E-09,  avg # of iterations =  3.0

     negative rho (up, down):  6.012E-02 0.000E+00

     total cpu time spent up to now is     1025.8 secs

     End of self-consistent calculation

          k = 0.0000 0.0000 0.0000 (  5429 PWs)   bands (ev):

   -45.2102 -44.6858 -24.8001 -23.8537 -23.8080 -22.8533 -22.8302 -22.6174
    -6.2791  -4.7181  -4.5448  -3.2945  -3.0781  -2.8735   1.5498   1.5696
     2.2345   5.6106   5.9777   6.0306   6.1728   6.5890

          k =-0.0010 0.1147-0.6754 (  5402 PWs)   bands (ev):

   -45.1599 -44.7424 -24.2148 -23.8287 -23.7831 -23.3104 -22.8864 -22.8613
    -5.0717  -4.6654  -4.4228  -3.9712  -3.7931  -3.3697   2.1938   3.0061
     3.1956   3.9895   4.4630   5.3498   6.4117   6.4945

          k = 0.3313-0.5038 0.2888 (  5430 PWs)   bands (ev):

   -45.1599 -44.7424 -24.2149 -23.8286 -23.7833 -23.3104 -22.8853 -22.8623
    -5.1285  -4.6166  -4.3126  -4.0890  -3.8162  -3.3073   2.1372   2.9994
     3.2518   3.8626   4.4179   5.3189   6.5595   6.7466

          k = 0.3303-0.3891-0.3865 (  5420 PWs)   bands (ev):

   -45.2102 -44.6858 -24.8004 -23.8541 -23.8095 -22.8541 -22.8314 -22.6174
    -5.6245  -4.5314  -4.3991  -4.1713  -3.5901  -3.1442   1.5252   2.6280
     2.7995   5.1733   5.2367   5.6291   5.9233   6.0771

          k =-0.3097-0.5005 0.2939 (  5412 PWs)   bands (ev):

   -45.1599 -44.7424 -24.2149 -23.8288 -23.7828 -23.3104 -22.8861 -22.8613
    -5.2314  -4.5948  -4.3304  -3.9100  -3.7791  -3.4130   2.3375   2.8055
     3.0301   4.0258   4.3725   5.2875   6.3871   6.7747

          k =-0.3107-0.3859-0.3815 (  5402 PWs)   bands (ev):

   -45.2102 -44.6858 -24.8004 -23.8548 -23.8085 -22.8548 -22.8306 -22.6174
    -5.6629  -4.4808  -4.4015  -4.1779  -3.4057  -3.3451   1.6026   2.4526
     2.7369   5.1453   5.2314   5.8112   5.9023   6.1117

          k = 0.0216-1.0043 0.5827 (  5400 PWs)   bands (ev):

   -45.2102 -44.6858 -24.8005 -23.8546 -23.8089 -22.8539 -22.8315 -22.6175
    -5.5639  -4.4560  -4.3042  -4.2750  -3.6037  -3.3045   1.5867   2.5074
     2.8167   5.0179   5.2193   5.3233   5.9192   6.0486

          k = 0.0205-0.8897-0.0926 (  5398 PWs)   bands (ev):

   -45.1599 -44.7423 -24.2149 -23.8290 -23.7835 -23.3104 -22.8869 -22.8627
    -4.7284  -4.4147  -4.2923  -4.1714  -3.9252  -3.8846   2.6602   2.7956
     3.6204   3.7729   4.6062   5.4827   6.3988   6.4925

     the Fermi energy is     4.1978 ev

!    total energy              =    -207.23220010 Ry
     estimated scf accuracy    <       0.00000010 Ry
     smearing contrib. (-TS)   =       0.00112665 Ry
     internal energy E=F+TS    =    -207.23332674 Ry

     The total energy is F=E-TS. E is the sum of the following terms:
     one-electron contribution =    -147.97365270 Ry
     hartree contribution      =      77.62189250 Ry
     xc contribution           =     -39.67944112 Ry
     ewald contribution        =     -97.20044378 Ry
     one-center paw contrib.   =      -0.00168164 Ry

     convergence has been achieved in  12 iterations

     negative rho (up, down):  6.012E-02 0.000E+00

     Forces acting on atoms (cartesian axes, Ry/au):

     atom    1 type  3   force =     0.00000000    0.00000000    0.00000000
     atom    2 type  2   force =     0.00000000    0.00000000    0.00000000
     atom    3 type  1   force =    -0.00175157    0.00095110    0.00544877
     atom    4 type  1   force =     0.00175157   -0.00095110   -0.00544877
     atom    5 type  1   force =     0.00238161   -0.00479551   -0.00422217
     atom    6 type  1   force =     0.00324628   -0.00961967   -0.00237662
     atom    7 type  1   force =    -0.00238161    0.00479551    0.00422217
     atom    8 type  1   force =    -0.00324628    0.00961967    0.00237662
     atom    9 type  1   force =    -0.00066780    0.00006577   -0.00266802
     atom   10 type  1   force =     0.00216567   -0.00430310   -0.00033776
     atom   11 type  1   force =     0.00066780   -0.00006577    0.00266802
     atom   12 type  1   force =    -0.00216567    0.00430310    0.00033776
     atom   13 type  1   force =    -0.00390425   -0.00960208    0.00781186
     atom   14 type  1   force =     0.00390425    0.00960208   -0.00781186

     Total force =     0.027865     Total SCF correction =     0.000145


     Computing stress (Cartesian axis) and pressure


     negative rho (up, down):  6.012E-02 0.000E+00
          total   stress  (Ry/bohr**3)                   (kbar)     P=       10.20
   0.00007125  -0.00000276   0.00000133           10.48       -0.41        0.20
  -0.00000276   0.00011382   0.00001561           -0.41       16.74        2.30
   0.00000133   0.00001561   0.00002293            0.20        2.30        3.37

     Energy error            =      2.3E-03
     Gradient error          =      9.6E-03
     Cell gradient error     =      1.1E-04


     number of scf cycles    =  12
     number of bfgs steps    =  11

     enthalpy old            =    -207.2299171638 Ry
     enthalpy new            =    -207.2322000966 Ry

     CASE: enthalpy_new < enthalpy_old

     new trust radius        =       0.0431727640 bohr
     new conv_thr            =       0.0000000962 Ry

     new unit-cell volume =    894.25030 a.u.^3 (   132.51422 Ang^3 )
     density =      0.17543 g/cm^3

CELL_PARAMETERS (angstrom)
   4.622402087   3.374288552   0.576118224
  -4.596126563   3.184020251   0.533246741
   0.056623893   2.827132934   4.862317995

ATOMIC_POSITIONS (angstrom)
Zr           -2.2980617905        1.5920100892        0.2666233581
Sc            2.3395134443        3.1007122531        2.7192186899
H            -0.7314653965        1.0803822932        1.5196512017
H             0.8143638195        8.3050594673        4.4520317661
H             2.0186681571        5.7912154948        5.5294463267
H            -0.6675365411        6.9950763988        1.9570735779
H            -1.9357687138        3.5942252459        0.4422365764
H             0.7504359844        2.3903643419        4.0146093252
H             1.1645346733        4.8685635635        2.5759215939
H             1.9886036676        5.2225015177        2.8927935340
H            -1.0816362837        4.5168792505        3.3957624305
H            -1.9057042505        4.1629402187        3.0788894255
H             1.1119323824        3.3446069709        0.9290921952
H            -1.0290329464        6.0408338275        5.0425917080



     Writing output data file ./tmp/ZrScH12.save/
     NEW-OLD atomic charge density approx. for the potential

     negative rho (up, down):  6.085E-02 0.000E+00
     extrapolated charge   35.41695, renormalised to   35.00000

     total cpu time spent up to now is     1055.4 secs

     Self-consistent Calculation

     iteration #  1     ecut=    50.00 Ry     beta= 0.70
     Davidson diagonalization with overlap
     ethr =  1.00E-06,  avg # of iterations = 11.5

     negative rho (up, down):  5.997E-02 0.000E+00

     total cpu time spent up to now is     1062.8 secs

     total energy              =    -207.16726007 Ry
     estimated scf accuracy    <       0.05581906 Ry

     iteration #  2     ecut=    50.00 Ry     beta= 0.70
     Davidson diagonalization with overlap
     ethr =  1.59E-04,  avg # of iterations =  6.8

     negative rho (up, down):  6.010E-02 0.000E+00

     total cpu time spent up to now is     1068.8 secs

     total energy              =    -207.20100469 Ry
     estimated scf accuracy    <       0.40606692 Ry

     iteration #  3     ecut=    50.00 Ry     beta= 0.70
     Davidson diagonalization with overlap
     ethr =  1.59E-04,  avg # of iterations =  4.5

     negative rho (up, down):  6.002E-02 0.000E+00

     total cpu time spent up to now is     1073.8 secs

     total energy              =    -207.23396271 Ry
     estimated scf accuracy    <       0.07202413 Ry

     iteration #  4     ecut=    50.00 Ry     beta= 0.70
     Davidson diagonalization with overlap
     ethr =  1.59E-04,  avg # of iterations =  1.5

     negative rho (up, down):  5.998E-02 0.000E+00

     total cpu time spent up to now is     1077.9 secs

     total energy              =    -207.23411561 Ry
     estimated scf accuracy    <       0.02427412 Ry

     iteration #  5     ecut=    50.00 Ry     beta= 0.70
     Davidson diagonalization with overlap
     ethr =  6.94E-05,  avg # of iterations =  2.0

     negative rho (up, down):  5.993E-02 0.000E+00

     total cpu time spent up to now is     1081.9 secs

     total energy              =    -207.23288831 Ry
     estimated scf accuracy    <       0.01100067 Ry

     iteration #  6     ecut=    50.00 Ry     beta= 0.70
     Davidson diagonalization with overlap
     ethr =  3.14E-05,  avg # of iterations =  3.0

     negative rho (up, down):  5.995E-02 0.000E+00

     total cpu time spent up to now is     1086.0 secs

     total energy              =    -207.23344068 Ry
     estimated scf accuracy    <       0.00232451 Ry

     iteration #  7     ecut=    50.00 Ry     beta= 0.70
     Davidson diagonalization with overlap
     ethr =  6.64E-06,  avg # of iterations =  4.2

     negative rho (up, down):  5.998E-02 0.000E+00

     total cpu time spent up to now is     1090.6 secs

     total energy              =    -207.23395063 Ry
     estimated scf accuracy    <       0.00021448 Ry

     iteration #  8     ecut=    50.00 Ry     beta= 0.70
     Davidson diagonalization with overlap
     ethr =  6.13E-07,  avg # of iterations =  3.5

     negative rho (up, down):  6.005E-02 0.000E+00

     total cpu time spent up to now is     1094.9 secs

     total energy              =    -207.23400717 Ry
     estimated scf accuracy    <       0.00010547 Ry

     iteration #  9     ecut=    50.00 Ry     beta= 0.70
     Davidson diagonalization with overlap
     ethr =  3.01E-07,  avg # of iterations =  1.8

     negative rho (up, down):  6.011E-02 0.000E+00

     total cpu time spent up to now is     1099.0 secs

     total energy              =    -207.23396127 Ry
     estimated scf accuracy    <       0.00017071 Ry

     iteration # 10     ecut=    50.00 Ry     beta= 0.70
     Davidson diagonalization with overlap
     ethr =  3.01E-07,  avg # of iterations =  2.5

     negative rho (up, down):  6.009E-02 0.000E+00

     total cpu time spent up to now is     1103.0 secs

     total energy              =    -207.23395724 Ry
     estimated scf accuracy    <       0.00005082 Ry

     iteration # 11     ecut=    50.00 Ry     beta= 0.70
     Davidson diagonalization with overlap
     ethr =  1.45E-07,  avg # of iterations =  3.2

     negative rho (up, down):  6.009E-02 0.000E+00

     total cpu time spent up to now is     1107.2 secs

     total energy              =    -207.23396200 Ry
     estimated scf accuracy    <       0.00000787 Ry

     iteration # 12     ecut=    50.00 Ry     beta= 0.70
     Davidson diagonalization with overlap
     ethr =  2.25E-08,  avg # of iterations =  3.9

     negative rho (up, down):  6.009E-02 0.000E+00

     total cpu time spent up to now is     1111.7 secs

     total energy              =    -207.23396287 Ry
     estimated scf accuracy    <       0.00000187 Ry

     iteration # 13     ecut=    50.00 Ry     beta= 0.70
     Davidson diagonalization with overlap
     ethr =  5.35E-09,  avg # of iterations =  3.9

     negative rho (up, down):  6.009E-02 0.000E+00

     total cpu time spent up to now is     1116.2 secs

     total energy              =    -207.23396309 Ry
     estimated scf accuracy    <       0.00000024 Ry

     iteration # 14     ecut=    50.00 Ry     beta= 0.70
     Davidson diagonalization with overlap
     ethr =  6.99E-10,  avg # of iterations =  5.1

     negative rho (up, down):  6.009E-02 0.000E+00

     total cpu time spent up to now is     1121.0 secs

     total energy              =    -207.23396320 Ry
     estimated scf accuracy    <       0.00000018 Ry

     iteration # 15     ecut=    50.00 Ry     beta= 0.70
     Davidson diagonalization with overlap
     ethr =  5.11E-10,  avg # of iterations =  3.0

     negative rho (up, down):  6.009E-02 0.000E+00

     total cpu time spent up to now is     1125.3 secs

     End of self-consistent calculation

          k = 0.0000 0.0000 0.0000 (  5429 PWs)   bands (ev):

   -45.3107 -44.8080 -24.8594 -23.9512 -23.9142 -22.9677 -22.9376 -22.7524
    -6.3109  -4.7357  -4.5771  -3.3537  -3.1219  -2.9792   1.4931   1.5240
     2.1682   5.5019   5.8640   5.9459   6.0593   6.4618

          k = 0.0008 0.1138-0.6728 (  5402 PWs)   bands (ev):

   -45.2638 -44.8605 -24.3055 -23.9282 -23.8916 -23.4071 -22.9979 -22.9658
    -5.1097  -4.7055  -4.4641  -4.0061  -3.8421  -3.4557   2.1438   2.9228
     3.1212   3.8971   4.3549   5.2417   6.3093   6.3934

          k = 0.3289-0.4995 0.2866 (  5430 PWs)   bands (ev):

   -45.2638 -44.8605 -24.3055 -23.9281 -23.8917 -23.4071 -22.9969 -22.9668
    -5.1723  -4.6935  -4.3350  -4.1237  -3.8539  -3.3733   2.0988   2.9188
     3.1575   3.7690   4.3026   5.2049   6.4572   6.6570

          k = 0.3297-0.3857-0.3861 (  5420 PWs)   bands (ev):

   -45.3107 -44.8080 -24.8596 -23.9515 -23.9155 -22.9685 -22.9387 -22.7525
    -5.6678  -4.5660  -4.4117  -4.2040  -3.6496  -3.2460   1.4906   2.5540
     2.7344   5.0800   5.1204   5.5209   5.8168   5.9671

          k =-0.3110-0.4981 0.2932 (  5412 PWs)   bands (ev):

   -45.2638 -44.8605 -24.3056 -23.9284 -23.8913 -23.4071 -22.9975 -22.9660
    -5.2521  -4.6572  -4.3621  -3.9631  -3.8409  -3.4701   2.2499   2.7712
     2.9547   3.9261   4.2662   5.1771   6.3246   6.6499

          k =-0.3102-0.3843-0.3795 (  5402 PWs)   bands (ev):

   -45.3107 -44.8080 -24.8596 -23.9522 -23.9146 -22.9691 -22.9380 -22.7525
    -5.7047  -4.4969  -4.4454  -4.2308  -3.4803  -3.3885   1.5169   2.4321
     2.6779   5.0618   5.1382   5.6983   5.7936   6.0214

          k = 0.0179-0.9976 0.5798 (  5400 PWs)   bands (ev):

   -45.3107 -44.8080 -24.8598 -23.9520 -23.9150 -22.9682 -22.9389 -22.7526
    -5.6081  -4.4689  -4.3415  -4.3059  -3.6665  -3.3992   1.5488   2.4769
     2.7419   4.9018   5.0947   5.2091   5.8122   5.9361

          k = 0.0187-0.8838-0.0929 (  5398 PWs)   bands (ev):

   -45.2638 -44.8605 -24.3055 -23.9285 -23.8920 -23.4071 -22.9984 -22.9671
    -4.7580  -4.4308  -4.3490  -4.2537  -3.9788  -3.9366   2.6522   2.7181
     3.5064   3.6784   4.4993   5.3674   6.3077   6.4136

     the Fermi energy is     4.0944 ev

!    total energy              =    -207.23396322 Ry
     estimated scf accuracy    <          6.2E-09 Ry
     smearing contrib. (-TS)   =       0.00100015 Ry
     internal energy E=F+TS    =    -207.23496337 Ry

     The total energy is F=E-TS. E is the sum of the following terms:
     one-electron contribution =    -148.37627415 Ry
     hartree contribution      =      77.69733165 Ry
     xc contribution           =     -39.63710558 Ry
     ewald contribution        =     -96.91723308 Ry
     one-center paw contrib.   =      -0.00168221 Ry

     convergence has been achieved in  15 iterations

     negative rho (up, down):  6.009E-02 0.000E+00

     Forces acting on atoms (cartesian axes, Ry/au):

     atom    1 type  3   force =     0.00000000    0.00000000    0.00000000
     atom    2 type  2   force =     0.00000000    0.00000000    0.00000000
     atom    3 type  1   force =    -0.00119995    0.00082170    0.00199124
     atom    4 type  1   force =     0.00119995   -0.00082170   -0.00199124
     atom    5 type  1   force =     0.00174920   -0.00324808   -0.00349337
     atom    6 type  1   force =    -0.00004378   -0.00636546   -0.00056529
     atom    7 type  1   force =    -0.00174920    0.00324808    0.00349337
     atom    8 type  1   force =     0.00004378    0.00636546    0.00056529
     atom    9 type  1   force =     0.00076372   -0.00052937   -0.00063157
     atom   10 type  1   force =     0.00050857   -0.00551378   -0.00348322
     atom   11 type  1   force =    -0.00076372    0.00052937    0.00063157
     atom   12 type  1   force =    -0.00050857    0.00551378    0.00348322
     atom   13 type  1   force =    -0.00073705   -0.00634495    0.00766175
     atom   14 type  1   force =     0.00073705    0.00634495   -0.00766175

     Total force =     0.020799     Total SCF correction =     0.000038


     Computing stress (Cartesian axis) and pressure


     negative rho (up, down):  6.009E-02 0.000E+00
          total   stress  (Ry/bohr**3)                   (kbar)     P=        2.51
   0.00003306   0.00000452  -0.00001616            4.86        0.67       -2.38
   0.00000452   0.00004375   0.00002511            0.67        6.44        3.69
  -0.00001616   0.00002511  -0.00002563           -2.38        3.69       -3.77

     Energy error            =      1.8E-03
     Gradient error          =      7.7E-03
     Cell gradient error     =      4.4E-05


     number of scf cycles    =  13
     number of bfgs steps    =  12

     enthalpy old            =    -207.2322000966 Ry
     enthalpy new            =    -207.2339632184 Ry

     CASE: enthalpy_new < enthalpy_old

     new trust radius        =       0.0372217382 bohr
     new conv_thr            =       0.0000000766 Ry

     new unit-cell volume =    902.90439 a.u.^3 (   133.79663 Ang^3 )
     density =      0.17375 g/cm^3

CELL_PARAMETERS (angstrom)
   4.635514345   3.392185412   0.580900147
  -4.611241172   3.203390227   0.531485554
   0.059155926   2.841713841   4.867356500

ATOMIC_POSITIONS (angstrom)
Zr           -2.3056190905        1.6016950768        0.2657427655
Sc            2.3473355906        3.1169511449        2.7241289056
H            -0.7382362581        1.0816451408        1.5251151441
H             0.8216643594        8.3556443633        4.4546270646
H             2.0269964672        5.8189189319        5.5319863266
H            -0.6667973703        7.0252930324        1.9606515881
H            -1.9435673422        3.6183695462        0.4477558177
H             0.7502264954        2.4119954457        4.0190905562
H             1.1698270729        4.8956176584        2.5731199553
H             1.9970200975        5.2416710749        2.8996226186
H            -1.0863990048        4.5416729049        3.4066233112
H            -1.9135909991        4.1956184047        3.0801195825
H             1.1149395906        3.3472516962        0.9434149640
H            -1.0315104721        6.0900368396        5.0363281813



     Writing output data file ./tmp/ZrScH12.save/
     NEW-OLD atomic charge density approx. for the potential

     negative rho (up, down):  6.067E-02 0.000E+00
     extrapolated charge   35.33542, renormalised to   35.00000

     total cpu time spent up to now is     1154.7 secs

     Self-consistent Calculation

     iteration #  1     ecut=    50.00 Ry     beta= 0.70
     Davidson diagonalization with overlap
     ethr =  1.00E-06,  avg # of iterations = 10.9

     negative rho (up, down):  6.000E-02 0.000E+00

     total cpu time spent up to now is     1162.5 secs

     total energy              =    -207.19005448 Ry
     estimated scf accuracy    <       0.03796533 Ry

     iteration #  2     ecut=    50.00 Ry     beta= 0.70
     Davidson diagonalization with overlap
     ethr =  1.08E-04,  avg # of iterations =  6.8

     negative rho (up, down):  6.009E-02 0.000E+00

     total cpu time spent up to now is     1168.3 secs

     total energy              =    -207.21470992 Ry
     estimated scf accuracy    <       0.25931580 Ry

     iteration #  3     ecut=    50.00 Ry     beta= 0.70
     Davidson diagonalization with overlap
     ethr =  1.08E-04,  avg # of iterations =  4.6

     negative rho (up, down):  6.003E-02 0.000E+00

     total cpu time spent up to now is     1173.3 secs

     total energy              =    -207.23581031 Ry
     estimated scf accuracy    <       0.03977604 Ry

     iteration #  4     ecut=    50.00 Ry     beta= 0.70
     Davidson diagonalization with overlap
     ethr =  1.08E-04,  avg # of iterations =  1.5

     negative rho (up, down):  5.998E-02 0.000E+00

     total cpu time spent up to now is     1177.3 secs

     total energy              =    -207.23498518 Ry
     estimated scf accuracy    <       0.01609058 Ry

     iteration #  5     ecut=    50.00 Ry     beta= 0.70
     Davidson diagonalization with overlap
     ethr =  4.60E-05,  avg # of iterations =  2.0

     negative rho (up, down):  5.994E-02 0.000E+00

     total cpu time spent up to now is     1181.2 secs

     total energy              =    -207.23422305 Ry
     estimated scf accuracy    <       0.00682269 Ry

     iteration #  6     ecut=    50.00 Ry     beta= 0.70
     Davidson diagonalization with overlap
     ethr =  1.95E-05,  avg # of iterations =  3.5

     negative rho (up, down):  5.997E-02 0.000E+00

     total cpu time spent up to now is     1185.4 secs

     total energy              =    -207.23482004 Ry
     estimated scf accuracy    <       0.00107336 Ry

     iteration #  7     ecut=    50.00 Ry     beta= 0.70
     Davidson diagonalization with overlap
     ethr =  3.07E-06,  avg # of iterations =  5.1

     negative rho (up, down):  5.999E-02 0.000E+00

     total cpu time spent up to now is     1190.0 secs

     total energy              =    -207.23503912 Ry
     estimated scf accuracy    <       0.00019756 Ry

     iteration #  8     ecut=    50.00 Ry     beta= 0.70
     Davidson diagonalization with overlap
     ethr =  5.64E-07,  avg # of iterations =  3.1

     negative rho (up, down):  6.007E-02 0.000E+00

     total cpu time spent up to now is     1194.1 secs

     total energy              =    -207.23505980 Ry
     estimated scf accuracy    <       0.00010410 Ry

     iteration #  9     ecut=    50.00 Ry     beta= 0.70
     Davidson diagonalization with overlap
     ethr =  2.97E-07,  avg # of iterations =  1.1

     negative rho (up, down):  6.008E-02 0.000E+00

     total cpu time spent up to now is     1198.1 secs

     total energy              =    -207.23502279 Ry
     estimated scf accuracy    <       0.00010938 Ry

     iteration # 10     ecut=    50.00 Ry     beta= 0.70
     Davidson diagonalization with overlap
     ethr =  2.97E-07,  avg # of iterations =  3.0

     negative rho (up, down):  6.006E-02 0.000E+00

     total cpu time spent up to now is     1202.3 secs

     total energy              =    -207.23503088 Ry
     estimated scf accuracy    <       0.00001241 Ry

     iteration # 11     ecut=    50.00 Ry     beta= 0.70
     Davidson diagonalization with overlap
     ethr =  3.55E-08,  avg # of iterations =  4.5

     negative rho (up, down):  6.006E-02 0.000E+00

     total cpu time spent up to now is     1206.9 secs

     total energy              =    -207.23503490 Ry
     estimated scf accuracy    <       0.00000054 Ry

     iteration # 12     ecut=    50.00 Ry     beta= 0.70
     Davidson diagonalization with overlap
     ethr =  1.54E-09,  avg # of iterations =  4.6

     negative rho (up, down):  6.007E-02 0.000E+00

     total cpu time spent up to now is     1211.4 secs

     total energy              =    -207.23503503 Ry
     estimated scf accuracy    <       0.00000058 Ry

     iteration # 13     ecut=    50.00 Ry     beta= 0.70
     Davidson diagonalization with overlap
     ethr =  1.54E-09,  avg # of iterations =  1.6

     negative rho (up, down):  6.007E-02 0.000E+00

     total cpu time spent up to now is     1215.4 secs

     total energy              =    -207.23503498 Ry
     estimated scf accuracy    <       0.00000025 Ry

     iteration # 14     ecut=    50.00 Ry     beta= 0.70
     Davidson diagonalization with overlap
     ethr =  7.15E-10,  avg # of iterations =  4.2

     negative rho (up, down):  6.007E-02 0.000E+00

     total cpu time spent up to now is     1219.6 secs

     End of self-consistent calculation

          k = 0.0000 0.0000 0.0000 (  5429 PWs)   bands (ev):

   -45.3894 -44.9114 -24.9157 -24.0255 -23.9946 -23.0630 -23.0322 -22.8585
    -6.3294  -4.7336  -4.6012  -3.3950  -3.1616  -3.0459   1.4294   1.4906
     2.1115   5.4258   5.7857   5.8773   5.9417   6.3332

          k = 0.0013 0.1134-0.6721 (  5402 PWs)   bands (ev):

   -45.3431 -44.9630 -24.3773 -24.0035 -23.9730 -23.4937 -23.0914 -23.0590
    -5.1170  -4.7353  -4.4837  -4.0524  -3.8713  -3.5121   2.0996   2.8498
     3.0543   3.8159   4.2747   5.1627   6.2328   6.3091

          k = 0.3276-0.4966 0.2860 (  5430 PWs)   bands (ev):

   -45.3431 -44.9630 -24.3773 -24.0034 -23.9731 -23.4937 -23.0904 -23.0600
    -5.2052  -4.7311  -4.3471  -4.1244  -3.8971  -3.4290   2.0549   2.8637
     3.0738   3.6817   4.2140   5.1251   6.3757   6.5679

          k = 0.3289-0.3833-0.3862 (  5420 PWs)   bands (ev):

   -45.3894 -44.9114 -24.9159 -24.0259 -23.9958 -23.0638 -23.0332 -22.8585
    -5.6864  -4.5739  -4.4414  -4.2371  -3.6750  -3.3167   1.4622   2.4829
     2.6722   5.0191   5.0442   5.4265   5.7374   5.8928

          k =-0.3104-0.4955 0.2930 (  5412 PWs)   bands (ev):

   -45.3431 -44.9630 -24.3773 -24.0036 -23.9728 -23.4937 -23.0910 -23.0592
    -5.2621  -4.7135  -4.3869  -3.9907  -3.8728  -3.4988   2.1795   2.7252
     2.8810   3.8444   4.1904   5.0951   6.2689   6.5479

          k =-0.3091-0.3821-0.3791 (  5402 PWs)   bands (ev):

   -45.3894 -44.9114 -24.9159 -24.0265 -23.9950 -23.0643 -23.0325 -22.8585
    -5.7319  -4.5156  -4.4590  -4.2659  -3.5208  -3.4284   1.4463   2.3946
     2.6234   4.9905   5.0632   5.6159   5.7123   5.9480

          k = 0.0172-0.9921 0.5790 (  5400 PWs)   bands (ev):

   -45.3894 -44.9114 -24.9161 -24.0263 -23.9954 -23.0634 -23.0334 -22.8586
    -5.6425  -4.4587  -4.3693  -4.3227  -3.7187  -3.4583   1.4979   2.4447
     2.6739   4.8103   4.9978   5.1208   5.7302   5.8459

          k = 0.0184-0.8787-0.0932 (  5398 PWs)   bands (ev):

   -45.3431 -44.9630 -24.3773 -24.0038 -23.9734 -23.4937 -23.0919 -23.0602
    -4.7804  -4.4527  -4.3699  -4.2992  -4.0287  -3.9638   2.6291   2.6548
     3.4275   3.6102   4.4127   5.2802   6.2288   6.3437

     the Fermi energy is     4.0128 ev

!    total energy              =    -207.23503501 Ry
     estimated scf accuracy    <       0.00000002 Ry
     smearing contrib. (-TS)   =       0.00102606 Ry
     internal energy E=F+TS    =    -207.23606107 Ry

     The total energy is F=E-TS. E is the sum of the following terms:
     one-electron contribution =    -148.81659086 Ry
     hartree contribution      =      77.81414623 Ry
     xc contribution           =     -39.60099848 Ry
     ewald contribution        =     -96.63093524 Ry
     one-center paw contrib.   =      -0.00168273 Ry

     convergence has been achieved in  14 iterations

     negative rho (up, down):  6.007E-02 0.000E+00

     Forces acting on atoms (cartesian axes, Ry/au):

     atom    1 type  3   force =     0.00000000    0.00000000    0.00000000
     atom    2 type  2   force =     0.00000000    0.00000000    0.00000000
     atom    3 type  1   force =    -0.00140643   -0.00134068   -0.00024226
     atom    4 type  1   force =     0.00140643    0.00134068    0.00024226
     atom    5 type  1   force =     0.00092191   -0.00102932   -0.00152737
     atom    6 type  1   force =    -0.00304713   -0.00242760    0.00085112
     atom    7 type  1   force =    -0.00092191    0.00102932    0.00152737
     atom    8 type  1   force =     0.00304713    0.00242760   -0.00085112
     atom    9 type  1   force =     0.00159149   -0.00127531    0.00066223
     atom   10 type  1   force =    -0.00033741   -0.00547257   -0.00467656
     atom   11 type  1   force =    -0.00159149    0.00127531   -0.00066223
     atom   12 type  1   force =     0.00033741    0.00547257    0.00467656
     atom   13 type  1   force =     0.00243501   -0.00345442    0.00630833
     atom   14 type  1   force =    -0.00243501    0.00345442   -0.00630833

     Total force =     0.016623     Total SCF correction =     0.000065


     Computing stress (Cartesian axis) and pressure


     negative rho (up, down):  6.007E-02 0.000E+00
          total   stress  (Ry/bohr**3)                   (kbar)     P=       -4.11
  -0.00000754   0.00000229  -0.00002184           -1.11        0.34       -3.21
   0.00000229  -0.00002311   0.00003006            0.34       -3.40        4.42
  -0.00002184   0.00003006  -0.00005318           -3.21        4.42       -7.82

     Energy error            =      1.1E-03
     Gradient error          =      6.3E-03
     Cell gradient error     =      5.3E-05


     number of scf cycles    =  14
     number of bfgs steps    =  13

     enthalpy old            =    -207.2339632184 Ry
     enthalpy new            =    -207.2350350121 Ry

     CASE: enthalpy_new < enthalpy_old

     new trust radius        =       0.0304276595 bohr
     new conv_thr            =       0.0000000631 Ry

     new unit-cell volume =    906.19537 a.u.^3 (   134.28430 Ang^3 )
     density =      0.17312 g/cm^3

CELL_PARAMETERS (angstrom)
   4.645162008   3.402753576   0.583443164
  -4.620825602   3.212908625   0.536921035
   0.057686686   2.854524128   4.864988790

ATOMIC_POSITIONS (angstrom)
Zr           -2.3104113022        1.6064542756        0.2684605054
Sc            2.3514248032        3.1286403756        2.7242165601
H            -0.7433210164        1.0839241102        1.5275294065
H             0.8253431096        8.3862622431        4.4578235899
H             2.0307624708        5.8375460904        5.5271183265
H            -0.6676838251        7.0391449091        1.9687140464
H            -1.9487393518        3.6326392340        0.4582346037
H             0.7497069442        2.4310404152        4.0166388838
H             1.1733068093        4.9115447473        2.5726466551
H             2.0021206338        5.2499066168        2.8995818952
H            -1.0912847497        4.5586426693        3.4127073992
H            -1.9200975415        4.2202797120        3.0857710932
H             1.1186816100        3.3467738753        0.9581574212
H            -1.0366584979        6.1234115080        5.0271965088



     Writing output data file ./tmp/ZrScH12.save/
     NEW-OLD atomic charge density approx. for the potential

     negative rho (up, down):  6.028E-02 0.000E+00
     extrapolated charge   35.12709, renormalised to   35.00000

     total cpu time spent up to now is     1249.2 secs

     Self-consistent Calculation

     iteration #  1     ecut=    50.00 Ry     beta= 0.70
     Davidson diagonalization with overlap
     ethr =  1.00E-06,  avg # of iterations =  7.9

     negative rho (up, down):  6.007E-02 0.000E+00

     total cpu time spent up to now is     1256.3 secs

     total energy              =    -207.22889093 Ry
     estimated scf accuracy    <       0.00582497 Ry

     iteration #  2     ecut=    50.00 Ry     beta= 0.70
     Davidson diagonalization with overlap
     ethr =  1.66E-05,  avg # of iterations =  6.8

     negative rho (up, down):  6.008E-02 0.000E+00

     total cpu time spent up to now is     1262.3 secs

     total energy              =    -207.23352957 Ry
     estimated scf accuracy    <       0.03326148 Ry

     iteration #  3     ecut=    50.00 Ry     beta= 0.70
     Davidson diagonalization with overlap
     ethr =  1.66E-05,  avg # of iterations =  4.9

     negative rho (up, down):  6.006E-02 0.000E+00

     total cpu time spent up to now is     1267.2 secs

     total energy              =    -207.23580958 Ry
     estimated scf accuracy    <       0.00352869 Ry

     iteration #  4     ecut=    50.00 Ry     beta= 0.70
     Davidson diagonalization with overlap
     ethr =  1.01E-05,  avg # of iterations =  1.9

     negative rho (up, down):  6.003E-02 0.000E+00

     total cpu time spent up to now is     1271.4 secs

     total energy              =    -207.23536762 Ry
     estimated scf accuracy    <       0.00171712 Ry

     iteration #  5     ecut=    50.00 Ry     beta= 0.70
     Davidson diagonalization with overlap
     ethr =  4.91E-06,  avg # of iterations =  3.8

     negative rho (up, down):  6.003E-02 0.000E+00

     total cpu time spent up to now is     1275.4 secs

     total energy              =    -207.23570016 Ry
     estimated scf accuracy    <       0.00002508 Ry

     iteration #  6     ecut=    50.00 Ry     beta= 0.70
     Davidson diagonalization with overlap
     ethr =  7.17E-08,  avg # of iterations =  4.9

     negative rho (up, down):  6.005E-02 0.000E+00

     total cpu time spent up to now is     1280.3 secs

     total energy              =    -207.23572697 Ry
     estimated scf accuracy    <       0.00000316 Ry

     iteration #  7     ecut=    50.00 Ry     beta= 0.70
     Davidson diagonalization with overlap
     ethr =  9.03E-09,  avg # of iterations =  3.6

     negative rho (up, down):  6.007E-02 0.000E+00

     total cpu time spent up to now is     1284.8 secs

     total energy              =    -207.23572750 Ry
     estimated scf accuracy    <       0.00000165 Ry

     iteration #  8     ecut=    50.00 Ry     beta= 0.70
     Davidson diagonalization with overlap
     ethr =  4.71E-09,  avg # of iterations =  2.5

     negative rho (up, down):  6.007E-02 0.000E+00

     total cpu time spent up to now is     1289.0 secs

     total energy              =    -207.23572694 Ry
     estimated scf accuracy    <       0.00000161 Ry

     iteration #  9     ecut=    50.00 Ry     beta= 0.70
     Davidson diagonalization with overlap
     ethr =  4.60E-09,  avg # of iterations =  3.2

     negative rho (up, down):  6.007E-02 0.000E+00

     total cpu time spent up to now is     1293.4 secs

     total energy              =    -207.23572716 Ry
     estimated scf accuracy    <       0.00000007 Ry

     iteration # 10     ecut=    50.00 Ry     beta= 0.70
     Davidson diagonalization with overlap
     ethr =  1.86E-10,  avg # of iterations =  5.6

     negative rho (up, down):  6.007E-02 0.000E+00

     total cpu time spent up to now is     1298.8 secs

     total energy              =    -207.23572722 Ry
     estimated scf accuracy    <       0.00000012 Ry

     iteration # 11     ecut=    50.00 Ry     beta= 0.70
     Davidson diagonalization with overlap
     ethr =  1.86E-10,  avg # of iterations =  2.8

     negative rho (up, down):  6.007E-02 0.000E+00

     total cpu time spent up to now is     1303.1 secs

     End of self-consistent calculation

          k = 0.0000 0.0000 0.0000 (  5429 PWs)   bands (ev):

   -45.4139 -44.9611 -24.9487 -24.0441 -24.0176 -23.1098 -23.0805 -22.8992
    -6.3350  -4.7216  -4.6171  -3.4120  -3.1664  -3.0710   1.3897   1.4666
     2.0795   5.4025   5.7652   5.8549   5.8864   6.2634

          k = 0.0010 0.1140-0.6731 (  5402 PWs)   bands (ev):

   -45.3637 -45.0166 -24.4009 -24.0211 -23.9953 -23.5444 -23.1387 -23.1082
    -5.0999  -4.7477  -4.4865  -4.0873  -3.8803  -3.5257   2.0749   2.8079
     3.0196   3.7696   4.2438   5.1397   6.2075   6.2725

          k = 0.3270-0.4956 0.2869 (  5430 PWs)   bands (ev):

   -45.3637 -45.0166 -24.4009 -24.0209 -23.9954 -23.5444 -23.1378 -23.1091
    -5.2186  -4.7347  -4.3480  -4.1062  -3.9172  -3.4617   2.0325   2.8364
     3.0230   3.6343   4.1759   5.1023   6.3452   6.5221

          k = 0.3281-0.3816-0.3862 (  5420 PWs)   bands (ev):

   -45.4139 -44.9611 -24.9489 -24.0444 -24.0188 -23.1106 -23.0815 -22.8992
    -5.6889  -4.5740  -4.4638  -4.2573  -3.6644  -3.3370   1.4443   2.4346
     2.6283   5.0115   5.0263   5.3771   5.7130   5.8739

          k =-0.3096-0.4944 0.2938 (  5412 PWs)   bands (ev):

   -45.3637 -45.0166 -24.4009 -24.0212 -23.9951 -23.5444 -23.1383 -23.1083
    -5.2573  -4.7415  -4.3973  -3.9959  -3.8782  -3.5035   2.1419   2.6967
     2.8414   3.7963   4.1637   5.0710   6.2597   6.4990

          k =-0.3086-0.3804-0.3794 (  5402 PWs)   bands (ev):

   -45.4139 -44.9611 -24.9489 -24.0451 -24.0179 -23.1110 -23.0809 -22.8992
    -5.7462  -4.5351  -4.4492  -4.2712  -3.5206  -3.4480   1.4001   2.3636
     2.5903   4.9575   5.0386   5.5876   5.6861   5.9233

          k = 0.0174-0.9900 0.5807 (  5400 PWs)   bands (ev):

   -45.4139 -44.9611 -24.9491 -24.0448 -24.0184 -23.1101 -23.0817 -22.8993
    -5.6617  -4.4432  -4.3856  -4.3157  -3.7380  -3.4791   1.4652   2.4244
     2.6252   4.7755   4.9506   5.0846   5.7025   5.8108

          k = 0.0184-0.8760-0.0924 (  5398 PWs)   bands (ev):

   -45.3637 -45.0166 -24.4009 -24.0213 -23.9956 -23.5444 -23.1391 -23.1093
    -4.7938  -4.4640  -4.3603  -4.3113  -4.0462  -3.9716   2.6115   2.6179
     3.3847   3.5810   4.3753   5.2532   6.1989   6.3218

     the Fermi energy is     3.9733 ev

!    total energy              =    -207.23572720 Ry
     estimated scf accuracy    <       0.00000003 Ry
     smearing contrib. (-TS)   =       0.00118615 Ry
     internal energy E=F+TS    =    -207.23691335 Ry

     The total energy is F=E-TS. E is the sum of the following terms:
     one-electron contribution =    -149.32326030 Ry
     hartree contribution      =      78.02483374 Ry
     xc contribution           =     -39.58876534 Ry
     ewald contribution        =     -96.34803844 Ry
     one-center paw contrib.   =      -0.00168301 Ry

     convergence has been achieved in  11 iterations

     negative rho (up, down):  6.007E-02 0.000E+00

     Forces acting on atoms (cartesian axes, Ry/au):

     atom    1 type  3   force =     0.00000000    0.00000000    0.00000000
     atom    2 type  2   force =     0.00000000    0.00000000    0.00000000
     atom    3 type  1   force =    -0.00138341   -0.00305560   -0.00116633
     atom    4 type  1   force =     0.00138341    0.00305560    0.00116633
     atom    5 type  1   force =     0.00031639    0.00045033   -0.00003255
     atom    6 type  1   force =    -0.00461821    0.00003328    0.00174651
     atom    7 type  1   force =    -0.00031639   -0.00045033    0.00003255
     atom    8 type  1   force =     0.00461821   -0.00003328   -0.00174651
     atom    9 type  1   force =     0.00130407   -0.00186009    0.00106912
     atom   10 type  1   force =    -0.00028449   -0.00459408   -0.00386743
     atom   11 type  1   force =    -0.00130407    0.00186009   -0.00106912
     atom   12 type  1   force =     0.00028449    0.00459408    0.00386743
     atom   13 type  1   force =     0.00415658   -0.00170154    0.00492299
     atom   14 type  1   force =    -0.00415658    0.00170154   -0.00492299

     Total force =     0.015758     Total SCF correction =     0.000092


     Computing stress (Cartesian axis) and pressure


     negative rho (up, down):  6.007E-02 0.000E+00
          total   stress  (Ry/bohr**3)                   (kbar)     P=       -6.55
  -0.00002645  -0.00000194  -0.00001962           -3.89       -0.29       -2.89
  -0.00000194  -0.00005568   0.00002833           -0.29       -8.19        4.17
  -0.00001962   0.00002833  -0.00005147           -2.89        4.17       -7.57

     Energy error            =      6.9E-04
     Gradient error          =      4.9E-03
     Cell gradient error     =      5.6E-05


     number of scf cycles    =  15
     number of bfgs steps    =  14

     enthalpy old            =    -207.2350350121 Ry
     enthalpy new            =    -207.2357272000 Ry

     CASE: enthalpy_new < enthalpy_old

     new trust radius        =       0.0456171540 bohr
     new conv_thr            =       0.0000000492 Ry

     new unit-cell volume =    906.69813 a.u.^3 (   134.35880 Ang^3 )
     density =      0.17303 g/cm^3

CELL_PARAMETERS (angstrom)
   4.651271132   3.408653115   0.588347719
  -4.630896260   3.223167122   0.550598743
   0.051500392   2.873758906   4.859132240

ATOMIC_POSITIONS (angstrom)
Zr           -2.3154466283        1.6115835234        0.2752993582
Sc            2.3513862176        3.1412075384        2.7237405656
H            -0.7531255688        1.0837924194        1.5313630193
H             0.8249998322        8.4217867489        4.4667156923
H             2.0291970817        5.8587775096        5.5218794441
H            -0.6767992527        7.0481887783        1.9862704106
H            -1.9573217902        3.6468006269        0.4761991972
H             0.7486745442        2.4573893583        4.0118082307
H             1.1734680571        4.9245966041        2.5758845684
H             2.0035565450        5.2515584030        2.8982151076
H            -1.1015938290        4.5809836325        3.4221952014
H            -1.9316812807        4.2540207401        3.0998635950
H             1.1222364585        3.3393276240        0.9825860951
H            -1.0503611749        6.1662505743        5.0154935430



     Writing output data file ./tmp/ZrScH12.save/
     NEW-OLD atomic charge density approx. for the potential

     negative rho (up, down):  6.008E-02 0.000E+00
     extrapolated charge   35.01940, renormalised to   35.00000

     total cpu time spent up to now is     1332.5 secs

     Self-consistent Calculation

     iteration #  1     ecut=    50.00 Ry     beta= 0.70
     Davidson diagonalization with overlap
     ethr =  1.00E-06,  avg # of iterations =  6.6

     negative rho (up, down):  6.010E-02 0.000E+00

     total cpu time spent up to now is     1338.9 secs

     total energy              =    -207.23625354 Ry
     estimated scf accuracy    <       0.00071420 Ry

     iteration #  2     ecut=    50.00 Ry     beta= 0.70
     Davidson diagonalization with overlap
     ethr =  2.04E-06,  avg # of iterations =  5.1

     negative rho (up, down):  6.008E-02 0.000E+00

     total cpu time spent up to now is     1344.1 secs

     total energy              =    -207.23605254 Ry
     estimated scf accuracy    <       0.00344599 Ry

     iteration #  3     ecut=    50.00 Ry     beta= 0.70
     Davidson diagonalization with overlap
     ethr =  2.04E-06,  avg # of iterations =  4.5

     negative rho (up, down):  6.008E-02 0.000E+00

     total cpu time spent up to now is     1348.9 secs

     total energy              =    -207.23656998 Ry
     estimated scf accuracy    <       0.00011107 Ry

     iteration #  4     ecut=    50.00 Ry     beta= 0.70
     Davidson diagonalization with overlap
     ethr =  3.17E-07,  avg # of iterations =  4.5

     negative rho (up, down):  6.008E-02 0.000E+00

     total cpu time spent up to now is     1353.5 secs

     total energy              =    -207.23660327 Ry
     estimated scf accuracy    <       0.00003995 Ry

     iteration #  5     ecut=    50.00 Ry     beta= 0.70
     Davidson diagonalization with overlap
     ethr =  1.14E-07,  avg # of iterations =  3.2

     negative rho (up, down):  6.008E-02 0.000E+00

     total cpu time spent up to now is     1357.7 secs

     total energy              =    -207.23660785 Ry
     estimated scf accuracy    <       0.00000262 Ry

     iteration #  6     ecut=    50.00 Ry     beta= 0.70
     Davidson diagonalization with overlap
     ethr =  7.49E-09,  avg # of iterations =  5.0

     negative rho (up, down):  6.008E-02 0.000E+00

     total cpu time spent up to now is     1362.5 secs

     total energy              =    -207.23660931 Ry
     estimated scf accuracy    <       0.00000043 Ry

     iteration #  7     ecut=    50.00 Ry     beta= 0.70
     Davidson diagonalization with overlap
     ethr =  1.22E-09,  avg # of iterations =  3.0

     negative rho (up, down):  6.008E-02 0.000E+00

     total cpu time spent up to now is     1366.4 secs

     total energy              =    -207.23660932 Ry
     estimated scf accuracy    <       0.00000006 Ry

     iteration #  8     ecut=    50.00 Ry     beta= 0.70
     Davidson diagonalization with overlap
     ethr =  1.71E-10,  avg # of iterations =  4.8

     negative rho (up, down):  6.008E-02 0.000E+00

     total cpu time spent up to now is     1371.3 secs

     End of self-consistent calculation

          k = 0.0000 0.0000 0.0000 (  5429 PWs)   bands (ev):

   -45.4045 -44.9886 -24.9784 -24.0234 -24.0023 -23.1401 -23.1134 -22.9041
    -6.3398  -4.7156  -4.6302  -3.4285  -3.1485  -3.0830   1.3471   1.4421
     2.0512   5.4101   5.7779   5.8580   5.8622   6.2150

          k = 0.0004 0.1160-0.6756 (  5402 PWs)   bands (ev):

   -45.3425 -45.0563 -24.3939 -23.9971 -23.9772 -23.5905 -23.1722 -23.1445
    -5.0640  -4.7575  -4.4899  -4.1242  -3.8876  -3.5217   2.0582   2.7701
     2.9919   3.7259   4.2364   5.1509   6.2117   6.2564

          k = 0.3265-0.4955 0.2896 (  5430 PWs)   bands (ev):

   -45.3425 -45.0563 -24.3940 -23.9968 -23.9774 -23.5905 -23.1713 -23.1453
    -5.2264  -4.7297  -4.3430  -4.0789  -3.9297  -3.4939   2.0231   2.8139
     2.9695   3.5970   4.1586   5.1126   6.3412   6.4923

          k = 0.3269-0.3794-0.3860 (  5420 PWs)   bands (ev):

   -45.4045 -44.9886 -24.9786 -24.0238 -24.0035 -23.1408 -23.1143 -22.9041
    -5.6926  -4.5954  -4.4739  -4.2765  -3.6305  -3.3353   1.4264   2.3784
     2.5772   5.0411   5.0427   5.3437   5.7204   5.8871

          k =-0.3091-0.4946 0.2958 (  5412 PWs)   bands (ev):

   -45.3425 -45.0563 -24.3940 -23.9970 -23.9771 -23.5905 -23.1717 -23.1446
    -5.2428  -4.7637  -4.4079  -3.9909  -3.8778  -3.5023   2.1117   2.6764
     2.8121   3.7452   4.1624   5.0826   6.2940   6.4657

          k =-0.3086-0.3786-0.3798 (  5402 PWs)   bands (ev):

   -45.4045 -44.9886 -24.9786 -24.0245 -24.0026 -23.1412 -23.1137 -22.9041
    -5.7671  -4.5661  -4.4311  -4.2597  -3.5088  -3.4494   1.3459   2.3262
     2.5607   4.9464   5.0444   5.5846   5.6897   5.9283

          k = 0.0174-0.9900 0.5853 (  5400 PWs)   bands (ev):

   -45.4045 -44.9886 -24.9788 -24.0239 -24.0034 -23.1404 -23.1145 -22.9042
    -5.6855  -4.4451  -4.3923  -4.2919  -3.7445  -3.4838   1.4354   2.4034
     2.5689   4.7699   4.9218   5.0725   5.7039   5.8037

          k = 0.0178-0.8740-0.0903 (  5398 PWs)   bands (ev):

   -45.3425 -45.0563 -24.3939 -23.9973 -23.9776 -23.5905 -23.1726 -23.1456
    -4.8171  -4.4662  -4.3335  -4.3204  -4.0599  -3.9607   2.5727   2.6087
     3.3388   3.5651   4.3603   5.2620   6.1958   6.3347

     the Fermi energy is     3.9450 ev

!    total energy              =    -207.23660935 Ry
     estimated scf accuracy    <       0.00000002 Ry
     smearing contrib. (-TS)   =       0.00152290 Ry
     internal energy E=F+TS    =    -207.23813225 Ry

     The total energy is F=E-TS. E is the sum of the following terms:
     one-electron contribution =    -150.26958682 Ry
     hartree contribution      =      78.48606563 Ry
     xc contribution           =     -39.59432301 Ry
     ewald contribution        =     -95.85860484 Ry
     one-center paw contrib.   =      -0.00168321 Ry

     convergence has been achieved in   8 iterations

     negative rho (up, down):  6.008E-02 0.000E+00

     Forces acting on atoms (cartesian axes, Ry/au):

     atom    1 type  3   force =     0.00000000    0.00000000    0.00000000
     atom    2 type  2   force =     0.00000000    0.00000000    0.00000000
     atom    3 type  1   force =    -0.00058503   -0.00416342   -0.00147913
     atom    4 type  1   force =     0.00058503    0.00416342    0.00147913
     atom    5 type  1   force =    -0.00021052    0.00164168    0.00149209
     atom    6 type  1   force =    -0.00572936    0.00197448    0.00245914
     atom    7 type  1   force =     0.00021052   -0.00164168   -0.00149209
     atom    8 type  1   force =     0.00572936   -0.00197448   -0.00245914
     atom    9 type  1   force =    -0.00016503   -0.00267141    0.00122923
     atom   10 type  1   force =     0.00046184   -0.00262696   -0.00129326
     atom   11 type  1   force =     0.00016503    0.00267141   -0.00122923
     atom   12 type  1   force =    -0.00046184    0.00262696    0.00129326
     atom   13 type  1   force =     0.00510993    0.00028649    0.00286489
     atom   14 type  1   force =    -0.00510993   -0.00028649   -0.00286489

     Total force =     0.015457     Total SCF correction =     0.000075


     Computing stress (Cartesian axis) and pressure


     negative rho (up, down):  6.008E-02 0.000E+00
          total   stress  (Ry/bohr**3)                   (kbar)     P=       -5.54
  -0.00002587  -0.00000646  -0.00001213           -3.81       -0.95       -1.78
  -0.00000646  -0.00006725   0.00002069           -0.95       -9.89        3.04
  -0.00001213   0.00002069  -0.00001986           -1.78        3.04       -2.92

     Energy error            =      8.8E-04
     Gradient error          =      5.7E-03
     Cell gradient error     =      6.7E-05


     number of scf cycles    =  16
     number of bfgs steps    =  15

     enthalpy old            =    -207.2357272000 Ry
     enthalpy new            =    -207.2366093455 Ry

     CASE: enthalpy_new < enthalpy_old

     new trust radius        =       0.0391488977 bohr
     new conv_thr            =       0.0000000573 Ry

     new unit-cell volume =    904.36976 a.u.^3 (   134.01377 Ang^3 )
     density =      0.17347 g/cm^3

CELL_PARAMETERS (angstrom)
   4.648675877   3.403627582   0.594512899
  -4.637087958   3.229888955   0.565749040
   0.043183038   2.889678114   4.856855801

ATOMIC_POSITIONS (angstrom)
Zr           -2.3185424770        1.6149444377        0.2828745049
Sc            2.3459299110        3.1466543767        2.7256849395
H            -0.7639461858        1.0787904963        1.5362802400
H             0.8187161411        8.4444041804        4.4808375101
H             2.0213713521        5.8707797915        5.5257109562
H            -0.6939342834        7.0468030070        2.0066224106
H            -1.9666003668        3.6524138524        0.4914067188
H             0.7487052686        2.4763906369        4.0104952644
H             1.1679391637        4.9250491373        2.5835653850
H             1.9993301600        5.2435133326        2.8999529920
H            -1.1131692459        4.5981466111        3.4335534244
H            -1.9445592032        4.2796813177        3.1171647479
H             1.1233169288        3.3264148643        1.0054303607
H            -1.0685459527        6.1967788448        5.0116883088



     Writing output data file ./tmp/ZrScH12.save/
     NEW-OLD atomic charge density approx. for the potential

     negative rho (up, down):  5.990E-02 0.000E+00
     extrapolated charge   34.90990, renormalised to   35.00000

     total cpu time spent up to now is     1400.8 secs

     Self-consistent Calculation

     iteration #  1     ecut=    50.00 Ry     beta= 0.70
     Davidson diagonalization with overlap
     ethr =  1.00E-06,  avg # of iterations =  7.6

     negative rho (up, down):  6.011E-02 0.000E+00

     total cpu time spent up to now is     1407.8 secs

     total energy              =    -207.23198699 Ry
     estimated scf accuracy    <       0.00531189 Ry

     iteration #  2     ecut=    50.00 Ry     beta= 0.70
     Davidson diagonalization with overlap
     ethr =  1.52E-05,  avg # of iterations =  6.8

     negative rho (up, down):  6.006E-02 0.000E+00

     total cpu time spent up to now is     1413.7 secs

     total energy              =    -207.23439676 Ry
     estimated scf accuracy    <       0.03044127 Ry

     iteration #  3     ecut=    50.00 Ry     beta= 0.70
     Davidson diagonalization with overlap
     ethr =  1.52E-05,  avg # of iterations =  5.0

     negative rho (up, down):  6.007E-02 0.000E+00

     total cpu time spent up to now is     1419.0 secs

     total energy              =    -207.23737003 Ry
     estimated scf accuracy    <       0.00232793 Ry

     iteration #  4     ecut=    50.00 Ry     beta= 0.70
     Davidson diagonalization with overlap
     ethr =  6.65E-06,  avg # of iterations =  1.5

     negative rho (up, down):  6.013E-02 0.000E+00

     total cpu time spent up to now is     1423.1 secs

     total energy              =    -207.23687690 Ry
     estimated scf accuracy    <       0.00124807 Ry

     iteration #  5     ecut=    50.00 Ry     beta= 0.70
     Davidson diagonalization with overlap
     ethr =  3.57E-06,  avg # of iterations =  4.5

     negative rho (up, down):  6.012E-02 0.000E+00

     total cpu time spent up to now is     1427.8 secs

     total energy              =    -207.23723920 Ry
     estimated scf accuracy    <       0.00005931 Ry

     iteration #  6     ecut=    50.00 Ry     beta= 0.70
     Davidson diagonalization with overlap
     ethr =  1.69E-07,  avg # of iterations =  2.6

     negative rho (up, down):  6.010E-02 0.000E+00

     total cpu time spent up to now is     1432.0 secs

     total energy              =    -207.23723579 Ry
     estimated scf accuracy    <       0.00002911 Ry

     iteration #  7     ecut=    50.00 Ry     beta= 0.70
     Davidson diagonalization with overlap
     ethr =  8.32E-08,  avg # of iterations =  4.1

     negative rho (up, down):  6.009E-02 0.000E+00

     total cpu time spent up to now is     1436.5 secs

     total energy              =    -207.23724330 Ry
     estimated scf accuracy    <       0.00000015 Ry

     iteration #  8     ecut=    50.00 Ry     beta= 0.70
     Davidson diagonalization with overlap
     ethr =  4.15E-10,  avg # of iterations =  6.5

     negative rho (up, down):  6.010E-02 0.000E+00

     total cpu time spent up to now is     1442.4 secs

     total energy              =    -207.23724311 Ry
     estimated scf accuracy    <       0.00000186 Ry

     iteration #  9     ecut=    50.00 Ry     beta= 0.70
     Davidson diagonalization with overlap
     ethr =  4.15E-10,  avg # of iterations =  5.8

     negative rho (up, down):  6.009E-02 0.000E+00

     total cpu time spent up to now is     1447.7 secs

     End of self-consistent calculation

          k = 0.0000 0.0000 0.0000 (  5429 PWs)   bands (ev):

   -45.3688 -44.9784 -24.9925 -23.9758 -23.9572 -23.1395 -23.1146 -22.8693
    -6.3451  -4.7308  -4.6353  -3.4301  -3.1343  -3.0841   1.3208   1.4304
     2.0401   5.4461   5.8119   5.8697   5.8937   6.2186

          k =-0.0001 0.1186-0.6778 (  5402 PWs)   bands (ev):

   -45.2905 -45.0630 -24.3605 -23.9451 -23.9278 -23.6096 -23.1765 -23.1506
    -5.0375  -4.7612  -4.4944  -4.1450  -3.8979  -3.5143   2.0612   2.7542
     2.9806   3.7034   4.2548   5.1898   6.2418   6.2674

          k = 0.3260-0.4963 0.2924 (  5430 PWs)   bands (ev):

   -45.2905 -45.0630 -24.3606 -23.9447 -23.9281 -23.6097 -23.1756 -23.1514
    -5.2213  -4.7308  -4.3407  -4.0723  -3.9309  -3.5107   2.0321   2.8047
     2.9382   3.5882   4.1712   5.1486   6.3641   6.4924

          k = 0.3259-0.3778-0.3854 (  5420 PWs)   bands (ev):

   -45.3688 -44.9784 -24.9927 -23.9765 -23.9583 -23.1402 -23.1154 -22.8694
    -5.7049  -4.6222  -4.4809  -4.2806  -3.6028  -3.3209   1.4153   2.3398
     2.5445   5.0814   5.0855   5.3480   5.7531   5.9215

          k =-0.3093-0.4962 0.2980 (  5412 PWs)   bands (ev):

   -45.2905 -45.0630 -24.3606 -23.9448 -23.9279 -23.6097 -23.1761 -23.1507
    -5.2279  -4.7702  -4.4164  -3.9875  -3.8774  -3.5113   2.1045   2.6765
     2.8078   3.7127   4.1861   5.1232   6.3557   6.4623

          k =-0.3094-0.3776-0.3798 (  5402 PWs)   bands (ev):

   -45.3688 -44.9784 -24.9927 -23.9770 -23.9575 -23.1405 -23.1149 -22.8694
    -5.7878  -4.5942  -4.4296  -4.2407  -3.4957  -3.4386   1.3102   2.2999
     2.5493   4.9692   5.0769   5.6018   5.7190   5.9580

          k = 0.0167-0.9925 0.5904 (  5400 PWs)   bands (ev):

   -45.3688 -44.9784 -24.9929 -23.9763 -23.9585 -23.1398 -23.1156 -22.8694
    -5.7042  -4.4705  -4.3993  -4.2697  -3.7357  -3.4754   1.4228   2.3842
     2.5384   4.7984   4.9321   5.0881   5.7315   5.8283

          k = 0.0166-0.8740-0.0874 (  5398 PWs)   bands (ev):

   -45.2905 -45.0630 -24.3605 -23.9452 -23.9282 -23.6096 -23.1769 -23.1517
    -4.8324  -4.4667  -4.3304  -4.3164  -4.0630  -3.9468   2.5473   2.6166
     3.3091   3.5656   4.3754   5.3015   6.2206   6.3749

     the Fermi energy is     3.9390 ev

!    total energy              =    -207.23724347 Ry
     estimated scf accuracy    <          4.7E-09 Ry
     smearing contrib. (-TS)   =       0.00183235 Ry
     internal energy E=F+TS    =    -207.23907582 Ry

     The total energy is F=E-TS. E is the sum of the following terms:
     one-electron contribution =    -151.29112513 Ry
     hartree contribution      =      79.02022118 Ry
     xc contribution           =     -39.61725936 Ry
     ewald contribution        =     -95.34922928 Ry
     one-center paw contrib.   =      -0.00168322 Ry

     convergence has been achieved in   9 iterations

     negative rho (up, down):  6.009E-02 0.000E+00

     Forces acting on atoms (cartesian axes, Ry/au):

     atom    1 type  3   force =     0.00000000    0.00000000    0.00000000
     atom    2 type  2   force =     0.00000000    0.00000000    0.00000000
     atom    3 type  1   force =     0.00086331   -0.00336935   -0.00103867
     atom    4 type  1   force =    -0.00086331    0.00336935    0.00103867
     atom    5 type  1   force =    -0.00027067    0.00160398    0.00205069
     atom    6 type  1   force =    -0.00548633    0.00190837    0.00247311
     atom    7 type  1   force =     0.00027067   -0.00160398   -0.00205069
     atom    8 type  1   force =     0.00548633   -0.00190837   -0.00247311
     atom    9 type  1   force =    -0.00175772   -0.00320986    0.00110206
     atom   10 type  1   force =     0.00128784   -0.00069711    0.00133378
     atom   11 type  1   force =     0.00175772    0.00320986   -0.00110206
     atom   12 type  1   force =    -0.00128784    0.00069711   -0.00133378
     atom   13 type  1   force =     0.00440274    0.00145706    0.00122490
     atom   14 type  1   force =    -0.00440274   -0.00145706   -0.00122490

     Total force =     0.014242     Total SCF correction =     0.000021


     Computing stress (Cartesian axis) and pressure


     negative rho (up, down):  6.009E-02 0.000E+00
          total   stress  (Ry/bohr**3)                   (kbar)     P=       -1.08
  -0.00000134  -0.00000698  -0.00000395           -0.20       -1.03       -0.58
  -0.00000698  -0.00004477   0.00001059           -1.03       -6.59        1.56
  -0.00000395   0.00001059   0.00002403           -0.58        1.56        3.53

     Energy error            =      6.3E-04
     Gradient error          =      5.5E-03
     Cell gradient error     =      4.5E-05


     number of scf cycles    =  17
     number of bfgs steps    =  16

     enthalpy old            =    -207.2366093455 Ry
     enthalpy new            =    -207.2372434668 Ry

     CASE: enthalpy_new < enthalpy_old

     new trust radius        =       0.0228053804 bohr
     new conv_thr            =       0.0000000549 Ry

     new unit-cell volume =    902.28360 a.u.^3 (   133.70463 Ang^3 )
     density =      0.17387 g/cm^3

CELL_PARAMETERS (angstrom)
   4.644021019   3.393319548   0.599224669
  -4.640771453   3.231676584   0.576132950
   0.036759839   2.897244471   4.861313611

ATOMIC_POSITIONS (angstrom)
Zr           -2.3203842246        1.6158382502        0.2880664589
Sc            2.3403908800        3.1452835370        2.7302697324
H            -0.7708044090        1.0722595231        1.5405171436
H             0.8108128116        8.4499811075        4.4961540971
H             2.0134789899        5.8723395398        5.5376595128
H            -0.7111819147        7.0388602140        2.0232067981
H            -1.9734695563        3.6499000582        0.4990116498
H             0.7511913484        2.4833793840        4.0134643644
H             1.1609765911        4.9161809587        2.5924990692
H             1.9946746132        5.2316613846        2.9057883273
H            -1.1209682279        4.6060607446        3.4441732328
H            -1.9546652092        4.2905792184        3.1308829026
H             1.1243170670        3.3148265388        1.0201479389
H            -1.0843076432        6.2074131269        5.0165242178



     Writing output data file ./tmp/ZrScH12.save/
     NEW-OLD atomic charge density approx. for the potential

     negative rho (up, down):  5.995E-02 0.000E+00
     extrapolated charge   34.91909, renormalised to   35.00000

     total cpu time spent up to now is     1477.3 secs

     Self-consistent Calculation

     iteration #  1     ecut=    50.00 Ry     beta= 0.70
     Davidson diagonalization with overlap
     ethr =  1.00E-06,  avg # of iterations =  7.5

     negative rho (up, down):  6.012E-02 0.000E+00

     total cpu time spent up to now is     1484.1 secs

     total energy              =    -207.23374745 Ry
     estimated scf accuracy    <       0.00378546 Ry

     iteration #  2     ecut=    50.00 Ry     beta= 0.70
     Davidson diagonalization with overlap
     ethr =  1.08E-05,  avg # of iterations =  6.9

     negative rho (up, down):  6.009E-02 0.000E+00

     total cpu time spent up to now is     1489.4 secs

     total energy              =    -207.23578997 Ry
     estimated scf accuracy    <       0.02118635 Ry

     iteration #  3     ecut=    50.00 Ry     beta= 0.70
     Davidson diagonalization with overlap
     ethr =  1.08E-05,  avg # of iterations =  4.5

     negative rho (up, down):  6.010E-02 0.000E+00

     total cpu time spent up to now is     1494.5 secs

     total energy              =    -207.23776778 Ry
     estimated scf accuracy    <       0.00179759 Ry

     iteration #  4     ecut=    50.00 Ry     beta= 0.70
     Davidson diagonalization with overlap
     ethr =  5.14E-06,  avg # of iterations =  1.5

     negative rho (up, down):  6.014E-02 0.000E+00

     total cpu time spent up to now is     1498.4 secs

     total energy              =    -207.23740165 Ry
     estimated scf accuracy    <       0.00100065 Ry

     iteration #  5     ecut=    50.00 Ry     beta= 0.70
     Davidson diagonalization with overlap
     ethr =  2.86E-06,  avg # of iterations =  4.4

     negative rho (up, down):  6.014E-02 0.000E+00

     total cpu time spent up to now is     1503.0 secs

     total energy              =    -207.23764464 Ry
     estimated scf accuracy    <       0.00001328 Ry

     iteration #  6     ecut=    50.00 Ry     beta= 0.70
     Davidson diagonalization with overlap
     ethr =  3.79E-08,  avg # of iterations =  4.8

     negative rho (up, down):  6.013E-02 0.000E+00

     total cpu time spent up to now is     1507.9 secs

     total energy              =    -207.23765523 Ry
     estimated scf accuracy    <       0.00001316 Ry

     iteration #  7     ecut=    50.00 Ry     beta= 0.70
     Davidson diagonalization with overlap
     ethr =  3.76E-08,  avg # of iterations =  1.8

     negative rho (up, down):  6.011E-02 0.000E+00

     total cpu time spent up to now is     1511.9 secs

     total energy              =    -207.23765327 Ry
     estimated scf accuracy    <       0.00000447 Ry

     iteration #  8     ecut=    50.00 Ry     beta= 0.70
     Davidson diagonalization with overlap
     ethr =  1.28E-08,  avg # of iterations =  4.5

     negative rho (up, down):  6.011E-02 0.000E+00

     total cpu time spent up to now is     1516.6 secs

     total energy              =    -207.23765540 Ry
     estimated scf accuracy    <       0.00000143 Ry

     iteration #  9     ecut=    50.00 Ry     beta= 0.70
     Davidson diagonalization with overlap
     ethr =  4.09E-09,  avg # of iterations =  1.4

     negative rho (up, down):  6.011E-02 0.000E+00

     total cpu time spent up to now is     1520.3 secs

     total energy              =    -207.23765498 Ry
     estimated scf accuracy    <       0.00000078 Ry

     iteration # 10     ecut=    50.00 Ry     beta= 0.70
     Davidson diagonalization with overlap
     ethr =  2.24E-09,  avg # of iterations =  4.9

     negative rho (up, down):  6.011E-02 0.000E+00

     total cpu time spent up to now is     1525.1 secs

     total energy              =    -207.23765529 Ry
     estimated scf accuracy    <       0.00000024 Ry

     iteration # 11     ecut=    50.00 Ry     beta= 0.70
     Davidson diagonalization with overlap
     ethr =  6.90E-10,  avg # of iterations =  2.9

     negative rho (up, down):  6.011E-02 0.000E+00

     total cpu time spent up to now is     1529.0 secs

     End of self-consistent calculation

          k = 0.0000 0.0000 0.0000 (  5429 PWs)   bands (ev):

   -45.3393 -44.9591 -24.9978 -23.9381 -23.9204 -23.1297 -23.1057 -22.8346
    -6.3527  -4.7503  -4.6504  -3.4176  -3.1505  -3.0928   1.3127   1.4256
     2.0372   5.4810   5.8343   5.8867   5.9176   6.2444

          k =-0.0004 0.1204-0.6784 (  5402 PWs)   bands (ev):

   -45.2478 -45.0573 -24.3316 -23.9038 -23.8874 -23.6138 -23.1709 -23.1456
    -5.0367  -4.7642  -4.4965  -4.1579  -3.9154  -3.5240   2.0752   2.7507
     2.9748   3.6927   4.2717   5.2213   6.2687   6.2818

          k = 0.3256-0.4975 0.2940 (  5430 PWs)   bands (ev):

   -45.2478 -45.0573 -24.3316 -23.9034 -23.8877 -23.6139 -23.1701 -23.1464
    -5.2065  -4.7467  -4.3516  -4.0962  -3.9314  -3.5197   2.0419   2.8031
     2.9272   3.5915   4.1884   5.1770   6.3880   6.4991

          k = 0.3252-0.3772-0.3844 (  5420 PWs)   bands (ev):

   -45.3393 -44.9591 -24.9980 -23.9388 -23.9214 -23.1303 -23.1065 -22.8347
    -5.7254  -4.6306  -4.5071  -4.2734  -3.6037  -3.3190   1.4082   2.3194
     2.5302   5.1083   5.1112   5.3664   5.7790   5.9462

          k =-0.3097-0.4981 0.2992 (  5412 PWs)   bands (ev):

   -45.2478 -45.0573 -24.3316 -23.9035 -23.8875 -23.6138 -23.1707 -23.1456
    -5.2217  -4.7707  -4.4236  -4.0009  -3.8830  -3.5398   2.1116   2.6822
     2.8124   3.6976   4.2069   5.1567   6.4009   6.4688

          k =-0.3101-0.3778-0.3792 (  5402 PWs)   bands (ev):

   -45.3393 -44.9591 -24.9980 -23.9392 -23.9207 -23.1307 -23.1059 -22.8346
    -5.8037  -4.6133  -4.4536  -4.2305  -3.4805  -3.4520   1.2981   2.2841
     2.5462   5.0030   5.1034   5.6103   5.7434   5.9806

          k = 0.0159-0.9956 0.5933 (  5400 PWs)   bands (ev):

   -45.3393 -44.9591 -24.9982 -23.9385 -23.9217 -23.1300 -23.1065 -22.8347
    -5.7161  -4.4980  -4.4256  -4.2660  -3.7223  -3.4758   1.4173   2.3696
     2.5293   4.8304   4.9642   5.1026   5.7563   5.8551

          k = 0.0154-0.8753-0.0852 (  5398 PWs)   bands (ev):

   -45.2478 -45.0573 -24.3316 -23.9039 -23.8878 -23.6138 -23.1714 -23.1466
    -4.8281  -4.4827  -4.3461  -4.3271  -4.0582  -3.9531   2.5353   2.6245
     3.2993   3.5663   4.3934   5.3352   6.2457   6.4063

     the Fermi energy is     3.9398 ev

!    total energy              =    -207.23765526 Ry
     estimated scf accuracy    <       0.00000005 Ry
     smearing contrib. (-TS)   =       0.00199309 Ry
     internal energy E=F+TS    =    -207.23964835 Ry

     The total energy is F=E-TS. E is the sum of the following terms:
     one-electron contribution =    -152.06554814 Ry
     hartree contribution      =      79.43139778 Ry
     xc contribution           =     -39.63974845 Ry
     ewald contribution        =     -94.96406639 Ry
     one-center paw contrib.   =      -0.00168314 Ry

     convergence has been achieved in  11 iterations

     negative rho (up, down):  6.011E-02 0.000E+00

     Forces acting on atoms (cartesian axes, Ry/au):

     atom    1 type  3   force =     0.00000000    0.00000000    0.00000000
     atom    2 type  2   force =     0.00000000    0.00000000    0.00000000
     atom    3 type  1   force =     0.00197805   -0.00151691   -0.00027980
     atom    4 type  1   force =    -0.00197805    0.00151691    0.00027980
     atom    5 type  1   force =     0.00010762    0.00070268    0.00190407
     atom    6 type  1   force =    -0.00429547    0.00045412    0.00182213
     atom    7 type  1   force =    -0.00010762   -0.00070268   -0.00190407
     atom    8 type  1   force =     0.00429547   -0.00045412   -0.00182213
     atom    9 type  1   force =    -0.00220353   -0.00326735    0.00080446
     atom   10 type  1   force =     0.00151277    0.00030343    0.00234325
     atom   11 type  1   force =     0.00220353    0.00326735   -0.00080446
     atom   12 type  1   force =    -0.00151277   -0.00030343   -0.00234325
     atom   13 type  1   force =     0.00281803    0.00166773    0.00044168
     atom   14 type  1   force =    -0.00281803   -0.00166773   -0.00044168

     Total force =     0.011608     Total SCF correction =     0.000123


     Computing stress (Cartesian axis) and pressure


     negative rho (up, down):  6.011E-02 0.000E+00
          total   stress  (Ry/bohr**3)                   (kbar)     P=        3.22
   0.00002546  -0.00000507   0.00000105            3.75       -0.75        0.15
  -0.00000507  -0.00001022   0.00000388           -0.75       -1.50        0.57
   0.00000105   0.00000388   0.00005043            0.15        0.57        7.42

     Energy error            =      4.1E-04
     Gradient error          =      4.3E-03
     Cell gradient error     =      5.0E-05


     number of scf cycles    =  18
     number of bfgs steps    =  17

     enthalpy old            =    -207.2372434668 Ry
     enthalpy new            =    -207.2376552631 Ry

     CASE: enthalpy_new < enthalpy_old

     new trust radius        =       0.0201518482 bohr
     new conv_thr            =       0.0000000412 Ry

     new unit-cell volume =    902.14074 a.u.^3 (   133.68347 Ang^3 )
     density =      0.17390 g/cm^3

CELL_PARAMETERS (angstrom)
   4.643094868   3.381719668   0.603540431
  -4.647214241   3.231579399   0.584893974
   0.031374086   2.901908594   4.873114356

ATOMIC_POSITIONS (angstrom)
Zr           -2.3236056176        1.6157896560        0.2924469699
Sc            2.3372349270        3.1418156561        2.7383279897
H            -0.7750341748        1.0657410406        1.5455845215
H             0.8022878860        8.4494666497        4.5159642515
H             2.0079329320        5.8707014696        5.5580858329
H            -0.7298755906        7.0288918679        2.0406075665
H            -1.9806781881        3.6445051889        0.5034628596
H             0.7571303346        2.4863147906        4.0209411260
H             1.1542310212        4.9031781816        2.6042019694
H             1.9925865296        5.2191937618        2.9164796015
H            -1.1269773510        4.6120305815        3.4573478684
H            -1.9653318163        4.2960138996        3.1450691601
H             1.1276698803        3.3052402270        1.0329879677
H            -1.1004151467        6.2099665013        5.0285617205



     Writing output data file ./tmp/ZrScH12.save/
     NEW-OLD atomic charge density approx. for the potential

     negative rho (up, down):  6.011E-02 0.000E+00
     extrapolated charge   34.99446, renormalised to   35.00000

     total cpu time spent up to now is     1558.6 secs

     Self-consistent Calculation

     iteration #  1     ecut=    50.00 Ry     beta= 0.70
     Davidson diagonalization with overlap
     ethr =  1.00E-06,  avg # of iterations =  5.9

     negative rho (up, down):  6.014E-02 0.000E+00

     total cpu time spent up to now is     1564.4 secs

     total energy              =    -207.23787331 Ry
     estimated scf accuracy    <       0.00027506 Ry

     iteration #  2     ecut=    50.00 Ry     beta= 0.70
     Davidson diagonalization with overlap
     ethr =  7.86E-07,  avg # of iterations =  5.6

     negative rho (up, down):  6.013E-02 0.000E+00

     total cpu time spent up to now is     1569.7 secs

     total energy              =    -207.23784019 Ry
     estimated scf accuracy    <       0.00112264 Ry

     iteration #  3     ecut=    50.00 Ry     beta= 0.70
     Davidson diagonalization with overlap
     ethr =  7.86E-07,  avg # of iterations =  4.9

     negative rho (up, down):  6.013E-02 0.000E+00

     total cpu time spent up to now is     1574.7 secs

     total energy              =    -207.23801829 Ry
     estimated scf accuracy    <       0.00001439 Ry

     iteration #  4     ecut=    50.00 Ry     beta= 0.70
     Davidson diagonalization with overlap
     ethr =  4.11E-08,  avg # of iterations =  3.9

     negative rho (up, down):  6.013E-02 0.000E+00

     total cpu time spent up to now is     1579.5 secs

     total energy              =    -207.23802329 Ry
     estimated scf accuracy    <       0.00000404 Ry

     iteration #  5     ecut=    50.00 Ry     beta= 0.70
     Davidson diagonalization with overlap
     ethr =  1.15E-08,  avg # of iterations =  3.6

     negative rho (up, down):  6.013E-02 0.000E+00

     total cpu time spent up to now is     1583.7 secs

     total energy              =    -207.23802395 Ry
     estimated scf accuracy    <       0.00000018 Ry

     iteration #  6     ecut=    50.00 Ry     beta= 0.70
     Davidson diagonalization with overlap
     ethr =  5.12E-10,  avg # of iterations =  4.9

     negative rho (up, down):  6.013E-02 0.000E+00

     total cpu time spent up to now is     1588.5 secs

     total energy              =    -207.23802404 Ry
     estimated scf accuracy    <       0.00000004 Ry

     iteration #  7     ecut=    50.00 Ry     beta= 0.70
     Davidson diagonalization with overlap
     ethr =  1.18E-10,  avg # of iterations =  3.4

     negative rho (up, down):  6.013E-02 0.000E+00

     total cpu time spent up to now is     1592.7 secs

     End of self-consistent calculation

          k = 0.0000 0.0000 0.0000 (  5429 PWs)   bands (ev):

   -45.3291 -44.9552 -25.0113 -23.9204 -23.9043 -23.1339 -23.1102 -22.8209
    -6.3662  -4.7763  -4.6733  -3.4064  -3.1913  -3.1187   1.3047   1.4101
     2.0256   5.4997   5.8338   5.8826   5.9198   6.2615

          k =-0.0006 0.1218-0.6778 (  5402 PWs)   bands (ev):

   -45.2265 -45.0649 -24.3204 -23.8834 -23.8684 -23.6279 -23.1786 -23.1532
    -5.0575  -4.7748  -4.5031  -4.1685  -3.9424  -3.5543   2.0859   2.7388
     2.9550   3.6691   4.2701   5.2328   6.2787   6.2797

          k = 0.3249-0.4988 0.2949 (  5430 PWs)   bands (ev):

   -45.2265 -45.0649 -24.3204 -23.8831 -23.8687 -23.6279 -23.1778 -23.1539
    -5.1886  -4.7797  -4.3764  -4.1433  -3.9400  -3.5322   2.0383   2.7929
     2.9124   3.5826   4.1913   5.1857   6.3981   6.4882

          k = 0.3243-0.3770-0.3828 (  5420 PWs)   bands (ev):

   -45.3291 -44.9552 -25.0115 -23.9212 -23.9052 -23.1344 -23.1110 -22.8210
    -5.7579  -4.6311  -4.5483  -4.2652  -3.6282  -3.3362   1.3914   2.2935
     2.5123   5.1073   5.1127   5.3757   5.7848   5.9488

          k =-0.3100-0.5000 0.2998 (  5412 PWs)   bands (ev):

   -45.2265 -45.0649 -24.3204 -23.8831 -23.8686 -23.6279 -23.1785 -23.1531
    -5.2256  -4.7766  -4.4329  -4.0316  -3.9002  -3.5853   2.1149   2.6752
     2.8056   3.6764   4.2097   5.1700   6.4203   6.4605

          k =-0.3106-0.3782-0.3780 (  5402 PWs)   bands (ev):

   -45.3291 -44.9552 -25.0114 -23.9216 -23.9047 -23.1348 -23.1104 -22.8210
    -5.8232  -4.6291  -4.4986  -4.2319  -3.4931  -3.4673   1.2895   2.2587
     2.5326   5.0286   5.1097   5.5919   5.7490   5.9811

          k = 0.0149-0.9988 0.5947 (  5400 PWs)   bands (ev):

   -45.3291 -44.9552 -25.0116 -23.9208 -23.9056 -23.1342 -23.1109 -22.8210
    -5.7318  -4.5371  -4.4602  -4.2810  -3.7103  -3.4915   1.4007   2.3473
     2.5150   4.8503   4.9941   5.0974   5.7637   5.8669

          k = 0.0143-0.8770-0.0831 (  5398 PWs)   bands (ev):

   -45.2265 -45.0648 -24.3204 -23.8835 -23.8688 -23.6279 -23.1791 -23.1541
    -4.8181  -4.5106  -4.3769  -4.3629  -4.0516  -3.9779   2.5171   2.6168
     3.2895   3.5498   4.3948   5.3491   6.2560   6.4160

     the Fermi energy is     3.9271 ev

!    total energy              =    -207.23802405 Ry
     estimated scf accuracy    <          1.6E-09 Ry
     smearing contrib. (-TS)   =       0.00209014 Ry
     internal energy E=F+TS    =    -207.24011419 Ry

     The total energy is F=E-TS. E is the sum of the following terms:
     one-electron contribution =    -152.85642769 Ry
     hartree contribution      =      79.82644999 Ry
     xc contribution           =     -39.65508969 Ry
     ewald contribution        =     -94.55336368 Ry
     one-center paw contrib.   =      -0.00168311 Ry

     convergence has been achieved in   7 iterations

     negative rho (up, down):  6.013E-02 0.000E+00

     Forces acting on atoms (cartesian axes, Ry/au):

     atom    1 type  3   force =     0.00000000    0.00000000    0.00000000
     atom    2 type  2   force =     0.00000000    0.00000000    0.00000000
     atom    3 type  1   force =     0.00244061    0.00062609    0.00037262
     atom    4 type  1   force =    -0.00244061   -0.00062609   -0.00037262
     atom    5 type  1   force =     0.00062235   -0.00044425    0.00168324
     atom    6 type  1   force =    -0.00260564   -0.00151411    0.00088713
     atom    7 type  1   force =    -0.00062235    0.00044425   -0.00168324
     atom    8 type  1   force =     0.00260564    0.00151411   -0.00088713
     atom    9 type  1   force =    -0.00134418   -0.00291582    0.00032803
     atom   10 type  1   force =     0.00101923    0.00062357    0.00201873
     atom   11 type  1   force =     0.00134418    0.00291582   -0.00032803
     atom   12 type  1   force =    -0.00101923   -0.00062357   -0.00201873
     atom   13 type  1   force =     0.00098278    0.00136386   -0.00004363
     atom   14 type  1   force =    -0.00098278   -0.00136386    0.00004363

     Total force =     0.008777     Total SCF correction =     0.000019


     Computing stress (Cartesian axis) and pressure


     negative rho (up, down):  6.013E-02 0.000E+00
          total   stress  (Ry/bohr**3)                   (kbar)     P=        5.51
   0.00003963  -0.00000290   0.00000440            5.83       -0.43        0.65
  -0.00000290   0.00001977  -0.00000093           -0.43        2.91       -0.14
   0.00000440  -0.00000093   0.00005292            0.65       -0.14        7.79

     Energy error            =      3.7E-04
     Gradient error          =      2.9E-03
     Cell gradient error     =      5.3E-05


     number of scf cycles    =  19
     number of bfgs steps    =  18

     enthalpy old            =    -207.2376552631 Ry
     enthalpy new            =    -207.2380240509 Ry

     CASE: enthalpy_new < enthalpy_old

     new trust radius        =       0.0199080684 bohr
     new conv_thr            =       0.0000000292 Ry

     new unit-cell volume =    904.62638 a.u.^3 (   134.05180 Ang^3 )
     density =      0.17342 g/cm^3

CELL_PARAMETERS (angstrom)
   4.648976939   3.373872797   0.607020498
  -4.657365207   3.231188640   0.591593171
   0.027928898   2.905540892   4.888754387

ATOMIC_POSITIONS (angstrom)
Zr           -2.3286810979        1.6155942756        0.2957965679
Sc            2.3384533680        3.1397083674        2.7478880413
H            -0.7760373251        1.0621944262        1.5509184910
H             0.7955769514        8.4484079323        4.5364495772
H             2.0075644633        5.8699987061        5.5816002845
H            -0.7461135341        7.0214050584        2.0565233305
H            -1.9880238018        3.6406026213        0.5057677014
H             0.7656541956        2.4891962690        4.0308446554
H             1.1505753752        4.8917916699        2.6164252813
H             1.9948995164        5.2110869232        2.9289894570
H            -1.1310357910        4.6188117615        3.4709438555
H            -1.9753588863        4.2995154057        3.1583785993
H             1.1335623551        3.3008410293        1.0436487102
H            -1.1140217044        6.2097603694        5.0437202740



     Writing output data file ./tmp/ZrScH12.save/
     NEW-OLD atomic charge density approx. for the potential

     negative rho (up, down):  6.030E-02 0.000E+00
     extrapolated charge   35.09616, renormalised to   35.00000

     total cpu time spent up to now is     1622.2 secs

     Self-consistent Calculation

     iteration #  1     ecut=    50.00 Ry     beta= 0.70
     Davidson diagonalization with overlap
     ethr =  1.00E-06,  avg # of iterations =  7.2

     negative rho (up, down):  6.012E-02 0.000E+00

     total cpu time spent up to now is     1629.1 secs

     total energy              =    -207.23496286 Ry
     estimated scf accuracy    <       0.00267219 Ry

     iteration #  2     ecut=    50.00 Ry     beta= 0.70
     Davidson diagonalization with overlap
     ethr =  7.63E-06,  avg # of iterations =  6.8

     negative rho (up, down):  6.014E-02 0.000E+00

     total cpu time spent up to now is     1635.0 secs

     total energy              =    -207.23724809 Ry
     estimated scf accuracy    <       0.01733275 Ry

     iteration #  3     ecut=    50.00 Ry     beta= 0.70
     Davidson diagonalization with overlap
     ethr =  7.63E-06,  avg # of iterations =  4.5

     negative rho (up, down):  6.013E-02 0.000E+00

     total cpu time spent up to now is     1640.1 secs

     total energy              =    -207.23847946 Ry
     estimated scf accuracy    <       0.00216004 Ry

     iteration #  4     ecut=    50.00 Ry     beta= 0.70
     Davidson diagonalization with overlap
     ethr =  6.17E-06,  avg # of iterations =  1.5

     negative rho (up, down):  6.010E-02 0.000E+00

     total cpu time spent up to now is     1644.0 secs

     total energy              =    -207.23803859 Ry
     estimated scf accuracy    <       0.00127093 Ry

     iteration #  5     ecut=    50.00 Ry     beta= 0.70
     Davidson diagonalization with overlap
     ethr =  3.63E-06,  avg # of iterations =  3.8

     negative rho (up, down):  6.010E-02 0.000E+00

     total cpu time spent up to now is     1648.3 secs

     total energy              =    -207.23831346 Ry
     estimated scf accuracy    <       0.00001120 Ry

     iteration #  6     ecut=    50.00 Ry     beta= 0.70
     Davidson diagonalization with overlap
     ethr =  3.20E-08,  avg # of iterations =  5.6

     negative rho (up, down):  6.013E-02 0.000E+00

     total cpu time spent up to now is     1653.5 secs

     total energy              =    -207.23832454 Ry
     estimated scf accuracy    <       0.00001594 Ry

     iteration #  7     ecut=    50.00 Ry     beta= 0.70
     Davidson diagonalization with overlap
     ethr =  3.20E-08,  avg # of iterations =  4.9

     negative rho (up, down):  6.014E-02 0.000E+00

     total cpu time spent up to now is     1658.2 secs

     total energy              =    -207.23832904 Ry
     estimated scf accuracy    <       0.00000152 Ry

     iteration #  8     ecut=    50.00 Ry     beta= 0.70
     Davidson diagonalization with overlap
     ethr =  4.35E-09,  avg # of iterations =  4.0

     negative rho (up, down):  6.014E-02 0.000E+00

     total cpu time spent up to now is     1662.7 secs

     total energy              =    -207.23832929 Ry
     estimated scf accuracy    <       0.00000008 Ry

     iteration #  9     ecut=    50.00 Ry     beta= 0.70
     Davidson diagonalization with overlap
     ethr =  2.33E-10,  avg # of iterations =  4.9

     negative rho (up, down):  6.014E-02 0.000E+00

     total cpu time spent up to now is     1667.8 secs

     total energy              =    -207.23832934 Ry
     estimated scf accuracy    <       0.00000017 Ry

     iteration # 10     ecut=    50.00 Ry     beta= 0.70
     Davidson diagonalization with overlap
     ethr =  2.33E-10,  avg # of iterations =  3.0

     negative rho (up, down):  6.014E-02 0.000E+00

     total cpu time spent up to now is     1672.0 secs

     total energy              =    -207.23832932 Ry
     estimated scf accuracy    <       0.00000005 Ry

     iteration # 11     ecut=    50.00 Ry     beta= 0.70
     Davidson diagonalization with overlap
     ethr =  1.30E-10,  avg # of iterations =  4.2

     negative rho (up, down):  6.014E-02 0.000E+00

     total cpu time spent up to now is     1676.1 secs

     End of self-consistent calculation

          k = 0.0000 0.0000 0.0000 (  5429 PWs)   bands (ev):

   -45.3482 -44.9797 -25.0393 -23.9337 -23.9192 -23.1623 -23.1389 -22.8412
    -6.3827  -4.8048  -4.6910  -3.4134  -3.2311  -3.1553   1.2881   1.3783
     1.9997   5.4888   5.8066   5.8486   5.8928   6.2502

          k =-0.0008 0.1227-0.6762 (  5402 PWs)   bands (ev):

   -45.2385 -45.0966 -24.3369 -23.8953 -23.8818 -23.6607 -23.2089 -23.1836
    -5.0887  -4.7936  -4.5176  -4.1726  -3.9698  -3.5946   2.0812   2.7119
     2.9160   3.6258   4.2431   5.2152   6.2525   6.2629

          k = 0.3241-0.4997 0.2951 (  5430 PWs)   bands (ev):

   -45.2385 -45.0966 -24.3369 -23.8949 -23.8821 -23.6607 -23.2083 -23.1841
    -5.1783  -4.8178  -4.4048  -4.1911  -3.9580  -3.5480   2.0154   2.7670
     2.8837   3.5509   4.1706   5.1673   6.3850   6.4518

          k = 0.3233-0.3770-0.3811 (  5420 PWs)   bands (ev):

   -45.3482 -44.9797 -25.0395 -23.9345 -23.9201 -23.1628 -23.1397 -22.8413
    -5.7939  -4.6412  -4.5763  -4.2639  -3.6606  -3.3678   1.3601   2.2561
     2.4835   5.0701   5.0896   5.3634   5.7628   5.9233

          k =-0.3097-0.5013 0.2997 (  5412 PWs)   bands (ev):

   -45.2385 -45.0966 -24.3369 -23.8950 -23.8820 -23.6607 -23.2089 -23.1833
    -5.2374  -4.7914  -4.4444  -4.0669  -3.9260  -3.6282   2.1039   2.6471
     2.7788   3.6413   4.1869   5.1539   6.4047   6.4280

          k =-0.3105-0.3786-0.3765 (  5402 PWs)   bands (ev):

   -45.3482 -44.9797 -25.0395 -23.9349 -23.9196 -23.1632 -23.1392 -22.8412
    -5.8450  -4.6400  -4.5461  -4.2440  -3.5438  -3.4638   1.2758   2.2185
     2.5018   5.0281   5.0891   5.5439   5.7283   5.9525

          k = 0.0144-1.0010 0.5948 (  5400 PWs)   bands (ev):

   -45.3481 -44.9797 -25.0396 -23.9342 -23.9205 -23.1627 -23.1396 -22.8413
    -5.7528  -4.5797  -4.4849  -4.3070  -3.7061  -3.5165   1.3679   2.3129
     2.4864   4.8460   4.9986   5.0677   5.7447   5.8519

          k = 0.0136-0.8783-0.0814 (  5398 PWs)   bands (ev):

   -45.2385 -45.0966 -24.3369 -23.8954 -23.8823 -23.6607 -23.2094 -23.1844
    -4.8182  -4.5324  -4.4154  -4.4087  -4.0506  -4.0071   2.4876   2.5856
     3.2704   3.5109   4.3709   5.3335   6.2414   6.3959

     the Fermi energy is     3.8942 ev

!    total energy              =    -207.23832934 Ry
     estimated scf accuracy    <          1.8E-09 Ry
     smearing contrib. (-TS)   =       0.00214396 Ry
     internal energy E=F+TS    =    -207.24047330 Ry

     The total energy is F=E-TS. E is the sum of the following terms:
     one-electron contribution =    -153.61413242 Ry
     hartree contribution      =      80.17680713 Ry
     xc contribution           =     -39.65747769 Ry
     ewald contribution        =     -94.14398709 Ry
     one-center paw contrib.   =      -0.00168323 Ry

     convergence has been achieved in  11 iterations

     negative rho (up, down):  6.014E-02 0.000E+00

     Forces acting on atoms (cartesian axes, Ry/au):

     atom    1 type  3   force =     0.00000000    0.00000000    0.00000000
     atom    2 type  2   force =     0.00000000    0.00000000    0.00000000
     atom    3 type  1   force =     0.00185760    0.00186208    0.00037715
     atom    4 type  1   force =    -0.00185760   -0.00186208   -0.00037715
     atom    5 type  1   force =     0.00088407   -0.00109347    0.00174730
     atom    6 type  1   force =    -0.00113423   -0.00283552    0.00031135
     atom    7 type  1   force =    -0.00088407    0.00109347   -0.00174730
     atom    8 type  1   force =     0.00113423    0.00283552   -0.00031135
     atom    9 type  1   force =     0.00044595   -0.00230489   -0.00024792
     atom   10 type  1   force =     0.00003593    0.00034113    0.00086051
     atom   11 type  1   force =    -0.00044595    0.00230489    0.00024792
     atom   12 type  1   force =    -0.00003593   -0.00034113   -0.00086051
     atom   13 type  1   force =    -0.00022186    0.00078842   -0.00038245
     atom   14 type  1   force =     0.00022186   -0.00078842    0.00038245

     Total force =     0.007584     Total SCF correction =     0.000023


     Computing stress (Cartesian axis) and pressure


     negative rho (up, down):  6.014E-02 0.000E+00
          total   stress  (Ry/bohr**3)                   (kbar)     P=        6.10
   0.00004283  -0.00000205   0.00000620            6.30       -0.30        0.91
  -0.00000205   0.00003974  -0.00000276           -0.30        5.85       -0.41
   0.00000620  -0.00000276   0.00004177            0.91       -0.41        6.14

     Energy error            =      3.1E-04
     Gradient error          =      2.8E-03
     Cell gradient error     =      4.3E-05


     number of scf cycles    =  20
     number of bfgs steps    =  19

     enthalpy old            =    -207.2380240509 Ry
     enthalpy new            =    -207.2383293394 Ry

     CASE: enthalpy_new < enthalpy_old

     new trust radius        =       0.0247505840 bohr
     new conv_thr            =       0.0000000284 Ry

     new unit-cell volume =    911.33766 a.u.^3 (   135.04631 Ang^3 )
     density =      0.17215 g/cm^3

CELL_PARAMETERS (angstrom)
   4.663015585   3.370526924   0.612607167
  -4.676200154   3.236121560   0.598478005
   0.025285004   2.913774558   4.911421405

ATOMIC_POSITIONS (angstrom)
Zr           -2.3380985661        1.6180607339        0.2992389845
Sc            2.3441507443        3.1421522643        2.7620148891
H            -0.7774927175        1.0600361125        1.5589500451
H             0.7895921448        8.4603869590        4.5635565445
H             2.0121086463        5.8773127437        5.6149062545
H            -0.7659995328        7.0217477555        2.0763884789
H            -2.0000081794        3.6431092957        0.5076002512
H             0.7780999997        2.4986742839        4.0461180268
H             1.1498909447        4.8849776847        2.6317081209
H             2.0013801844        5.2088328550        2.9465692378
H            -1.1377915606        4.6354464616        3.4907995429
H            -1.9892797497        4.3115901860        3.1759373397
H             1.1426788445        3.2998334445        1.0584041669
H            -1.1305783886        6.2205886681        5.0641033410



     Writing output data file ./tmp/ZrScH12.save/
     NEW-OLD atomic charge density approx. for the potential

     negative rho (up, down):  6.058E-02 0.000E+00
     extrapolated charge   35.25771, renormalised to   35.00000

     total cpu time spent up to now is     1705.5 secs

     Self-consistent Calculation

     iteration #  1     ecut=    50.00 Ry     beta= 0.70
     Davidson diagonalization with overlap
     c_bands:  1 eigenvalues not converged
     ethr =  1.00E-06,  avg # of iterations = 10.8

     negative rho (up, down):  6.005E-02 0.000E+00

     total cpu time spent up to now is     1712.8 secs

     total energy              =    -207.21265354 Ry
     estimated scf accuracy    <       0.02106707 Ry

     iteration #  2     ecut=    50.00 Ry     beta= 0.70
     Davidson diagonalization with overlap
     ethr =  6.02E-05,  avg # of iterations =  6.8

     negative rho (up, down):  6.013E-02 0.000E+00

     total cpu time spent up to now is     1718.7 secs

     total energy              =    -207.22726036 Ry
     estimated scf accuracy    <       0.15120896 Ry

     iteration #  3     ecut=    50.00 Ry     beta= 0.70
     Davidson diagonalization with overlap
     ethr =  6.02E-05,  avg # of iterations =  4.5

     negative rho (up, down):  6.010E-02 0.000E+00

     total cpu time spent up to now is     1723.7 secs

     total energy              =    -207.23955439 Ry
     estimated scf accuracy    <       0.01748342 Ry

     iteration #  4     ecut=    50.00 Ry     beta= 0.70
     Davidson diagonalization with overlap
     ethr =  5.00E-05,  avg # of iterations =  1.5

     negative rho (up, down):  6.007E-02 0.000E+00

     total cpu time spent up to now is     1727.8 secs

     total energy              =    -207.23843642 Ry
     estimated scf accuracy    <       0.00938008 Ry

     iteration #  5     ecut=    50.00 Ry     beta= 0.70
     Davidson diagonalization with overlap
     ethr =  2.68E-05,  avg # of iterations =  2.0

     negative rho (up, down):  6.003E-02 0.000E+00

     total cpu time spent up to now is     1732.0 secs

     total energy              =    -207.23783632 Ry
     estimated scf accuracy    <       0.00373312 Ry

     iteration #  6     ecut=    50.00 Ry     beta= 0.70
     Davidson diagonalization with overlap
     ethr =  1.07E-05,  avg # of iterations =  4.5

     negative rho (up, down):  6.005E-02 0.000E+00

     total cpu time spent up to now is     1736.3 secs

     total energy              =    -207.23859161 Ry
     estimated scf accuracy    <       0.00007956 Ry

     iteration #  7     ecut=    50.00 Ry     beta= 0.70
     Davidson diagonalization with overlap
     ethr =  2.27E-07,  avg # of iterations =  4.8

     negative rho (up, down):  6.007E-02 0.000E+00

     total cpu time spent up to now is     1741.3 secs

     total energy              =    -207.23864266 Ry
     estimated scf accuracy    <       0.00001430 Ry

     iteration #  8     ecut=    50.00 Ry     beta= 0.70
     Davidson diagonalization with overlap
     ethr =  4.08E-08,  avg # of iterations =  1.8

     negative rho (up, down):  6.016E-02 0.000E+00

     total cpu time spent up to now is     1745.4 secs

     total energy              =    -207.23864026 Ry
     estimated scf accuracy    <       0.00001799 Ry

     iteration #  9     ecut=    50.00 Ry     beta= 0.70
     Davidson diagonalization with overlap
     ethr =  4.08E-08,  avg # of iterations =  3.2

     negative rho (up, down):  6.014E-02 0.000E+00

     total cpu time spent up to now is     1749.6 secs

     total energy              =    -207.23863666 Ry
     estimated scf accuracy    <       0.00001480 Ry

     iteration # 10     ecut=    50.00 Ry     beta= 0.70
     Davidson diagonalization with overlap
     ethr =  4.08E-08,  avg # of iterations =  3.0

     negative rho (up, down):  6.013E-02 0.000E+00

     total cpu time spent up to now is     1753.8 secs

     total energy              =    -207.23863773 Ry
     estimated scf accuracy    <       0.00000508 Ry

     iteration # 11     ecut=    50.00 Ry     beta= 0.70
     Davidson diagonalization with overlap
     ethr =  1.45E-08,  avg # of iterations =  3.9

     negative rho (up, down):  6.013E-02 0.000E+00

     total cpu time spent up to now is     1758.2 secs

     total energy              =    -207.23863831 Ry
     estimated scf accuracy    <       0.00000273 Ry

     iteration # 12     ecut=    50.00 Ry     beta= 0.70
     Davidson diagonalization with overlap
     ethr =  7.81E-09,  avg # of iterations =  1.1

     negative rho (up, down):  6.014E-02 0.000E+00

     total cpu time spent up to now is     1762.0 secs

     total energy              =    -207.23863802 Ry
     estimated scf accuracy    <       0.00000173 Ry

     iteration # 13     ecut=    50.00 Ry     beta= 0.70
     Davidson diagonalization with overlap
     ethr =  4.95E-09,  avg # of iterations =  3.0

     negative rho (up, down):  6.014E-02 0.000E+00

     total cpu time spent up to now is     1766.3 secs

     total energy              =    -207.23863803 Ry
     estimated scf accuracy    <       0.00000050 Ry

     iteration # 14     ecut=    50.00 Ry     beta= 0.70
     Davidson diagonalization with overlap
     ethr =  1.41E-09,  avg # of iterations =  4.2

     negative rho (up, down):  6.014E-02 0.000E+00

     total cpu time spent up to now is     1770.6 secs

     total energy              =    -207.23863812 Ry
     estimated scf accuracy    <       0.00000036 Ry

     iteration # 15     ecut=    50.00 Ry     beta= 0.70
     Davidson diagonalization with overlap
     ethr =  1.02E-09,  avg # of iterations =  1.0

     negative rho (up, down):  6.014E-02 0.000E+00

     total cpu time spent up to now is     1774.5 secs

     total energy              =    -207.23863801 Ry
     estimated scf accuracy    <       0.00000019 Ry

     iteration # 16     ecut=    50.00 Ry     beta= 0.70
     Davidson diagonalization with overlap
     ethr =  5.32E-10,  avg # of iterations =  4.9

     negative rho (up, down):  6.014E-02 0.000E+00

     total cpu time spent up to now is     1779.2 secs

     total energy              =    -207.23863810 Ry
     estimated scf accuracy    <       0.00000006 Ry

     iteration # 17     ecut=    50.00 Ry     beta= 0.70
     Davidson diagonalization with overlap
     ethr =  1.64E-10,  avg # of iterations =  1.1

     negative rho (up, down):  6.014E-02 0.000E+00

     total cpu time spent up to now is     1783.2 secs

     total energy              =    -207.23863809 Ry
     estimated scf accuracy    <       0.00000003 Ry

     iteration # 18     ecut=    50.00 Ry     beta= 0.70
     Davidson diagonalization with overlap
     ethr =  8.90E-11,  avg # of iterations =  3.0

     negative rho (up, down):  6.014E-02 0.000E+00

     total cpu time spent up to now is     1787.4 secs

     End of self-consistent calculation

          k = 0.0000 0.0000 0.0000 (  5429 PWs)   bands (ev):

   -45.4057 -45.0478 -25.0939 -23.9842 -23.9713 -23.2327 -23.2098 -22.9092
    -6.4124  -4.8450  -4.7172  -3.4562  -3.2818  -3.2205   1.2469   1.3204
     1.9466   5.4359   5.7409   5.7697   5.8262   6.1908

          k =-0.0008 0.1235-0.6738 (  5402 PWs)   bands (ev):

   -45.2885 -45.1720 -24.3879 -23.9449 -23.9329 -23.7313 -23.2802 -23.2552
    -5.1352  -4.8335  -4.5501  -4.1882  -4.0128  -3.6596   2.0522   2.6551
     2.8422   3.5427   4.1762   5.1585   6.1843   6.2116

          k = 0.3226-0.4998 0.2949 (  5430 PWs)   bands (ev):

   -45.2885 -45.1720 -24.3879 -23.9446 -23.9332 -23.7313 -23.2797 -23.2557
    -5.1869  -4.8763  -4.4460  -4.2484  -3.9984  -3.5862   1.9672   2.7105
     2.8205   3.4792   4.1105   5.1102   6.3374   6.3722

          k = 0.3218-0.3763-0.3789 (  5420 PWs)   bands (ev):

   -45.4056 -45.0478 -25.0941 -23.9849 -23.9722 -23.2330 -23.2106 -22.9092
    -5.8474  -4.6825  -4.5956  -4.2803  -3.7089  -3.4300   1.3029   2.1873
     2.4271   4.9938   5.0273   5.3137   5.7011   5.8570

          k =-0.3090-0.5019 0.2994 (  5412 PWs)   bands (ev):

   -45.2885 -45.1720 -24.3879 -23.9447 -23.9331 -23.7313 -23.2803 -23.2549
    -5.2608  -4.8311  -4.4731  -4.1191  -3.9734  -3.6849   2.0655   2.5889
     2.7193   3.5699   4.1257   5.0984   6.3492   6.3524

          k =-0.3098-0.3784-0.3744 (  5402 PWs)   bands (ev):

   -45.4056 -45.0478 -25.0941 -23.9853 -23.9716 -23.2335 -23.2101 -22.9092
    -5.8843  -4.6618  -4.6065  -4.2745  -3.6151  -3.4838   1.2397   2.1480
     2.4417   4.9927   5.0316   5.4500   5.6689   5.8837

          k = 0.0135-1.0018 0.5942 (  5400 PWs)   bands (ev):

   -45.4056 -45.0478 -25.0942 -23.9846 -23.9726 -23.2331 -23.2104 -22.9092
    -5.7955  -4.6330  -4.5188  -4.3478  -3.7241  -3.5657   1.3078   2.2481
     2.4303   4.8049   4.9601   5.0028   5.6863   5.7962

          k = 0.0128-0.8782-0.0795 (  5398 PWs)   bands (ev):

   -45.2885 -45.1720 -24.3879 -23.9451 -23.9334 -23.7313 -23.2807 -23.2560
    -4.8432  -4.5559  -4.4801  -4.4740  -4.0785  -4.0418   2.4306   2.5254
     3.2186   3.4336   4.3067   5.2778   6.1549   6.1910

     the Fermi energy is     3.8225 ev

!    total energy              =    -207.23863809 Ry
     estimated scf accuracy    <          3.4E-09 Ry
     smearing contrib. (-TS)   =       0.00218545 Ry
     internal energy E=F+TS    =    -207.24082353 Ry

     The total energy is F=E-TS. E is the sum of the following terms:
     one-electron contribution =    -154.70118314 Ry
     hartree contribution      =      80.64286764 Ry
     xc contribution           =     -39.64611700 Ry
     ewald contribution        =     -93.53470748 Ry
     one-center paw contrib.   =      -0.00168355 Ry

     convergence has been achieved in  18 iterations

     negative rho (up, down):  6.014E-02 0.000E+00

     Forces acting on atoms (cartesian axes, Ry/au):

     atom    1 type  3   force =     0.00000000    0.00000000    0.00000000
     atom    2 type  2   force =     0.00000000    0.00000000    0.00000000
     atom    3 type  1   force =     0.00051095    0.00233988   -0.00056954
     atom    4 type  1   force =    -0.00051095   -0.00233988    0.00056954
     atom    5 type  1   force =     0.00080402   -0.00108072    0.00220752
     atom    6 type  1   force =    -0.00011867   -0.00311179    0.00023605
     atom    7 type  1   force =    -0.00080402    0.00108072   -0.00220752
     atom    8 type  1   force =     0.00011867    0.00311179   -0.00023605
     atom    9 type  1   force =     0.00272882   -0.00159517   -0.00076854
     atom   10 type  1   force =    -0.00123839   -0.00021131   -0.00088264
     atom   11 type  1   force =    -0.00272882    0.00159517    0.00076854
     atom   12 type  1   force =     0.00123839    0.00021131    0.00088264
     atom   13 type  1   force =    -0.00070096    0.00043139   -0.00093323
     atom   14 type  1   force =     0.00070096   -0.00043139    0.00093323

     Total force =     0.008601     Total SCF correction =     0.000032


     Computing stress (Cartesian axis) and pressure


     negative rho (up, down):  6.014E-02 0.000E+00
          total   stress  (Ry/bohr**3)                   (kbar)     P=        3.98
   0.00002877  -0.00000105   0.00000586            4.23       -0.16        0.86
  -0.00000105   0.00003931  -0.00000272           -0.16        5.78       -0.40
   0.00000586  -0.00000272   0.00001314            0.86       -0.40        1.93

     Energy error            =      3.1E-04
     Gradient error          =      3.1E-03
     Cell gradient error     =      3.9E-05


     number of scf cycles    =  21
     number of bfgs steps    =  20

     enthalpy old            =    -207.2383293394 Ry
     enthalpy new            =    -207.2386380887 Ry

     CASE: enthalpy_new < enthalpy_old

     new trust radius        =       0.0208114226 bohr
     new conv_thr            =       0.0000000309 Ry

     new unit-cell volume =    918.27171 a.u.^3 (   136.07383 Ang^3 )
     density =      0.17085 g/cm^3

CELL_PARAMETERS (angstrom)
   4.677671823   3.373170558   0.617230160
  -4.693446558   3.243217859   0.602253877
   0.024696605   2.922201885   4.927692164

ATOMIC_POSITIONS (angstrom)
Zr           -2.3467217627        1.6216088826        0.3011269203
Sc            2.3511846649        3.1476877477        2.7724617674
H            -0.7786082564        1.0608475699        1.5641852441
H             0.7875291160        8.4777427632        4.5829909680
H             2.0190638051        5.8885482100        5.6397127305
H            -0.7793804274        7.0285925996        2.0901430329
H            -2.0101419020        3.6500410890        0.5074633968
H             0.7883023305        2.5099966995        4.0570330943
H             1.1535666879        4.8852380226        2.6414380487
H             2.0080030555        5.2128922520        2.9585189415
H            -1.1446458720        4.6533533876        3.5057392414
H            -1.9990811851        4.3256980500        3.1886572586
H             1.1505176672        3.3030093206        1.0690544882
H            -1.1415957751        6.2355800526        5.0781226443



     Writing output data file ./tmp/ZrScH12.save/
     NEW-OLD atomic charge density approx. for the potential

     negative rho (up, down):  6.058E-02 0.000E+00
     extrapolated charge   35.26426, renormalised to   35.00000

     total cpu time spent up to now is     1817.0 secs

     Self-consistent Calculation

     iteration #  1     ecut=    50.00 Ry     beta= 0.70
     Davidson diagonalization with overlap
     ethr =  1.00E-06,  avg # of iterations =  9.4

     negative rho (up, down):  6.003E-02 0.000E+00

     total cpu time spent up to now is     1824.3 secs

     total energy              =    -207.21089920 Ry
     estimated scf accuracy    <       0.02283214 Ry

     iteration #  2     ecut=    50.00 Ry     beta= 0.70
     Davidson diagonalization with overlap
     ethr =  6.52E-05,  avg # of iterations =  6.8

     negative rho (up, down):  6.012E-02 0.000E+00

     total cpu time spent up to now is     1830.1 secs

     total energy              =    -207.22607619 Ry
     estimated scf accuracy    <       0.16569093 Ry

     iteration #  3     ecut=    50.00 Ry     beta= 0.70
     Davidson diagonalization with overlap
     ethr =  6.52E-05,  avg # of iterations =  4.6

     negative rho (up, down):  6.008E-02 0.000E+00

     total cpu time spent up to now is     1835.2 secs

     total energy              =    -207.23974489 Ry
     estimated scf accuracy    <       0.01897686 Ry

     iteration #  4     ecut=    50.00 Ry     beta= 0.70
     Davidson diagonalization with overlap
     ethr =  5.42E-05,  avg # of iterations =  1.5

     negative rho (up, down):  6.005E-02 0.000E+00

     total cpu time spent up to now is     1839.1 secs

     total energy              =    -207.23894077 Ry
     estimated scf accuracy    <       0.00999417 Ry

     iteration #  5     ecut=    50.00 Ry     beta= 0.70
     Davidson diagonalization with overlap
     ethr =  2.86E-05,  avg # of iterations =  2.0

     negative rho (up, down):  6.003E-02 0.000E+00

     total cpu time spent up to now is     1843.1 secs

     total energy              =    -207.23851000 Ry
     estimated scf accuracy    <       0.00466693 Ry

     iteration #  6     ecut=    50.00 Ry     beta= 0.70
     Davidson diagonalization with overlap
     ethr =  1.33E-05,  avg # of iterations =  3.0

     negative rho (up, down):  6.004E-02 0.000E+00

     total cpu time spent up to now is     1847.3 secs

     total energy              =    -207.23878317 Ry
     estimated scf accuracy    <       0.00110119 Ry

     iteration #  7     ecut=    50.00 Ry     beta= 0.70
     Davidson diagonalization with overlap
     ethr =  3.15E-06,  avg # of iterations =  3.1

     negative rho (up, down):  6.007E-02 0.000E+00

     total cpu time spent up to now is     1851.3 secs

     total energy              =    -207.23883347 Ry
     estimated scf accuracy    <       0.00036955 Ry

     iteration #  8     ecut=    50.00 Ry     beta= 0.70
     Davidson diagonalization with overlap
     ethr =  1.06E-06,  avg # of iterations =  3.5

     negative rho (up, down):  6.010E-02 0.000E+00

     total cpu time spent up to now is     1855.5 secs

     total energy              =    -207.23882569 Ry
     estimated scf accuracy    <       0.00010778 Ry

     iteration #  9     ecut=    50.00 Ry     beta= 0.70
     Davidson diagonalization with overlap
     ethr =  3.08E-07,  avg # of iterations =  4.9

     negative rho (up, down):  6.009E-02 0.000E+00

     total cpu time spent up to now is     1860.0 secs

     total energy              =    -207.23885564 Ry
     estimated scf accuracy    <       0.00000779 Ry

     iteration # 10     ecut=    50.00 Ry     beta= 0.70
     Davidson diagonalization with overlap
     ethr =  2.22E-08,  avg # of iterations =  4.0

     negative rho (up, down):  6.010E-02 0.000E+00

     total cpu time spent up to now is     1864.5 secs

     total energy              =    -207.23885739 Ry
     estimated scf accuracy    <       0.00000491 Ry

     iteration # 11     ecut=    50.00 Ry     beta= 0.70
     Davidson diagonalization with overlap
     ethr =  1.40E-08,  avg # of iterations =  1.0

     negative rho (up, down):  6.011E-02 0.000E+00

     total cpu time spent up to now is     1868.5 secs

     total energy              =    -207.23885677 Ry
     estimated scf accuracy    <       0.00000370 Ry

     iteration # 12     ecut=    50.00 Ry     beta= 0.70
     Davidson diagonalization with overlap
     ethr =  1.06E-08,  avg # of iterations =  1.9

     negative rho (up, down):  6.012E-02 0.000E+00

     total cpu time spent up to now is     1872.4 secs

     total energy              =    -207.23885646 Ry
     estimated scf accuracy    <       0.00000167 Ry

     iteration # 13     ecut=    50.00 Ry     beta= 0.70
     Davidson diagonalization with overlap
     ethr =  4.78E-09,  avg # of iterations =  3.0

     negative rho (up, down):  6.012E-02 0.000E+00

     total cpu time spent up to now is     1876.7 secs

     total energy              =    -207.23885664 Ry
     estimated scf accuracy    <       0.00000015 Ry

     iteration # 14     ecut=    50.00 Ry     beta= 0.70
     Davidson diagonalization with overlap
     ethr =  4.20E-10,  avg # of iterations =  5.0

     negative rho (up, down):  6.012E-02 0.000E+00

     total cpu time spent up to now is     1881.4 secs

     total energy              =    -207.23885670 Ry
     estimated scf accuracy    <       0.00000003 Ry

     iteration # 15     ecut=    50.00 Ry     beta= 0.70
     Davidson diagonalization with overlap
     ethr =  9.35E-11,  avg # of iterations =  1.8

     negative rho (up, down):  6.012E-02 0.000E+00

     total cpu time spent up to now is     1885.1 secs

     End of self-consistent calculation

          k = 0.0000 0.0000 0.0000 (  5429 PWs)   bands (ev):

   -45.4663 -45.1180 -25.1447 -24.0402 -24.0278 -23.3024 -23.2814 -22.9825
    -6.4405  -4.8742  -4.7477  -3.5017  -3.3321  -3.2791   1.2074   1.2693
     1.8962   5.3747   5.6772   5.6974   5.7602   6.1211

          k =-0.0006 0.1239-0.6720 (  5402 PWs)   bands (ev):

   -45.3448 -45.2464 -24.4423 -24.0011 -23.9894 -23.7990 -23.3497 -23.3266
    -5.1718  -4.8735  -4.5802  -4.2195  -4.0527  -3.7154   2.0170   2.6029
     2.7778   3.4683   4.1092   5.0970   6.1166   6.1573

          k = 0.3212-0.4993 0.2945 (  5430 PWs)   bands (ev):

   -45.3448 -45.2464 -24.4423 -24.0008 -23.9897 -23.7991 -23.3492 -23.3270
    -5.2111  -4.9231  -4.4819  -4.2870  -4.0409  -3.6318   1.9229   2.6565
     2.7615   3.4098   4.0473   5.0497   6.2865   6.2966

          k = 0.3205-0.3754-0.3775 (  5420 PWs)   bands (ev):

   -45.4663 -45.1180 -25.1448 -24.0409 -24.0287 -23.3027 -23.2821 -22.9825
    -5.8908  -4.7172  -4.6225  -4.3065  -3.7479  -3.4899   1.2509   2.1266
     2.3752   4.9313   4.9649   5.2559   5.6377   5.7907

          k =-0.3083-0.5016 0.2990 (  5412 PWs)   bands (ev):

   -45.3448 -45.2464 -24.4424 -24.0008 -23.9896 -23.7991 -23.3498 -23.3264
    -5.2826  -4.8754  -4.5075  -4.1658  -4.0152  -3.7316   2.0254   2.5332
     2.6636   3.5050   4.0623   5.0374   6.2727   6.2948

          k =-0.3089-0.3778-0.3730 (  5402 PWs)   bands (ev):

   -45.4663 -45.1180 -25.1448 -24.0412 -24.0282 -23.3031 -23.2816 -22.9825
    -5.9216  -4.6892  -4.6510  -4.3056  -3.6687  -3.5217   1.2047   2.0861
     2.3856   4.9460   4.9735   5.3664   5.6077   5.8163

          k = 0.0129-1.0009 0.5935 (  5400 PWs)   bands (ev):

   -45.4663 -45.1180 -25.1449 -24.0406 -24.0291 -23.3028 -23.2819 -22.9826
    -5.8386  -4.6673  -4.5551  -4.3801  -3.7578  -3.6138   1.2549   2.1891
     2.3780   4.7536   4.9065   4.9454   5.6242   5.7341

          k = 0.0123-0.8770-0.0785 (  5398 PWs)   bands (ev):

   -45.3448 -45.2464 -24.4423 -24.0012 -23.9899 -23.7990 -23.3502 -23.3273
    -4.8747  -4.5820  -4.5353  -4.5236  -4.1171  -4.0731   2.3815   2.4689
     3.1661   3.3623   4.2409   5.2168   6.0862   6.1367

     the Fermi energy is     3.7557 ev

!    total energy              =    -207.23885668 Ry
     estimated scf accuracy    <       0.00000002 Ry
     smearing contrib. (-TS)   =       0.00220158 Ry
     internal energy E=F+TS    =    -207.24105827 Ry

     The total energy is F=E-TS. E is the sum of the following terms:
     one-electron contribution =    -155.59370388 Ry
     hartree contribution      =      81.01254531 Ry
     xc contribution           =     -39.63173104 Ry
     ewald contribution        =     -93.02648480 Ry
     one-center paw contrib.   =      -0.00168386 Ry

     convergence has been achieved in  15 iterations
