
     Program PWSCF v.6.7MaX starts on 19Feb2026 at  2:12:33 

     This program is part of the open-source Quantum ESPRESSO suite
     for quantum simulation of materials; please cite
         "P. Giannozzi et al., J. Phys.:Condens. Matter 21 395502 (2009);
         "P. Giannozzi et al., J. Phys.:Condens. Matter 29 465901 (2017);
          URL http://www.quantum-espresso.org", 
     in publications or presentations arising from this work. More details at
     http://www.quantum-espresso.org/quote

     Parallel version (MPI), running on     2 processors

     MPI processes distributed on     1 nodes
     R & G space division:  proc/nbgrp/npool/nimage =       2
     Waiting for input...
     Reading input from standard input

     Current dimensions of program PWSCF are:
     Max number of different atomic species (ntypx) = 10
     Max number of k-points (npk) =  40000
     Max angular momentum in pseudopotentials (lmaxx) =  3
     file H.UPF: wavefunction(s)  1S renormalized
     file Pt.UPF: wavefunction(s)  6S 5D renormalized

     Subspace diagonalization in iterative solution of the eigenvalue problem:
     a serial algorithm will be used

     Message from routine setup:
     using ibrav=0 with symmetry is DISCOURAGED, use correct ibrav instead

     Parallelization info
     --------------------
     sticks:   dense  smooth     PW     G-vecs:    dense   smooth      PW
     Min        1053     534    156                32309    11497    1763
     Max        1054     535    157                32314    11498    1764
     Sum        2107    1069    313                64623    22995    3527



     bravais-lattice index     =            0
     lattice parameter (alat)  =       8.7772  a.u.
     unit-cell volume          =     478.1358 (a.u.)^3
     number of atoms/cell      =            9
     number of atomic types    =            4
     number of electrons       =        28.00
     number of Kohn-Sham states=           18
     kinetic-energy cutoff     =      50.0000  Ry
     charge density cutoff     =     400.0000  Ry
     scf convergence threshold =      1.0E-06
     mixing beta               =       0.7000
     number of iterations used =            8  plain     mixing
     energy convergence thresh.=      1.0E-04
     force convergence thresh. =      1.0E-03
     press convergence thresh. =      5.0E-01
     Exchange-correlation=  SLA  PW   PBE  PBE
                           (   1   4   3   4   0   0   0)
     nstep                     =           50


     celldm(1)=   8.777189  celldm(2)=   0.000000  celldm(3)=   0.000000
     celldm(4)=   0.000000  celldm(5)=   0.000000  celldm(6)=   0.000000

     crystal axes: (cart. coord. in units of alat)
               a(1) = (   0.000000   0.707107   0.707107 )  
               a(2) = (   0.707107   0.000000   0.707107 )  
               a(3) = (   0.707107   0.707107  -0.000000 )  

     reciprocal axes: (cart. coord. in units 2 pi/alat)
               b(1) = ( -0.707107  0.707107  0.707107 )  
               b(2) = (  0.707107 -0.707107  0.707107 )  
               b(3) = (  0.707107  0.707107 -0.707107 )  


     PseudoPot. # 1 for H  read from file:
     /home/marco/ZOS_Cloud_Compute/pseudo/H.UPF
     MD5 check sum: 850d63dcbcc06c5de8b44e0ab9f952da
     Pseudo is Projector augmented-wave, Zval =  1.0
     Generated using "atomic" code by A. Dal Corso  v.5.1.2
     Shape of augmentation charge: PSQ
     Using radial grid of  929 points,  2 beta functions with: 
                l(1) =   0
                l(2) =   0
     Q(r) pseudized with 0 coefficients 


     PseudoPot. # 2 for Li read from file:
     /home/marco/ZOS_Cloud_Compute/pseudo/Li.UPF
     MD5 check sum: 057edeeab9105e5446fd9e29ea3f9c2f
     Pseudo is Ultrasoft + core correction, Zval =  1.0
     Generated by new atomic code, or converted to UPF format
     Using radial grid of  751 points,  2 beta functions with: 
                l(1) =   1
                l(2) =   1
     Q(r) pseudized with  8 coefficients,  rinner =    1.000   1.000   1.000


     PseudoPot. # 3 for Pt read from file:
     /home/marco/ZOS_Cloud_Compute/pseudo/Pt.UPF
     MD5 check sum: 2c88029be45ba2aaa78ebf6465986627
     Pseudo is Projector augmented-wave + core cor, Zval = 10.0
     Generated using "atomic" code by A. Dal Corso  v.5.1.2
     Shape of augmentation charge: PSQ
     Using radial grid of 1277 points,  6 beta functions with: 
                l(1) =   0
                l(2) =   0
                l(3) =   1
                l(4) =   1
                l(5) =   2
                l(6) =   2
     Q(r) pseudized with 0 coefficients 


     PseudoPot. # 4 for Sc read from file:
     /home/marco/ZOS_Cloud_Compute/pseudo/Sc.UPF
     MD5 check sum: ff19847cdcb3487ca1f25e4b0e9f43ec
     Pseudo is Ultrasoft + core correction, Zval = 11.0
     Generated by new atomic code, or converted to UPF format
     Using radial grid of  849 points,  6 beta functions with: 
                l(1) =   0
                l(2) =   0
                l(3) =   1
                l(4) =   1
                l(5) =   2
                l(6) =   2
     Q(r) pseudized with  6 coefficients,  rinner =    1.200   1.200   1.200
                                                       1.200   1.200

     atomic species   valence    mass     pseudopotential
        H              1.00     1.00000     H ( 1.00)
        Li             1.00     1.00000     Li( 1.00)
        Pt            10.00     1.00000     Pt( 1.00)
        Sc            11.00     1.00000     Sc( 1.00)

     24 Sym. Ops. (no inversion) found



   Cartesian axes

     site n.     atom                  positions (alat units)
         1           Li  tau(   1) = (   1.0606600   1.0606602   1.0606604  )
         2           Sc  tau(   2) = (   0.3535533   0.3535533   0.3535536  )
         3           H   tau(   3) = (   0.7071067   0.7071067   1.0569325  )
         4           H   tau(   4) = (   0.7071067   0.3572813   0.7071069  )
         5           H   tau(   5) = (   0.3572813   0.7071067   0.7071069  )
         6           H   tau(   6) = (   0.7071067   0.7071069   0.3572813  )
         7           H   tau(   7) = (   0.7071067   1.0569323   0.7071069  )
         8           H   tau(   8) = (   1.0569321   0.7071069   0.7071069  )
         9           Pt  tau(   9) = (   0.0000000   0.0000000  -0.0000000  )

     number of k points=     3  Methfessel-Paxton smearing, width (Ry)=  0.0200
                       cart. coord. in units 2pi/alat
        k(    1) = (   0.0000000   0.0000000   0.0000000), wk =   0.2500000
        k(    2) = (  -0.3535534  -0.3535534   0.3535533), wk =   1.0000000
        k(    3) = (  -0.7071069   0.0000000   0.0000000), wk =   0.7500000

     Dense  grid:    64623 G-vectors     FFT dimensions: (  60,  60,  60)

     Smooth grid:    22995 G-vectors     FFT dimensions: (  40,  40,  40)

     Estimated max dynamical RAM per process >     139.11 MB

     Estimated total dynamical RAM >     278.22 MB

     Initial potential from superposition of free atoms

     starting charge   27.99270, renormalised to   28.00000
     Starting wfcs are   29 randomized atomic wfcs
     Checking if some PAW data can be deallocated... 

     total cpu time spent up to now is        7.8 secs

     Self-consistent Calculation

     iteration #  1     ecut=    50.00 Ry     beta= 0.70
     Davidson diagonalization with overlap
     ethr =  1.00E-02,  avg # of iterations =  2.0

     total cpu time spent up to now is        9.3 secs

     total energy              =    -850.20112476 Ry
     estimated scf accuracy    <       0.49480339 Ry

     iteration #  2     ecut=    50.00 Ry     beta= 0.70
     Davidson diagonalization with overlap
     ethr =  1.77E-03,  avg # of iterations =  5.3

     total cpu time spent up to now is       10.9 secs

     total energy              =    -850.31029855 Ry
     estimated scf accuracy    <       1.11885602 Ry

     iteration #  3     ecut=    50.00 Ry     beta= 0.70
     Davidson diagonalization with overlap
     ethr =  1.77E-03,  avg # of iterations =  2.7

     total cpu time spent up to now is       12.3 secs

     total energy              =    -850.42821153 Ry
     estimated scf accuracy    <       0.04810542 Ry

     iteration #  4     ecut=    50.00 Ry     beta= 0.70
     Davidson diagonalization with overlap
     ethr =  1.72E-04,  avg # of iterations =  6.3

     total cpu time spent up to now is       13.9 secs

     total energy              =    -850.44733340 Ry
     estimated scf accuracy    <       0.10366230 Ry

     iteration #  5     ecut=    50.00 Ry     beta= 0.70
     Davidson diagonalization with overlap
     ethr =  1.72E-04,  avg # of iterations =  5.0

     total cpu time spent up to now is       15.3 secs

     total energy              =    -850.45853215 Ry
     estimated scf accuracy    <       0.01859066 Ry

     iteration #  6     ecut=    50.00 Ry     beta= 0.70
     Davidson diagonalization with overlap
     ethr =  6.64E-05,  avg # of iterations =  3.7

     total cpu time spent up to now is       16.7 secs

     total energy              =    -850.46494172 Ry
     estimated scf accuracy    <       0.01161774 Ry

     iteration #  7     ecut=    50.00 Ry     beta= 0.70
     Davidson diagonalization with overlap
     ethr =  4.15E-05,  avg # of iterations =  1.0

     total cpu time spent up to now is       18.1 secs

     total energy              =    -850.46373880 Ry
     estimated scf accuracy    <       0.00868832 Ry

     iteration #  8     ecut=    50.00 Ry     beta= 0.70
     Davidson diagonalization with overlap
     ethr =  3.10E-05,  avg # of iterations =  1.7

     total cpu time spent up to now is       19.5 secs

     total energy              =    -850.46418206 Ry
     estimated scf accuracy    <       0.00042820 Ry

     iteration #  9     ecut=    50.00 Ry     beta= 0.70
     Davidson diagonalization with overlap
     ethr =  1.53E-06,  avg # of iterations =  7.7

     total cpu time spent up to now is       21.1 secs

     total energy              =    -850.46439906 Ry
     estimated scf accuracy    <       0.00022527 Ry

     iteration # 10     ecut=    50.00 Ry     beta= 0.70
     Davidson diagonalization with overlap
     ethr =  8.05E-07,  avg # of iterations =  2.0

     total cpu time spent up to now is       22.6 secs

     total energy              =    -850.46438255 Ry
     estimated scf accuracy    <       0.00011409 Ry

     iteration # 11     ecut=    50.00 Ry     beta= 0.70
     Davidson diagonalization with overlap
     ethr =  4.07E-07,  avg # of iterations =  1.7

     total cpu time spent up to now is       24.0 secs

     total energy              =    -850.46439899 Ry
     estimated scf accuracy    <       0.00000634 Ry

     iteration # 12     ecut=    50.00 Ry     beta= 0.70
     Davidson diagonalization with overlap
     ethr =  2.26E-08,  avg # of iterations =  5.3

     total cpu time spent up to now is       25.6 secs

     total energy              =    -850.46440345 Ry
     estimated scf accuracy    <       0.00000823 Ry

     iteration # 13     ecut=    50.00 Ry     beta= 0.70
     Davidson diagonalization with overlap
     ethr =  2.26E-08,  avg # of iterations =  1.0

     total cpu time spent up to now is       27.0 secs

     total energy              =    -850.46440347 Ry
     estimated scf accuracy    <       0.00000339 Ry

     iteration # 14     ecut=    50.00 Ry     beta= 0.70
     Davidson diagonalization with overlap
     ethr =  1.21E-08,  avg # of iterations =  1.3

     total cpu time spent up to now is       28.4 secs

     total energy              =    -850.46440353 Ry
     estimated scf accuracy    <       0.00000187 Ry

     iteration # 15     ecut=    50.00 Ry     beta= 0.70
     Davidson diagonalization with overlap
     ethr =  6.69E-09,  avg # of iterations =  1.0

     total cpu time spent up to now is       29.8 secs

     total energy              =    -850.46440322 Ry
     estimated scf accuracy    <       0.00000159 Ry

     iteration # 16     ecut=    50.00 Ry     beta= 0.70
     Davidson diagonalization with overlap
     ethr =  5.67E-09,  avg # of iterations =  2.7

     total cpu time spent up to now is       31.2 secs

     End of self-consistent calculation

          k = 0.0000 0.0000 0.0000 (  2837 PWs)   bands (ev):

   -41.1661 -19.8357 -19.8357 -19.8357  -2.2517   0.7251   0.7252   3.3653
     3.3653   3.3653   4.2082   4.2082   4.2082  10.2156  10.2156  11.7628
    12.4504  12.4505

          k =-0.3536-0.3536 0.3536 (  2884 PWs)   bands (ev):

   -41.1653 -19.8530 -19.8379 -19.8379  -0.6666   0.5262   0.5262   1.2293
     3.4924   3.5509   3.5509   4.9433   4.9433   9.9584   9.9584  10.0497
    10.2462  10.2462

          k =-0.7071 0.0000 0.0000 (  2874 PWs)   bands (ev):

   -41.1650 -19.8546 -19.8407 -19.8407  -0.6260   0.3977   1.0223   2.4590
     3.1692   3.6832   3.6832   3.8873   3.8873   7.6226   9.9567  10.3314
    10.3314  10.6130

     the Fermi energy is     9.9371 ev

!    total energy              =    -850.46440338 Ry
     estimated scf accuracy    <       0.00000011 Ry
     smearing contrib. (-TS)   =      -0.00447875 Ry
     internal energy E=F+TS    =    -850.45992463 Ry

     The total energy is F=E-TS. E is the sum of the following terms:
     one-electron contribution =     -51.17624009 Ry
     hartree contribution      =      40.33538087 Ry
     xc contribution           =     -43.51277095 Ry
     ewald contribution        =    -111.30096178 Ry
     one-center paw contrib.   =    -684.80533268 Ry

     convergence has been achieved in  16 iterations

     Forces acting on atoms (cartesian axes, Ry/au):

     atom    1 type  2   force =     0.00000000   -0.00000000   -0.00000000
     atom    2 type  4   force =     0.00000000    0.00000000    0.00000000
     atom    3 type  1   force =     0.00000000   -0.00000000   -0.03769668
     atom    4 type  1   force =    -0.00000001    0.03769668    0.00000001
     atom    5 type  1   force =     0.03769669   -0.00000000    0.00000000
     atom    6 type  1   force =     0.00000000   -0.00000000    0.03769668
     atom    7 type  1   force =     0.00000001   -0.03769668   -0.00000001
     atom    8 type  1   force =    -0.03769669    0.00000000    0.00000000
     atom    9 type  3   force =     0.00000000   -0.00000000   -0.00000000

     Total force =     0.092338     Total SCF correction =     0.000043


     Computing stress (Cartesian axis) and pressure

          total   stress  (Ry/bohr**3)                   (kbar)     P=      181.85
   0.00123621  -0.00000000  -0.00000000          181.85       -0.00       -0.00
  -0.00000000   0.00123621   0.00000000           -0.00      181.85        0.00
  -0.00000000   0.00000000   0.00123621           -0.00        0.00      181.85


     BFGS Geometry Optimization
     Energy error            =      0.0E+00
     Gradient error          =      3.8E-02
     Cell gradient error     =      1.2E-03


     number of scf cycles    =   1
     number of bfgs steps    =   0

     enthalpy new            =    -850.4644033792 Ry

     new trust radius        =       0.1351572652 bohr
     new conv_thr            =       0.0000010000 Ry

     new unit-cell volume =    523.85087 a.u.^3 (    77.62669 Ang^3 )
     density =      0.19252 g/cm^3

CELL_PARAMETERS (angstrom)
  -0.000000015   3.385792138   3.385793138
   3.385792154   0.000000000   3.385793123
   3.385792138   3.385793138   0.000000015

ATOMIC_POSITIONS (angstrom)
Li            5.0786882077        5.0786892155        5.0786902232
Sc            1.6928960692        1.6928960615        1.6928970847
H             3.3857921385        3.3857921306        5.0402753595
H             3.3857921429        1.7313109209        3.3857931341
H             1.7313109244        3.3857921306        3.3857931385
H             3.3857921385        3.3857931464        1.7313109175
H             3.3857921341        5.0402743560        3.3857931429
H             5.0402733526        3.3857931464        3.3857931385
Pt            0.0000000000       -0.0000000000       -0.0000000000



     Writing output data file ./tmp/LiScH6Pt.save/
