
     Program PWSCF v.6.7MaX starts on 18Jan2026 at  2:16: 8 

     This program is part of the open-source Quantum ESPRESSO suite
     for quantum simulation of materials; please cite
         "P. Giannozzi et al., J. Phys.:Condens. Matter 21 395502 (2009);
         "P. Giannozzi et al., J. Phys.:Condens. Matter 29 465901 (2017);
          URL http://www.quantum-espresso.org", 
     in publications or presentations arising from this work. More details at
     http://www.quantum-espresso.org/quote

     Parallel version (MPI), running on     2 processors

     MPI processes distributed on     1 nodes
     R & G space division:  proc/nbgrp/npool/nimage =       2
     Waiting for input...
     Reading input from standard input

     Current dimensions of program PWSCF are:
     Max number of different atomic species (ntypx) = 10
     Max number of k-points (npk) =  40000
     Max angular momentum in pseudopotentials (lmaxx) =  3
     file H.UPF: wavefunction(s)  1S renormalized
     file Se.UPF: wavefunction(s)  4S 4P 3D renormalized
     file Si.UPF: wavefunction(s)  3S 3P renormalized

     Subspace diagonalization in iterative solution of the eigenvalue problem:
     a serial algorithm will be used


     Parallelization info
     --------------------
     sticks:   dense  smooth     PW     G-vecs:    dense   smooth      PW
     Min        4005    2003    544               499936   176697   24995
     Max        4006    2004    545               499937   176698   24996
     Sum        8011    4007   1089               999873   353395   49991



     bravais-lattice index     =            0
     lattice parameter (alat)  =      16.1648  a.u.
     unit-cell volume          =    7400.6446 (a.u.)^3
     number of atoms/cell      =           72
     number of atomic types    =            4
     number of electrons       =       237.00
     number of Kohn-Sham states=          143
     kinetic-energy cutoff     =      50.0000  Ry
     charge density cutoff     =     400.0000  Ry
     scf convergence threshold =      1.0E-06
     mixing beta               =       0.7000
     number of iterations used =            4  plain     mixing
     energy convergence thresh.=      1.0E-04
     force convergence thresh. =      1.0E-03
     press convergence thresh. =      5.0E-01
     Exchange-correlation= SLA  PW   PBX  PBC
                           (   1   4   3   4   0   0   0)
     nstep                     =           50


     celldm(1)=  16.164808  celldm(2)=   0.000000  celldm(3)=   0.000000
     celldm(4)=   0.000000  celldm(5)=   0.000000  celldm(6)=   0.000000

     crystal axes: (cart. coord. in units of alat)
               a(1) = (   0.999960   0.003388   0.008335 )  
               a(2) = (   0.003388   0.962839  -0.000259 )  
               a(3) = (   0.015628  -0.000485   1.819944 )  

     reciprocal axes: (cart. coord. in units 2 pi/alat)
               b(1) = (  1.000124 -0.003521 -0.008589 )  
               b(2) = ( -0.003521  1.038607  0.000307 )  
               b(3) = ( -0.004581  0.000164  0.549507 )  


     PseudoPot. # 1 for H  read from file:
     /home/marco/ZOS_Cloud_Compute/pseudo/H.UPF
     MD5 check sum: 850d63dcbcc06c5de8b44e0ab9f952da
     Pseudo is Projector augmented-wave, Zval =  1.0
     Generated using "atomic" code by A. Dal Corso  v.5.1.2
     Shape of augmentation charge: PSQ
     Using radial grid of  929 points,  2 beta functions with: 
                l(1) =   0
                l(2) =   0
     Q(r) pseudized with 0 coefficients 


     PseudoPot. # 2 for Li read from file:
     /home/marco/ZOS_Cloud_Compute/pseudo/Li.UPF
     MD5 check sum: 057edeeab9105e5446fd9e29ea3f9c2f
     Pseudo is Ultrasoft + core correction, Zval =  1.0
     Generated by new atomic code, or converted to UPF format
     Using radial grid of  751 points,  2 beta functions with: 
                l(1) =   1
                l(2) =   1
     Q(r) pseudized with  8 coefficients,  rinner =    1.000   1.000   1.000


     PseudoPot. # 3 for Se read from file:
     /home/marco/ZOS_Cloud_Compute/pseudo/Se.UPF
     MD5 check sum: 4f650775decad95a929a350dfb100c08
     Pseudo is Projector augmented-wave + core cor, Zval = 16.0
     Generated using "atomic" code by A. Dal Corso  v.5.1.2
     Shape of augmentation charge: PSQ
     Using radial grid of 1211 points,  6 beta functions with: 
                l(1) =   0
                l(2) =   0
                l(3) =   1
                l(4) =   1
                l(5) =   2
                l(6) =   2
     Q(r) pseudized with 0 coefficients 


     PseudoPot. # 4 for Si read from file:
     /home/marco/ZOS_Cloud_Compute/pseudo/Si.UPF
     MD5 check sum: 9aa59a521a94d8167cd5008988816ac3
     Pseudo is Projector augmented-wave + core cor, Zval =  4.0
     Generated using "atomic" code by A. Dal Corso  v.5.1.2
     Shape of augmentation charge: PSQ
     Using radial grid of 1141 points,  6 beta functions with: 
                l(1) =   0
                l(2) =   0
                l(3) =   1
                l(4) =   1
                l(5) =   2
                l(6) =   2
     Q(r) pseudized with 0 coefficients 


     atomic species   valence    mass     pseudopotential
        H              1.00     1.00000     H ( 1.00)
        Li             1.00     1.00000     Li( 1.00)
        Se            16.00     1.00000     Se( 1.00)
        Si             4.00     1.00000     Si( 1.00)

     No symmetry found



   Cartesian axes

     site n.     atom                  positions (alat units)
         1           Si  tau(   1) = (   0.7718118   0.5798170   0.6546991  )
         2           Si  tau(   2) = (   0.2564928   0.3916887   1.5601191  )
         3           Si  tau(   3) = (   0.6160488   0.7403640   1.1798929  )
         4           Si  tau(   4) = (   0.1134724   0.7070832   1.1025891  )
         5           Si  tau(   5) = (   0.9041692   0.2702525   0.1923428  )
         6           Si  tau(   6) = (   0.7413306   0.0981293   0.7254273  )
         7           Si  tau(   7) = (   0.2824846   0.8589825   1.6379216  )
         8           Si  tau(   8) = (   0.4032542   0.2248186   0.2702314  )
         9           Li  tau(   9) = (   0.1532172   0.6866695   0.1529768  )
        10           Si  tau(  10) = (   0.8577327   0.2601867   1.0802764  )
        11           Si  tau(  11) = (   0.7466931   0.1510336   1.6613800  )
        12           Si  tau(  12) = (   0.2780395   0.8168103   0.7483237  )
        13           Si  tau(  13) = (   0.2386046   0.3378268   0.6233339  )
        14           Si  tau(  14) = (   0.7790299   0.6313302   1.5339577  )
        15           Si  tau(  15) = (   0.3596929   0.2251516   1.2037826  )
        16           Si  tau(  16) = (   0.6635492   0.7422683   0.2973143  )
        17           H   tau(  17) = (   0.8852716   0.5746799   0.7848740  )
        18           H   tau(  18) = (   0.1373712   0.3875379   1.6858666  )
        19           H   tau(  19) = (   0.6060170   0.8529473   1.0483014  )
        20           H   tau(  20) = (   0.1063618   0.5935683   1.2322672  )
        21           H   tau(  21) = (   0.9132824   0.3770292   0.3274419  )
        22           H   tau(  22) = (   0.6278953   0.0937225   0.5952356  )
        23           H   tau(  23) = (   0.3863322   0.8823305   1.4971108  )
        24           H   tau(  24) = (   0.4109604   0.1139296   0.1379243  )
        25           H   tau(  25) = (   0.6127332   0.6261030   0.7075416  )
        26           H   tau(  26) = (   0.4134115   0.3350638   1.6111121  )
        27           H   tau(  27) = (   0.6604868   0.5794852   1.1282048  )
        28           H   tau(  28) = (   0.1624709   0.8658516   1.1531120  )
        29           H   tau(  29) = (   0.8572965   0.1105176   0.2415137  )
        30           H   tau(  30) = (   0.8997971   0.1490839   0.6742263  )
        31           H   tau(  31) = (   0.1185134   0.8187744   1.5837463  )
        32           H   tau(  32) = (   0.3537850   0.3832397   0.2211383  )
        33           H   tau(  33) = (   0.7688003   0.4297412   0.5663749  )
        34           H   tau(  34) = (   0.7195024   0.7960780   0.1413482  )
        35           H   tau(  35) = (   0.2527678   0.5395594   1.4685095  )
        36           H   tau(  36) = (   0.9632541   0.7116917   1.0233330  )
        37           H   tau(  37) = (   0.0565369   0.2612125   0.1000995  )
        38           H   tau(  38) = (   0.7472426   0.9103679   0.8117524  )
        39           H   tau(  39) = (   0.2766860   0.0530243   1.7228658  )
        40           H   tau(  40) = (   0.5539604   0.2274279   0.3557727  )
        41           H   tau(  41) = (   0.4059993   0.3876810   0.6290189  )
        42           H   tau(  42) = (   0.1029355   0.8726296   0.1236094  )
        43           H   tau(  43) = (   0.9036687   0.0919105   1.0863183  )
        44           H   tau(  44) = (   0.9143150   0.1027401   1.6568062  )
        45           H   tau(  45) = (   0.1099944   0.8635892   0.7414012  )
        46           H   tau(  46) = (   0.6124561   0.5791243   1.5387606  )
        47           H   tau(  47) = (   0.4065870   0.3923614   1.1985137  )
        48           H   tau(  48) = (   0.6162515   0.5737134   0.2927322  )
        49           H   tau(  49) = (   0.1342714   0.4684002   0.5739423  )
        50           H   tau(  50) = (   0.0033079   0.5709750   0.1587592  )
        51           H   tau(  51) = (   0.9878152   0.3653643   1.0306434  )
        52           H   tau(  52) = (   0.6446987   0.0190770   1.7114421  )
        53           H   tau(  53) = (   0.3802852   0.9483015   0.7998250  )
        54           H   tau(  54) = (   0.8828644   0.5006326   1.4854476  )
        55           H   tau(  55) = (   0.4889554   0.1211446   1.2553258  )
        56           H   tau(  56) = (   0.5313989   0.8447714   0.3477216  )
        57           H   tau(  57) = (   0.1912743   0.2752683   0.7780130  )
        58           H   tau(  58) = (   0.2102445   0.6620934   0.3366536  )
        59           H   tau(  59) = (   0.7968027   0.3101917   1.2350914  )
        60           H   tau(  60) = (   0.6973788   0.2124963   1.5070745  )
        61           H   tau(  61) = (   0.3268388   0.7544325   0.5941534  )
        62           H   tau(  62) = (   0.8290237   0.6953712   1.6871565  )
        63           H   tau(  63) = (   0.2946572   0.1741754   1.0517621  )
        64           H   tau(  64) = (   0.4634157   0.7366106   1.2647793  )
        65           Se  tau(  65) = (   0.2063804   0.1421418   0.4382187  )
        66           Se  tau(  66) = (   0.3798638   0.6416214   1.7508027  )
        67           Se  tau(  67) = (   0.6613132   0.2982365   0.8937562  )
        68           Se  tau(  68) = (   0.3117465   0.6228729   0.9355140  )
        69           Se  tau(  69) = (   0.8128789   0.8236237   1.3465813  )
        70           Se  tau(  70) = (   0.1700760   0.1890272   1.3943494  )
        71           Se  tau(  71) = (   0.8492636   0.7859281   0.4917244  )
        72           Se  tau(  72) = (   0.6997963   0.3448342   0.0285814  )

     number of k points=     8  Methfessel-Paxton smearing, width (Ry)=  0.0200
                       cart. coord. in units 2pi/alat
        k(    1) = (   0.0000000   0.0000000   0.0000000), wk =   0.2500000
        k(    2) = (   0.0022904  -0.0000818  -0.2747534), wk =   0.2500000
        k(    3) = (   0.0017607  -0.5193037  -0.0001535), wk =   0.2500000
        k(    4) = (   0.0040511  -0.5193856  -0.2749069), wk =   0.2500000
        k(    5) = (  -0.5000620   0.0017607   0.0042946), wk =   0.2500000
        k(    6) = (  -0.4977716   0.0016788  -0.2704589), wk =   0.2500000
        k(    7) = (  -0.4983013  -0.5175431   0.0041411), wk =   0.2500000
        k(    8) = (  -0.4960109  -0.5176249  -0.2706123), wk =   0.2500000

     Dense  grid:   999873 G-vectors     FFT dimensions: ( 108, 100, 192)

     Smooth grid:   353395 G-vectors     FFT dimensions: (  75,  72, 135)

     Estimated max dynamical RAM per process >       3.31 GB

     Estimated total dynamical RAM >       6.62 GB

     Initial potential from superposition of free atoms

     starting charge  236.98588, renormalised to  237.00000
     Starting wfcs are  184 randomized atomic wfcs
     Checking if some PAW data can be deallocated... 

     total cpu time spent up to now is      132.0 secs

     Self-consistent Calculation

     iteration #  1     ecut=    50.00 Ry     beta= 0.70
     CG style diagonalization
     ethr =  1.00E-02,  avg # of iterations =  2.9

     total cpu time spent up to now is      757.8 secs

     total energy              =   -3971.69306790 Ry
     estimated scf accuracy    <       4.00998549 Ry

     iteration #  2     ecut=    50.00 Ry     beta= 0.70
     CG style diagonalization
     ethr =  1.69E-03,  avg # of iterations =  4.3

     total cpu time spent up to now is     1491.9 secs

     total energy              =   -3970.10770261 Ry
     estimated scf accuracy    <      14.72857166 Ry

     iteration #  3     ecut=    50.00 Ry     beta= 0.70
     CG style diagonalization

     Program PWSCF v.6.7MaX starts on 18Jan2026 at  2:48:28 

     This program is part of the open-source Quantum ESPRESSO suite
     for quantum simulation of materials; please cite
         "P. Giannozzi et al., J. Phys.:Condens. Matter 21 395502 (2009);
         "P. Giannozzi et al., J. Phys.:Condens. Matter 29 465901 (2017);
          URL http://www.quantum-espresso.org", 
     in publications or presentations arising from this work. More details at
     http://www.quantum-espresso.org/quote

     Parallel version (MPI), running on     2 processors

     MPI processes distributed on     1 nodes
     R & G space division:  proc/nbgrp/npool/nimage =       2
     Waiting for input...
     Reading input from standard input

     Current dimensions of program PWSCF are:
     Max number of different atomic species (ntypx) = 10
     Max number of k-points (npk) =  40000
     Max angular momentum in pseudopotentials (lmaxx) =  3
     file H.UPF: wavefunction(s)  1S renormalized
     file Se.UPF: wavefunction(s)  4S 4P 3D renormalized
     file Si.UPF: wavefunction(s)  3S 3P renormalized

     Subspace diagonalization in iterative solution of the eigenvalue problem:
     a serial algorithm will be used


     Parallelization info
     --------------------
     sticks:   dense  smooth     PW     G-vecs:    dense   smooth      PW
     Min        4005    2003    544               499936   176697   24995
     Max        4006    2004    545               499937   176698   24996
     Sum        8011    4007   1089               999873   353395   49991



     bravais-lattice index     =            0
     lattice parameter (alat)  =      16.1648  a.u.
     unit-cell volume          =    7400.6446 (a.u.)^3
     number of atoms/cell      =           72
     number of atomic types    =            4
     number of electrons       =       237.00
     number of Kohn-Sham states=          143
     kinetic-energy cutoff     =      50.0000  Ry
     charge density cutoff     =     400.0000  Ry
     scf convergence threshold =      1.0E-06
     mixing beta               =       0.7000
     number of iterations used =            4  plain     mixing
     energy convergence thresh.=      1.0E-04
     force convergence thresh. =      1.0E-03
     press convergence thresh. =      5.0E-01
     Exchange-correlation= SLA  PW   PBX  PBC
                           (   1   4   3   4   0   0   0)
     nstep                     =           50


     celldm(1)=  16.164808  celldm(2)=   0.000000  celldm(3)=   0.000000
     celldm(4)=   0.000000  celldm(5)=   0.000000  celldm(6)=   0.000000

     crystal axes: (cart. coord. in units of alat)
               a(1) = (   0.999960   0.003388   0.008335 )  
               a(2) = (   0.003388   0.962839  -0.000259 )  
               a(3) = (   0.015628  -0.000485   1.819944 )  

     reciprocal axes: (cart. coord. in units 2 pi/alat)
               b(1) = (  1.000124 -0.003521 -0.008589 )  
               b(2) = ( -0.003521  1.038607  0.000307 )  
               b(3) = ( -0.004581  0.000164  0.549507 )  


     PseudoPot. # 1 for H  read from file:
     /home/marco/ZOS_Cloud_Compute/pseudo/H.UPF
     MD5 check sum: 850d63dcbcc06c5de8b44e0ab9f952da
     Pseudo is Projector augmented-wave, Zval =  1.0
     Generated using "atomic" code by A. Dal Corso  v.5.1.2
     Shape of augmentation charge: PSQ
     Using radial grid of  929 points,  2 beta functions with: 
                l(1) =   0
                l(2) =   0
     Q(r) pseudized with 0 coefficients 


     PseudoPot. # 2 for Li read from file:
     /home/marco/ZOS_Cloud_Compute/pseudo/Li.UPF
     MD5 check sum: 057edeeab9105e5446fd9e29ea3f9c2f
     Pseudo is Ultrasoft + core correction, Zval =  1.0
     Generated by new atomic code, or converted to UPF format
     Using radial grid of  751 points,  2 beta functions with: 
                l(1) =   1
                l(2) =   1
     Q(r) pseudized with  8 coefficients,  rinner =    1.000   1.000   1.000


     PseudoPot. # 3 for Se read from file:
     /home/marco/ZOS_Cloud_Compute/pseudo/Se.UPF
     MD5 check sum: 4f650775decad95a929a350dfb100c08
     Pseudo is Projector augmented-wave + core cor, Zval = 16.0
     Generated using "atomic" code by A. Dal Corso  v.5.1.2
     Shape of augmentation charge: PSQ
     Using radial grid of 1211 points,  6 beta functions with: 
                l(1) =   0
                l(2) =   0
                l(3) =   1
                l(4) =   1
                l(5) =   2
                l(6) =   2
     Q(r) pseudized with 0 coefficients 


     PseudoPot. # 4 for Si read from file:
     /home/marco/ZOS_Cloud_Compute/pseudo/Si.UPF
     MD5 check sum: 9aa59a521a94d8167cd5008988816ac3
     Pseudo is Projector augmented-wave + core cor, Zval =  4.0
     Generated using "atomic" code by A. Dal Corso  v.5.1.2
     Shape of augmentation charge: PSQ
     Using radial grid of 1141 points,  6 beta functions with: 
                l(1) =   0
                l(2) =   0
                l(3) =   1
                l(4) =   1
                l(5) =   2
                l(6) =   2
     Q(r) pseudized with 0 coefficients 


     atomic species   valence    mass     pseudopotential
        H              1.00     1.00000     H ( 1.00)
        Li             1.00     1.00000     Li( 1.00)
        Se            16.00     1.00000     Se( 1.00)
        Si             4.00     1.00000     Si( 1.00)

     No symmetry found



   Cartesian axes

     site n.     atom                  positions (alat units)
         1           Si  tau(   1) = (   0.7718118   0.5798170   0.6546991  )
         2           Si  tau(   2) = (   0.2564928   0.3916887   1.5601191  )
         3           Si  tau(   3) = (   0.6160488   0.7403640   1.1798929  )
         4           Si  tau(   4) = (   0.1134724   0.7070832   1.1025891  )
         5           Si  tau(   5) = (   0.9041692   0.2702525   0.1923428  )
         6           Si  tau(   6) = (   0.7413306   0.0981293   0.7254273  )
         7           Si  tau(   7) = (   0.2824846   0.8589825   1.6379216  )
         8           Si  tau(   8) = (   0.4032542   0.2248186   0.2702314  )
         9           Li  tau(   9) = (   0.1532172   0.6866695   0.1529768  )
        10           Si  tau(  10) = (   0.8577327   0.2601867   1.0802764  )
        11           Si  tau(  11) = (   0.7466931   0.1510336   1.6613800  )
        12           Si  tau(  12) = (   0.2780395   0.8168103   0.7483237  )
        13           Si  tau(  13) = (   0.2386046   0.3378268   0.6233339  )
        14           Si  tau(  14) = (   0.7790299   0.6313302   1.5339577  )
        15           Si  tau(  15) = (   0.3596929   0.2251516   1.2037826  )
        16           Si  tau(  16) = (   0.6635492   0.7422683   0.2973143  )
        17           H   tau(  17) = (   0.8852716   0.5746799   0.7848740  )
        18           H   tau(  18) = (   0.1373712   0.3875379   1.6858666  )
        19           H   tau(  19) = (   0.6060170   0.8529473   1.0483014  )
        20           H   tau(  20) = (   0.1063618   0.5935683   1.2322672  )
        21           H   tau(  21) = (   0.9132824   0.3770292   0.3274419  )
        22           H   tau(  22) = (   0.6278953   0.0937225   0.5952356  )
        23           H   tau(  23) = (   0.3863322   0.8823305   1.4971108  )
        24           H   tau(  24) = (   0.4109604   0.1139296   0.1379243  )
        25           H   tau(  25) = (   0.6127332   0.6261030   0.7075416  )
        26           H   tau(  26) = (   0.4134115   0.3350638   1.6111121  )
        27           H   tau(  27) = (   0.6604868   0.5794852   1.1282048  )
        28           H   tau(  28) = (   0.1624709   0.8658516   1.1531120  )
        29           H   tau(  29) = (   0.8572965   0.1105176   0.2415137  )
        30           H   tau(  30) = (   0.8997971   0.1490839   0.6742263  )
        31           H   tau(  31) = (   0.1185134   0.8187744   1.5837463  )
        32           H   tau(  32) = (   0.3537850   0.3832397   0.2211383  )
        33           H   tau(  33) = (   0.7688003   0.4297412   0.5663749  )
        34           H   tau(  34) = (   0.7195024   0.7960780   0.1413482  )
        35           H   tau(  35) = (   0.2527678   0.5395594   1.4685095  )
        36           H   tau(  36) = (   0.9632541   0.7116917   1.0233330  )
        37           H   tau(  37) = (   0.0565369   0.2612125   0.1000995  )
        38           H   tau(  38) = (   0.7472426   0.9103679   0.8117524  )
        39           H   tau(  39) = (   0.2766860   0.0530243   1.7228658  )
        40           H   tau(  40) = (   0.5539604   0.2274279   0.3557727  )
        41           H   tau(  41) = (   0.4059993   0.3876810   0.6290189  )
        42           H   tau(  42) = (   0.1029355   0.8726296   0.1236094  )
        43           H   tau(  43) = (   0.9036687   0.0919105   1.0863183  )
        44           H   tau(  44) = (   0.9143150   0.1027401   1.6568062  )
        45           H   tau(  45) = (   0.1099944   0.8635892   0.7414012  )
        46           H   tau(  46) = (   0.6124561   0.5791243   1.5387606  )
        47           H   tau(  47) = (   0.4065870   0.3923614   1.1985137  )
        48           H   tau(  48) = (   0.6162515   0.5737134   0.2927322  )
        49           H   tau(  49) = (   0.1342714   0.4684002   0.5739423  )
        50           H   tau(  50) = (   0.0033079   0.5709750   0.1587592  )
        51           H   tau(  51) = (   0.9878152   0.3653643   1.0306434  )
        52           H   tau(  52) = (   0.6446987   0.0190770   1.7114421  )
        53           H   tau(  53) = (   0.3802852   0.9483015   0.7998250  )
        54           H   tau(  54) = (   0.8828644   0.5006326   1.4854476  )
        55           H   tau(  55) = (   0.4889554   0.1211446   1.2553258  )
        56           H   tau(  56) = (   0.5313989   0.8447714   0.3477216  )
        57           H   tau(  57) = (   0.1912743   0.2752683   0.7780130  )
        58           H   tau(  58) = (   0.2102445   0.6620934   0.3366536  )
        59           H   tau(  59) = (   0.7968027   0.3101917   1.2350914  )
        60           H   tau(  60) = (   0.6973788   0.2124963   1.5070745  )
        61           H   tau(  61) = (   0.3268388   0.7544325   0.5941534  )
        62           H   tau(  62) = (   0.8290237   0.6953712   1.6871565  )
        63           H   tau(  63) = (   0.2946572   0.1741754   1.0517621  )
        64           H   tau(  64) = (   0.4634157   0.7366106   1.2647793  )
        65           Se  tau(  65) = (   0.2063804   0.1421418   0.4382187  )
        66           Se  tau(  66) = (   0.3798638   0.6416214   1.7508027  )
        67           Se  tau(  67) = (   0.6613132   0.2982365   0.8937562  )
        68           Se  tau(  68) = (   0.3117465   0.6228729   0.9355140  )
        69           Se  tau(  69) = (   0.8128789   0.8236237   1.3465813  )
        70           Se  tau(  70) = (   0.1700760   0.1890272   1.3943494  )
        71           Se  tau(  71) = (   0.8492636   0.7859281   0.4917244  )
        72           Se  tau(  72) = (   0.6997963   0.3448342   0.0285814  )

     number of k points=     8  Methfessel-Paxton smearing, width (Ry)=  0.0200
                       cart. coord. in units 2pi/alat
        k(    1) = (   0.0000000   0.0000000   0.0000000), wk =   0.2500000
        k(    2) = (   0.0022904  -0.0000818  -0.2747534), wk =   0.2500000
        k(    3) = (   0.0017607  -0.5193037  -0.0001535), wk =   0.2500000
        k(    4) = (   0.0040511  -0.5193856  -0.2749069), wk =   0.2500000
        k(    5) = (  -0.5000620   0.0017607   0.0042946), wk =   0.2500000
        k(    6) = (  -0.4977716   0.0016788  -0.2704589), wk =   0.2500000
        k(    7) = (  -0.4983013  -0.5175431   0.0041411), wk =   0.2500000
        k(    8) = (  -0.4960109  -0.5176249  -0.2706123), wk =   0.2500000

     Dense  grid:   999873 G-vectors     FFT dimensions: ( 108, 100, 192)

     Smooth grid:   353395 G-vectors     FFT dimensions: (  75,  72, 135)

     Estimated max dynamical RAM per process >       3.31 GB

     Estimated total dynamical RAM >       6.62 GB

     Atomic positions and unit cell read from directory:
     ./tmp/LiSi15H6Se8.save/
     Message from routine qexsd_readschema :
     xml data file ./tmp/LiSi15H6Se8.save/data-file-schema.xml not found

 %%%%%%%%%%%%%%%%%%%%%%%%%%%%%%%%%%%%%%%%%%%%%%%%%%%%%%%%%%%%%%%%%%%%%%%%%%%%%%
     Error in routine read_conf_from_file (1):
     fatal error reading xml file
 %%%%%%%%%%%%%%%%%%%%%%%%%%%%%%%%%%%%%%%%%%%%%%%%%%%%%%%%%%%%%%%%%%%%%%%%%%%%%%

     stopping ...
[Supraleiter-HPC-Knoten:00972] [[30714,0],0] ORTE_ERROR_LOG: Out of resource in file ../../../orte/util/show_help.c at line 501
[Supraleiter-HPC-Knoten:00972] [[30714,0],0] ORTE_ERROR_LOG: Out of resource in file ../../../orte/util/show_help.c at line 501

     Program PWSCF v.6.7MaX starts on 18Jan2026 at 22:18:55 

     This program is part of the open-source Quantum ESPRESSO suite
     for quantum simulation of materials; please cite
         "P. Giannozzi et al., J. Phys.:Condens. Matter 21 395502 (2009);
         "P. Giannozzi et al., J. Phys.:Condens. Matter 29 465901 (2017);
          URL http://www.quantum-espresso.org", 
     in publications or presentations arising from this work. More details at
     http://www.quantum-espresso.org/quote

     Parallel version (MPI), running on     2 processors

     MPI processes distributed on     1 nodes
     R & G space division:  proc/nbgrp/npool/nimage =       2
     Waiting for input...
     Reading input from standard input

     Current dimensions of program PWSCF are:
     Max number of different atomic species (ntypx) = 10
     Max number of k-points (npk) =  40000
     Max angular momentum in pseudopotentials (lmaxx) =  3
     file H.UPF: wavefunction(s)  1S renormalized
     file Se.UPF: wavefunction(s)  4S 4P 3D renormalized
     file Si.UPF: wavefunction(s)  3S 3P renormalized

     Subspace diagonalization in iterative solution of the eigenvalue problem:
     a serial algorithm will be used


     Parallelization info
     --------------------
     sticks:   dense  smooth     PW     G-vecs:    dense   smooth      PW
     Min        4005    2003    544               499936   176697   24995
     Max        4006    2004    545               499937   176698   24996
     Sum        8011    4007   1089               999873   353395   49991



     bravais-lattice index     =            0
     lattice parameter (alat)  =      16.1648  a.u.
     unit-cell volume          =    7400.6446 (a.u.)^3
     number of atoms/cell      =           72
     number of atomic types    =            4
     number of electrons       =       237.00
     number of Kohn-Sham states=          143
     kinetic-energy cutoff     =      50.0000  Ry
     charge density cutoff     =     400.0000  Ry
     scf convergence threshold =      1.0E-06
     mixing beta               =       0.7000
     number of iterations used =            4  plain     mixing
     energy convergence thresh.=      1.0E-04
     force convergence thresh. =      1.0E-03
     press convergence thresh. =      5.0E-01
     Exchange-correlation= SLA  PW   PBX  PBC
                           (   1   4   3   4   0   0   0)
     nstep                     =           50


     celldm(1)=  16.164808  celldm(2)=   0.000000  celldm(3)=   0.000000
     celldm(4)=   0.000000  celldm(5)=   0.000000  celldm(6)=   0.000000

     crystal axes: (cart. coord. in units of alat)
               a(1) = (   0.999960   0.003388   0.008335 )  
               a(2) = (   0.003388   0.962839  -0.000259 )  
               a(3) = (   0.015628  -0.000485   1.819944 )  

     reciprocal axes: (cart. coord. in units 2 pi/alat)
               b(1) = (  1.000124 -0.003521 -0.008589 )  
               b(2) = ( -0.003521  1.038607  0.000307 )  
               b(3) = ( -0.004581  0.000164  0.549507 )  


     PseudoPot. # 1 for H  read from file:
     /home/marco/ZOS_Cloud_Compute/pseudo/H.UPF
     MD5 check sum: 850d63dcbcc06c5de8b44e0ab9f952da
     Pseudo is Projector augmented-wave, Zval =  1.0
     Generated using "atomic" code by A. Dal Corso  v.5.1.2
     Shape of augmentation charge: PSQ
     Using radial grid of  929 points,  2 beta functions with: 
                l(1) =   0
                l(2) =   0
     Q(r) pseudized with 0 coefficients 


     PseudoPot. # 2 for Li read from file:
     /home/marco/ZOS_Cloud_Compute/pseudo/Li.UPF
     MD5 check sum: 057edeeab9105e5446fd9e29ea3f9c2f
     Pseudo is Ultrasoft + core correction, Zval =  1.0
     Generated by new atomic code, or converted to UPF format
     Using radial grid of  751 points,  2 beta functions with: 
                l(1) =   1
                l(2) =   1
     Q(r) pseudized with  8 coefficients,  rinner =    1.000   1.000   1.000


     PseudoPot. # 3 for Se read from file:
     /home/marco/ZOS_Cloud_Compute/pseudo/Se.UPF
     MD5 check sum: 4f650775decad95a929a350dfb100c08
     Pseudo is Projector augmented-wave + core cor, Zval = 16.0
     Generated using "atomic" code by A. Dal Corso  v.5.1.2
     Shape of augmentation charge: PSQ
     Using radial grid of 1211 points,  6 beta functions with: 
                l(1) =   0
                l(2) =   0
                l(3) =   1
                l(4) =   1
                l(5) =   2
                l(6) =   2
     Q(r) pseudized with 0 coefficients 


     PseudoPot. # 4 for Si read from file:
     /home/marco/ZOS_Cloud_Compute/pseudo/Si.UPF
     MD5 check sum: 9aa59a521a94d8167cd5008988816ac3
     Pseudo is Projector augmented-wave + core cor, Zval =  4.0
     Generated using "atomic" code by A. Dal Corso  v.5.1.2
     Shape of augmentation charge: PSQ
     Using radial grid of 1141 points,  6 beta functions with: 
                l(1) =   0
                l(2) =   0
                l(3) =   1
                l(4) =   1
                l(5) =   2
                l(6) =   2
     Q(r) pseudized with 0 coefficients 


     atomic species   valence    mass     pseudopotential
        H              1.00     1.00000     H ( 1.00)
        Li             1.00     1.00000     Li( 1.00)
        Se            16.00     1.00000     Se( 1.00)
        Si             4.00     1.00000     Si( 1.00)

     No symmetry found



   Cartesian axes

     site n.     atom                  positions (alat units)
         1           Si  tau(   1) = (   0.7718118   0.5798170   0.6546991  )
         2           Si  tau(   2) = (   0.2564928   0.3916887   1.5601191  )
         3           Si  tau(   3) = (   0.6160488   0.7403640   1.1798929  )
         4           Si  tau(   4) = (   0.1134724   0.7070832   1.1025891  )
         5           Si  tau(   5) = (   0.9041692   0.2702525   0.1923428  )
         6           Si  tau(   6) = (   0.7413306   0.0981293   0.7254273  )
         7           Si  tau(   7) = (   0.2824846   0.8589825   1.6379216  )
         8           Si  tau(   8) = (   0.4032542   0.2248186   0.2702314  )
         9           Li  tau(   9) = (   0.1532172   0.6866695   0.1529768  )
        10           Si  tau(  10) = (   0.8577327   0.2601867   1.0802764  )
        11           Si  tau(  11) = (   0.7466931   0.1510336   1.6613800  )
        12           Si  tau(  12) = (   0.2780395   0.8168103   0.7483237  )
        13           Si  tau(  13) = (   0.2386046   0.3378268   0.6233339  )
        14           Si  tau(  14) = (   0.7790299   0.6313302   1.5339577  )
        15           Si  tau(  15) = (   0.3596929   0.2251516   1.2037826  )
        16           Si  tau(  16) = (   0.6635492   0.7422683   0.2973143  )
        17           H   tau(  17) = (   0.8852716   0.5746799   0.7848740  )
        18           H   tau(  18) = (   0.1373712   0.3875379   1.6858666  )
        19           H   tau(  19) = (   0.6060170   0.8529473   1.0483014  )
        20           H   tau(  20) = (   0.1063618   0.5935683   1.2322672  )
        21           H   tau(  21) = (   0.9132824   0.3770292   0.3274419  )
        22           H   tau(  22) = (   0.6278953   0.0937225   0.5952356  )
        23           H   tau(  23) = (   0.3863322   0.8823305   1.4971108  )
        24           H   tau(  24) = (   0.4109604   0.1139296   0.1379243  )
        25           H   tau(  25) = (   0.6127332   0.6261030   0.7075416  )
        26           H   tau(  26) = (   0.4134115   0.3350638   1.6111121  )
        27           H   tau(  27) = (   0.6604868   0.5794852   1.1282048  )
        28           H   tau(  28) = (   0.1624709   0.8658516   1.1531120  )
        29           H   tau(  29) = (   0.8572965   0.1105176   0.2415137  )
        30           H   tau(  30) = (   0.8997971   0.1490839   0.6742263  )
        31           H   tau(  31) = (   0.1185134   0.8187744   1.5837463  )
        32           H   tau(  32) = (   0.3537850   0.3832397   0.2211383  )
        33           H   tau(  33) = (   0.7688003   0.4297412   0.5663749  )
        34           H   tau(  34) = (   0.7195024   0.7960780   0.1413482  )
        35           H   tau(  35) = (   0.2527678   0.5395594   1.4685095  )
        36           H   tau(  36) = (   0.9632541   0.7116917   1.0233330  )
        37           H   tau(  37) = (   0.0565369   0.2612125   0.1000995  )
        38           H   tau(  38) = (   0.7472426   0.9103679   0.8117524  )
        39           H   tau(  39) = (   0.2766860   0.0530243   1.7228658  )
        40           H   tau(  40) = (   0.5539604   0.2274279   0.3557727  )
        41           H   tau(  41) = (   0.4059993   0.3876810   0.6290189  )
        42           H   tau(  42) = (   0.1029355   0.8726296   0.1236094  )
        43           H   tau(  43) = (   0.9036687   0.0919105   1.0863183  )
        44           H   tau(  44) = (   0.9143150   0.1027401   1.6568062  )
        45           H   tau(  45) = (   0.1099944   0.8635892   0.7414012  )
        46           H   tau(  46) = (   0.6124561   0.5791243   1.5387606  )
        47           H   tau(  47) = (   0.4065870   0.3923614   1.1985137  )
        48           H   tau(  48) = (   0.6162515   0.5737134   0.2927322  )
        49           H   tau(  49) = (   0.1342714   0.4684002   0.5739423  )
        50           H   tau(  50) = (   0.0033079   0.5709750   0.1587592  )
        51           H   tau(  51) = (   0.9878152   0.3653643   1.0306434  )
        52           H   tau(  52) = (   0.6446987   0.0190770   1.7114421  )
        53           H   tau(  53) = (   0.3802852   0.9483015   0.7998250  )
        54           H   tau(  54) = (   0.8828644   0.5006326   1.4854476  )
        55           H   tau(  55) = (   0.4889554   0.1211446   1.2553258  )
        56           H   tau(  56) = (   0.5313989   0.8447714   0.3477216  )
        57           H   tau(  57) = (   0.1912743   0.2752683   0.7780130  )
        58           H   tau(  58) = (   0.2102445   0.6620934   0.3366536  )
        59           H   tau(  59) = (   0.7968027   0.3101917   1.2350914  )
        60           H   tau(  60) = (   0.6973788   0.2124963   1.5070745  )
        61           H   tau(  61) = (   0.3268388   0.7544325   0.5941534  )
        62           H   tau(  62) = (   0.8290237   0.6953712   1.6871565  )
        63           H   tau(  63) = (   0.2946572   0.1741754   1.0517621  )
        64           H   tau(  64) = (   0.4634157   0.7366106   1.2647793  )
        65           Se  tau(  65) = (   0.2063804   0.1421418   0.4382187  )
        66           Se  tau(  66) = (   0.3798638   0.6416214   1.7508027  )
        67           Se  tau(  67) = (   0.6613132   0.2982365   0.8937562  )
        68           Se  tau(  68) = (   0.3117465   0.6228729   0.9355140  )
        69           Se  tau(  69) = (   0.8128789   0.8236237   1.3465813  )
        70           Se  tau(  70) = (   0.1700760   0.1890272   1.3943494  )
        71           Se  tau(  71) = (   0.8492636   0.7859281   0.4917244  )
        72           Se  tau(  72) = (   0.6997963   0.3448342   0.0285814  )

     number of k points=     8  Methfessel-Paxton smearing, width (Ry)=  0.0200
                       cart. coord. in units 2pi/alat
        k(    1) = (   0.0000000   0.0000000   0.0000000), wk =   0.2500000
        k(    2) = (   0.0022904  -0.0000818  -0.2747534), wk =   0.2500000
        k(    3) = (   0.0017607  -0.5193037  -0.0001535), wk =   0.2500000
        k(    4) = (   0.0040511  -0.5193856  -0.2749069), wk =   0.2500000
        k(    5) = (  -0.5000620   0.0017607   0.0042946), wk =   0.2500000
        k(    6) = (  -0.4977716   0.0016788  -0.2704589), wk =   0.2500000
        k(    7) = (  -0.4983013  -0.5175431   0.0041411), wk =   0.2500000
        k(    8) = (  -0.4960109  -0.5176249  -0.2706123), wk =   0.2500000

     Dense  grid:   999873 G-vectors     FFT dimensions: ( 108, 100, 192)

     Smooth grid:   353395 G-vectors     FFT dimensions: (  75,  72, 135)

     Estimated max dynamical RAM per process >       3.31 GB

     Estimated total dynamical RAM >       6.62 GB

     Atomic positions and unit cell read from directory:
     ./tmp/LiSi15H6Se8.save/
     Message from routine qexsd_readschema :
     xml data file ./tmp/LiSi15H6Se8.save/data-file-schema.xml not found

 %%%%%%%%%%%%%%%%%%%%%%%%%%%%%%%%%%%%%%%%%%%%%%%%%%%%%%%%%%%%%%%%%%%%%%%%%%%%%%
     Error in routine read_conf_from_file (1):
     fatal error reading xml file
 %%%%%%%%%%%%%%%%%%%%%%%%%%%%%%%%%%%%%%%%%%%%%%%%%%%%%%%%%%%%%%%%%%%%%%%%%%%%%%

     stopping ...
[Supraleiter-HPC-Knoten:00973] [[30715,0],0] ORTE_ERROR_LOG: Data unpack would read past end of buffer in file ../../../orte/util/show_help.c at line 513
[Supraleiter-HPC-Knoten:00973] [[30715,0],0] ORTE_ERROR_LOG: Out of resource in file ../../../orte/util/show_help.c at line 501

     Program PWSCF v.6.7MaX starts on 19Jan2026 at  2:18:57 

     This program is part of the open-source Quantum ESPRESSO suite
     for quantum simulation of materials; please cite
         "P. Giannozzi et al., J. Phys.:Condens. Matter 21 395502 (2009);
         "P. Giannozzi et al., J. Phys.:Condens. Matter 29 465901 (2017);
          URL http://www.quantum-espresso.org", 
     in publications or presentations arising from this work. More details at
     http://www.quantum-espresso.org/quote

     Parallel version (MPI), running on     2 processors

     MPI processes distributed on     1 nodes
     R & G space division:  proc/nbgrp/npool/nimage =       2
     Waiting for input...
     Reading input from standard input

     Current dimensions of program PWSCF are:
     Max number of different atomic species (ntypx) = 10
     Max number of k-points (npk) =  40000
     Max angular momentum in pseudopotentials (lmaxx) =  3
     file H.UPF: wavefunction(s)  1S renormalized
     file Se.UPF: wavefunction(s)  4S 4P 3D renormalized
     file Si.UPF: wavefunction(s)  3S 3P renormalized

     Subspace diagonalization in iterative solution of the eigenvalue problem:
     a serial algorithm will be used


     Parallelization info
     --------------------
     sticks:   dense  smooth     PW     G-vecs:    dense   smooth      PW
     Min        4005    2003    544               499936   176697   24995
     Max        4006    2004    545               499937   176698   24996
     Sum        8011    4007   1089               999873   353395   49991



     bravais-lattice index     =            0
     lattice parameter (alat)  =      16.1648  a.u.
     unit-cell volume          =    7400.6446 (a.u.)^3
     number of atoms/cell      =           72
     number of atomic types    =            4
     number of electrons       =       237.00
     number of Kohn-Sham states=          143
     kinetic-energy cutoff     =      50.0000  Ry
     charge density cutoff     =     400.0000  Ry
     scf convergence threshold =      1.0E-06
     mixing beta               =       0.7000
     number of iterations used =            4  plain     mixing
     energy convergence thresh.=      1.0E-04
     force convergence thresh. =      1.0E-03
     press convergence thresh. =      5.0E-01
     Exchange-correlation= SLA  PW   PBX  PBC
                           (   1   4   3   4   0   0   0)
     nstep                     =           50


     celldm(1)=  16.164808  celldm(2)=   0.000000  celldm(3)=   0.000000
     celldm(4)=   0.000000  celldm(5)=   0.000000  celldm(6)=   0.000000

     crystal axes: (cart. coord. in units of alat)
               a(1) = (   0.999960   0.003388   0.008335 )  
               a(2) = (   0.003388   0.962839  -0.000259 )  
               a(3) = (   0.015628  -0.000485   1.819944 )  

     reciprocal axes: (cart. coord. in units 2 pi/alat)
               b(1) = (  1.000124 -0.003521 -0.008589 )  
               b(2) = ( -0.003521  1.038607  0.000307 )  
               b(3) = ( -0.004581  0.000164  0.549507 )  


     PseudoPot. # 1 for H  read from file:
     /home/marco/ZOS_Cloud_Compute/pseudo/H.UPF
     MD5 check sum: 850d63dcbcc06c5de8b44e0ab9f952da
     Pseudo is Projector augmented-wave, Zval =  1.0
     Generated using "atomic" code by A. Dal Corso  v.5.1.2
     Shape of augmentation charge: PSQ
     Using radial grid of  929 points,  2 beta functions with: 
                l(1) =   0
                l(2) =   0
     Q(r) pseudized with 0 coefficients 


     PseudoPot. # 2 for Li read from file:
     /home/marco/ZOS_Cloud_Compute/pseudo/Li.UPF
     MD5 check sum: 057edeeab9105e5446fd9e29ea3f9c2f
     Pseudo is Ultrasoft + core correction, Zval =  1.0
     Generated by new atomic code, or converted to UPF format
     Using radial grid of  751 points,  2 beta functions with: 
                l(1) =   1
                l(2) =   1
     Q(r) pseudized with  8 coefficients,  rinner =    1.000   1.000   1.000


     PseudoPot. # 3 for Se read from file:
     /home/marco/ZOS_Cloud_Compute/pseudo/Se.UPF
     MD5 check sum: 4f650775decad95a929a350dfb100c08
     Pseudo is Projector augmented-wave + core cor, Zval = 16.0
     Generated using "atomic" code by A. Dal Corso  v.5.1.2
     Shape of augmentation charge: PSQ
     Using radial grid of 1211 points,  6 beta functions with: 
                l(1) =   0
                l(2) =   0
                l(3) =   1
                l(4) =   1
                l(5) =   2
                l(6) =   2
     Q(r) pseudized with 0 coefficients 


     PseudoPot. # 4 for Si read from file:
     /home/marco/ZOS_Cloud_Compute/pseudo/Si.UPF
     MD5 check sum: 9aa59a521a94d8167cd5008988816ac3
     Pseudo is Projector augmented-wave + core cor, Zval =  4.0
     Generated using "atomic" code by A. Dal Corso  v.5.1.2
     Shape of augmentation charge: PSQ
     Using radial grid of 1141 points,  6 beta functions with: 
                l(1) =   0
                l(2) =   0
                l(3) =   1
                l(4) =   1
                l(5) =   2
                l(6) =   2
     Q(r) pseudized with 0 coefficients 


     atomic species   valence    mass     pseudopotential
        H              1.00     1.00000     H ( 1.00)
        Li             1.00     1.00000     Li( 1.00)
        Se            16.00     1.00000     Se( 1.00)
        Si             4.00     1.00000     Si( 1.00)

     No symmetry found



   Cartesian axes

     site n.     atom                  positions (alat units)
         1           Si  tau(   1) = (   0.7718118   0.5798170   0.6546991  )
         2           Si  tau(   2) = (   0.2564928   0.3916887   1.5601191  )
         3           Si  tau(   3) = (   0.6160488   0.7403640   1.1798929  )
         4           Si  tau(   4) = (   0.1134724   0.7070832   1.1025891  )
         5           Si  tau(   5) = (   0.9041692   0.2702525   0.1923428  )
         6           Si  tau(   6) = (   0.7413306   0.0981293   0.7254273  )
         7           Si  tau(   7) = (   0.2824846   0.8589825   1.6379216  )
         8           Si  tau(   8) = (   0.4032542   0.2248186   0.2702314  )
         9           Li  tau(   9) = (   0.1532172   0.6866695   0.1529768  )
        10           Si  tau(  10) = (   0.8577327   0.2601867   1.0802764  )
        11           Si  tau(  11) = (   0.7466931   0.1510336   1.6613800  )
        12           Si  tau(  12) = (   0.2780395   0.8168103   0.7483237  )
        13           Si  tau(  13) = (   0.2386046   0.3378268   0.6233339  )
        14           Si  tau(  14) = (   0.7790299   0.6313302   1.5339577  )
        15           Si  tau(  15) = (   0.3596929   0.2251516   1.2037826  )
        16           Si  tau(  16) = (   0.6635492   0.7422683   0.2973143  )
        17           H   tau(  17) = (   0.8852716   0.5746799   0.7848740  )
        18           H   tau(  18) = (   0.1373712   0.3875379   1.6858666  )
        19           H   tau(  19) = (   0.6060170   0.8529473   1.0483014  )
        20           H   tau(  20) = (   0.1063618   0.5935683   1.2322672  )
        21           H   tau(  21) = (   0.9132824   0.3770292   0.3274419  )
        22           H   tau(  22) = (   0.6278953   0.0937225   0.5952356  )
        23           H   tau(  23) = (   0.3863322   0.8823305   1.4971108  )
        24           H   tau(  24) = (   0.4109604   0.1139296   0.1379243  )
        25           H   tau(  25) = (   0.6127332   0.6261030   0.7075416  )
        26           H   tau(  26) = (   0.4134115   0.3350638   1.6111121  )
        27           H   tau(  27) = (   0.6604868   0.5794852   1.1282048  )
        28           H   tau(  28) = (   0.1624709   0.8658516   1.1531120  )
        29           H   tau(  29) = (   0.8572965   0.1105176   0.2415137  )
        30           H   tau(  30) = (   0.8997971   0.1490839   0.6742263  )
        31           H   tau(  31) = (   0.1185134   0.8187744   1.5837463  )
        32           H   tau(  32) = (   0.3537850   0.3832397   0.2211383  )
        33           H   tau(  33) = (   0.7688003   0.4297412   0.5663749  )
        34           H   tau(  34) = (   0.7195024   0.7960780   0.1413482  )
        35           H   tau(  35) = (   0.2527678   0.5395594   1.4685095  )
        36           H   tau(  36) = (   0.9632541   0.7116917   1.0233330  )
        37           H   tau(  37) = (   0.0565369   0.2612125   0.1000995  )
        38           H   tau(  38) = (   0.7472426   0.9103679   0.8117524  )
        39           H   tau(  39) = (   0.2766860   0.0530243   1.7228658  )
        40           H   tau(  40) = (   0.5539604   0.2274279   0.3557727  )
        41           H   tau(  41) = (   0.4059993   0.3876810   0.6290189  )
        42           H   tau(  42) = (   0.1029355   0.8726296   0.1236094  )
        43           H   tau(  43) = (   0.9036687   0.0919105   1.0863183  )
        44           H   tau(  44) = (   0.9143150   0.1027401   1.6568062  )
        45           H   tau(  45) = (   0.1099944   0.8635892   0.7414012  )
        46           H   tau(  46) = (   0.6124561   0.5791243   1.5387606  )
        47           H   tau(  47) = (   0.4065870   0.3923614   1.1985137  )
        48           H   tau(  48) = (   0.6162515   0.5737134   0.2927322  )
        49           H   tau(  49) = (   0.1342714   0.4684002   0.5739423  )
        50           H   tau(  50) = (   0.0033079   0.5709750   0.1587592  )
        51           H   tau(  51) = (   0.9878152   0.3653643   1.0306434  )
        52           H   tau(  52) = (   0.6446987   0.0190770   1.7114421  )
        53           H   tau(  53) = (   0.3802852   0.9483015   0.7998250  )
        54           H   tau(  54) = (   0.8828644   0.5006326   1.4854476  )
        55           H   tau(  55) = (   0.4889554   0.1211446   1.2553258  )
        56           H   tau(  56) = (   0.5313989   0.8447714   0.3477216  )
        57           H   tau(  57) = (   0.1912743   0.2752683   0.7780130  )
        58           H   tau(  58) = (   0.2102445   0.6620934   0.3366536  )
        59           H   tau(  59) = (   0.7968027   0.3101917   1.2350914  )
        60           H   tau(  60) = (   0.6973788   0.2124963   1.5070745  )
        61           H   tau(  61) = (   0.3268388   0.7544325   0.5941534  )
        62           H   tau(  62) = (   0.8290237   0.6953712   1.6871565  )
        63           H   tau(  63) = (   0.2946572   0.1741754   1.0517621  )
        64           H   tau(  64) = (   0.4634157   0.7366106   1.2647793  )
        65           Se  tau(  65) = (   0.2063804   0.1421418   0.4382187  )
        66           Se  tau(  66) = (   0.3798638   0.6416214   1.7508027  )
        67           Se  tau(  67) = (   0.6613132   0.2982365   0.8937562  )
        68           Se  tau(  68) = (   0.3117465   0.6228729   0.9355140  )
        69           Se  tau(  69) = (   0.8128789   0.8236237   1.3465813  )
        70           Se  tau(  70) = (   0.1700760   0.1890272   1.3943494  )
        71           Se  tau(  71) = (   0.8492636   0.7859281   0.4917244  )
        72           Se  tau(  72) = (   0.6997963   0.3448342   0.0285814  )

     number of k points=     8  Methfessel-Paxton smearing, width (Ry)=  0.0200
                       cart. coord. in units 2pi/alat
        k(    1) = (   0.0000000   0.0000000   0.0000000), wk =   0.2500000
        k(    2) = (   0.0022904  -0.0000818  -0.2747534), wk =   0.2500000
        k(    3) = (   0.0017607  -0.5193037  -0.0001535), wk =   0.2500000
        k(    4) = (   0.0040511  -0.5193856  -0.2749069), wk =   0.2500000
        k(    5) = (  -0.5000620   0.0017607   0.0042946), wk =   0.2500000
        k(    6) = (  -0.4977716   0.0016788  -0.2704589), wk =   0.2500000
        k(    7) = (  -0.4983013  -0.5175431   0.0041411), wk =   0.2500000
        k(    8) = (  -0.4960109  -0.5176249  -0.2706123), wk =   0.2500000

     Dense  grid:   999873 G-vectors     FFT dimensions: ( 108, 100, 192)

     Smooth grid:   353395 G-vectors     FFT dimensions: (  75,  72, 135)

     Estimated max dynamical RAM per process >       3.31 GB

     Estimated total dynamical RAM >       6.62 GB

     Atomic positions and unit cell read from directory:
     ./tmp/LiSi15H6Se8.save/
     Message from routine qexsd_readschema :
     xml data file ./tmp/LiSi15H6Se8.save/data-file-schema.xml not found

 %%%%%%%%%%%%%%%%%%%%%%%%%%%%%%%%%%%%%%%%%%%%%%%%%%%%%%%%%%%%%%%%%%%%%%%%%%%%%%
     Error in routine read_conf_from_file (1):
     fatal error reading xml file
 %%%%%%%%%%%%%%%%%%%%%%%%%%%%%%%%%%%%%%%%%%%%%%%%%%%%%%%%%%%%%%%%%%%%%%%%%%%%%%

     stopping ...
--------------------------------------------------------------------------
MPI_ABORT was invoked on rank 1 in communicator MPI_COMM_WORLD
with errorcode 1.

NOTE: invoking MPI_ABORT causes Open MPI to kill all MPI processes.
You may or may not see output from other processes, depending on
exactly when Open MPI kills them.
--------------------------------------------------------------------------
[Supraleiter-HPC-Knoten:00973] 1 more process has sent help message help-mpi-api.txt / mpi-abort
[Supraleiter-HPC-Knoten:00973] Set MCA parameter "orte_base_help_aggregate" to 0 to see all help / error messages

     Program PWSCF v.6.7MaX starts on 19Jan2026 at 23:19:22 

     This program is part of the open-source Quantum ESPRESSO suite
     for quantum simulation of materials; please cite
         "P. Giannozzi et al., J. Phys.:Condens. Matter 21 395502 (2009);
         "P. Giannozzi et al., J. Phys.:Condens. Matter 29 465901 (2017);
          URL http://www.quantum-espresso.org", 
     in publications or presentations arising from this work. More details at
     http://www.quantum-espresso.org/quote

     Parallel version (MPI), running on     2 processors

     MPI processes distributed on     1 nodes
     R & G space division:  proc/nbgrp/npool/nimage =       2
     Waiting for input...
     Reading input from standard input

     Current dimensions of program PWSCF are:
     Max number of different atomic species (ntypx) = 10
     Max number of k-points (npk) =  40000
     Max angular momentum in pseudopotentials (lmaxx) =  3
     file H.UPF: wavefunction(s)  1S renormalized
     file Se.UPF: wavefunction(s)  4S 4P 3D renormalized
     file Si.UPF: wavefunction(s)  3S 3P renormalized

     Subspace diagonalization in iterative solution of the eigenvalue problem:
     a serial algorithm will be used


     Parallelization info
     --------------------
     sticks:   dense  smooth     PW     G-vecs:    dense   smooth      PW
     Min        4005    2003    544               499936   176697   24995
     Max        4006    2004    545               499937   176698   24996
     Sum        8011    4007   1089               999873   353395   49991



     bravais-lattice index     =            0
     lattice parameter (alat)  =      16.1648  a.u.
     unit-cell volume          =    7400.6446 (a.u.)^3
     number of atoms/cell      =           72
     number of atomic types    =            4
     number of electrons       =       237.00
     number of Kohn-Sham states=          143
     kinetic-energy cutoff     =      50.0000  Ry
     charge density cutoff     =     400.0000  Ry
     scf convergence threshold =      1.0E-06
     mixing beta               =       0.7000
     number of iterations used =            4  plain     mixing
     energy convergence thresh.=      1.0E-04
     force convergence thresh. =      1.0E-03
     press convergence thresh. =      5.0E-01
     Exchange-correlation= SLA  PW   PBX  PBC
                           (   1   4   3   4   0   0   0)
     nstep                     =           50


     celldm(1)=  16.164808  celldm(2)=   0.000000  celldm(3)=   0.000000
     celldm(4)=   0.000000  celldm(5)=   0.000000  celldm(6)=   0.000000

     crystal axes: (cart. coord. in units of alat)
               a(1) = (   0.999960   0.003388   0.008335 )  
               a(2) = (   0.003388   0.962839  -0.000259 )  
               a(3) = (   0.015628  -0.000485   1.819944 )  

     reciprocal axes: (cart. coord. in units 2 pi/alat)
               b(1) = (  1.000124 -0.003521 -0.008589 )  
               b(2) = ( -0.003521  1.038607  0.000307 )  
               b(3) = ( -0.004581  0.000164  0.549507 )  


     PseudoPot. # 1 for H  read from file:
     /home/marco/ZOS_Cloud_Compute/pseudo/H.UPF
     MD5 check sum: 850d63dcbcc06c5de8b44e0ab9f952da
     Pseudo is Projector augmented-wave, Zval =  1.0
     Generated using "atomic" code by A. Dal Corso  v.5.1.2
     Shape of augmentation charge: PSQ
     Using radial grid of  929 points,  2 beta functions with: 
                l(1) =   0
                l(2) =   0
     Q(r) pseudized with 0 coefficients 


     PseudoPot. # 2 for Li read from file:
     /home/marco/ZOS_Cloud_Compute/pseudo/Li.UPF
     MD5 check sum: 057edeeab9105e5446fd9e29ea3f9c2f
     Pseudo is Ultrasoft + core correction, Zval =  1.0
     Generated by new atomic code, or converted to UPF format
     Using radial grid of  751 points,  2 beta functions with: 
                l(1) =   1
                l(2) =   1
     Q(r) pseudized with  8 coefficients,  rinner =    1.000   1.000   1.000


     PseudoPot. # 3 for Se read from file:
     /home/marco/ZOS_Cloud_Compute/pseudo/Se.UPF
     MD5 check sum: 4f650775decad95a929a350dfb100c08
     Pseudo is Projector augmented-wave + core cor, Zval = 16.0
     Generated using "atomic" code by A. Dal Corso  v.5.1.2
     Shape of augmentation charge: PSQ
     Using radial grid of 1211 points,  6 beta functions with: 
                l(1) =   0
                l(2) =   0
                l(3) =   1
                l(4) =   1
                l(5) =   2
                l(6) =   2
     Q(r) pseudized with 0 coefficients 


     PseudoPot. # 4 for Si read from file:
     /home/marco/ZOS_Cloud_Compute/pseudo/Si.UPF
     MD5 check sum: 9aa59a521a94d8167cd5008988816ac3
     Pseudo is Projector augmented-wave + core cor, Zval =  4.0
     Generated using "atomic" code by A. Dal Corso  v.5.1.2
     Shape of augmentation charge: PSQ
     Using radial grid of 1141 points,  6 beta functions with: 
                l(1) =   0
                l(2) =   0
                l(3) =   1
                l(4) =   1
                l(5) =   2
                l(6) =   2
     Q(r) pseudized with 0 coefficients 


     atomic species   valence    mass     pseudopotential
        H              1.00     1.00000     H ( 1.00)
        Li             1.00     1.00000     Li( 1.00)
        Se            16.00     1.00000     Se( 1.00)
        Si             4.00     1.00000     Si( 1.00)

     No symmetry found



   Cartesian axes

     site n.     atom                  positions (alat units)
         1           Si  tau(   1) = (   0.7718118   0.5798170   0.6546991  )
         2           Si  tau(   2) = (   0.2564928   0.3916887   1.5601191  )
         3           Si  tau(   3) = (   0.6160488   0.7403640   1.1798929  )
         4           Si  tau(   4) = (   0.1134724   0.7070832   1.1025891  )
         5           Si  tau(   5) = (   0.9041692   0.2702525   0.1923428  )
         6           Si  tau(   6) = (   0.7413306   0.0981293   0.7254273  )
         7           Si  tau(   7) = (   0.2824846   0.8589825   1.6379216  )
         8           Si  tau(   8) = (   0.4032542   0.2248186   0.2702314  )
         9           Li  tau(   9) = (   0.1532172   0.6866695   0.1529768  )
        10           Si  tau(  10) = (   0.8577327   0.2601867   1.0802764  )
        11           Si  tau(  11) = (   0.7466931   0.1510336   1.6613800  )
        12           Si  tau(  12) = (   0.2780395   0.8168103   0.7483237  )
        13           Si  tau(  13) = (   0.2386046   0.3378268   0.6233339  )
        14           Si  tau(  14) = (   0.7790299   0.6313302   1.5339577  )
        15           Si  tau(  15) = (   0.3596929   0.2251516   1.2037826  )
        16           Si  tau(  16) = (   0.6635492   0.7422683   0.2973143  )
        17           H   tau(  17) = (   0.8852716   0.5746799   0.7848740  )
        18           H   tau(  18) = (   0.1373712   0.3875379   1.6858666  )
        19           H   tau(  19) = (   0.6060170   0.8529473   1.0483014  )
        20           H   tau(  20) = (   0.1063618   0.5935683   1.2322672  )
        21           H   tau(  21) = (   0.9132824   0.3770292   0.3274419  )
        22           H   tau(  22) = (   0.6278953   0.0937225   0.5952356  )
        23           H   tau(  23) = (   0.3863322   0.8823305   1.4971108  )
        24           H   tau(  24) = (   0.4109604   0.1139296   0.1379243  )
        25           H   tau(  25) = (   0.6127332   0.6261030   0.7075416  )
        26           H   tau(  26) = (   0.4134115   0.3350638   1.6111121  )
        27           H   tau(  27) = (   0.6604868   0.5794852   1.1282048  )
        28           H   tau(  28) = (   0.1624709   0.8658516   1.1531120  )
        29           H   tau(  29) = (   0.8572965   0.1105176   0.2415137  )
        30           H   tau(  30) = (   0.8997971   0.1490839   0.6742263  )
        31           H   tau(  31) = (   0.1185134   0.8187744   1.5837463  )
        32           H   tau(  32) = (   0.3537850   0.3832397   0.2211383  )
        33           H   tau(  33) = (   0.7688003   0.4297412   0.5663749  )
        34           H   tau(  34) = (   0.7195024   0.7960780   0.1413482  )
        35           H   tau(  35) = (   0.2527678   0.5395594   1.4685095  )
        36           H   tau(  36) = (   0.9632541   0.7116917   1.0233330  )
        37           H   tau(  37) = (   0.0565369   0.2612125   0.1000995  )
        38           H   tau(  38) = (   0.7472426   0.9103679   0.8117524  )
        39           H   tau(  39) = (   0.2766860   0.0530243   1.7228658  )
        40           H   tau(  40) = (   0.5539604   0.2274279   0.3557727  )
        41           H   tau(  41) = (   0.4059993   0.3876810   0.6290189  )
        42           H   tau(  42) = (   0.1029355   0.8726296   0.1236094  )
        43           H   tau(  43) = (   0.9036687   0.0919105   1.0863183  )
        44           H   tau(  44) = (   0.9143150   0.1027401   1.6568062  )
        45           H   tau(  45) = (   0.1099944   0.8635892   0.7414012  )
        46           H   tau(  46) = (   0.6124561   0.5791243   1.5387606  )
        47           H   tau(  47) = (   0.4065870   0.3923614   1.1985137  )
        48           H   tau(  48) = (   0.6162515   0.5737134   0.2927322  )
        49           H   tau(  49) = (   0.1342714   0.4684002   0.5739423  )
        50           H   tau(  50) = (   0.0033079   0.5709750   0.1587592  )
        51           H   tau(  51) = (   0.9878152   0.3653643   1.0306434  )
        52           H   tau(  52) = (   0.6446987   0.0190770   1.7114421  )
        53           H   tau(  53) = (   0.3802852   0.9483015   0.7998250  )
        54           H   tau(  54) = (   0.8828644   0.5006326   1.4854476  )
        55           H   tau(  55) = (   0.4889554   0.1211446   1.2553258  )
        56           H   tau(  56) = (   0.5313989   0.8447714   0.3477216  )
        57           H   tau(  57) = (   0.1912743   0.2752683   0.7780130  )
        58           H   tau(  58) = (   0.2102445   0.6620934   0.3366536  )
        59           H   tau(  59) = (   0.7968027   0.3101917   1.2350914  )
        60           H   tau(  60) = (   0.6973788   0.2124963   1.5070745  )
        61           H   tau(  61) = (   0.3268388   0.7544325   0.5941534  )
        62           H   tau(  62) = (   0.8290237   0.6953712   1.6871565  )
        63           H   tau(  63) = (   0.2946572   0.1741754   1.0517621  )
        64           H   tau(  64) = (   0.4634157   0.7366106   1.2647793  )
        65           Se  tau(  65) = (   0.2063804   0.1421418   0.4382187  )
        66           Se  tau(  66) = (   0.3798638   0.6416214   1.7508027  )
        67           Se  tau(  67) = (   0.6613132   0.2982365   0.8937562  )
        68           Se  tau(  68) = (   0.3117465   0.6228729   0.9355140  )
        69           Se  tau(  69) = (   0.8128789   0.8236237   1.3465813  )
        70           Se  tau(  70) = (   0.1700760   0.1890272   1.3943494  )
        71           Se  tau(  71) = (   0.8492636   0.7859281   0.4917244  )
        72           Se  tau(  72) = (   0.6997963   0.3448342   0.0285814  )

     number of k points=     8  Methfessel-Paxton smearing, width (Ry)=  0.0200
                       cart. coord. in units 2pi/alat
        k(    1) = (   0.0000000   0.0000000   0.0000000), wk =   0.2500000
        k(    2) = (   0.0022904  -0.0000818  -0.2747534), wk =   0.2500000
        k(    3) = (   0.0017607  -0.5193037  -0.0001535), wk =   0.2500000
        k(    4) = (   0.0040511  -0.5193856  -0.2749069), wk =   0.2500000
        k(    5) = (  -0.5000620   0.0017607   0.0042946), wk =   0.2500000
        k(    6) = (  -0.4977716   0.0016788  -0.2704589), wk =   0.2500000
        k(    7) = (  -0.4983013  -0.5175431   0.0041411), wk =   0.2500000
        k(    8) = (  -0.4960109  -0.5176249  -0.2706123), wk =   0.2500000

     Dense  grid:   999873 G-vectors     FFT dimensions: ( 108, 100, 192)

     Smooth grid:   353395 G-vectors     FFT dimensions: (  75,  72, 135)

     Estimated max dynamical RAM per process >       3.31 GB

     Estimated total dynamical RAM >       6.62 GB

     Atomic positions and unit cell read from directory:
     ./tmp/LiSi15H6Se8.save/
     Message from routine qexsd_readschema :
     xml data file ./tmp/LiSi15H6Se8.save/data-file-schema.xml not found

 %%%%%%%%%%%%%%%%%%%%%%%%%%%%%%%%%%%%%%%%%%%%%%%%%%%%%%%%%%%%%%%%%%%%%%%%%%%%%%
     Error in routine read_conf_from_file (1):
     fatal error reading xml file
 %%%%%%%%%%%%%%%%%%%%%%%%%%%%%%%%%%%%%%%%%%%%%%%%%%%%%%%%%%%%%%%%%%%%%%%%%%%%%%

     stopping ...
--------------------------------------------------------------------------
MPI_ABORT was invoked on rank 1 in communicator MPI_COMM_WORLD
with errorcode 1.

NOTE: invoking MPI_ABORT causes Open MPI to kill all MPI processes.
You may or may not see output from other processes, depending on
exactly when Open MPI kills them.
--------------------------------------------------------------------------
[Supraleiter-HPC-Knoten:00960] 1 more process has sent help message help-mpi-api.txt / mpi-abort
[Supraleiter-HPC-Knoten:00960] Set MCA parameter "orte_base_help_aggregate" to 0 to see all help / error messages

     Program PWSCF v.6.7MaX starts on 20Jan2026 at  2:19:24 

     This program is part of the open-source Quantum ESPRESSO suite
     for quantum simulation of materials; please cite
         "P. Giannozzi et al., J. Phys.:Condens. Matter 21 395502 (2009);
         "P. Giannozzi et al., J. Phys.:Condens. Matter 29 465901 (2017);
          URL http://www.quantum-espresso.org", 
     in publications or presentations arising from this work. More details at
     http://www.quantum-espresso.org/quote

     Parallel version (MPI), running on     2 processors

     MPI processes distributed on     1 nodes
     R & G space division:  proc/nbgrp/npool/nimage =       2
     Waiting for input...
     Reading input from standard input

     Current dimensions of program PWSCF are:
     Max number of different atomic species (ntypx) = 10
     Max number of k-points (npk) =  40000
     Max angular momentum in pseudopotentials (lmaxx) =  3
     file H.UPF: wavefunction(s)  1S renormalized
     file Se.UPF: wavefunction(s)  4S 4P 3D renormalized
     file Si.UPF: wavefunction(s)  3S 3P renormalized

     Subspace diagonalization in iterative solution of the eigenvalue problem:
     a serial algorithm will be used


     Parallelization info
     --------------------
     sticks:   dense  smooth     PW     G-vecs:    dense   smooth      PW
     Min        4005    2003    544               499936   176697   24995
     Max        4006    2004    545               499937   176698   24996
     Sum        8011    4007   1089               999873   353395   49991



     bravais-lattice index     =            0
     lattice parameter (alat)  =      16.1648  a.u.
     unit-cell volume          =    7400.6446 (a.u.)^3
     number of atoms/cell      =           72
     number of atomic types    =            4
     number of electrons       =       237.00
     number of Kohn-Sham states=          143
     kinetic-energy cutoff     =      50.0000  Ry
     charge density cutoff     =     400.0000  Ry
     scf convergence threshold =      1.0E-06
     mixing beta               =       0.7000
     number of iterations used =            4  plain     mixing
     energy convergence thresh.=      1.0E-04
     force convergence thresh. =      1.0E-03
     press convergence thresh. =      5.0E-01
     Exchange-correlation= SLA  PW   PBX  PBC
                           (   1   4   3   4   0   0   0)
     nstep                     =           50


     celldm(1)=  16.164808  celldm(2)=   0.000000  celldm(3)=   0.000000
     celldm(4)=   0.000000  celldm(5)=   0.000000  celldm(6)=   0.000000

     crystal axes: (cart. coord. in units of alat)
               a(1) = (   0.999960   0.003388   0.008335 )  
               a(2) = (   0.003388   0.962839  -0.000259 )  
               a(3) = (   0.015628  -0.000485   1.819944 )  

     reciprocal axes: (cart. coord. in units 2 pi/alat)
               b(1) = (  1.000124 -0.003521 -0.008589 )  
               b(2) = ( -0.003521  1.038607  0.000307 )  
               b(3) = ( -0.004581  0.000164  0.549507 )  


     PseudoPot. # 1 for H  read from file:
     /home/marco/ZOS_Cloud_Compute/pseudo/H.UPF
     MD5 check sum: 850d63dcbcc06c5de8b44e0ab9f952da
     Pseudo is Projector augmented-wave, Zval =  1.0
     Generated using "atomic" code by A. Dal Corso  v.5.1.2
     Shape of augmentation charge: PSQ
     Using radial grid of  929 points,  2 beta functions with: 
                l(1) =   0
                l(2) =   0
     Q(r) pseudized with 0 coefficients 


     PseudoPot. # 2 for Li read from file:
     /home/marco/ZOS_Cloud_Compute/pseudo/Li.UPF
     MD5 check sum: 057edeeab9105e5446fd9e29ea3f9c2f
     Pseudo is Ultrasoft + core correction, Zval =  1.0
     Generated by new atomic code, or converted to UPF format
     Using radial grid of  751 points,  2 beta functions with: 
                l(1) =   1
                l(2) =   1
     Q(r) pseudized with  8 coefficients,  rinner =    1.000   1.000   1.000


     PseudoPot. # 3 for Se read from file:
     /home/marco/ZOS_Cloud_Compute/pseudo/Se.UPF
     MD5 check sum: 4f650775decad95a929a350dfb100c08
     Pseudo is Projector augmented-wave + core cor, Zval = 16.0
     Generated using "atomic" code by A. Dal Corso  v.5.1.2
     Shape of augmentation charge: PSQ
     Using radial grid of 1211 points,  6 beta functions with: 
                l(1) =   0
                l(2) =   0
                l(3) =   1
                l(4) =   1
                l(5) =   2
                l(6) =   2
     Q(r) pseudized with 0 coefficients 


     PseudoPot. # 4 for Si read from file:
     /home/marco/ZOS_Cloud_Compute/pseudo/Si.UPF
     MD5 check sum: 9aa59a521a94d8167cd5008988816ac3
     Pseudo is Projector augmented-wave + core cor, Zval =  4.0
     Generated using "atomic" code by A. Dal Corso  v.5.1.2
     Shape of augmentation charge: PSQ
     Using radial grid of 1141 points,  6 beta functions with: 
                l(1) =   0
                l(2) =   0
                l(3) =   1
                l(4) =   1
                l(5) =   2
                l(6) =   2
     Q(r) pseudized with 0 coefficients 


     atomic species   valence    mass     pseudopotential
        H              1.00     1.00000     H ( 1.00)
        Li             1.00     1.00000     Li( 1.00)
        Se            16.00     1.00000     Se( 1.00)
        Si             4.00     1.00000     Si( 1.00)

     No symmetry found



   Cartesian axes

     site n.     atom                  positions (alat units)
         1           Si  tau(   1) = (   0.7718118   0.5798170   0.6546991  )
         2           Si  tau(   2) = (   0.2564928   0.3916887   1.5601191  )
         3           Si  tau(   3) = (   0.6160488   0.7403640   1.1798929  )
         4           Si  tau(   4) = (   0.1134724   0.7070832   1.1025891  )
         5           Si  tau(   5) = (   0.9041692   0.2702525   0.1923428  )
         6           Si  tau(   6) = (   0.7413306   0.0981293   0.7254273  )
         7           Si  tau(   7) = (   0.2824846   0.8589825   1.6379216  )
         8           Si  tau(   8) = (   0.4032542   0.2248186   0.2702314  )
         9           Li  tau(   9) = (   0.1532172   0.6866695   0.1529768  )
        10           Si  tau(  10) = (   0.8577327   0.2601867   1.0802764  )
        11           Si  tau(  11) = (   0.7466931   0.1510336   1.6613800  )
        12           Si  tau(  12) = (   0.2780395   0.8168103   0.7483237  )
        13           Si  tau(  13) = (   0.2386046   0.3378268   0.6233339  )
        14           Si  tau(  14) = (   0.7790299   0.6313302   1.5339577  )
        15           Si  tau(  15) = (   0.3596929   0.2251516   1.2037826  )
        16           Si  tau(  16) = (   0.6635492   0.7422683   0.2973143  )
        17           H   tau(  17) = (   0.8852716   0.5746799   0.7848740  )
        18           H   tau(  18) = (   0.1373712   0.3875379   1.6858666  )
        19           H   tau(  19) = (   0.6060170   0.8529473   1.0483014  )
        20           H   tau(  20) = (   0.1063618   0.5935683   1.2322672  )
        21           H   tau(  21) = (   0.9132824   0.3770292   0.3274419  )
        22           H   tau(  22) = (   0.6278953   0.0937225   0.5952356  )
        23           H   tau(  23) = (   0.3863322   0.8823305   1.4971108  )
        24           H   tau(  24) = (   0.4109604   0.1139296   0.1379243  )
        25           H   tau(  25) = (   0.6127332   0.6261030   0.7075416  )
        26           H   tau(  26) = (   0.4134115   0.3350638   1.6111121  )
        27           H   tau(  27) = (   0.6604868   0.5794852   1.1282048  )
        28           H   tau(  28) = (   0.1624709   0.8658516   1.1531120  )
        29           H   tau(  29) = (   0.8572965   0.1105176   0.2415137  )
        30           H   tau(  30) = (   0.8997971   0.1490839   0.6742263  )
        31           H   tau(  31) = (   0.1185134   0.8187744   1.5837463  )
        32           H   tau(  32) = (   0.3537850   0.3832397   0.2211383  )
        33           H   tau(  33) = (   0.7688003   0.4297412   0.5663749  )
        34           H   tau(  34) = (   0.7195024   0.7960780   0.1413482  )
        35           H   tau(  35) = (   0.2527678   0.5395594   1.4685095  )
        36           H   tau(  36) = (   0.9632541   0.7116917   1.0233330  )
        37           H   tau(  37) = (   0.0565369   0.2612125   0.1000995  )
        38           H   tau(  38) = (   0.7472426   0.9103679   0.8117524  )
        39           H   tau(  39) = (   0.2766860   0.0530243   1.7228658  )
        40           H   tau(  40) = (   0.5539604   0.2274279   0.3557727  )
        41           H   tau(  41) = (   0.4059993   0.3876810   0.6290189  )
        42           H   tau(  42) = (   0.1029355   0.8726296   0.1236094  )
        43           H   tau(  43) = (   0.9036687   0.0919105   1.0863183  )
        44           H   tau(  44) = (   0.9143150   0.1027401   1.6568062  )
        45           H   tau(  45) = (   0.1099944   0.8635892   0.7414012  )
        46           H   tau(  46) = (   0.6124561   0.5791243   1.5387606  )
        47           H   tau(  47) = (   0.4065870   0.3923614   1.1985137  )
        48           H   tau(  48) = (   0.6162515   0.5737134   0.2927322  )
        49           H   tau(  49) = (   0.1342714   0.4684002   0.5739423  )
        50           H   tau(  50) = (   0.0033079   0.5709750   0.1587592  )
        51           H   tau(  51) = (   0.9878152   0.3653643   1.0306434  )
        52           H   tau(  52) = (   0.6446987   0.0190770   1.7114421  )
        53           H   tau(  53) = (   0.3802852   0.9483015   0.7998250  )
        54           H   tau(  54) = (   0.8828644   0.5006326   1.4854476  )
        55           H   tau(  55) = (   0.4889554   0.1211446   1.2553258  )
        56           H   tau(  56) = (   0.5313989   0.8447714   0.3477216  )
        57           H   tau(  57) = (   0.1912743   0.2752683   0.7780130  )
        58           H   tau(  58) = (   0.2102445   0.6620934   0.3366536  )
        59           H   tau(  59) = (   0.7968027   0.3101917   1.2350914  )
        60           H   tau(  60) = (   0.6973788   0.2124963   1.5070745  )
        61           H   tau(  61) = (   0.3268388   0.7544325   0.5941534  )
        62           H   tau(  62) = (   0.8290237   0.6953712   1.6871565  )
        63           H   tau(  63) = (   0.2946572   0.1741754   1.0517621  )
        64           H   tau(  64) = (   0.4634157   0.7366106   1.2647793  )
        65           Se  tau(  65) = (   0.2063804   0.1421418   0.4382187  )
        66           Se  tau(  66) = (   0.3798638   0.6416214   1.7508027  )
        67           Se  tau(  67) = (   0.6613132   0.2982365   0.8937562  )
        68           Se  tau(  68) = (   0.3117465   0.6228729   0.9355140  )
        69           Se  tau(  69) = (   0.8128789   0.8236237   1.3465813  )
        70           Se  tau(  70) = (   0.1700760   0.1890272   1.3943494  )
        71           Se  tau(  71) = (   0.8492636   0.7859281   0.4917244  )
        72           Se  tau(  72) = (   0.6997963   0.3448342   0.0285814  )

     number of k points=     8  Methfessel-Paxton smearing, width (Ry)=  0.0200
                       cart. coord. in units 2pi/alat
        k(    1) = (   0.0000000   0.0000000   0.0000000), wk =   0.2500000
        k(    2) = (   0.0022904  -0.0000818  -0.2747534), wk =   0.2500000
        k(    3) = (   0.0017607  -0.5193037  -0.0001535), wk =   0.2500000
        k(    4) = (   0.0040511  -0.5193856  -0.2749069), wk =   0.2500000
        k(    5) = (  -0.5000620   0.0017607   0.0042946), wk =   0.2500000
        k(    6) = (  -0.4977716   0.0016788  -0.2704589), wk =   0.2500000
        k(    7) = (  -0.4983013  -0.5175431   0.0041411), wk =   0.2500000
        k(    8) = (  -0.4960109  -0.5176249  -0.2706123), wk =   0.2500000

     Dense  grid:   999873 G-vectors     FFT dimensions: ( 108, 100, 192)

     Smooth grid:   353395 G-vectors     FFT dimensions: (  75,  72, 135)

     Estimated max dynamical RAM per process >       3.31 GB

     Estimated total dynamical RAM >       6.62 GB

     Atomic positions and unit cell read from directory:
     ./tmp/LiSi15H6Se8.save/
     Message from routine qexsd_readschema :
     xml data file ./tmp/LiSi15H6Se8.save/data-file-schema.xml not found

 %%%%%%%%%%%%%%%%%%%%%%%%%%%%%%%%%%%%%%%%%%%%%%%%%%%%%%%%%%%%%%%%%%%%%%%%%%%%%%
     Error in routine read_conf_from_file (1):
     fatal error reading xml file
 %%%%%%%%%%%%%%%%%%%%%%%%%%%%%%%%%%%%%%%%%%%%%%%%%%%%%%%%%%%%%%%%%%%%%%%%%%%%%%

     stopping ...
[Supraleiter-HPC-Knoten:00974] [[30712,0],0] ORTE_ERROR_LOG: Data unpack would read past end of buffer in file ../../../orte/util/show_help.c at line 501
[Supraleiter-HPC-Knoten:00974] [[30712,0],0] ORTE_ERROR_LOG: Data unpack had inadequate space in file ../../../orte/util/show_help.c at line 513
