
     Program PWSCF v.6.1 starts on 24Nov2025 at  1: 9: 9 

     This program is part of the open-source Quantum ESPRESSO suite
     for quantum simulation of materials; please cite
         "P. Giannozzi et al., J. Phys.:Condens. Matter 21 395502 (2009);
          URL http://www.quantum-espresso.org", 
     in publications or presentations arising from this work. More details at
     http://www.quantum-espresso.org/quote

     Parallel version (MPI & OpenMP), running on      12 processor cores
     Number of MPI processes:                 1
     Threads/MPI process:                    12
     Waiting for input...
     Reading input from standard input

     Current dimensions of program PWSCF are:
     Max number of different atomic species (ntypx) = 10
     Max number of k-points (npk) =  40000
     Max angular momentum in pseudopotentials (lmaxx) =  3
               file Al.UPF: wavefunction(s)  3S 3P renormalized
               file H.UPF: wavefunction(s)  1S renormalized

     Subspace diagonalization in iterative solution of the eigenvalue problem:
     a serial algorithm will be used


     G-vector sticks info
     --------------------
     sticks:   dense  smooth     PW     G-vecs:    dense   smooth      PW
     Sum        7425    3713   1033               481353   170349   24573



     bravais-lattice index     =            0
     lattice parameter (alat)  =      15.2737  a.u.
     unit-cell volume          =    3563.1206 (a.u.)^3
     number of atoms/cell      =           44
     number of atomic types    =            5
     number of electrons       =        71.00
     number of Kohn-Sham states=           43
     kinetic-energy cutoff     =      50.0000  Ry
     charge density cutoff     =     400.0000  Ry
     convergence threshold     =      1.0E-06
     mixing beta               =       0.7000
     number of iterations used =            8  plain     mixing
     Exchange-correlation      =  SLA  PW   PBX  PBC ( 1  4  3  4 0 0)
     nstep                     =           50


     celldm(1)=  15.273674  celldm(2)=   0.000000  celldm(3)=   0.000000
     celldm(4)=   0.000000  celldm(5)=   0.000000  celldm(6)=   0.000000

     crystal axes: (cart. coord. in units of alat)
               a(1) = (   1.000000   0.000000   0.000000 )  
               a(2) = (   0.000000   1.000000   0.000000 )  
               a(3) = (   0.000000   0.000000   1.000000 )  

     reciprocal axes: (cart. coord. in units 2 pi/alat)
               b(1) = (  1.000000  0.000000  0.000000 )  
               b(2) = (  0.000000  1.000000  0.000000 )  
               b(3) = (  0.000000  0.000000  1.000000 )  


     PseudoPot. # 1 for K  read from file:
     C:/Users/Acer/Desktop/Quantum_Espresso/pseudo/K.UPF
     MD5 check sum: 86a9a9c3c3350590e9a8cd52a3b0554c
     Pseudo is Norm-conserving + core correction, Zval =  1.0
     Generated by new atomic code, or converted to UPF format
     Using radial grid of 1165 points,  2 beta functions with: 
                l(1) =   0
                l(2) =   1

     PseudoPot. # 2 for Ba read from file:
     C:/Users/Acer/Desktop/Quantum_Espresso/pseudo/Ba.UPF
     MD5 check sum: a011de417d3466d8e94df216395bc359
     Pseudo is Ultrasoft + core correction, Zval = 10.0
     Generated by new atomic code, or converted to UPF format
     Using radial grid of  907 points,  6 beta functions with: 
                l(1) =   0
                l(2) =   0
                l(3) =   1
                l(4) =   1
                l(5) =   2
                l(6) =   2
     Q(r) pseudized with  6 coefficients,  rinner =    1.200   1.200   1.200
                                                       1.200   1.200

     PseudoPot. # 3 for Al read from file:
     C:/Users/Acer/Desktop/Quantum_Espresso/pseudo/Al.UPF
     MD5 check sum: da22aad9e98c60ce88de1cf925d56fcc
     Pseudo is Projector augmented-wave + core cor, Zval =  3.0
     Generated using "atomic" code by A. Dal Corso  v.5.1.2
     Shape of augmentation charge: PSQ
     Using radial grid of 1135 points,  6 beta functions with: 
                l(1) =   0
                l(2) =   0
                l(3) =   1
                l(4) =   1
                l(5) =   2
                l(6) =   2
     Q(r) pseudized with 0 coefficients 


     PseudoPot. # 4 for  B read from file:
     C:/Users/Acer/Desktop/Quantum_Espresso/pseudo/B.UPF
     MD5 check sum: d9c678ba5d3b2fd7b74e61139c9288d8
     Pseudo is Projector augmented-wave + core cor, Zval =  3.0
     Generated using "atomic" code by A. Dal Corso  v.5.1.2
     Shape of augmentation charge: PSQ
     Using radial grid of 1059 points,  4 beta functions with: 
                l(1) =   0
                l(2) =   0
                l(3) =   1
                l(4) =   1
     Q(r) pseudized with 0 coefficients 


     PseudoPot. # 5 for  H read from file:
     C:/Users/Acer/Desktop/Quantum_Espresso/pseudo/H.UPF
     MD5 check sum: 850d63dcbcc06c5de8b44e0ab9f952da
     Pseudo is Projector augmented-wave, Zval =  1.0
     Generated using "atomic" code by A. Dal Corso  v.5.1.2
     Shape of augmentation charge: PSQ
     Using radial grid of  929 points,  2 beta functions with: 
                l(1) =   0
                l(2) =   0
     Q(r) pseudized with 0 coefficients 


     atomic species   valence    mass     pseudopotential
        K              1.00    39.09800     K ( 1.00)
        Ba            10.00   137.33000     Ba( 1.00)
        Al             3.00    26.98200     Al( 1.00)
        B              3.00    10.81000      B( 1.00)
        H              1.00     1.00800      H( 1.00)

     No symmetry found



   Cartesian axes

     site n.     atom                  positions (alat units)
         1           K   tau(   1) = (   0.6919349   0.4626142   0.2770585  )
         2           K   tau(   2) = (   0.4766668   0.1901891   0.7448914  )
         3           Ba  tau(   3) = (   0.7076157   0.6186171   0.6093538  )
         4           Al  tau(   4) = (   0.4185213   0.3813842   0.6275079  )
         5           Al  tau(   5) = (   0.2394042   0.8327061   0.6992148  )
         6           B   tau(   6) = (   0.1665615   0.8696427   0.2768593  )
         7           B   tau(   7) = (   0.3875729   0.4842350   0.8294187  )
         8           B   tau(   8) = (   0.8281320   0.7786880   0.6619181  )
         9           B   tau(   9) = (   0.3470841   0.6383165   0.6497090  )
        10           B   tau(  10) = (   0.7128728   0.2653406   0.3012702  )
        11           B   tau(  11) = (   0.6378451   0.3424518   0.2139826  )
        12           B   tau(  12) = (   0.4896987   0.7364039   0.1285274  )
        13           H   tau(  13) = (   0.7834056   0.4563797   0.5345649  )
        14           H   tau(  14) = (   0.4157548   0.8062191   0.1747879  )
        15           H   tau(  15) = (   0.1415407   0.7050064   0.7560142  )
        16           H   tau(  16) = (   0.6974555   0.8961383   0.6609345  )
        17           H   tau(  17) = (   0.1388844   0.2713276   0.3815648  )
        18           H   tau(  18) = (   0.6228707   0.3105544   0.4842251  )
        19           H   tau(  19) = (   0.8741216   0.6457746   0.2844399  )
        20           H   tau(  20) = (   0.4942010   0.5659587   0.7363346  )
        21           H   tau(  21) = (   0.5861085   0.4608313   0.7917768  )
        22           H   tau(  22) = (   0.8902960   0.1094664   0.8808819  )
        23           H   tau(  23) = (   0.4726544   0.7094666   0.4610701  )
        24           H   tau(  24) = (   0.6230575   0.2142436   0.8156902  )
        25           H   tau(  25) = (   0.8897739   0.3960220   0.5426552  )
        26           H   tau(  26) = (   0.1537919   0.7895695   0.4798391  )
        27           H   tau(  27) = (   0.5438578   0.8668391   0.8933632  )
        28           H   tau(  28) = (   0.1461866   0.4291715   0.2882222  )
        29           H   tau(  29) = (   0.3131489   0.5972783   0.6509264  )
        30           H   tau(  30) = (   0.1801885   0.8674070   0.3543232  )
        31           H   tau(  31) = (   0.6557257   0.1684062   0.3129943  )
        32           H   tau(  32) = (   0.4021686   0.2552657   0.1159335  )
        33           H   tau(  33) = (   0.5050826   0.4885790   0.7048740  )
        34           H   tau(  34) = (   0.3655437   0.2385295   0.1778897  )
        35           H   tau(  35) = (   0.5930630   0.1628807   0.2214889  )
        36           H   tau(  36) = (   0.5347393   0.3959564   0.7573294  )
        37           H   tau(  37) = (   0.3807631   0.7558930   0.6546369  )
        38           H   tau(  38) = (   0.8491441   0.2226977   0.1845869  )
        39           H   tau(  39) = (   0.6356675   0.1762182   0.3898680  )
        40           H   tau(  40) = (   0.5089626   0.4670831   0.8428032  )
        41           H   tau(  41) = (   0.5181999   0.2790653   0.3729858  )
        42           H   tau(  42) = (   0.5805421   0.4723971   0.6147408  )
        43           H   tau(  43) = (   0.4957377   0.3738951   0.8020236  )
        44           H   tau(  44) = (   0.5658214   0.1175790   0.1443728  )

     number of k points=     8  Methfessel-Paxton smearing, width (Ry)=  0.0200
                       cart. coord. in units 2pi/alat
        k(    1) = (   0.0000000   0.0000000   0.0000000), wk =   0.2500000
        k(    2) = (   0.0000000   0.0000000  -0.5000000), wk =   0.2500000
        k(    3) = (   0.0000000  -0.5000000  -0.5000000), wk =   0.2500000
        k(    4) = (  -0.5000000  -0.5000000  -0.5000000), wk =   0.2500000
        k(    5) = (  -0.5000000   0.0000000   0.0000000), wk =   0.2500000
        k(    6) = (   0.0000000  -0.5000000   0.0000000), wk =   0.2500000
        k(    7) = (  -0.5000000   0.0000000   0.5000000), wk =   0.2500000
        k(    8) = (  -0.5000000   0.5000000   0.0000000), wk =   0.2500000

     Dense  grid:   481353 G-vectors     FFT dimensions: ( 100, 100, 100)

     Smooth grid:   170349 G-vectors     FFT dimensions: (  72,  72,  72)

     Estimated max dynamical RAM per process >     585.86MB

     Initial potential from superposition of free atoms

     starting charge   70.94048, renormalised to   71.00000
     Starting wfc are   89 randomized atomic wfcs
     Checking if some PAW data can be deallocated... 

     total cpu time spent up to now is      278.5 secs

     Self-consistent Calculation

     iteration #  1     ecut=    50.00 Ry     beta=0.70
     Davidson diagonalization with overlap
     ethr =  1.00E-02,  avg # of iterations =  3.0

     total cpu time spent up to now is      320.1 secs

     total energy              =    -265.21480953 Ry
     Harris-Foulkes estimate   =    -279.33400303 Ry
     estimated scf accuracy    <      18.25492309 Ry

     iteration #  2     ecut=    50.00 Ry     beta=0.70
     Davidson diagonalization with overlap
     ethr =  1.00E-02,  avg # of iterations =  5.0

     total cpu time spent up to now is      377.7 secs

     total energy              =    -264.76768219 Ry
     Harris-Foulkes estimate   =    -296.12074536 Ry
     estimated scf accuracy    <      92.83074922 Ry

     iteration #  3     ecut=    50.00 Ry     beta=0.70
     Davidson diagonalization with overlap
     ethr =  1.00E-02,  avg # of iterations =  4.2

     total cpu time spent up to now is      430.5 secs

     total energy              =    -273.59134998 Ry
     Harris-Foulkes estimate   =    -277.36258163 Ry
     estimated scf accuracy    <      12.09764530 Ry

     iteration #  4     ecut=    50.00 Ry     beta=0.70
     Davidson diagonalization with overlap
     ethr =  1.00E-02,  avg # of iterations =  3.1

     total cpu time spent up to now is      466.0 secs

     total energy              =    -274.90368532 Ry
     Harris-Foulkes estimate   =    -275.83238280 Ry
     estimated scf accuracy    <       3.00909109 Ry

     iteration #  5     ecut=    50.00 Ry     beta=0.70
     Davidson diagonalization with overlap
     ethr =  4.24E-03,  avg # of iterations =  2.2

     total cpu time spent up to now is      498.3 secs

     total energy              =    -275.13266674 Ry
     Harris-Foulkes estimate   =    -275.85550757 Ry
     estimated scf accuracy    <       3.59247498 Ry

     iteration #  6     ecut=    50.00 Ry     beta=0.70
     Davidson diagonalization with overlap
     ethr =  4.24E-03,  avg # of iterations =  1.0

     total cpu time spent up to now is      528.2 secs

     total energy              =    -275.35410844 Ry
     Harris-Foulkes estimate   =    -275.48227683 Ry
     estimated scf accuracy    <       0.36645165 Ry

     iteration #  7     ecut=    50.00 Ry     beta=0.70
     Davidson diagonalization with overlap
     ethr =  5.16E-04,  avg # of iterations =  4.8

     total cpu time spent up to now is      564.5 secs

     total energy              =    -275.39575507 Ry
     Harris-Foulkes estimate   =    -275.50608929 Ry
     estimated scf accuracy    <       0.44840683 Ry

     iteration #  8     ecut=    50.00 Ry     beta=0.70
     Davidson diagonalization with overlap
     ethr =  5.16E-04,  avg # of iterations =  2.4

     total cpu time spent up to now is      595.9 secs

     total energy              =    -275.39950675 Ry
     Harris-Foulkes estimate   =    -275.49188241 Ry
     estimated scf accuracy    <       0.48869696 Ry

     iteration #  9     ecut=    50.00 Ry     beta=0.70
     Davidson diagonalization with overlap
     ethr =  5.16E-04,  avg # of iterations =  1.5

     total cpu time spent up to now is      626.7 secs

     total energy              =    -275.44194495 Ry
     Harris-Foulkes estimate   =    -275.46019380 Ry
     estimated scf accuracy    <       0.07356894 Ry

     iteration # 10     ecut=    50.00 Ry     beta=0.70
     Davidson diagonalization with overlap
     ethr =  1.04E-04,  avg # of iterations =  3.8

     total cpu time spent up to now is      659.8 secs

     total energy              =    -275.44864454 Ry
     Harris-Foulkes estimate   =    -275.45725900 Ry
     estimated scf accuracy    <       0.03575198 Ry

     iteration # 11     ecut=    50.00 Ry     beta=0.70
     Davidson diagonalization with overlap
     ethr =  5.04E-05,  avg # of iterations =  2.4

     total cpu time spent up to now is      690.3 secs

     total energy              =    -275.45255059 Ry
     Harris-Foulkes estimate   =    -275.45490950 Ry
     estimated scf accuracy    <       0.01226805 Ry

     iteration # 12     ecut=    50.00 Ry     beta=0.70
     Davidson diagonalization with overlap
     ethr =  1.73E-05,  avg # of iterations =  4.6

     total cpu time spent up to now is      723.9 secs

     total energy              =    -275.45340426 Ry
     Harris-Foulkes estimate   =    -275.45450230 Ry
     estimated scf accuracy    <       0.00414382 Ry

     iteration # 13     ecut=    50.00 Ry     beta=0.70
     Davidson diagonalization with overlap
     ethr =  5.84E-06,  avg # of iterations =  5.1

     negative rho (up, down):  4.198E-07 0.000E+00

     total cpu time spent up to now is      758.5 secs

     total energy              =    -275.45377720 Ry
     Harris-Foulkes estimate   =    -275.45430543 Ry
     estimated scf accuracy    <       0.00206142 Ry

     iteration # 14     ecut=    50.00 Ry     beta=0.70
     Davidson diagonalization with overlap
     ethr =  2.90E-06,  avg # of iterations =  3.8

     negative rho (up, down):  3.484E-07 0.000E+00

     total cpu time spent up to now is      790.9 secs

     total energy              =    -275.45395263 Ry
     Harris-Foulkes estimate   =    -275.45413709 Ry
     estimated scf accuracy    <       0.00080202 Ry

     iteration # 15     ecut=    50.00 Ry     beta=0.70
     Davidson diagonalization with overlap
     ethr =  1.13E-06,  avg # of iterations =  2.1

     negative rho (up, down):  3.670E-07 0.000E+00

     total cpu time spent up to now is      821.9 secs

     total energy              =    -275.45397136 Ry
     Harris-Foulkes estimate   =    -275.45413886 Ry
     estimated scf accuracy    <       0.00098196 Ry

     iteration # 16     ecut=    50.00 Ry     beta=0.70
     Davidson diagonalization with overlap
     ethr =  1.13E-06,  avg # of iterations =  1.0

     negative rho (up, down):  6.539E-07 0.000E+00

     total cpu time spent up to now is      852.1 secs

     total energy              =    -275.45404257 Ry
     Harris-Foulkes estimate   =    -275.45409497 Ry
     estimated scf accuracy    <       0.00038259 Ry

     iteration # 17     ecut=    50.00 Ry     beta=0.70
     Davidson diagonalization with overlap
     ethr =  5.39E-07,  avg # of iterations =  1.0

     negative rho (up, down):  8.122E-07 0.000E+00

     total cpu time spent up to now is      881.8 secs

     total energy              =    -275.45406246 Ry
     Harris-Foulkes estimate   =    -275.45408079 Ry
     estimated scf accuracy    <       0.00007105 Ry

     iteration # 18     ecut=    50.00 Ry     beta=0.70
     Davidson diagonalization with overlap
     ethr =  1.00E-07,  avg # of iterations =  2.4

     negative rho (up, down):  7.740E-07 0.000E+00

     total cpu time spent up to now is      913.3 secs

     total energy              =    -275.45407055 Ry
     Harris-Foulkes estimate   =    -275.45407576 Ry
     estimated scf accuracy    <       0.00002659 Ry

     iteration # 19     ecut=    50.00 Ry     beta=0.70
     Davidson diagonalization with overlap
     ethr =  3.75E-08,  avg # of iterations =  1.1

     negative rho (up, down):  7.921E-07 0.000E+00

     total cpu time spent up to now is      943.0 secs

     total energy              =    -275.45407319 Ry
     Harris-Foulkes estimate   =    -275.45407383 Ry
     estimated scf accuracy    <       0.00000228 Ry

     iteration # 20     ecut=    50.00 Ry     beta=0.70
     Davidson diagonalization with overlap
     ethr =  3.21E-09,  avg # of iterations =  3.8

     negative rho (up, down):  8.047E-07 0.000E+00

     total cpu time spent up to now is      979.5 secs

     total energy              =    -275.45407362 Ry
     Harris-Foulkes estimate   =    -275.45407398 Ry
     estimated scf accuracy    <       0.00000131 Ry

     iteration # 21     ecut=    50.00 Ry     beta=0.70
     Davidson diagonalization with overlap
     ethr =  1.85E-09,  avg # of iterations =  2.0

     negative rho (up, down):  7.863E-07 0.000E+00

     total cpu time spent up to now is     1010.5 secs

     End of self-consistent calculation

          k = 0.0000 0.0000 0.0000 ( 21247 PWs)   bands (ev):

   -28.5700 -26.1468 -18.4048 -17.1992 -15.5006 -13.3299 -13.0201 -11.4979
   -10.9768  -9.7973  -9.6733  -8.9297  -8.4756  -7.7003  -6.6552  -6.1945
    -6.1053  -5.3885  -4.9006  -4.2824  -3.8673  -3.5322  -3.2515  -2.5201
    -2.1861  -1.9195  -1.6021  -1.4921  -1.1859  -1.0694  -0.8511  -0.4706
    -0.3970  -0.0730   0.0203   0.0991   0.1151   0.2903   0.5628   0.7926
     1.0857   1.2320   1.5357

          k = 0.0000 0.0000-0.5000 ( 21362 PWs)   bands (ev):

   -28.5700 -26.1469 -18.4049 -17.1994 -15.4998 -13.3304 -13.0200 -11.4932
   -10.9839  -9.7712  -9.6909  -9.0035  -8.4562  -7.6070  -6.6585  -6.1837
    -6.1528  -5.4058  -4.8409  -4.2715  -3.9290  -3.5144  -3.2304  -2.5003
    -2.3242  -1.8744  -1.6661  -1.3825  -1.1120  -1.0409  -0.8924  -0.5713
    -0.2949  -0.2088  -0.0313   0.0460   0.2028   0.2946   0.5901   0.8574
     0.8807   1.2294   1.6010

          k = 0.0000-0.5000-0.5000 ( 21216 PWs)   bands (ev):

   -28.5699 -26.1470 -18.4050 -17.1984 -15.5040 -13.3327 -13.0187 -11.4849
   -10.9818  -9.7593  -9.7009  -8.9911  -8.4735  -7.6066  -6.6529  -6.1725
    -6.1532  -5.4405  -4.8374  -4.2707  -3.9417  -3.5424  -3.2178  -2.4330
    -2.3177  -1.9149  -1.5627  -1.3509  -1.2258  -0.9980  -0.7435  -0.6905
    -0.3310  -0.2445  -0.1755   0.0103   0.1953   0.3127   0.6428   0.8034
     1.2205   1.4674   1.5151

          k =-0.5000-0.5000-0.5000 ( 21368 PWs)   bands (ev):

   -28.5699 -26.1471 -18.4051 -17.1991 -15.5059 -13.3164 -13.0199 -11.5016
   -10.9734  -9.7637  -9.7188  -8.9819  -8.4729  -7.6156  -6.6596  -6.1570
    -6.1438  -5.3757  -4.8037  -4.5313  -3.9363  -3.4449  -3.1330  -2.4279
    -2.2943  -1.8785  -1.6041  -1.3887  -1.2965  -0.8216  -0.6791  -0.5139
    -0.4725  -0.2954  -0.1567   0.0219   0.0841   0.3654   0.5410   0.7568
     1.2523   1.2604   1.5494

          k =-0.5000 0.0000 0.0000 ( 21362 PWs)   bands (ev):

   -28.5700 -26.1469 -18.4049 -17.1999 -15.5025 -13.3136 -13.0215 -11.5143
   -10.9688  -9.8013  -9.6899  -8.9213  -8.4762  -7.7091  -6.6608  -6.1859
    -6.0904  -5.3283  -4.8518  -4.5386  -3.8848  -3.4218  -3.1616  -2.5614
    -2.2020  -1.7742  -1.5471  -1.4550  -1.1555  -1.0754  -0.9159  -0.5457
    -0.3817  -0.2667  -0.1354   0.1275   0.3244   0.4111   0.4816   0.9379
     0.9862   1.0653   1.4677

          k = 0.0000-0.5000 0.0000 ( 21362 PWs)   bands (ev):

   -28.5699 -26.1470 -18.4050 -17.1982 -15.5049 -13.3322 -13.0188 -11.4892
   -10.9754  -9.7872  -9.6785  -8.9465  -8.4559  -7.7117  -6.6386  -6.1893
    -6.0908  -5.4320  -4.8914  -4.2785  -3.9855  -3.5536  -3.2321  -2.2788
    -2.1924  -1.9668  -1.7040  -1.3606  -1.1953  -0.9383  -0.7510  -0.6010
    -0.4275  -0.3068  -0.1575   0.0495   0.2486   0.3716   0.4660   0.8338
     1.3125   1.3676   1.5004

          k =-0.5000 0.0000 0.5000 ( 21216 PWs)   bands (ev):

   -28.5699 -26.1469 -18.4048 -17.2000 -15.5016 -13.3141 -13.0213 -11.5095
   -10.9758  -9.7726  -9.7105  -8.9964  -8.4542  -7.6168  -6.6617  -6.1849
    -6.1314  -5.3375  -4.8131  -4.5298  -3.9328  -3.4192  -3.1020  -2.4493
    -2.3914  -1.7973  -1.6227  -1.3816  -1.1879  -1.0361  -0.7404  -0.5239
    -0.4595  -0.3235  -0.0852   0.0179   0.1644   0.4575   0.4969   0.7980
     0.9873   1.1509   1.5288

          k =-0.5000 0.5000 0.0000 ( 21216 PWs)   bands (ev):

   -28.5699 -26.1469 -18.4050 -17.1989 -15.5067 -13.3159 -13.0201 -11.5057
   -10.9669  -9.7948  -9.6926  -8.9361  -8.4575  -7.7197  -6.6460  -6.1675
    -6.0864  -5.3695  -4.8387  -4.5499  -3.9891  -3.4400  -3.1679  -2.3004
    -2.2820  -1.8180  -1.5695  -1.4578  -1.2391  -0.7796  -0.7423  -0.6451
    -0.4031  -0.3072  -0.2030   0.0203   0.2367   0.3673   0.4833   0.7734
     1.1969   1.3367   1.4447

     the Fermi energy is     0.0459 ev

!    total energy              =    -275.45407355 Ry
     Harris-Foulkes estimate   =    -275.45407390 Ry
     estimated scf accuracy    <       0.00000042 Ry

     The total energy is the sum of the following terms:

     one-electron contribution =    -184.65010900 Ry
     hartree contribution      =     108.97234400 Ry
     xc contribution           =    -100.91753485 Ry
     ewald contribution        =       7.45814448 Ry
     one-center paw contrib.   =    -106.31606366 Ry
     smearing contrib. (-TS)   =      -0.00085452 Ry

     convergence has been achieved in  21 iterations

     negative rho (up, down):  7.863E-07 0.000E+00

     Forces acting on atoms (cartesian axes, Ry/au):

     atom    1 type  1   force =     0.22270864    0.87709498    0.15884193
     atom    2 type  1   force =    -0.27579403   -0.69511581   -0.03111943
     atom    3 type  2   force =    -0.24565501    0.00844731   -0.02035958
     atom    4 type  3   force =    -0.47362202   -0.11448214   -0.70125477
     atom    5 type  3   force =    -0.19809397    0.33676158    0.02063060
     atom    6 type  4   force =    -0.51648669    0.03447268   -2.78243708
     atom    7 type  4   force =    -0.54464349    0.23815228    0.19158619
     atom    8 type  4   force =     0.22018518    0.49836859    0.13597658
     atom    9 type  4   force =     5.32050864    6.19175665   -0.18562735
     atom   10 type  4   force =     1.00710316   -0.49174189    0.69939928
     atom   11 type  4   force =    -0.90818871    0.13664603   -0.94361197
     atom   12 type  4   force =     0.41379225   -0.36592557   -0.29293928
     atom   13 type  5   force =     0.23178285   -0.26094413   -0.05900409
     atom   14 type  5   force =    -0.41323117    0.39320149    0.24862752
     atom   15 type  5   force =    -0.11073873   -0.11550451    0.08810411
     atom   16 type  5   force =     0.10034483   -0.05559962   -0.00108768
     atom   17 type  5   force =     0.00968602    0.12194077   -0.06622953
     atom   18 type  5   force =     0.00173829    0.00448796    0.05879849
     atom   19 type  5   force =     0.05121037    0.05228298    0.01997144
     atom   20 type  5   force =    -0.08410587    0.35039994    0.11195957
     atom   21 type  5   force =     0.61358243    0.19929456    0.05219325
     atom   22 type  5   force =    -0.02814280    0.00792840   -0.00648765
     atom   23 type  5   force =     0.00714865   -0.02271025   -0.01121737
     atom   24 type  5   force =     0.34124624    0.07139096    0.16852135
     atom   25 type  5   force =    -0.07560974    0.03131535   -0.02896134
     atom   26 type  5   force =     0.00629733   -0.01772925    0.07054893
     atom   27 type  5   force =    -0.03068623   -0.02975199    0.03327489
     atom   28 type  5   force =    -0.01133817   -0.11076086    0.06955953
     atom   29 type  5   force =    -5.36238208   -6.47712486    0.08204009
     atom   30 type  5   force =     0.50979770   -0.00559861    2.72055344
     atom   31 type  5   force =    -0.06414560   -0.52034538   -0.12814669
     atom   32 type  5   force =     0.14376282    0.08186730   -0.30192944
     atom   33 type  5   force =     0.13887175    0.09768455   -0.16865881
     atom   34 type  5   force =    -0.20395199   -0.07937546    0.27826721
     atom   35 type  5   force =    -0.12545434   -0.08479340   -0.21609849
     atom   36 type  5   force =     0.69488460   -0.09680949   -0.66120899
     atom   37 type  5   force =     0.23040854    0.13175664   -0.03825905
     atom   38 type  5   force =    -0.03869700    0.01225371    0.06313177
     atom   39 type  5   force =     0.02655297   -0.02016741    0.35192957
     atom   40 type  5   force =     0.09949597    0.23868931    0.60378326
     atom   41 type  5   force =    -0.09297399    0.10654383   -0.02788410
     atom   42 type  5   force =     0.00078220   -0.10980982   -0.13633491
     atom   43 type  5   force =    -0.54604067   -0.44501634    0.65485823
     atom   44 type  5   force =    -0.04190917   -0.10343107   -0.07369963

     Total force =    12.827412     Total SCF correction =     0.000702


     Computing stress (Cartesian axis) and pressure


     negative rho (up, down):  7.863E-07 0.000E+00
          total   stress  (Ry/bohr**3)                   (kbar)     P=  486.61
   0.00284644   0.00117420   0.00051083        418.73    172.73     75.15
   0.00117420   0.00443092   0.00030571        172.73    651.81     44.97
   0.00051083   0.00030571   0.00264629         75.15     44.97    389.28


     BFGS Geometry Optimization

     number of scf cycles    =   1
     number of bfgs steps    =   0

     enthalpy new            =    -275.4540735520 Ry

     new trust radius        =       0.5000000000 bohr
     new conv_thr            =       0.0000010000 Ry

     new unit-cell volume =   3615.91833 a.u.^3 (   535.82381 Ang^3 )
     density =      1.16963 g/cm^3

CELL_PARAMETERS (angstrom)
   8.116678062   0.014107243   0.006137322
   0.014107243   8.135714482   0.003672905
   0.006137322   0.003672905   8.114273318

ATOMIC_POSITIONS (angstrom)
K        5.631528380   3.802269201   2.259109714
K        3.867452520   1.534754154   6.046877049
Ba       5.748193829   5.045366120   4.950429502
Al       3.391245930   3.107379909   5.073575851
Al       1.952965421   6.791259264   5.678799869
B        1.349509385   7.079555230   2.162825534
B        3.140534304   3.955627391   6.740329372
B        6.743715913   6.365094907   5.383234728
B        2.998610890   5.396833898   5.270743122
B        5.823562457   2.154389661   2.472047640
B        5.154616110   2.800138813   1.711659236
B        3.998951784   5.986981634   1.039367819
H        6.375677965   3.717737674   4.342227836
H        3.373964843   6.578109869   1.431639238
H        1.159922742   5.736841164   6.140743027
H        5.680887574   7.301236764   5.370542485
H        1.133760212   2.214666323   3.095880075
H        5.063050460   2.537290782   3.935955943
H        7.107440516   5.268872611   2.316392749
H        4.021138364   4.625249436   5.983471869
H        4.788013918   3.766714980   6.431649119
H        7.232307970   0.906631870   7.153376760
H        3.849446583   5.779660376   3.746401098
H        5.075976283   1.757092923   6.628676703
H        7.228537743   3.237454637   4.409252004
H        1.262562652   6.427084154   3.899617948
H        4.431060013   7.062365810   7.256564551
H        1.194009961   3.491230052   2.343382422
H        2.384359823   4.660661754   5.288281497
H        1.493116301   7.060708903   2.965315467
H        5.324552782   1.364019711   2.540307213
H        3.273125794   2.085464666   0.934589013
H        4.115200685   3.987752523   5.719111784
H        2.965015620   1.943897033   1.455349119
H        4.813384924   1.331635362   1.794629632
H        4.372476191   3.228676454   6.129043229
H        3.112499237   6.161690524   5.315815136
H        6.895283066   1.824849120   1.505811497
H        5.165233596   1.443428110   3.179160775
H        4.146018675   3.817904229   6.862652744
H        4.209354872   2.282445092   3.029832297
H        4.722525926   3.850255817   4.989164611
H        4.016678010   3.037728477   6.532920941
H        4.593803118   0.961822550   1.173054079



     Writing output data file 00_K2BaAl2B7H32_Monster.save
     NEW-OLD atomic charge density approx. for the potential

     negative rho (up, down):  2.073E-06 0.000E+00
     extrapolated charge   72.03584, renormalised to   71.00000

     total cpu time spent up to now is     1837.8 secs

     Self-consistent Calculation

     iteration #  1     ecut=    50.00 Ry     beta=0.70
     Davidson diagonalization with overlap
     c_bands:  1 eigenvalues not converged
     c_bands:  1 eigenvalues not converged
     c_bands:  1 eigenvalues not converged
     ethr =  1.00E-06,  avg # of iterations = 18.5

     total cpu time spent up to now is     1927.0 secs

     total energy              =    -278.41492414 Ry
     Harris-Foulkes estimate   =    -277.56258328 Ry
     estimated scf accuracy    <       1.11458110 Ry

     iteration #  2     ecut=    50.00 Ry     beta=0.70
     Davidson diagonalization with overlap
     ethr =  1.57E-03,  avg # of iterations =  5.0

     total cpu time spent up to now is     1964.5 secs

     total energy              =    -277.89314254 Ry
     Harris-Foulkes estimate   =    -281.39337482 Ry
     estimated scf accuracy    <      15.40080090 Ry

     iteration #  3     ecut=    50.00 Ry     beta=0.70
     Davidson diagonalization with overlap
     ethr =  1.57E-03,  avg # of iterations =  5.8

     total cpu time spent up to now is     1999.5 secs

     total energy              =    -278.97490716 Ry
     Harris-Foulkes estimate   =    -279.52247576 Ry
     estimated scf accuracy    <       2.53219250 Ry

     iteration #  4     ecut=    50.00 Ry     beta=0.70
     Davidson diagonalization with overlap
     ethr =  1.57E-03,  avg # of iterations =  3.4

     total cpu time spent up to now is     2024.0 secs

     total energy              =    -279.13266462 Ry
     Harris-Foulkes estimate   =    -279.32722410 Ry
     estimated scf accuracy    <       1.17131525 Ry

     iteration #  5     ecut=    50.00 Ry     beta=0.70
     Davidson diagonalization with overlap
     ethr =  1.57E-03,  avg # of iterations =  1.1

     total cpu time spent up to now is     2046.4 secs

     total energy              =    -279.18579031 Ry
     Harris-Foulkes estimate   =    -279.30354997 Ry
     estimated scf accuracy    <       0.71892520 Ry

     iteration #  6     ecut=    50.00 Ry     beta=0.70
     Davidson diagonalization with overlap
     ethr =  1.01E-03,  avg # of iterations =  1.0

     total cpu time spent up to now is     2068.2 secs

     total energy              =    -279.22315044 Ry
     Harris-Foulkes estimate   =    -279.24840211 Ry
     estimated scf accuracy    <       0.09128053 Ry

     iteration #  7     ecut=    50.00 Ry     beta=0.70
     Davidson diagonalization with overlap
     ethr =  1.29E-04,  avg # of iterations =  3.5

     negative rho (up, down):  5.394E-07 0.000E+00

     total cpu time spent up to now is     2092.0 secs

     total energy              =    -279.23099687 Ry
     Harris-Foulkes estimate   =    -279.24429936 Ry
     estimated scf accuracy    <       0.07477966 Ry

     iteration #  8     ecut=    50.00 Ry     beta=0.70
     Davidson diagonalization with overlap
     ethr =  1.05E-04,  avg # of iterations =  1.1

     negative rho (up, down):  1.811E-06 0.000E+00

     total cpu time spent up to now is     2114.5 secs

     total energy              =    -279.23578149 Ry
     Harris-Foulkes estimate   =    -279.24152471 Ry
     estimated scf accuracy    <       0.02885533 Ry

     iteration #  9     ecut=    50.00 Ry     beta=0.70
     Davidson diagonalization with overlap
     ethr =  4.06E-05,  avg # of iterations =  4.0

     negative rho (up, down):  2.161E-06 0.000E+00

     total cpu time spent up to now is     2138.7 secs

     total energy              =    -279.23808893 Ry
     Harris-Foulkes estimate   =    -279.24019425 Ry
     estimated scf accuracy    <       0.00972878 Ry

     iteration # 10     ecut=    50.00 Ry     beta=0.70
     Davidson diagonalization with overlap
     ethr =  1.37E-05,  avg # of iterations =  3.0

     negative rho (up, down):  2.017E-06 0.000E+00

     total cpu time spent up to now is     2163.2 secs

     total energy              =    -279.23900861 Ry
     Harris-Foulkes estimate   =    -279.23958428 Ry
     estimated scf accuracy    <       0.00218782 Ry

     iteration # 11     ecut=    50.00 Ry     beta=0.70
     Davidson diagonalization with overlap
     ethr =  3.08E-06,  avg # of iterations =  5.0

     negative rho (up, down):  2.010E-06 0.000E+00

     total cpu time spent up to now is     2189.5 secs

     total energy              =    -279.23922932 Ry
     Harris-Foulkes estimate   =    -279.23946832 Ry
     estimated scf accuracy    <       0.00098084 Ry

     iteration # 12     ecut=    50.00 Ry     beta=0.70
     Davidson diagonalization with overlap
     ethr =  1.38E-06,  avg # of iterations =  2.0

     negative rho (up, down):  1.849E-06 0.000E+00

     total cpu time spent up to now is     2212.2 secs

     total energy              =    -279.23935291 Ry
     Harris-Foulkes estimate   =    -279.23937339 Ry
     estimated scf accuracy    <       0.00006928 Ry

     iteration # 13     ecut=    50.00 Ry     beta=0.70
     Davidson diagonalization with overlap
     ethr =  9.76E-08,  avg # of iterations =  3.4

     negative rho (up, down):  1.845E-06 0.000E+00

     total cpu time spent up to now is     2240.5 secs

     total energy              =    -279.23935574 Ry
     Harris-Foulkes estimate   =    -279.23939083 Ry
     estimated scf accuracy    <       0.00013524 Ry

     iteration # 14     ecut=    50.00 Ry     beta=0.70
     Davidson diagonalization with overlap
     ethr =  9.76E-08,  avg # of iterations =  2.1

     negative rho (up, down):  1.820E-06 0.000E+00

     total cpu time spent up to now is     2264.4 secs

     total energy              =    -279.23936182 Ry
     Harris-Foulkes estimate   =    -279.23938685 Ry
     estimated scf accuracy    <       0.00017081 Ry

     iteration # 15     ecut=    50.00 Ry     beta=0.70
     Davidson diagonalization with overlap
     ethr =  9.76E-08,  avg # of iterations =  1.0

     negative rho (up, down):  1.776E-06 0.000E+00

     total cpu time spent up to now is     2286.6 secs

     total energy              =    -279.23937273 Ry
     Harris-Foulkes estimate   =    -279.23937835 Ry
     estimated scf accuracy    <       0.00003809 Ry

     iteration # 16     ecut=    50.00 Ry     beta=0.70
     Davidson diagonalization with overlap
     ethr =  5.36E-08,  avg # of iterations =  1.0

     negative rho (up, down):  1.776E-06 0.000E+00

     total cpu time spent up to now is     2308.4 secs

     total energy              =    -279.23937439 Ry
     Harris-Foulkes estimate   =    -279.23937775 Ry
     estimated scf accuracy    <       0.00001160 Ry

     iteration # 17     ecut=    50.00 Ry     beta=0.70
     Davidson diagonalization with overlap
     ethr =  1.63E-08,  avg # of iterations =  3.1

     negative rho (up, down):  1.738E-06 0.000E+00

     total cpu time spent up to now is     2333.0 secs

     total energy              =    -279.23937277 Ry
     Harris-Foulkes estimate   =    -279.23938028 Ry
     estimated scf accuracy    <       0.00005665 Ry

     iteration # 18     ecut=    50.00 Ry     beta=0.70
     Davidson diagonalization with overlap
     ethr =  1.63E-08,  avg # of iterations =  2.1

     negative rho (up, down):  1.724E-06 0.000E+00

     total cpu time spent up to now is     2356.7 secs

     total energy              =    -279.23937606 Ry
     Harris-Foulkes estimate   =    -279.23937681 Ry
     estimated scf accuracy    <       0.00000323 Ry

     iteration # 19     ecut=    50.00 Ry     beta=0.70
     Davidson diagonalization with overlap
     ethr =  4.55E-09,  avg # of iterations =  2.5

     negative rho (up, down):  1.705E-06 0.000E+00

     total cpu time spent up to now is     2379.5 secs

     End of self-consistent calculation

          k = 0.0000 0.0000 0.0000 ( 21247 PWs)   bands (ev):

   -28.3613 -24.8824 -18.0543 -16.8551 -15.2244 -13.2791 -12.9012 -11.9491
   -10.7258  -9.6953  -9.0003  -8.7766  -8.3706  -7.5737  -6.6628  -6.1549
    -5.8398  -5.2633  -4.8684  -4.2599  -3.8359  -3.6215  -3.3097  -2.5806
    -2.1747  -2.1307  -1.5879  -1.4645  -1.1771  -1.0377  -0.8835  -0.5189
    -0.4009  -0.0795  -0.0313   0.1242   0.1881   0.2322   0.5928   0.8469
     1.1796   1.3372   1.5125

          k = 0.0004 0.0002-0.4980 ( 21362 PWs)   bands (ev):

   -28.3613 -24.8825 -18.0544 -16.8553 -15.2235 -13.2789 -12.9009 -11.9492
   -10.7297  -9.6720  -9.0719  -8.7886  -8.3521  -7.4846  -6.6684  -6.1750
    -5.8327  -5.3097  -4.7925  -4.2572  -3.9030  -3.6030  -3.3124  -2.5945
    -2.3067  -1.8611  -1.7767  -1.3541  -1.1464  -1.0523  -0.9034  -0.6075
    -0.3052  -0.1978  -0.0478   0.0180   0.2318   0.2764   0.6262   0.8867
     1.0154   1.2927   1.5483

          k = 0.0012-0.4965-0.4978 ( 21216 PWs)   bands (ev):

   -28.3612 -24.8826 -18.0545 -16.8542 -15.2289 -13.2808 -12.9012 -11.9354
   -10.7295  -9.6606  -9.0778  -8.7879  -8.3697  -7.4845  -6.6674  -6.1428
    -5.8555  -5.3445  -4.7826  -4.2602  -3.9059  -3.6359  -3.3067  -2.4160
    -2.3630  -1.9068  -1.7111  -1.3209  -1.2144  -1.0132  -0.8022  -0.6854
    -0.3222  -0.2028  -0.1661  -0.0798   0.1659   0.3273   0.6662   0.9651
     1.1756   1.4657   1.5157

          k =-0.4967-0.4956-0.4974 ( 21368 PWs)   bands (ev):

   -28.3612 -24.8827 -18.0546 -16.8548 -15.2318 -13.2698 -12.8942 -11.9452
   -10.7257  -9.6616  -9.1003  -8.7901  -8.3690  -7.4926  -6.6758  -6.1434
    -5.8280  -5.2725  -4.7531  -4.5406  -3.9017  -3.4846  -3.2486  -2.3729
    -2.3548  -1.8451  -1.6799  -1.4828  -1.3261  -0.8285  -0.7160  -0.5115
    -0.4338  -0.3162  -0.1607   0.0332   0.0870   0.3192   0.5972   0.8413
     1.2329   1.2908   1.5721

          k =-0.4979 0.0009 0.0004 ( 21362 PWs)   bands (ev):

   -28.3613 -24.8825 -18.0543 -16.8557 -15.2273 -13.2683 -12.8940 -11.9589
   -10.7225  -9.6949  -9.0284  -8.7738  -8.3711  -7.5820  -6.6699  -6.1585
    -5.8100  -5.1939  -4.8251  -4.5400  -3.8527  -3.4418  -3.2589  -2.6070
    -2.1961  -1.9751  -1.5885  -1.4466  -1.1472  -1.0379  -0.8832  -0.5720
    -0.4408  -0.2448  -0.1389   0.0989   0.3436   0.4435   0.5661   0.9241
     1.0489   1.1312   1.4159

          k = 0.0009-0.4967 0.0002 ( 21362 PWs)   bands (ev):

   -28.3613 -24.8826 -18.0545 -16.8540 -15.2298 -13.2810 -12.9015 -11.9353
   -10.7260  -9.6805  -9.0128  -8.8026  -8.3480  -7.5856  -6.6517  -6.1104
    -5.8660  -5.3049  -4.8523  -4.2715  -3.9294  -3.6426  -3.3101  -2.2744
    -2.1879  -2.1205  -1.7674  -1.3826  -1.1778  -0.9040  -0.8008  -0.6141
    -0.3608  -0.2597  -0.1932   0.0125   0.2584   0.3835   0.4835   0.8310
     1.3156   1.3936   1.6185

          k =-0.4983 0.0006 0.4984 ( 21216 PWs)   bands (ev):

   -28.3613 -24.8825 -18.0543 -16.8559 -15.2264 -13.2682 -12.8936 -11.9588
   -10.7261  -9.6714  -9.0955  -8.7920  -8.3501  -7.4937  -6.6740  -6.1766
    -5.8105  -5.2314  -4.7681  -4.5370  -3.9051  -3.4442  -3.2256  -2.5386
    -2.3636  -1.7313  -1.7176  -1.4671  -1.2612  -1.0175  -0.7046  -0.5590
    -0.4601  -0.3323  -0.0549  -0.0079   0.1567   0.4963   0.5459   0.8163
     1.0705   1.1425   1.5473

          k =-0.4988 0.4976 0.0002 ( 21216 PWs)   bands (ev):

   -28.3612 -24.8825 -18.0544 -16.8546 -15.2326 -13.2700 -12.8945 -11.9451
   -10.7222  -9.6816  -9.0388  -8.7996  -8.3495  -7.5927  -6.6601  -6.1134
    -5.8329  -5.2347  -4.8064  -4.5586  -3.9418  -3.4730  -3.2711  -2.2994
    -2.2443  -1.9749  -1.6903  -1.4322  -1.2399  -0.7918  -0.7611  -0.6899
    -0.3148  -0.2631  -0.2014   0.0005   0.2345   0.4415   0.4944   0.7686
     1.1712   1.3565   1.4406

     the Fermi energy is     0.0332 ev

!    total energy              =    -279.23937599 Ry
     Harris-Foulkes estimate   =    -279.23937661 Ry
     estimated scf accuracy    <       0.00000072 Ry

     The total energy is the sum of the following terms:

     one-electron contribution =    -179.46871162 Ry
     hartree contribution      =     106.14243621 Ry
     xc contribution           =    -100.14764537 Ry
     ewald contribution        =       0.43455991 Ry
     one-center paw contrib.   =    -106.19918007 Ry
     smearing contrib. (-TS)   =      -0.00083504 Ry

     convergence has been achieved in  19 iterations

     negative rho (up, down):  1.705E-06 0.000E+00

     Forces acting on atoms (cartesian axes, Ry/au):

     atom    1 type  1   force =     0.21929990    0.87178406    0.16096954
     atom    2 type  1   force =    -0.27367103   -0.66615160   -0.03354622
     atom    3 type  2   force =    -0.20121385    0.02976450   -0.00020099
     atom    4 type  3   force =    -0.41766658   -0.08750432   -0.61292342
     atom    5 type  3   force =    -0.19830884    0.32324081    0.02979772
     atom    6 type  4   force =    -0.20907741   -0.00086613   -1.07435143
     atom    7 type  4   force =    -0.45479333    0.17630663    0.16416508
     atom    8 type  4   force =     0.18821687    0.44960935    0.12114229
     atom    9 type  4   force =     0.18488447   -0.97416922   -0.20725005
     atom   10 type  4   force =     0.78885942   -0.33407626    0.47151315
     atom   11 type  4   force =    -0.72093483   -0.08763386   -0.70260354
     atom   12 type  4   force =     0.32062019   -0.27463017   -0.23728142
     atom   13 type  5   force =     0.22859627   -0.24703892   -0.05123200
     atom   14 type  5   force =    -0.32353141    0.30276327    0.19162352
     atom   15 type  5   force =    -0.09712643   -0.09473192    0.08539728
     atom   16 type  5   force =     0.09390960   -0.05422462   -0.00236670
     atom   17 type  5   force =     0.00962025    0.12304096   -0.06551580
     atom   18 type  5   force =     0.01772111   -0.00061750    0.04449348
     atom   19 type  5   force =     0.05763459    0.05484252    0.01907883
     atom   20 type  5   force =    -0.08133258    0.33765382    0.10173295
     atom   21 type  5   force =     0.53655357    0.18127421    0.05855703
     atom   22 type  5   force =    -0.02830271    0.00728995   -0.00831631
     atom   23 type  5   force =    -0.00877478   -0.01821740    0.01854008
     atom   24 type  5   force =     0.33197532    0.07256703    0.15941996
     atom   25 type  5   force =    -0.07680103    0.03189411   -0.02961435
     atom   26 type  5   force =     0.00996660   -0.01106653    0.06378602
     atom   27 type  5   force =    -0.02901525   -0.03021119    0.03567840
     atom   28 type  5   force =    -0.01240699   -0.11118389    0.06876699
     atom   29 type  5   force =    -0.28089512   -0.27008662   -0.04673125
     atom   30 type  5   force =     0.19838705    0.02034703    1.01641058
     atom   31 type  5   force =    -0.06347813   -0.46741222   -0.11180119
     atom   32 type  5   force =     0.10463221    0.06405200   -0.23456386
     atom   33 type  5   force =     0.10619423    0.07662796   -0.14561925
     atom   34 type  5   force =    -0.16463134   -0.06311013    0.21138918
     atom   35 type  5   force =    -0.11720716   -0.07690920   -0.20089454
     atom   36 type  5   force =     0.51078922   -0.17050788   -0.43018460
     atom   37 type  5   force =     0.26925690    1.11244593    0.05019838
     atom   38 type  5   force =    -0.03642871    0.00940830    0.07307514
     atom   39 type  5   force =     0.03364228   -0.01426199    0.30881468
     atom   40 type  5   force =     0.10017523    0.20615322    0.52682904
     atom   41 type  5   force =    -0.09617254    0.10384252   -0.02884523
     atom   42 type  5   force =    -0.00825171   -0.10783316   -0.13903324
     atom   43 type  5   force =    -0.37366113   -0.30256587    0.45208871
     atom   44 type  5   force =    -0.03725237   -0.08989758   -0.07059266

     Total force =     3.539043     Total SCF correction =     0.001018


     Computing stress (Cartesian axis) and pressure


     negative rho (up, down):  1.705E-06 0.000E+00
          total   stress  (Ry/bohr**3)                   (kbar)     P=  360.79
   0.00193982   0.00037647   0.00047530        285.36     55.38     69.92
   0.00037647   0.00352097   0.00041420         55.38    517.95     60.93
   0.00047530   0.00041420   0.00189699         69.92     60.93    279.06


     number of scf cycles    =   2
     number of bfgs steps    =   1

     enthalpy old            =    -275.4540735520 Ry
     enthalpy new            =    -279.2393759934 Ry

     CASE: enthalpy_new < enthalpy_old

     new trust radius        =       0.8000000000 bohr
     new conv_thr            =       0.0000010000 Ry

     new unit-cell volume =   4090.21346 a.u.^3 (   606.10709 Ang^3 )
     density =      1.03400 g/cm^3

CELL_PARAMETERS (angstrom)
   8.387162558   0.065245922   0.072288298
   0.065521459   8.626222240   0.061319225
   0.072380522   0.061445694   8.379032791

ATOMIC_POSITIONS (angstrom)
K        5.947832583   4.423077934   2.469398601
K        3.949166918   1.433624955   6.270737563
Ba       5.935696810   5.431064980   5.193491355
Al       3.404783463   3.314304216   5.055733334
Al       2.033082042   7.378172152   5.939317780
B        1.374245100   7.525667986   1.891826195
B        3.154344992   4.328637749   7.074370580
B        7.125048288   7.004682841   5.706123994
B        3.229803422   5.383174989   5.424435904
B        6.349111205   2.212302604   2.794350292
B        5.083012469   2.973679270   1.561701431
B        4.297151910   6.273690915   1.058893303
H        6.731896833   3.916580350   4.542603061
H        3.418908680   7.122750819   1.624048053
H        1.247718992   6.096399276   6.422533387
H        5.994744509   7.793783718   5.642617619
H        1.214416749   2.424879825   3.197374750
H        5.286471572   2.749413832   4.140143681
H        7.418041131   5.668506109   2.494358828
H        4.203563984   5.102813885   6.282976969
H        5.226768603   4.141653049   6.731412959
H        7.526375559   1.059464137   7.448570547
H        4.040964187   6.171361570   3.947595521
H        5.436178403   1.971342806   6.959996574
H        7.496432501   3.520653532   4.623219361
H        1.380522122   6.845872552   4.106471928
H        4.670943100   7.555160236   7.592330507
H        1.269845905   3.682530498   2.479716028
H        2.439503736   4.901006614   5.493511912
H        1.689092774   7.528226513   3.504608674
H        5.505039913   1.314740372   2.632250413
H        3.441642236   2.262648533   0.918556299
H        4.363558848   4.323882582   5.912908289
H        3.026193949   2.065223799   1.619433515
H        4.951394016   1.423470042   1.825219157
H        4.778600124   3.427823466   6.226728667
H        3.403990538   7.026497087   5.581319404
H        7.135156452   1.991943396   1.651237336
H        5.385938780   1.580431082   3.451444736
H        4.404292711   4.204465381   7.346638497
H        4.352430461   2.507555376   3.168002097
H        4.940488067   4.104505769   5.164589585
H        4.082347677   3.174463834   6.967962016
H        4.747736735   1.021228391   1.228354140



     Writing output data file 00_K2BaAl2B7H32_Monster.save
     NEW-OLD atomic charge density approx. for the potential

     negative rho (up, down):  1.173E-02 0.000E+00
     extrapolated charge   79.22615, renormalised to   71.00000

     total cpu time spent up to now is     3204.9 secs

     Self-consistent Calculation

     iteration #  1     ecut=    50.00 Ry     beta=0.70
     Davidson diagonalization with overlap
     c_bands:  1 eigenvalues not converged
     c_bands:  2 eigenvalues not converged
     ethr =  1.00E-06,  avg # of iterations = 16.8

     negative rho (up, down):  6.296E-04 0.000E+00

     total cpu time spent up to now is     3290.5 secs

     total energy              =    -255.70185856 Ry
     Harris-Foulkes estimate   =    -274.57394466 Ry
     estimated scf accuracy    <      29.17925569 Ry

     iteration #  2     ecut=    50.00 Ry     beta=0.70
     Davidson diagonalization with overlap
     ethr =  1.00E-02,  avg # of iterations =  8.1

     negative rho (up, down):  1.929E-04 0.000E+00

     total cpu time spent up to now is     3347.7 secs

     total energy              =    -267.98331411 Ry
     Harris-Foulkes estimate   =    -343.28031728 Ry
     estimated scf accuracy    <     261.07853695 Ry

     iteration #  3     ecut=    50.00 Ry     beta=0.70
     Davidson diagonalization with overlap
     ethr =  1.00E-02,  avg # of iterations =  5.9

     negative rho (up, down):  2.953E-05 0.000E+00

     total cpu time spent up to now is     3388.6 secs

     total energy              =    -283.33561904 Ry
     Harris-Foulkes estimate   =    -292.96776142 Ry
     estimated scf accuracy    <      42.60562735 Ry

     iteration #  4     ecut=    50.00 Ry     beta=0.70
     Davidson diagonalization with overlap
     ethr =  1.00E-02,  avg # of iterations =  3.9

     negative rho (up, down):  2.142E-05 0.000E+00

     total cpu time spent up to now is     3415.8 secs

     total energy              =    -284.33655614 Ry
     Harris-Foulkes estimate   =    -286.78404636 Ry
     estimated scf accuracy    <      21.57615886 Ry

     iteration #  5     ecut=    50.00 Ry     beta=0.70
     Davidson diagonalization with overlap
     ethr =  1.00E-02,  avg # of iterations =  2.4

     negative rho (up, down):  8.750E-06 0.000E+00

     total cpu time spent up to now is     3439.1 secs

     total energy              =    -284.21892699 Ry
     Harris-Foulkes estimate   =    -285.16787759 Ry
     estimated scf accuracy    <       9.51129055 Ry

     iteration #  6     ecut=    50.00 Ry     beta=0.70
     Davidson diagonalization with overlap
     ethr =  1.00E-02,  avg # of iterations =  1.0

     negative rho (up, down):  5.938E-06 0.000E+00

     total cpu time spent up to now is     3460.8 secs

     total energy              =    -283.75383662 Ry
     Harris-Foulkes estimate   =    -284.41628832 Ry
     estimated scf accuracy    <       7.28760307 Ry

     iteration #  7     ecut=    50.00 Ry     beta=0.70
     Davidson diagonalization with overlap
     ethr =  1.00E-02,  avg # of iterations =  1.0

     negative rho (up, down):  4.488E-07 0.000E+00

     total cpu time spent up to now is     3482.8 secs

     total energy              =    -283.23202735 Ry
     Harris-Foulkes estimate   =    -283.95989967 Ry
     estimated scf accuracy    <       4.31542862 Ry

     iteration #  8     ecut=    50.00 Ry     beta=0.70
     Davidson diagonalization with overlap
     ethr =  6.08E-03,  avg # of iterations =  3.6

     total cpu time spent up to now is     3508.4 secs

     total energy              =    -283.53317805 Ry
     Harris-Foulkes estimate   =    -283.83575558 Ry
     estimated scf accuracy    <       2.01856279 Ry

     iteration #  9     ecut=    50.00 Ry     beta=0.70
     Davidson diagonalization with overlap
     ethr =  2.84E-03,  avg # of iterations =  1.0

     total cpu time spent up to now is     3530.2 secs

     total energy              =    -283.54341638 Ry
     Harris-Foulkes estimate   =    -283.60879058 Ry
     estimated scf accuracy    <       0.95233834 Ry

     iteration # 10     ecut=    50.00 Ry     beta=0.70
     Davidson diagonalization with overlap
     ethr =  1.34E-03,  avg # of iterations =  1.0

     total cpu time spent up to now is     3552.6 secs

     total energy              =    -283.28583434 Ry
     Harris-Foulkes estimate   =    -283.55714840 Ry
     estimated scf accuracy    <       0.75855252 Ry

     iteration # 11     ecut=    50.00 Ry     beta=0.70
     Davidson diagonalization with overlap
     ethr =  1.07E-03,  avg # of iterations =  5.8

     total cpu time spent up to now is     3583.4 secs

     total energy              =    -283.61868031 Ry
     Harris-Foulkes estimate   =    -283.61899214 Ry
     estimated scf accuracy    <       3.51844432 Ry

     iteration # 12     ecut=    50.00 Ry     beta=0.70
     Davidson diagonalization with overlap
     ethr =  1.07E-03,  avg # of iterations =  4.0

     total cpu time spent up to now is     3607.9 secs

     total energy              =    -283.53029576 Ry
     Harris-Foulkes estimate   =    -283.73901962 Ry
     estimated scf accuracy    <       1.83296148 Ry

     iteration # 13     ecut=    50.00 Ry     beta=0.70
     Davidson diagonalization with overlap
     ethr =  1.07E-03,  avg # of iterations =  1.8

     total cpu time spent up to now is     3630.1 secs

     total energy              =    -283.51995066 Ry
     Harris-Foulkes estimate   =    -283.58137116 Ry
     estimated scf accuracy    <       1.81259672 Ry

     iteration # 14     ecut=    50.00 Ry     beta=0.70
     Davidson diagonalization with overlap
     ethr =  1.07E-03,  avg # of iterations =  1.0

     total cpu time spent up to now is     3651.7 secs

     total energy              =    -283.43206375 Ry
     Harris-Foulkes estimate   =    -283.53853286 Ry
     estimated scf accuracy    <       1.15274962 Ry

     iteration # 15     ecut=    50.00 Ry     beta=0.70
     Davidson diagonalization with overlap
     ethr =  1.07E-03,  avg # of iterations =  1.9

     total cpu time spent up to now is     3674.7 secs

     total energy              =    -283.43782056 Ry
     Harris-Foulkes estimate   =    -283.46365070 Ry
     estimated scf accuracy    <       0.55676451 Ry

     iteration # 16     ecut=    50.00 Ry     beta=0.70
     Davidson diagonalization with overlap
     ethr =  7.84E-04,  avg # of iterations =  1.8

     total cpu time spent up to now is     3696.8 secs

     total energy              =    -283.43924216 Ry
     Harris-Foulkes estimate   =    -283.45153924 Ry
     estimated scf accuracy    <       0.25169607 Ry

     iteration # 17     ecut=    50.00 Ry     beta=0.70
     Davidson diagonalization with overlap
     ethr =  3.55E-04,  avg # of iterations =  1.4

     total cpu time spent up to now is     3719.1 secs

     total energy              =    -283.42318391 Ry
     Harris-Foulkes estimate   =    -283.44933725 Ry
     estimated scf accuracy    <       0.18254988 Ry

     iteration # 18     ecut=    50.00 Ry     beta=0.70
     Davidson diagonalization with overlap
     ethr =  2.57E-04,  avg # of iterations =  1.4

     total cpu time spent up to now is     3741.1 secs

     total energy              =    -283.43472037 Ry
     Harris-Foulkes estimate   =    -283.44141700 Ry
     estimated scf accuracy    <       0.02737182 Ry

     iteration # 19     ecut=    50.00 Ry     beta=0.70
     Davidson diagonalization with overlap
     ethr =  3.86E-05,  avg # of iterations =  4.6

     total cpu time spent up to now is     3766.6 secs

     total energy              =    -283.43582121 Ry
     Harris-Foulkes estimate   =    -283.43821393 Ry
     estimated scf accuracy    <       0.00817329 Ry

     iteration # 20     ecut=    50.00 Ry     beta=0.70
     Davidson diagonalization with overlap
     ethr =  1.15E-05,  avg # of iterations =  6.9

     total cpu time spent up to now is     3798.8 secs

     total energy              =    -283.43484152 Ry
     Harris-Foulkes estimate   =    -283.44031986 Ry
     estimated scf accuracy    <       0.01979610 Ry

     iteration # 21     ecut=    50.00 Ry     beta=0.70
     Davidson diagonalization with overlap
     ethr =  1.15E-05,  avg # of iterations =  4.9

     total cpu time spent up to now is     3826.5 secs

     total energy              =    -283.43676448 Ry
     Harris-Foulkes estimate   =    -283.43768797 Ry
     estimated scf accuracy    <       0.00273587 Ry

     iteration # 22     ecut=    50.00 Ry     beta=0.70
     Davidson diagonalization with overlap
     ethr =  3.85E-06,  avg # of iterations =  4.6

     total cpu time spent up to now is     3852.6 secs

     total energy              =    -283.43698433 Ry
     Harris-Foulkes estimate   =    -283.43789301 Ry
     estimated scf accuracy    <       0.00566604 Ry

     iteration # 23     ecut=    50.00 Ry     beta=0.70
     Davidson diagonalization with overlap
     ethr =  3.85E-06,  avg # of iterations =  1.8

     total cpu time spent up to now is     3874.6 secs

     total energy              =    -283.43738981 Ry
     Harris-Foulkes estimate   =    -283.43745658 Ry
     estimated scf accuracy    <       0.00020113 Ry

     iteration # 24     ecut=    50.00 Ry     beta=0.70
     Davidson diagonalization with overlap
     ethr =  2.83E-07,  avg # of iterations =  3.6

     total cpu time spent up to now is     3902.3 secs

     total energy              =    -283.43741306 Ry
     Harris-Foulkes estimate   =    -283.43747295 Ry
     estimated scf accuracy    <       0.00023545 Ry

     iteration # 25     ecut=    50.00 Ry     beta=0.70
     Davidson diagonalization with overlap
     ethr =  2.83E-07,  avg # of iterations =  2.1

     total cpu time spent up to now is     3925.4 secs

     total energy              =    -283.43743361 Ry
     Harris-Foulkes estimate   =    -283.43745524 Ry
     estimated scf accuracy    <       0.00011536 Ry

     iteration # 26     ecut=    50.00 Ry     beta=0.70
     Davidson diagonalization with overlap
     ethr =  1.62E-07,  avg # of iterations =  1.1

     total cpu time spent up to now is     3947.3 secs

     total energy              =    -283.43744302 Ry
     Harris-Foulkes estimate   =    -283.43744667 Ry
     estimated scf accuracy    <       0.00001397 Ry

     iteration # 27     ecut=    50.00 Ry     beta=0.70
     Davidson diagonalization with overlap
     ethr =  1.97E-08,  avg # of iterations =  3.0

     total cpu time spent up to now is     3973.7 secs

     total energy              =    -283.43744442 Ry
     Harris-Foulkes estimate   =    -283.43744722 Ry
     estimated scf accuracy    <       0.00001247 Ry

     iteration # 28     ecut=    50.00 Ry     beta=0.70
     Davidson diagonalization with overlap
     ethr =  1.76E-08,  avg # of iterations =  2.0

     total cpu time spent up to now is     3996.1 secs

     total energy              =    -283.43744571 Ry
     Harris-Foulkes estimate   =    -283.43744606 Ry
     estimated scf accuracy    <       0.00000128 Ry

     iteration # 29     ecut=    50.00 Ry     beta=0.70
     Davidson diagonalization with overlap
     ethr =  1.80E-09,  avg # of iterations =  3.2

     total cpu time spent up to now is     4022.3 secs

     total energy              =    -283.43744583 Ry
     Harris-Foulkes estimate   =    -283.43744614 Ry
     estimated scf accuracy    <       0.00000171 Ry

     iteration # 30     ecut=    50.00 Ry     beta=0.70
     Davidson diagonalization with overlap
     ethr =  1.80E-09,  avg # of iterations =  2.0

     total cpu time spent up to now is     4044.5 secs

     End of self-consistent calculation

          k = 0.0000 0.0000 0.0000 ( 21247 PWs)   bands (ev):

   -27.9947 -19.2158 -15.0991 -14.5416 -13.7353 -13.0292 -11.8246  -9.4845
    -9.0511  -8.8048  -8.5588  -7.7489  -7.4146  -6.9991  -6.9210  -6.1648
    -5.7428  -5.1658  -5.0452  -4.6035  -4.3502  -3.9857  -3.4696  -3.3155
    -2.6183  -2.3010  -2.1297  -1.5529  -1.5403  -1.3030  -1.0448  -0.9656
    -0.7218  -0.5810  -0.1547  -0.0522   0.0206   0.0694   0.3536   0.6918
     0.8580   0.9882   1.1784

          k = 0.0041 0.0034-0.4824 ( 21362 PWs)   bands (ev):

   -27.9947 -19.2158 -15.1019 -14.5382 -13.7366 -13.0294 -11.8246  -9.3974
    -9.0767  -8.9132  -8.5780  -7.7499  -7.3478  -6.9991  -6.8704  -6.1785
    -5.6737  -5.3684  -4.9362  -4.6405  -4.3249  -4.0116  -3.5866  -3.2261
    -2.4621  -2.2507  -1.9698  -1.6391  -1.4775  -1.3958  -1.0910  -1.0315
    -0.8462  -0.5987  -0.1662  -0.0854  -0.0195   0.0484   0.3996   0.4393
     0.9291   1.0661   1.2566

          k = 0.0077-0.4651-0.4790 ( 21216 PWs)   bands (ev):

   -27.9947 -19.2158 -15.1023 -14.5362 -13.7385 -13.0291 -11.8301  -9.3934
    -9.0808  -8.8792  -8.6001  -7.7696  -7.3348  -7.0041  -6.8807  -6.1387
    -5.7335  -5.3615  -4.8676  -4.6625  -4.3065  -4.0025  -3.5156  -3.2309
    -2.4904  -2.2088  -2.0123  -1.8275  -1.4273  -1.3176  -1.0657  -1.0090
    -0.8789  -0.7412  -0.3764  -0.2023   0.0109   0.1815   0.3661   0.5567
     0.9388   1.0470   1.3208

          k =-0.4742-0.4615-0.4748 ( 21368 PWs)   bands (ev):

   -27.9947 -19.2161 -15.1016 -14.5361 -13.7392 -13.0291 -11.8212  -9.4021
    -9.1224  -8.8572  -8.5981  -7.7661  -7.2987  -7.0480  -6.8810  -6.1265
    -5.7114  -5.3624  -4.8980  -4.7122  -4.3232  -3.9444  -3.5431  -2.9234
    -2.4343  -2.3747  -2.0119  -1.8349  -1.5578  -1.3481  -1.1769  -1.0883
    -0.8289  -0.6935  -0.2003  -0.1523  -0.1081   0.1580   0.3698   0.7065
     0.8896   0.9666   1.2486

          k =-0.4819 0.0036 0.0041 ( 21362 PWs)   bands (ev):

   -27.9947 -19.2161 -15.0985 -14.5415 -13.7359 -13.0292 -11.8157  -9.4996
    -9.0666  -8.8135  -8.5422  -7.7488  -7.3977  -7.0351  -6.9193  -6.1503
    -5.6890  -5.2056  -4.9841  -4.7576  -4.3374  -3.9744  -3.3602  -3.1816
    -2.6155  -2.2840  -2.1845  -1.6050  -1.4561  -1.3736  -1.2086  -0.8571
    -0.8258  -0.4841  -0.3716  -0.1684  -0.0498   0.1427   0.5363   0.5976
     0.8934   1.1349   1.2180

          k = 0.0036-0.4685 0.0034 ( 21362 PWs)   bands (ev):

   -27.9947 -19.2158 -15.0996 -14.5397 -13.7372 -13.0289 -11.8303  -9.4734
    -9.0436  -8.8136  -8.5665  -7.7577  -7.4022  -7.0005  -6.9275  -6.1351
    -5.7864  -5.1292  -5.0302  -4.6020  -4.3303  -3.9867  -3.4293  -3.3534
    -2.6571  -2.2743  -2.0837  -1.6611  -1.4934  -1.2943  -1.0848  -0.9263
    -0.7884  -0.5030  -0.3728  -0.1949  -0.0243   0.1714   0.3397   0.6315
     0.8710   1.0759   1.2997

          k =-0.4860 0.0002 0.4865 ( 21216 PWs)   bands (ev):

   -27.9947 -19.2161 -15.1012 -14.5380 -13.7372 -13.0294 -11.8157  -9.4071
    -9.1132  -8.8996  -8.5723  -7.7442  -7.3160  -7.0478  -6.8604  -6.1679
    -5.6545  -5.3790  -4.9400  -4.7158  -4.3060  -3.9541  -3.6113  -2.9533
    -2.5510  -2.1746  -2.0499  -1.7362  -1.5514  -1.2615  -1.1611  -1.0240
    -0.8107  -0.6508  -0.4765  -0.2350  -0.0306   0.1093   0.4793   0.6213
     0.8369   1.1371   1.3135

          k =-0.4855 0.4722 0.0007 ( 21216 PWs)   bands (ev):

   -27.9947 -19.2160 -15.0989 -14.5395 -13.7378 -13.0289 -11.8213  -9.4862
    -9.0661  -8.8201  -8.5455  -7.7581  -7.3782  -7.0394  -6.9348  -6.1174
    -5.7272  -5.1743  -4.9752  -4.7390  -4.3448  -3.9741  -3.4139  -3.0665
    -2.5904  -2.4270  -2.1040  -1.6188  -1.5648  -1.3109  -1.2057  -0.9529
    -0.8702  -0.6147  -0.2919  -0.0464   0.1086   0.1697   0.4229   0.5551
     0.9120   1.1112   1.2366

     the Fermi energy is    -0.1421 ev

!    total energy              =    -283.43744585 Ry
     Harris-Foulkes estimate   =    -283.43744600 Ry
     estimated scf accuracy    <       0.00000017 Ry

     The total energy is the sum of the following terms:

     one-electron contribution =    -151.37114060 Ry
     hartree contribution      =      90.97005745 Ry
     xc contribution           =     -96.41410627 Ry
     ewald contribution        =     -20.45545270 Ry
     one-center paw contrib.   =    -106.16262475 Ry
     smearing contrib. (-TS)   =      -0.00417898 Ry

     convergence has been achieved in  30 iterations

     Forces acting on atoms (cartesian axes, Ry/au):

     atom    1 type  1   force =     0.04867318    0.29431026    0.04519939
     atom    2 type  1   force =    -0.13803653   -0.37282139   -0.00272737
     atom    3 type  2   force =     0.00496300    0.15049957    0.02829890
     atom    4 type  3   force =    -0.12544208    0.01758492   -0.20813270
     atom    5 type  3   force =    -0.13007261    0.03314498    0.04194338
     atom    6 type  4   force =     0.01546718   -0.00763521    0.00429593
     atom    7 type  4   force =    -0.02834233   -0.02184321    0.04693800
     atom    8 type  4   force =     0.04270798    0.19604738    0.04411784
     atom    9 type  4   force =     0.42547380    0.33415925   -0.05101109
     atom   10 type  4   force =    -0.01120838   -0.08230502   -0.04999335
     atom   11 type  4   force =    -0.14161591   -0.22174236   -0.07887427
     atom   12 type  4   force =    -0.02211383    0.05427306   -0.03332006
     atom   13 type  5   force =     0.15979007   -0.14049673   -0.00243066
     atom   14 type  5   force =    -0.01397111   -0.01798849   -0.01737600
     atom   15 type  5   force =    -0.01260674    0.00418740    0.01571103
     atom   16 type  5   force =     0.05953071   -0.03605011   -0.00544619
     atom   17 type  5   force =     0.00974286    0.12675492   -0.06491400
     atom   18 type  5   force =     0.04641849   -0.01180688   -0.01131316
     atom   19 type  5   force =     0.09449021    0.07902309    0.02036854
     atom   20 type  5   force =    -0.06324154    0.15212215    0.06158972
     atom   21 type  5   force =     0.11337648    0.03980627    0.02801384
     atom   22 type  5   force =    -0.02050371    0.00395932   -0.01077147
     atom   23 type  5   force =    -0.00445388   -0.04176120    0.02418914
     atom   24 type  5   force =     0.16793521    0.08614195    0.07307751
     atom   25 type  5   force =    -0.06992681    0.04002417   -0.01414504
     atom   26 type  5   force =     0.01587371    0.03835632   -0.02722729
     atom   27 type  5   force =    -0.01186222   -0.03592757    0.03916092
     atom   28 type  5   force =    -0.01187620   -0.11772128    0.06935155
     atom   29 type  5   force =    -0.44335300   -0.24051013   -0.00074999
     atom   30 type  5   force =    -0.02357895   -0.04351300    0.02213372
     atom   31 type  5   force =     0.04436858   -0.09536972    0.04625859
     atom   32 type  5   force =    -0.03939897   -0.00054105    0.04468237
     atom   33 type  5   force =     0.01500594   -0.01951991   -0.07123771
     atom   34 type  5   force =     0.00965571    0.01403850   -0.04898151
     atom   35 type  5   force =    -0.04871486   -0.01660990   -0.06984396
     atom   36 type  5   force =     0.11123788   -0.09371777    0.01020379
     atom   37 type  5   force =     0.09713296   -0.03713281   -0.02673148
     atom   38 type  5   force =    -0.02108045   -0.00552926    0.10115111
     atom   39 type  5   force =     0.07856869   -0.01241001    0.04614252
     atom   40 type  5   force =    -0.01760557    0.04953491    0.15474996
     atom   41 type  5   force =    -0.05509459    0.06296186   -0.04492733
     atom   42 type  5   force =    -0.02809086   -0.11416910   -0.10645729
     atom   43 type  5   force =    -0.05940211    0.05293011    0.04921858
     atom   44 type  5   force =    -0.01881939   -0.04273830   -0.07018442

     Total force =     1.188200     Total SCF correction =     0.000519


     Computing stress (Cartesian axis) and pressure

          total   stress  (Ry/bohr**3)                   (kbar)     P=  103.51
   0.00071675   0.00038019   0.00027216        105.44     55.93     40.04
   0.00038019   0.00109062   0.00031635         55.93    160.44     46.54
   0.00027216   0.00031635   0.00030356         40.04     46.54     44.66


     number of scf cycles    =   3
     number of bfgs steps    =   2

     enthalpy old            =    -279.2393759934 Ry
     enthalpy new            =    -283.4374458467 Ry

     CASE: enthalpy_new < enthalpy_old

     new trust radius        =       0.5669952782 bohr
     new conv_thr            =       0.0000010000 Ry

     new unit-cell volume =   4366.09361 a.u.^3 (   646.98831 Ang^3 )
     density =      0.96866 g/cm^3

CELL_PARAMETERS (angstrom)
   8.578383364   0.155244853   0.146369338
   0.153721609   8.920343903   0.146555233
   0.145524135   0.147317473   8.462373622

ATOMIC_POSITIONS (angstrom)
K        6.192336323   4.897867229   2.628833541
K        3.997592939   1.293092703   6.368543515
Ba       6.172739953   5.842249032   5.371574275
Al       3.460872709   3.518325771   5.013847159
Al       2.110335913   7.737727809   6.114973952
B        1.515427391   7.808257504   2.041724839
B        3.304041861   4.563653568   7.246589904
B        7.441476918   7.527683848   5.928460337
B        3.505939804   5.600491144   5.523345307
B        6.535976308   2.318306739   2.863431649
B        5.129660705   2.963258925   1.584575253
B        4.453932611   6.578961485   1.142848381
H        7.074589890   4.058468250   4.681711266
H        3.567962165   7.404940718   1.728213480
H        1.381411013   6.381929359   6.567838563
H        6.298316962   8.149693079   5.822488788
H        1.301348990   2.647256351   3.219612065
H        5.501477155   2.930354908   4.246597685
H        7.732630735   6.024699704   2.655758061
H        4.361547031   5.501362351   6.476087658
H        5.531339714   4.438643788   6.906558147
H        7.755513830   1.249863362   7.589254819
H        4.223366994   6.431069294   4.098682636
H        5.763733215   2.233731181   7.152000999
H        7.690865285   3.792639338   4.756989106
H        1.526532697   7.161648349   4.208736945
H        4.907752499   7.908499657   7.807603805
H        1.346908922   3.756549078   2.597396754
H        2.469869481   5.203800986   5.605051739
H        1.806894402   7.804294780   3.596918271
H        5.693550772   1.365636786   2.747630201
H        3.523987098   2.384557144   1.007234345
H        4.565274428   4.559873386   6.000051926
H        3.133372524   2.191851300   1.650194842
H        5.055701865   1.525433868   1.847517540
H        5.052539062   3.581741551   6.370084362
H        3.672930854   7.391827811   5.722312499
H        7.317094066   2.147358979   1.819246206
H        5.609086184   1.717260870   3.584634163
H        4.601916499   4.508080457   7.611833743
H        4.462953882   2.716229082   3.229993455
H        5.112993369   4.256944641   5.219844587
H        4.225158886   3.431984692   7.137382034
H        4.860139064   1.082678144   1.241113580



     Writing output data file 00_K2BaAl2B7H32_Monster.save
     NEW-OLD atomic charge density approx. for the potential

     negative rho (up, down):  2.255E-03 0.000E+00
     extrapolated charge   75.48251, renormalised to   71.00000

     total cpu time spent up to now is     4870.0 secs

     Self-consistent Calculation

     iteration #  1     ecut=    50.00 Ry     beta=0.70
     Davidson diagonalization with overlap
     ethr =  1.00E-06,  avg # of iterations = 14.6

     negative rho (up, down):  1.441E-05 0.000E+00

     total cpu time spent up to now is     4945.0 secs

     total energy              =    -274.44710828 Ry
     Harris-Foulkes estimate   =    -278.95298575 Ry
     estimated scf accuracy    <      10.78436219 Ry

     iteration #  2     ecut=    50.00 Ry     beta=0.70
     Davidson diagonalization with overlap
     ethr =  1.00E-02,  avg # of iterations =  6.0

     negative rho (up, down):  2.778E-06 0.000E+00

     total cpu time spent up to now is     4989.6 secs

     total energy              =    -275.97804096 Ry
     Harris-Foulkes estimate   =    -309.76455945 Ry
     estimated scf accuracy    <     128.01184245 Ry

     iteration #  3     ecut=    50.00 Ry     beta=0.70
     Davidson diagonalization with overlap
     ethr =  1.00E-02,  avg # of iterations =  5.0

     negative rho (up, down):  7.584E-07 0.000E+00

     total cpu time spent up to now is     5026.2 secs

     total energy              =    -284.91676312 Ry
     Harris-Foulkes estimate   =    -287.89171298 Ry
     estimated scf accuracy    <      14.48656285 Ry

     iteration #  4     ecut=    50.00 Ry     beta=0.70
     Davidson diagonalization with overlap
     ethr =  1.00E-02,  avg # of iterations =  2.1

     negative rho (up, down):  4.439E-07 0.000E+00

     total cpu time spent up to now is     5049.1 secs

     total energy              =    -285.03158260 Ry
     Harris-Foulkes estimate   =    -285.79989568 Ry
     estimated scf accuracy    <       8.98396479 Ry

     iteration #  5     ecut=    50.00 Ry     beta=0.70
     Davidson diagonalization with overlap
     ethr =  1.00E-02,  avg # of iterations =  1.0

     negative rho (up, down):  3.376E-07 0.000E+00

     total cpu time spent up to now is     5070.7 secs

     total energy              =    -284.91410280 Ry
     Harris-Foulkes estimate   =    -285.19203755 Ry
     estimated scf accuracy    <       6.10232286 Ry

     iteration #  6     ecut=    50.00 Ry     beta=0.70
     Davidson diagonalization with overlap
     ethr =  8.59E-03,  avg # of iterations =  1.6

     negative rho (up, down):  8.619E-08 0.000E+00

     total cpu time spent up to now is     5092.6 secs

     total energy              =    -284.73395729 Ry
     Harris-Foulkes estimate   =    -285.01394191 Ry
     estimated scf accuracy    <       4.56527627 Ry

     iteration #  7     ecut=    50.00 Ry     beta=0.70
     Davidson diagonalization with overlap
     ethr =  6.43E-03,  avg # of iterations =  2.2

     total cpu time spent up to now is     5115.7 secs

     total energy              =    -284.70547942 Ry
     Harris-Foulkes estimate   =    -284.86003438 Ry
     estimated scf accuracy    <       2.20100835 Ry

     iteration #  8     ecut=    50.00 Ry     beta=0.70
     Davidson diagonalization with overlap
     ethr =  3.10E-03,  avg # of iterations =  1.2

     total cpu time spent up to now is     5137.4 secs

     total energy              =    -284.67734912 Ry
     Harris-Foulkes estimate   =    -284.75466267 Ry
     estimated scf accuracy    <       1.63726400 Ry

     iteration #  9     ecut=    50.00 Ry     beta=0.70
     Davidson diagonalization with overlap
     ethr =  2.31E-03,  avg # of iterations =  1.0

     total cpu time spent up to now is     5159.3 secs

     total energy              =    -284.56354223 Ry
     Harris-Foulkes estimate   =    -284.70449309 Ry
     estimated scf accuracy    <       1.27727606 Ry

     iteration # 10     ecut=    50.00 Ry     beta=0.70
     Davidson diagonalization with overlap
     ethr =  1.80E-03,  avg # of iterations =  2.2

     negative rho (up, down):  1.065E-07 0.000E+00

     total cpu time spent up to now is     5181.8 secs

     total energy              =    -284.35721865 Ry
     Harris-Foulkes estimate   =    -284.59994680 Ry
     estimated scf accuracy    <       0.66222015 Ry

     iteration # 11     ecut=    50.00 Ry     beta=0.70
     Davidson diagonalization with overlap
     ethr =  9.33E-04,  avg # of iterations =  4.9

     total cpu time spent up to now is     5212.6 secs

     total energy              =    -284.33440460 Ry
     Harris-Foulkes estimate   =    -284.71067409 Ry
     estimated scf accuracy    <       3.14986688 Ry

     iteration # 12     ecut=    50.00 Ry     beta=0.70
     Davidson diagonalization with overlap
     ethr =  9.33E-04,  avg # of iterations =  2.0

     total cpu time spent up to now is     5236.0 secs

     total energy              =    -284.51276548 Ry
     Harris-Foulkes estimate   =    -284.55613990 Ry
     estimated scf accuracy    <       0.12929460 Ry

     iteration # 13     ecut=    50.00 Ry     beta=0.70
     Davidson diagonalization with overlap
     ethr =  1.82E-04,  avg # of iterations =  2.9

     total cpu time spent up to now is     5260.3 secs

     total energy              =    -284.52910389 Ry
     Harris-Foulkes estimate   =    -284.53522398 Ry
     estimated scf accuracy    <       0.02074859 Ry

     iteration # 14     ecut=    50.00 Ry     beta=0.70
     Davidson diagonalization with overlap
     ethr =  2.92E-05,  avg # of iterations =  6.6

     total cpu time spent up to now is     5290.2 secs

     total energy              =    -284.53198658 Ry
     Harris-Foulkes estimate   =    -284.53365677 Ry
     estimated scf accuracy    <       0.01208152 Ry

     iteration # 15     ecut=    50.00 Ry     beta=0.70
     Davidson diagonalization with overlap
     ethr =  1.70E-05,  avg # of iterations =  1.4

     total cpu time spent up to now is     5312.0 secs

     total energy              =    -284.53241095 Ry
     Harris-Foulkes estimate   =    -284.53308419 Ry
     estimated scf accuracy    <       0.00549742 Ry

     iteration # 16     ecut=    50.00 Ry     beta=0.70
     Davidson diagonalization with overlap
     ethr =  7.74E-06,  avg # of iterations =  1.8

     total cpu time spent up to now is     5334.0 secs

     total energy              =    -284.53225432 Ry
     Harris-Foulkes estimate   =    -284.53295081 Ry
     estimated scf accuracy    <       0.00590912 Ry

     iteration # 17     ecut=    50.00 Ry     beta=0.70
     Davidson diagonalization with overlap
     ethr =  7.74E-06,  avg # of iterations =  1.0

     total cpu time spent up to now is     5356.3 secs

     total energy              =    -284.53242107 Ry
     Harris-Foulkes estimate   =    -284.53271551 Ry
     estimated scf accuracy    <       0.00253127 Ry

     iteration # 18     ecut=    50.00 Ry     beta=0.70
     Davidson diagonalization with overlap
     ethr =  3.57E-06,  avg # of iterations =  1.5

     total cpu time spent up to now is     5378.2 secs

     total energy              =    -284.53237165 Ry
     Harris-Foulkes estimate   =    -284.53257810 Ry
     estimated scf accuracy    <       0.00103095 Ry

     iteration # 19     ecut=    50.00 Ry     beta=0.70
     Davidson diagonalization with overlap
     ethr =  1.45E-06,  avg # of iterations =  5.2

     total cpu time spent up to now is     5405.5 secs

     total energy              =    -284.53234855 Ry
     Harris-Foulkes estimate   =    -284.53266097 Ry
     estimated scf accuracy    <       0.00197645 Ry

     iteration # 20     ecut=    50.00 Ry     beta=0.70
     Davidson diagonalization with overlap
     ethr =  1.45E-06,  avg # of iterations =  2.0

     total cpu time spent up to now is     5428.0 secs

     total energy              =    -284.53247290 Ry
     Harris-Foulkes estimate   =    -284.53250896 Ry
     estimated scf accuracy    <       0.00011811 Ry

     iteration # 21     ecut=    50.00 Ry     beta=0.70
     Davidson diagonalization with overlap
     ethr =  1.66E-07,  avg # of iterations =  3.2

     total cpu time spent up to now is     5453.6 secs

     total energy              =    -284.53247752 Ry
     Harris-Foulkes estimate   =    -284.53252269 Ry
     estimated scf accuracy    <       0.00021443 Ry

     iteration # 22     ecut=    50.00 Ry     beta=0.70
     Davidson diagonalization with overlap
     ethr =  1.66E-07,  avg # of iterations =  2.0

     total cpu time spent up to now is     5477.2 secs

     total energy              =    -284.53249878 Ry
     Harris-Foulkes estimate   =    -284.53250420 Ry
     estimated scf accuracy    <       0.00001773 Ry

     iteration # 23     ecut=    50.00 Ry     beta=0.70
     Davidson diagonalization with overlap
     ethr =  2.50E-08,  avg # of iterations =  3.0

     total cpu time spent up to now is     5501.7 secs

     total energy              =    -284.53250148 Ry
     Harris-Foulkes estimate   =    -284.53250268 Ry
     estimated scf accuracy    <       0.00000382 Ry

     iteration # 24     ecut=    50.00 Ry     beta=0.70
     Davidson diagonalization with overlap
     ethr =  5.38E-09,  avg # of iterations =  2.4

     total cpu time spent up to now is     5526.5 secs

     total energy              =    -284.53250188 Ry
     Harris-Foulkes estimate   =    -284.53250248 Ry
     estimated scf accuracy    <       0.00000194 Ry

     iteration # 25     ecut=    50.00 Ry     beta=0.70
     Davidson diagonalization with overlap
     ethr =  2.73E-09,  avg # of iterations =  2.0

     total cpu time spent up to now is     5549.3 secs

     total energy              =    -284.53250209 Ry
     Harris-Foulkes estimate   =    -284.53250236 Ry
     estimated scf accuracy    <       0.00000125 Ry

     iteration # 26     ecut=    50.00 Ry     beta=0.70
     Davidson diagonalization with overlap
     ethr =  1.76E-09,  avg # of iterations =  1.8

     total cpu time spent up to now is     5571.5 secs

     End of self-consistent calculation

          k = 0.0000 0.0000 0.0000 ( 21247 PWs)   bands (ev):

   -27.9379 -17.2143 -14.3696 -14.1413 -13.4405 -12.9467 -10.7478  -9.8752
    -9.1586  -9.0363  -8.6235  -8.0296  -7.3770  -7.1853  -6.9933  -6.5656
    -6.4591  -5.6653  -4.9962  -4.7916  -4.6653  -4.3880  -3.6761  -3.5151
    -2.8817  -2.5564  -2.4788  -1.8144  -1.7120  -1.4632  -1.3649  -1.0874
    -0.8938  -0.7646  -0.2046  -0.1702  -0.0736  -0.0087   0.1976   0.5684
     0.7456   0.9580   1.0309

          k = 0.0080 0.0077-0.4778 ( 21362 PWs)   bands (ev):

   -27.9379 -17.2142 -14.3739 -14.1366 -13.4421 -12.9477 -10.7536  -9.7988
    -9.1887  -9.1489  -8.6047  -7.9538  -7.3455  -7.3178  -6.8764  -6.5787
    -6.4077  -5.7542  -5.0499  -4.7539  -4.6302  -4.3538  -3.8120  -3.4666
    -2.7363  -2.6382  -2.2770  -1.8891  -1.6415  -1.4932  -1.3676  -1.2335
    -0.9310  -0.7345  -0.3014  -0.2021  -0.1066  -0.0342   0.2015   0.3465
     0.7693   0.9394   0.9801

          k = 0.0161-0.4456-0.4701 ( 21216 PWs)   bands (ev):

   -27.9379 -17.2141 -14.3761 -14.1329 -13.4428 -12.9475 -10.7602  -9.7937
    -9.1966  -9.1401  -8.6123  -7.9552  -7.3683  -7.3133  -6.8575  -6.5632
    -6.4115  -5.7695  -5.0253  -4.7562  -4.6329  -4.2983  -3.7519  -3.4605
    -2.9134  -2.4989  -2.2071  -2.1079  -1.5793  -1.4671  -1.3758  -1.1278
    -0.9940  -0.8745  -0.5477  -0.3381  -0.1058   0.0699   0.2331   0.4163
     0.7956   0.9715   1.0774

          k =-0.4553-0.4376-0.4621 ( 21368 PWs)   bands (ev):

   -27.9379 -17.2146 -14.3757 -14.1328 -13.4432 -12.9453 -10.7527  -9.7941
    -9.2346  -9.1118  -8.6315  -7.9613  -7.3741  -7.2900  -6.8376  -6.5635
    -6.4282  -5.7473  -5.1034  -4.7751  -4.6165  -4.3120  -3.7405  -3.2507
    -2.7439  -2.5809  -2.2334  -2.1469  -1.7705  -1.5249  -1.4144  -1.2288
    -0.9931  -0.8051  -0.3604  -0.2484  -0.2164   0.0794   0.2195   0.4983
     0.6383   0.8410   1.0404

          k =-0.4714 0.0080 0.0080 ( 21362 PWs)   bands (ev):

   -27.9379 -17.2148 -14.3692 -14.1412 -13.4409 -12.9444 -10.7401  -9.8793
    -9.1691  -9.0320  -8.6399  -8.0370  -7.3947  -7.1811  -6.9428  -6.5686
    -6.4639  -5.6321  -5.1007  -4.7979  -4.6943  -4.3737  -3.5376  -3.4672
    -2.7221  -2.6702  -2.4173  -1.9565  -1.6230  -1.5748  -1.3754  -1.0758
    -0.8978  -0.7099  -0.5833  -0.2470  -0.1077   0.0118   0.3962   0.4710
     0.7438   0.9428   1.1090

          k = 0.0081-0.4533 0.0078 ( 21362 PWs)   bands (ev):

   -27.9379 -17.2143 -14.3719 -14.1377 -13.4410 -12.9468 -10.7554  -9.8657
    -9.1553  -9.0475  -8.6282  -8.0338  -7.3981  -7.1764  -6.9811  -6.5513
    -6.4510  -5.6761  -4.9834  -4.7980  -4.6293  -4.3468  -3.6224  -3.5464
    -3.0510  -2.5182  -2.3370  -1.9827  -1.6272  -1.4707  -1.3676  -1.0320
    -0.9366  -0.7047  -0.5660  -0.2816  -0.1070   0.0211   0.2656   0.5646
     0.7849   1.0145   1.0486

          k =-0.4794 0.0003 0.4858 ( 21216 PWs)   bands (ev):

   -27.9379 -17.2146 -14.3734 -14.1363 -13.4425 -12.9454 -10.7462  -9.7986
    -9.2175  -9.1326  -8.6231  -7.9573  -7.3735  -7.2682  -6.8516  -6.5997
    -6.4122  -5.7380  -5.1116  -4.7667  -4.6484  -4.3302  -3.7996  -3.2792
    -2.7314  -2.5409  -2.2512  -2.1003  -1.6485  -1.4888  -1.3250  -1.2193
    -0.9363  -0.8230  -0.5742  -0.3397  -0.2191  -0.0165   0.3342   0.4909
     0.6952   0.9848   1.0466

          k =-0.4794 0.4613 0.0002 ( 21216 PWs)   bands (ev):

   -27.9379 -17.2147 -14.3715 -14.1374 -13.4414 -12.9445 -10.7476  -9.8683
    -9.1837  -9.0242  -8.6442  -8.0427  -7.4112  -7.1797  -6.9324  -6.5420
    -6.4623  -5.6415  -5.1014  -4.8050  -4.6358  -4.3625  -3.5574  -3.3765
    -2.8913  -2.6439  -2.3222  -2.0094  -1.7470  -1.5560  -1.3578  -1.0887
    -1.0623  -0.7637  -0.3497  -0.1589  -0.0195   0.0484   0.2857   0.4025
     0.7780   0.8302   1.0485

     the Fermi energy is    -0.2476 ev

!    total energy              =    -284.53250212 Ry
     Harris-Foulkes estimate   =    -284.53250226 Ry
     estimated scf accuracy    <       0.00000017 Ry

     The total energy is the sum of the following terms:

     one-electron contribution =    -143.15319033 Ry
     hartree contribution      =      86.23630887 Ry
     xc contribution           =     -95.64734762 Ry
     ewald contribution        =     -25.84295522 Ry
     one-center paw contrib.   =    -106.12146766 Ry
     smearing contrib. (-TS)   =      -0.00385015 Ry

     convergence has been achieved in  26 iterations

     Forces acting on atoms (cartesian axes, Ry/au):

     atom    1 type  1   force =    -0.05495743    0.00632642   -0.04375128
     atom    2 type  1   force =    -0.01746027   -0.13042578    0.03279362
     atom    3 type  2   force =     0.01722496    0.05360828    0.02746512
     atom    4 type  3   force =    -0.04892556   -0.00006978   -0.09055924
     atom    5 type  3   force =    -0.04596581   -0.01828237    0.00840508
     atom    6 type  4   force =     0.01318164   -0.00715114   -0.00540303
     atom    7 type  4   force =     0.03423964   -0.02877821    0.02053073
     atom    8 type  4   force =     0.03578843    0.12644558    0.03064053
     atom    9 type  4   force =     0.08340270    0.10963298   -0.03806426
     atom   10 type  4   force =    -0.04901357   -0.00719628   -0.04344889
     atom   11 type  4   force =    -0.04085617   -0.04496173    0.02525550
     atom   12 type  4   force =    -0.02078264    0.05718588   -0.03965490
     atom   13 type  5   force =    -0.08583341    0.00622433   -0.01280322
     atom   14 type  5   force =    -0.01369782   -0.01566884   -0.01711086
     atom   15 type  5   force =    -0.00482885    0.00992760    0.01391203
     atom   16 type  5   force =     0.03274857   -0.00186329   -0.00150000
     atom   17 type  5   force =     0.00848036    0.14642658   -0.07786606
     atom   18 type  5   force =     0.04718591   -0.01190057   -0.02682363
     atom   19 type  5   force =     0.10544458    0.07957635    0.02053889
     atom   20 type  5   force =    -0.04953200    0.07694734    0.03915829
     atom   21 type  5   force =     0.03954747    0.00875436    0.00952609
     atom   22 type  5   force =    -0.02018656    0.00049933   -0.01461573
     atom   23 type  5   force =    -0.00814425   -0.04244757    0.03465905
     atom   24 type  5   force =     0.04463850    0.03850072    0.01112187
     atom   25 type  5   force =     0.12857911   -0.04818388    0.01553380
     atom   26 type  5   force =     0.01128854    0.03155547   -0.01426724
     atom   27 type  5   force =    -0.01025124   -0.03851429    0.04545507
     atom   28 type  5   force =    -0.01136223   -0.13971314    0.07875573
     atom   29 type  5   force =    -0.10212476   -0.01614092   -0.01334068
     atom   30 type  5   force =    -0.01713463   -0.03409184    0.01765068
     atom   31 type  5   force =     0.04268264   -0.05211603    0.03525610
     atom   32 type  5   force =    -0.01123439    0.01355089   -0.00766038
     atom   33 type  5   force =    -0.00072573   -0.01274524   -0.04447573
     atom   34 type  5   force =    -0.01930057   -0.00141238    0.00200209
     atom   35 type  5   force =    -0.02934420   -0.03075398   -0.03701411
     atom   36 type  5   force =     0.07911622   -0.05819466    0.03293032
     atom   37 type  5   force =    -0.00044579   -0.00747775   -0.00025375
     atom   38 type  5   force =    -0.00793234   -0.01099630    0.08522239
     atom   39 type  5   force =     0.06749377    0.00036971    0.03063742
     atom   40 type  5   force =    -0.02848819    0.02910893    0.08057562
     atom   41 type  5   force =    -0.03965167    0.04081582   -0.05697152
     atom   42 type  5   force =     0.00675948   -0.06992392   -0.07404687
     atom   43 type  5   force =    -0.04792177    0.00663911    0.01193749
     atom   44 type  5   force =    -0.01170066   -0.01308580   -0.05033214

     Total force =     0.548931     Total SCF correction =     0.000299


     Computing stress (Cartesian axis) and pressure

          total   stress  (Ry/bohr**3)                   (kbar)     P=   40.89
   0.00031137   0.00013764   0.00018527         45.80     20.25     27.25
   0.00013764   0.00044448   0.00016928         20.25     65.39     24.90
   0.00018527   0.00016928   0.00007808         27.25     24.90     11.49


     number of scf cycles    =   4
     number of bfgs steps    =   3

     enthalpy old            =    -283.4374458467 Ry
     enthalpy new            =    -284.5325021184 Ry

     CASE: enthalpy_new < enthalpy_old

     new trust radius        =       0.4913164676 bohr
     new conv_thr            =       0.0000010000 Ry

     new unit-cell volume =   4633.20866 a.u.^3 (   686.57068 Ang^3 )
     density =      0.91282 g/cm^3

CELL_PARAMETERS (angstrom)
   8.769294166   0.234187975   0.243478208
   0.230811645   9.201006755   0.239511773
   0.241991336   0.241877799   8.527523313

ATOMIC_POSITIONS (angstrom)
K        6.362483287   5.237232897   2.741697576
K        4.097633481   1.174688914   6.489643571
Ba       6.433617848   6.235365281   5.575829737
Al       3.525182805   3.703335559   4.972204086
Al       2.203071642   8.055447182   6.276941045
B        1.654027002   8.076062758   2.168341367
B        3.510121241   4.778059921   7.415850012
B        7.789030721   8.090189270   6.181859814
B        3.748355889   5.851925395   5.611524721
B        6.687618915   2.437235304   2.928363731
B        5.190816440   2.994024089   1.669044707
B        4.596959248   6.902192762   1.219336263
H        7.274538447   4.252676470   4.818183012
H        3.701197044   7.665348258   1.835916485
H        1.526135976   6.671671802   6.714614072
H        6.614447820   8.506466770   6.015682407
H        1.401076625   2.965135294   3.201887339
H        5.748966854   3.097860252   4.342518231
H        8.114008818   6.420522404   2.855879827
H        4.513014695   5.909328168   6.683616566
H        5.843596683   4.724338946   7.084402790
H        7.991884140   1.433919186   7.725300183
H        4.402317031   6.654289329   4.277275102
H        6.084292334   2.498927751   7.328951954
H        8.046160470   3.992019498   4.928348533
H        1.680069241   7.485771249   4.312290562
H        5.150853371   8.228247118   8.049475835
H        1.417331892   3.731430349   2.753949057
H        2.540849540   5.520579801   5.705215301
H        1.920856274   8.052509976   3.720433921
H        5.909392863   1.397261994   2.885579163
H        3.612335380   2.513693688   1.077846549
H        4.768899491   4.783158284   6.077646044
H        3.218381572   2.304117445   1.710775088
H        5.151263131   1.591811396   1.872439228
H        5.372342566   3.714740268   6.539350468
H        3.908104369   7.750146716   5.877780949
H        7.504870274   2.286322587   2.040863778
H        5.873936432   1.858255559   3.739799884
H        4.799228697   4.820132771   7.888668282
H        4.562187820   2.930636003   3.265144134
H        5.306630620   4.374304464   5.253990409
H        4.358756550   3.666151650   7.297404575
H        4.967991359   1.139195034   1.246685500



     Writing output data file 00_K2BaAl2B7H32_Monster.save
     NEW-OLD atomic charge density approx. for the potential

     negative rho (up, down):  2.936E-04 0.000E+00
     extrapolated charge   75.08988, renormalised to   71.00000

     total cpu time spent up to now is     6397.1 secs

     Self-consistent Calculation

     iteration #  1     ecut=    50.00 Ry     beta=0.70
     Davidson diagonalization with overlap
     ethr =  1.00E-06,  avg # of iterations = 15.5

     negative rho (up, down):  2.018E-06 0.000E+00

     total cpu time spent up to now is     6470.6 secs

     total energy              =    -278.14168894 Ry
     Harris-Foulkes estimate   =    -280.23910164 Ry
     estimated scf accuracy    <       7.50342235 Ry

     iteration #  2     ecut=    50.00 Ry     beta=0.70
     Davidson diagonalization with overlap
     ethr =  1.00E-02,  avg # of iterations =  5.1

     negative rho (up, down):  9.797E-07 0.000E+00

     total cpu time spent up to now is     6511.6 secs

     total energy              =    -278.31983031 Ry
     Harris-Foulkes estimate   =    -303.06910970 Ry
     estimated scf accuracy    <      96.74306371 Ry

     iteration #  3     ecut=    50.00 Ry     beta=0.70
     Davidson diagonalization with overlap
     ethr =  1.00E-02,  avg # of iterations =  5.4

     negative rho (up, down):  1.821E-06 0.000E+00

     total cpu time spent up to now is     6548.1 secs

     total energy              =    -285.24361669 Ry
     Harris-Foulkes estimate   =    -287.59371836 Ry
     estimated scf accuracy    <      12.45219905 Ry

     iteration #  4     ecut=    50.00 Ry     beta=0.70
     Davidson diagonalization with overlap
     ethr =  1.00E-02,  avg # of iterations =  2.4

     negative rho (up, down):  7.621E-07 0.000E+00

     total cpu time spent up to now is     6570.5 secs

     total energy              =    -285.41405028 Ry
     Harris-Foulkes estimate   =    -285.99309197 Ry
     estimated scf accuracy    <       6.44122417 Ry

     iteration #  5     ecut=    50.00 Ry     beta=0.70
     Davidson diagonalization with overlap
     ethr =  9.07E-03,  avg # of iterations =  1.6

     negative rho (up, down):  1.729E-07 0.000E+00

     total cpu time spent up to now is     6592.3 secs

     total energy              =    -285.37301407 Ry
     Harris-Foulkes estimate   =    -285.58032814 Ry
     estimated scf accuracy    <       3.26312439 Ry

     iteration #  6     ecut=    50.00 Ry     beta=0.70
     Davidson diagonalization with overlap
     ethr =  4.60E-03,  avg # of iterations =  1.4

     total cpu time spent up to now is     6614.8 secs

     total energy              =    -285.27096405 Ry
     Harris-Foulkes estimate   =    -285.44562642 Ry
     estimated scf accuracy    <       2.18701773 Ry

     iteration #  7     ecut=    50.00 Ry     beta=0.70
     Davidson diagonalization with overlap
     ethr =  3.08E-03,  avg # of iterations =  2.4

     total cpu time spent up to now is     6637.3 secs

     total energy              =    -285.27278781 Ry
     Harris-Foulkes estimate   =    -285.35130110 Ry
     estimated scf accuracy    <       1.24393694 Ry

     iteration #  8     ecut=    50.00 Ry     beta=0.70
     Davidson diagonalization with overlap
     ethr =  1.75E-03,  avg # of iterations =  1.5

     total cpu time spent up to now is     6659.7 secs

     total energy              =    -285.25116484 Ry
     Harris-Foulkes estimate   =    -285.29549341 Ry
     estimated scf accuracy    <       0.94525371 Ry

     iteration #  9     ecut=    50.00 Ry     beta=0.70
     Davidson diagonalization with overlap
     ethr =  1.33E-03,  avg # of iterations =  1.1

     total cpu time spent up to now is     6681.4 secs

     total energy              =    -285.16647591 Ry
     Harris-Foulkes estimate   =    -285.26651460 Ry
     estimated scf accuracy    <       0.89126635 Ry

     iteration # 10     ecut=    50.00 Ry     beta=0.70
     Davidson diagonalization with overlap
     ethr =  1.26E-03,  avg # of iterations =  1.0

     total cpu time spent up to now is     6703.0 secs

     total energy              =    -285.00597851 Ry
     Harris-Foulkes estimate   =    -285.18293601 Ry
     estimated scf accuracy    <       0.46461646 Ry

     iteration # 11     ecut=    50.00 Ry     beta=0.70
     Davidson diagonalization with overlap
     ethr =  6.54E-04,  avg # of iterations =  5.0

     total cpu time spent up to now is     6735.6 secs

     total energy              =    -285.30123686 Ry
     Harris-Foulkes estimate   =    -285.37313943 Ry
     estimated scf accuracy    <       4.63749211 Ry

     iteration # 12     ecut=    50.00 Ry     beta=0.70
     Davidson diagonalization with overlap
     ethr =  6.54E-04,  avg # of iterations =  1.1

     total cpu time spent up to now is     6757.0 secs

     total energy              =    -285.09187529 Ry
     Harris-Foulkes estimate   =    -285.32822704 Ry
     estimated scf accuracy    <       3.80017872 Ry

     iteration # 13     ecut=    50.00 Ry     beta=0.70
     Davidson diagonalization with overlap
     ethr =  6.54E-04,  avg # of iterations =  1.0

     total cpu time spent up to now is     6778.9 secs

     total energy              =    -285.14561091 Ry
     Harris-Foulkes estimate   =    -285.17486229 Ry
     estimated scf accuracy    <       0.55915386 Ry

     iteration # 14     ecut=    50.00 Ry     beta=0.70
     Davidson diagonalization with overlap
     ethr =  6.54E-04,  avg # of iterations =  1.0

     total cpu time spent up to now is     6800.5 secs

     total energy              =    -285.15618112 Ry
     Harris-Foulkes estimate   =    -285.15602829 Ry
     estimated scf accuracy    <       0.18349276 Ry

     iteration # 15     ecut=    50.00 Ry     beta=0.70
     Davidson diagonalization with overlap
     ethr =  2.58E-04,  avg # of iterations =  1.0

     total cpu time spent up to now is     6822.2 secs

     total energy              =    -285.13445713 Ry
     Harris-Foulkes estimate   =    -285.15988893 Ry
     estimated scf accuracy    <       0.28457564 Ry

     iteration # 16     ecut=    50.00 Ry     beta=0.70
     Davidson diagonalization with overlap
     ethr =  2.58E-04,  avg # of iterations =  1.0

     total cpu time spent up to now is     6844.2 secs

     total energy              =    -285.14478230 Ry
     Harris-Foulkes estimate   =    -285.14875242 Ry
     estimated scf accuracy    <       0.03821624 Ry

     iteration # 17     ecut=    50.00 Ry     beta=0.70
     Davidson diagonalization with overlap
     ethr =  5.38E-05,  avg # of iterations =  2.0

     total cpu time spent up to now is     6866.4 secs

     total energy              =    -285.14152540 Ry
     Harris-Foulkes estimate   =    -285.15040931 Ry
     estimated scf accuracy    <       0.11075330 Ry

     iteration # 18     ecut=    50.00 Ry     beta=0.70
     Davidson diagonalization with overlap
     ethr =  5.38E-05,  avg # of iterations =  1.5

     total cpu time spent up to now is     6888.1 secs

     total energy              =    -285.14357838 Ry
     Harris-Foulkes estimate   =    -285.14496304 Ry
     estimated scf accuracy    <       0.01019267 Ry

     iteration # 19     ecut=    50.00 Ry     beta=0.70
     Davidson diagonalization with overlap
     ethr =  1.44E-05,  avg # of iterations =  4.1

     total cpu time spent up to now is     6912.9 secs

     total energy              =    -285.14348584 Ry
     Harris-Foulkes estimate   =    -285.14498713 Ry
     estimated scf accuracy    <       0.01208362 Ry

     iteration # 20     ecut=    50.00 Ry     beta=0.70
     Davidson diagonalization with overlap
     ethr =  1.44E-05,  avg # of iterations =  1.0

     total cpu time spent up to now is     6934.7 secs

     total energy              =    -285.14392561 Ry
     Harris-Foulkes estimate   =    -285.14452126 Ry
     estimated scf accuracy    <       0.00271096 Ry

     iteration # 21     ecut=    50.00 Ry     beta=0.70
     Davidson diagonalization with overlap
     ethr =  3.82E-06,  avg # of iterations =  4.6

     total cpu time spent up to now is     6961.5 secs

     total energy              =    -285.14388923 Ry
     Harris-Foulkes estimate   =    -285.14444880 Ry
     estimated scf accuracy    <       0.00152012 Ry

     iteration # 22     ecut=    50.00 Ry     beta=0.70
     Davidson diagonalization with overlap
     ethr =  2.14E-06,  avg # of iterations =  2.9

     total cpu time spent up to now is     6986.5 secs

     total energy              =    -285.14412079 Ry
     Harris-Foulkes estimate   =    -285.14430028 Ry
     estimated scf accuracy    <       0.00068315 Ry

     iteration # 23     ecut=    50.00 Ry     beta=0.70
     Davidson diagonalization with overlap
     ethr =  9.62E-07,  avg # of iterations =  2.0

     total cpu time spent up to now is     7009.7 secs

     total energy              =    -285.14420198 Ry
     Harris-Foulkes estimate   =    -285.14422859 Ry
     estimated scf accuracy    <       0.00009329 Ry

     iteration # 24     ecut=    50.00 Ry     beta=0.70
     Davidson diagonalization with overlap
     ethr =  1.31E-07,  avg # of iterations =  2.9

     total cpu time spent up to now is     7035.4 secs

     total energy              =    -285.14420230 Ry
     Harris-Foulkes estimate   =    -285.14422590 Ry
     estimated scf accuracy    <       0.00007001 Ry

     iteration # 25     ecut=    50.00 Ry     beta=0.70
     Davidson diagonalization with overlap
     ethr =  9.86E-08,  avg # of iterations =  3.1

     total cpu time spent up to now is     7061.1 secs

     total energy              =    -285.14420228 Ry
     Harris-Foulkes estimate   =    -285.14423170 Ry
     estimated scf accuracy    <       0.00011286 Ry

     iteration # 26     ecut=    50.00 Ry     beta=0.70
     Davidson diagonalization with overlap
     ethr =  9.86E-08,  avg # of iterations =  2.8

     total cpu time spent up to now is     7085.4 secs

     total energy              =    -285.14421392 Ry
     Harris-Foulkes estimate   =    -285.14421744 Ry
     estimated scf accuracy    <       0.00000866 Ry

     iteration # 27     ecut=    50.00 Ry     beta=0.70
     Davidson diagonalization with overlap
     ethr =  1.22E-08,  avg # of iterations =  3.8

     total cpu time spent up to now is     7112.4 secs

     total energy              =    -285.14421289 Ry
     Harris-Foulkes estimate   =    -285.14422143 Ry
     estimated scf accuracy    <       0.00004648 Ry

     iteration # 28     ecut=    50.00 Ry     beta=0.70
     Davidson diagonalization with overlap
     ethr =  1.22E-08,  avg # of iterations =  3.0

     total cpu time spent up to now is     7137.4 secs

     total energy              =    -285.14421655 Ry
     Harris-Foulkes estimate   =    -285.14421729 Ry
     estimated scf accuracy    <       0.00000278 Ry

     iteration # 29     ecut=    50.00 Ry     beta=0.70
     Davidson diagonalization with overlap
     ethr =  3.91E-09,  avg # of iterations =  2.1

     total cpu time spent up to now is     7160.8 secs

     total energy              =    -285.14421672 Ry
     Harris-Foulkes estimate   =    -285.14421717 Ry
     estimated scf accuracy    <       0.00000352 Ry

     iteration # 30     ecut=    50.00 Ry     beta=0.70
     Davidson diagonalization with overlap
     ethr =  3.91E-09,  avg # of iterations =  1.0

     total cpu time spent up to now is     7182.2 secs

     End of self-consistent calculation

          k = 0.0000 0.0000 0.0000 ( 21247 PWs)   bands (ev):

   -28.0832 -15.5913 -14.0186 -13.5365 -13.4972 -12.6388 -10.1814  -9.9512
    -9.4339  -8.8636  -7.9615  -7.7604  -7.4772  -7.2346  -7.1303  -6.7835
    -6.5246  -6.2533  -5.8651  -5.2107  -4.6116  -4.5111  -3.9129  -3.6876
    -3.1642  -2.8691  -2.7580  -1.9873  -1.9090  -1.6580  -1.5387  -1.1028
    -1.0500  -0.8498  -0.3826  -0.3217  -0.1694  -0.1091   0.0840   0.3147
     0.6572   0.7423   0.8259

          k = 0.0129 0.0120-0.4746 ( 21362 PWs)   bands (ev):

   -28.0832 -15.5910 -14.0200 -13.5321 -13.4997 -12.6439 -10.1909  -9.9018
    -9.4237  -8.9811  -7.9435  -7.6292  -7.5084  -7.2883  -7.0996  -6.7875
    -6.5018  -6.2469  -5.9181  -5.2214  -4.6393  -4.4150  -3.9393  -3.7110
    -3.1100  -2.9240  -2.6861  -2.0533  -1.7893  -1.6173  -1.5763  -1.2790
    -0.9774  -0.8001  -0.5197  -0.3510  -0.1858  -0.0485  -0.0006   0.1924
     0.5485   0.6807   0.8145

          k = 0.0243-0.4278-0.4625 ( 21216 PWs)   bands (ev):

   -28.0832 -15.5911 -14.0207 -13.5311 -13.4985 -12.6434 -10.1845  -9.9168
    -9.4183  -8.9862  -7.9579  -7.6567  -7.4925  -7.2832  -7.0697  -6.7818
    -6.5006  -6.2455  -5.9322  -5.2118  -4.6515  -4.3701  -3.8823  -3.6996
    -3.1787  -2.9215  -2.6089  -2.1877  -1.7237  -1.6007  -1.5286  -1.2604
    -1.1310  -0.8830  -0.7193  -0.4831  -0.2538  -0.0616   0.1556   0.3719
     0.6096   0.6494   0.8896

          k =-0.4372-0.4165-0.4497 ( 21368 PWs)   bands (ev):

   -28.0832 -15.5919 -14.0206 -13.5309 -13.4989 -12.6393 -10.1856  -9.9157
    -9.4173  -8.9867  -7.9911  -7.6401  -7.4916  -7.3060  -7.0922  -6.6974
    -6.5023  -6.2495  -5.9473  -5.2954  -4.6339  -4.3842  -3.8673  -3.5534
    -3.0078  -2.9250  -2.6232  -2.2432  -1.9616  -1.7083  -1.4985  -1.3150
    -1.1565  -0.8032  -0.5947  -0.4419  -0.2862   0.0160   0.1027   0.2840
     0.3560   0.6834   0.9177

          k =-0.4615 0.0112 0.0128 ( 21362 PWs)   bands (ev):

   -28.0832 -15.5921 -14.0186 -13.5363 -13.4976 -12.6345 -10.1842  -9.9488
    -9.4331  -8.8626  -7.9871  -7.7677  -7.4782  -7.2624  -7.1164  -6.7034
    -6.5303  -6.2591  -5.8807  -5.3045  -4.6200  -4.5082  -3.7947  -3.6545
    -3.0810  -2.8215  -2.6802  -2.2089  -1.8271  -1.7658  -1.4415  -1.2345
    -0.9355  -0.9062  -0.7669  -0.4357  -0.1356  -0.0902   0.2463   0.3914
     0.5391   0.6967   0.9663

          k = 0.0114-0.4398 0.0122 ( 21362 PWs)   bands (ev):

   -28.0832 -15.5915 -14.0193 -13.5370 -13.4943 -12.6392 -10.1783  -9.9559
    -9.4339  -8.8750  -7.9672  -7.7761  -7.4919  -7.2175  -7.1100  -6.7691
    -6.5205  -6.2487  -5.8729  -5.2136  -4.6130  -4.4523  -3.8502  -3.7119
    -3.2913  -2.8336  -2.6858  -2.1451  -1.7913  -1.6094  -1.5677  -1.1084
    -1.0026  -0.8752  -0.7474  -0.4304  -0.1868  -0.1358   0.2202   0.4141
     0.6418   0.7243   1.0185

          k =-0.4744-0.0008 0.4874 ( 21216 PWs)   bands (ev):

   -28.0832 -15.5917 -14.0199 -13.5317 -13.5001 -12.6396 -10.1945  -9.8953
    -9.4253  -8.9825  -7.9724  -7.6375  -7.4736  -7.3217  -7.1187  -6.6997
    -6.5108  -6.2521  -5.9360  -5.2963  -4.6328  -4.4152  -3.9187  -3.5880
    -3.0918  -2.7669  -2.6385  -2.2733  -1.8319  -1.5734  -1.4522  -1.3276
    -1.0492  -0.9943  -0.6994  -0.4698  -0.3838  -0.0660   0.2880   0.3227
     0.4955   0.7615   0.8548

          k =-0.4729 0.4511 0.0006 ( 21216 PWs)   bands (ev):

   -28.0832 -15.5923 -14.0192 -13.5367 -13.4946 -12.6349 -10.1800  -9.9541
    -9.4338  -8.8720  -7.9945  -7.7773  -7.5087  -7.2323  -7.0950  -6.6922
    -6.5211  -6.2583  -5.8875  -5.3103  -4.6172  -4.4600  -3.7470  -3.6195
    -3.1725  -2.8600  -2.6353  -2.2170  -1.9641  -1.7596  -1.4305  -1.2550
    -1.1377  -0.8471  -0.4984  -0.3186  -0.1876  -0.0679   0.1065   0.3344
     0.4772   0.7102   0.9322

     the Fermi energy is    -0.3980 ev

!    total energy              =    -285.14421685 Ry
     Harris-Foulkes estimate   =    -285.14421697 Ry
     estimated scf accuracy    <       0.00000015 Ry

     The total energy is the sum of the following terms:

     one-electron contribution =    -135.69189605 Ry
     hartree contribution      =      82.07642520 Ry
     xc contribution           =     -95.11381585 Ry
     ewald contribution        =     -30.32229381 Ry
     one-center paw contrib.   =    -106.09192326 Ry
     smearing contrib. (-TS)   =      -0.00071309 Ry

     convergence has been achieved in  30 iterations

     Forces acting on atoms (cartesian axes, Ry/au):

     atom    1 type  1   force =    -0.03130088   -0.02250742   -0.04907934
     atom    2 type  1   force =     0.01514106   -0.02569722    0.02508093
     atom    3 type  2   force =     0.02018476    0.01229822    0.02467512
     atom    4 type  3   force =    -0.01055482   -0.00263216   -0.02338734
     atom    5 type  3   force =    -0.02115289   -0.02982448   -0.00382708
     atom    6 type  4   force =     0.00750174   -0.00713525   -0.01543003
     atom    7 type  4   force =     0.06266055   -0.01884432    0.00532107
     atom    8 type  4   force =     0.04194324    0.07131445    0.02249261
     atom    9 type  4   force =    -0.01834670    0.04515978   -0.02113269
     atom   10 type  4   force =    -0.09258539    0.00625589   -0.02422067
     atom   11 type  4   force =    -0.00376587    0.00195715    0.07083685
     atom   12 type  4   force =    -0.00834882    0.05349594   -0.05012707
     atom   13 type  5   force =     0.07841726   -0.05218276    0.01390437
     atom   14 type  5   force =    -0.01784144   -0.00994617   -0.01502696
     atom   15 type  5   force =    -0.00241688    0.00558676    0.01449506
     atom   16 type  5   force =     0.00251753    0.02627167   -0.00072669
     atom   17 type  5   force =     0.00135461    0.10229380   -0.05970851
     atom   18 type  5   force =     0.04934492   -0.00984124   -0.03744844
     atom   19 type  5   force =     0.05838501    0.04465970    0.02041072
     atom   20 type  5   force =    -0.05366522    0.03924239    0.00774650
     atom   21 type  5   force =     0.00344970   -0.01685803   -0.00108909
     atom   22 type  5   force =    -0.02209762   -0.00475306   -0.01873870
     atom   23 type  5   force =    -0.01521592   -0.04947553    0.05138345
     atom   24 type  5   force =     0.00582822    0.01959269   -0.01018010
     atom   25 type  5   force =    -0.05767703    0.02750090   -0.00839903
     atom   26 type  5   force =     0.00119342    0.00851030    0.00773666
     atom   27 type  5   force =    -0.01177273   -0.04271008    0.05693753
     atom   28 type  5   force =    -0.00593433   -0.09921830    0.05672121
     atom   29 type  5   force =     0.02828750    0.02868555   -0.01642080
     atom   30 type  5   force =    -0.00403576   -0.01136536    0.00404824
     atom   31 type  5   force =     0.03783190   -0.01716804    0.01954137
     atom   32 type  5   force =    -0.00933462    0.01499672   -0.01249292
     atom   33 type  5   force =    -0.00947511   -0.00937230   -0.03729872
     atom   34 type  5   force =    -0.02259401   -0.00535683    0.00297484
     atom   35 type  5   force =    -0.01236715   -0.04846287   -0.01699595
     atom   36 type  5   force =     0.06649740   -0.02874928    0.04732209
     atom   37 type  5   force =    -0.03488576    0.00389280    0.00674177
     atom   38 type  5   force =     0.02677782   -0.01041092    0.04735909
     atom   39 type  5   force =     0.04392274    0.00492530    0.02662986
     atom   40 type  5   force =    -0.03174994    0.01759139    0.03553909
     atom   41 type  5   force =    -0.02929474    0.02188056   -0.07084353
     atom   42 type  5   force =     0.01773900   -0.04623842   -0.04441754
     atom   43 type  5   force =    -0.03401275    0.00900799   -0.00227854
     atom   44 type  5   force =    -0.00855196    0.00363008   -0.02862868

     Total force =     0.388789     Total SCF correction =     0.000492


     Computing stress (Cartesian axis) and pressure

          total   stress  (Ry/bohr**3)                   (kbar)     P=    5.19
   0.00001320   0.00003534   0.00011783          1.94      5.20     17.33
   0.00003534   0.00015640   0.00010379          5.20     23.01     15.27
   0.00011783   0.00010379  -0.00006369         17.33     15.27     -9.37


     number of scf cycles    =   5
     number of bfgs steps    =   4

     enthalpy old            =    -284.5325021184 Ry
     enthalpy new            =    -285.1442168476 Ry

     CASE: enthalpy_new < enthalpy_old

     new trust radius        =       0.5898917358 bohr
     new conv_thr            =       0.0000010000 Ry

     new unit-cell volume =   4920.21753 a.u.^3 (   729.10101 Ang^3 )
     density =      0.85957 g/cm^3

CELL_PARAMETERS (angstrom)
   8.957467331   0.323037434   0.382841312
   0.318733660   9.544012848   0.368858983
   0.382006931   0.374312651   8.568522870

ATOMIC_POSITIONS (angstrom)
K        6.529545821   5.631068688   2.858631851
K        4.234195383   1.050851188   6.625326598
Ba       6.748763670   6.720087500   5.845125238
Al       3.594983283   3.925589482   4.919213146
Al       2.306907311   8.425070890   6.452532835
B        1.813177988   8.398803026   2.297149141
B        3.814746599   5.046982051   7.606552994
B        8.231095094   8.834744532   6.520987716
B        4.013368988   6.205643631   5.706440842
B        6.762564566   2.578466645   3.005322243
B        5.248075706   3.050996762   1.837051572
B        4.748890856   7.332305026   1.294766217
H        7.625779701   4.422000710   5.010962670
H        3.824130704   7.978158007   1.971976622
H        1.709313136   7.040487892   6.888867906
H        6.969395720   8.983009567   6.257634728
H        1.523170928   3.425192092   3.152994382
H        6.065901280   3.298785253   4.433973485
H        8.571390083   6.933851184   3.142572162
H        4.651264797   6.437915209   6.919332647
H        6.204529197   5.060231609   7.287575605
H        8.239629266   1.657001636   7.861004511
H        4.591829772   6.887442405   4.533468137
H        6.458029450   2.844812870   7.520934377
H        8.321542685   4.292869458   5.122015147
H        1.864051454   7.886708856   4.453147060
H        5.430116068   8.594267754   8.372499230
H        1.496610165   3.639042713   2.959829597
H        2.670175059   5.922154611   5.809591228
H        2.061278846   8.361567577   3.886694129
H        6.175329177   1.434827844   3.063101919
H        3.697642344   2.682899826   1.160288639
H        4.992408852   5.053063834   6.140041544
H        3.288572702   2.433096156   1.790565913
H        5.235715101   1.616716048   1.899445750
H        5.803392942   3.880115274   6.771549227
H        4.151054686   8.209961933   6.071008341
H        7.738764913   2.451555017   2.340131898
H        6.202986155   2.045192548   3.953254433
H        5.016681043   5.228918555   8.218314603
H        4.643535515   3.198653854   3.255668645
H        5.535793752   4.486385948   5.271051794
H        4.494166066   3.966645063   7.470757832
H        5.067777934   1.210966206   1.251050620



     Writing output data file 00_K2BaAl2B7H32_Monster.save
     NEW-OLD atomic charge density approx. for the potential

     negative rho (up, down):  2.000E-04 0.000E+00
     extrapolated charge   75.13814, renormalised to   71.00000

     total cpu time spent up to now is     8007.5 secs

     Self-consistent Calculation

     iteration #  1     ecut=    50.00 Ry     beta=0.70
     Davidson diagonalization with overlap
     ethr =  1.00E-06,  avg # of iterations = 14.8

     negative rho (up, down):  1.956E-06 0.000E+00

     total cpu time spent up to now is     8079.7 secs

     total energy              =    -278.22312533 Ry
     Harris-Foulkes estimate   =    -279.94518368 Ry
     estimated scf accuracy    <       7.01795899 Ry

     iteration #  2     ecut=    50.00 Ry     beta=0.70
     Davidson diagonalization with overlap
     ethr =  9.88E-03,  avg # of iterations =  5.1

     negative rho (up, down):  2.201E-06 0.000E+00

     total cpu time spent up to now is     8120.0 secs

     total energy              =    -277.75628201 Ry
     Harris-Foulkes estimate   =    -300.53655649 Ry
     estimated scf accuracy    <      89.49334629 Ry

     iteration #  3     ecut=    50.00 Ry     beta=0.70
     Davidson diagonalization with overlap
     ethr =  9.88E-03,  avg # of iterations =  5.6

     negative rho (up, down):  3.554E-06 0.000E+00

     total cpu time spent up to now is     8155.2 secs

     total energy              =    -284.37903280 Ry
     Harris-Foulkes estimate   =    -286.61212727 Ry
     estimated scf accuracy    <      11.49164156 Ry

     iteration #  4     ecut=    50.00 Ry     beta=0.70
     Davidson diagonalization with overlap
     ethr =  9.88E-03,  avg # of iterations =  3.0

     negative rho (up, down):  2.156E-06 0.000E+00

     total cpu time spent up to now is     8179.0 secs

     total energy              =    -284.68887659 Ry
     Harris-Foulkes estimate   =    -285.20244654 Ry
     estimated scf accuracy    <       4.17809531 Ry

     iteration #  5     ecut=    50.00 Ry     beta=0.70
     Davidson diagonalization with overlap
     ethr =  5.88E-03,  avg # of iterations =  1.9

     negative rho (up, down):  8.942E-07 0.000E+00

     total cpu time spent up to now is     8201.0 secs

     total energy              =    -284.61726424 Ry
     Harris-Foulkes estimate   =    -284.85333953 Ry
     estimated scf accuracy    <       2.32214066 Ry

     iteration #  6     ecut=    50.00 Ry     beta=0.70
     Davidson diagonalization with overlap
     ethr =  3.27E-03,  avg # of iterations =  2.4

     negative rho (up, down):  5.952E-08 0.000E+00

     total cpu time spent up to now is     8223.6 secs

     total energy              =    -284.48582821 Ry
     Harris-Foulkes estimate   =    -284.72592669 Ry
     estimated scf accuracy    <       1.51063649 Ry

     iteration #  7     ecut=    50.00 Ry     beta=0.70
     Davidson diagonalization with overlap
     ethr =  2.13E-03,  avg # of iterations =  1.9

     negative rho (up, down):  1.284E-05 0.000E+00

     total cpu time spent up to now is     8245.6 secs

     total energy              =    -284.40511313 Ry
     Harris-Foulkes estimate   =    -284.54543148 Ry
     estimated scf accuracy    <       0.79206259 Ry

     iteration #  8     ecut=    50.00 Ry     beta=0.70
     Davidson diagonalization with overlap
     ethr =  1.12E-03,  avg # of iterations =  5.4

     negative rho (up, down):  2.393E-05 0.000E+00

     total cpu time spent up to now is     8272.1 secs

     total energy              =    -284.45932375 Ry
     Harris-Foulkes estimate   =    -284.51985974 Ry
     estimated scf accuracy    <       0.53714595 Ry

     iteration #  9     ecut=    50.00 Ry     beta=0.70
     Davidson diagonalization with overlap
     ethr =  7.57E-04,  avg # of iterations =  1.0

     negative rho (up, down):  1.191E-05 0.000E+00

     total cpu time spent up to now is     8294.4 secs

     total energy              =    -284.48535152 Ry
     Harris-Foulkes estimate   =    -284.49989631 Ry
     estimated scf accuracy    <       0.09845299 Ry

     iteration # 10     ecut=    50.00 Ry     beta=0.70
     Davidson diagonalization with overlap
     ethr =  1.39E-04,  avg # of iterations =  3.5

     negative rho (up, down):  7.708E-06 0.000E+00

     total cpu time spent up to now is     8318.1 secs

     total energy              =    -284.48811391 Ry
     Harris-Foulkes estimate   =    -284.49444627 Ry
     estimated scf accuracy    <       0.05716284 Ry

     iteration # 11     ecut=    50.00 Ry     beta=0.70
     Davidson diagonalization with overlap
     ethr =  8.05E-05,  avg # of iterations =  4.8

     total cpu time spent up to now is     8343.2 secs

     total energy              =    -284.45558674 Ry
     Harris-Foulkes estimate   =    -284.49848988 Ry
     estimated scf accuracy    <       0.16384369 Ry

     iteration # 12     ecut=    50.00 Ry     beta=0.70
     Davidson diagonalization with overlap
     ethr =  8.05E-05,  avg # of iterations =  6.4

     total cpu time spent up to now is     8371.5 secs

     total energy              =    -284.47927502 Ry
     Harris-Foulkes estimate   =    -284.50220479 Ry
     estimated scf accuracy    <       0.12032973 Ry

     iteration # 13     ecut=    50.00 Ry     beta=0.70
     Davidson diagonalization with overlap
     ethr =  8.05E-05,  avg # of iterations =  5.5

     total cpu time spent up to now is     8397.1 secs

     total energy              =    -284.48579341 Ry
     Harris-Foulkes estimate   =    -284.48743954 Ry
     estimated scf accuracy    <       0.01141392 Ry

     iteration # 14     ecut=    50.00 Ry     beta=0.70
     Davidson diagonalization with overlap
     ethr =  1.61E-05,  avg # of iterations =  2.6

     total cpu time spent up to now is     8420.3 secs

     total energy              =    -284.48610300 Ry
     Harris-Foulkes estimate   =    -284.48667484 Ry
     estimated scf accuracy    <       0.00568232 Ry

     iteration # 15     ecut=    50.00 Ry     beta=0.70
     Davidson diagonalization with overlap
     ethr =  8.00E-06,  avg # of iterations =  3.1

     total cpu time spent up to now is     8443.0 secs

     total energy              =    -284.48612767 Ry
     Harris-Foulkes estimate   =    -284.48642481 Ry
     estimated scf accuracy    <       0.00208649 Ry

     iteration # 16     ecut=    50.00 Ry     beta=0.70
     Davidson diagonalization with overlap
     ethr =  2.94E-06,  avg # of iterations =  4.6

     total cpu time spent up to now is     8468.2 secs

     total energy              =    -284.48627719 Ry
     Harris-Foulkes estimate   =    -284.48630808 Ry
     estimated scf accuracy    <       0.00017210 Ry

     iteration # 17     ecut=    50.00 Ry     beta=0.70
     Davidson diagonalization with overlap
     ethr =  2.42E-07,  avg # of iterations =  2.9

     total cpu time spent up to now is     8492.5 secs

     total energy              =    -284.48629335 Ry
     Harris-Foulkes estimate   =    -284.48630533 Ry
     estimated scf accuracy    <       0.00004525 Ry

     iteration # 18     ecut=    50.00 Ry     beta=0.70
     Davidson diagonalization with overlap
     ethr =  6.37E-08,  avg # of iterations =  2.6

     total cpu time spent up to now is     8515.9 secs

     total energy              =    -284.48629684 Ry
     Harris-Foulkes estimate   =    -284.48630539 Ry
     estimated scf accuracy    <       0.00004507 Ry

     iteration # 19     ecut=    50.00 Ry     beta=0.70
     Davidson diagonalization with overlap
     ethr =  6.35E-08,  avg # of iterations =  1.9

     total cpu time spent up to now is     8538.5 secs

     total energy              =    -284.48629913 Ry
     Harris-Foulkes estimate   =    -284.48630403 Ry
     estimated scf accuracy    <       0.00001751 Ry

     iteration # 20     ecut=    50.00 Ry     beta=0.70
     Davidson diagonalization with overlap
     ethr =  2.47E-08,  avg # of iterations =  2.0

     total cpu time spent up to now is     8560.9 secs

     total energy              =    -284.48630113 Ry
     Harris-Foulkes estimate   =    -284.48630261 Ry
     estimated scf accuracy    <       0.00000638 Ry

     iteration # 21     ecut=    50.00 Ry     beta=0.70
     Davidson diagonalization with overlap
     ethr =  8.98E-09,  avg # of iterations =  2.1

     total cpu time spent up to now is     8584.1 secs

     total energy              =    -284.48630173 Ry
     Harris-Foulkes estimate   =    -284.48630223 Ry
     estimated scf accuracy    <       0.00000235 Ry

     iteration # 22     ecut=    50.00 Ry     beta=0.70
     Davidson diagonalization with overlap
     ethr =  3.31E-09,  avg # of iterations =  1.9

     total cpu time spent up to now is     8606.0 secs

     End of self-consistent calculation

          k = 0.0000 0.0000 0.0000 ( 21247 PWs)   bands (ev):

   -28.5663 -14.6879 -14.1106 -13.9491 -12.7818 -11.9233 -10.3770 -10.2387
   -10.0624  -9.0825  -8.6425  -8.0169  -7.9124  -7.7920  -7.5395  -6.5973
    -6.3753  -6.2772  -6.1972  -5.7523  -4.9288  -4.6259  -4.2934  -4.1830
    -3.6557  -3.3037  -3.1287  -2.2787  -2.0471  -1.7897  -1.6487  -1.3520
    -0.9855  -0.8824  -0.5900  -0.4890  -0.2822  -0.1676   0.0717   0.1385
     0.5592   0.6499   0.7340

          k = 0.0196 0.0176-0.4733 ( 21362 PWs)   bands (ev):

   -28.5663 -14.6876 -14.1110 -13.9495 -12.7755 -11.9378 -10.3780 -10.2269
   -10.0505  -9.0628  -8.7267  -8.0862  -7.9072  -7.7935  -7.3251  -6.6982
    -6.3911  -6.2586  -6.1635  -5.7638  -4.9818  -4.6109  -4.2974  -4.0541
    -3.7017  -3.3793  -3.1047  -2.2715  -2.0208  -1.7514  -1.6406  -1.3833
    -1.0195  -0.7745  -0.7059  -0.5258  -0.3024  -0.2115  -0.0163   0.1156
     0.4117   0.5554   0.7302

          k = 0.0341-0.4070-0.4554 ( 21216 PWs)   bands (ev):

   -28.5663 -14.6879 -14.1111 -13.9496 -12.7736 -11.9367 -10.3749 -10.2256
   -10.0567  -9.0656  -8.7347  -8.1163  -7.9044  -7.7457  -7.3463  -6.6856
    -6.3803  -6.2518  -6.1867  -5.7604  -4.9740  -4.6303  -4.2516  -4.0174
    -3.7196  -3.3324  -3.1076  -2.3794  -1.9091  -1.7341  -1.6118  -1.4802
    -1.2051  -0.9300  -0.7388  -0.5663  -0.3835  -0.1866   0.0776   0.3593
     0.4497   0.5432   0.7656

          k =-0.4184-0.3926-0.4358 ( 21368 PWs)   bands (ev):

   -28.5663 -14.6888 -14.1112 -13.9497 -12.7731 -11.9302 -10.4067 -10.1905
   -10.0603  -9.0624  -8.7607  -8.0809  -7.9167  -7.7618  -7.3411  -6.6801
    -6.3898  -6.2589  -6.1810  -5.8056  -4.9663  -4.6253  -4.2599  -3.9294
    -3.6583  -3.3548  -2.9857  -2.4766  -2.0136  -1.8034  -1.6242  -1.4051
    -1.2655  -0.8090  -0.7312  -0.6779  -0.3654  -0.1763  -0.0443   0.1928
     0.4771   0.5457   0.7987

          k =-0.4525 0.0144 0.0195 ( 21362 PWs)   bands (ev):

   -28.5663 -14.6888 -14.1108 -13.9492 -12.7811 -11.9168 -10.4120 -10.2023
   -10.0643  -9.0810  -8.6609  -8.0049  -7.9608  -7.7536  -7.5185  -6.6057
    -6.3811  -6.2868  -6.1934  -5.8071  -4.9415  -4.6271  -4.2904  -4.0777
    -3.6570  -3.2913  -2.8960  -2.4692  -2.0132  -1.8200  -1.6049  -1.3747
    -1.0333  -1.0150  -0.8593  -0.5890  -0.1649  -0.1586   0.1072   0.3102
     0.4870   0.5762   0.8173

          k = 0.0145-0.4246 0.0179 ( 21362 PWs)   bands (ev):

   -28.5663 -14.6883 -14.1107 -13.9492 -12.7792 -11.9241 -10.3756 -10.2386
   -10.0628  -9.0884  -8.6552  -8.0117  -7.9061  -7.8194  -7.5255  -6.5845
    -6.3663  -6.2638  -6.2027  -5.7599  -4.9304  -4.6228  -4.2781  -4.1270
    -3.6805  -3.3100  -3.1291  -2.3595  -1.9619  -1.7794  -1.6705  -1.3195
    -1.0318  -0.9274  -0.8385  -0.5550  -0.2798  -0.1708   0.0967   0.3697
     0.4464   0.6597   0.8615

          k =-0.4721-0.0033 0.4928 ( 21216 PWs)   bands (ev):

   -28.5663 -14.6885 -14.1111 -13.9496 -12.7747 -11.9312 -10.4104 -10.1917
   -10.0506  -9.0604  -8.7533  -8.0547  -7.9122  -7.8058  -7.3268  -6.6846
    -6.3958  -6.2630  -6.1763  -5.8041  -4.9704  -4.6148  -4.3074  -3.9801
    -3.6923  -3.3587  -2.8764  -2.4826  -1.9524  -1.6509  -1.6159  -1.4340
    -1.1718  -1.1058  -0.8063  -0.5885  -0.4570  -0.1049   0.1968   0.3241
     0.3562   0.5711   0.7195

          k =-0.4671 0.4390 0.0016 ( 21216 PWs)   bands (ev):

   -28.5663 -14.6892 -14.1109 -13.9493 -12.7785 -11.9174 -10.4093 -10.2024
   -10.0646  -9.0861  -8.6726  -8.0017  -7.9484  -7.7964  -7.4927  -6.5906
    -6.3711  -6.2804  -6.1994  -5.8120  -4.9442  -4.6114  -4.2746  -3.9902
    -3.6836  -3.2944  -3.0019  -2.4725  -2.0510  -1.8307  -1.5863  -1.4629
    -1.0910  -0.8988  -0.6696  -0.5411  -0.3571  -0.1448   0.0194   0.2071
     0.5145   0.6562   0.7563

     the Fermi energy is    -0.5499 ev

!    total energy              =    -284.48630160 Ry
     Harris-Foulkes estimate   =    -284.48630207 Ry
     estimated scf accuracy    <       0.00000054 Ry

     The total energy is the sum of the following terms:

     one-electron contribution =    -129.75372307 Ry
     hartree contribution      =      78.70214961 Ry
     xc contribution           =     -95.27693364 Ry
     ewald contribution        =     -32.10232257 Ry
     one-center paw contrib.   =    -106.05579971 Ry
     smearing contrib. (-TS)   =       0.00032777 Ry

     convergence has been achieved in  22 iterations

     Forces acting on atoms (cartesian axes, Ry/au):

     atom    1 type  1   force =    -0.00149035   -0.02394709   -0.03803167
     atom    2 type  1   force =     0.02137655    0.02252735    0.01664235
     atom    3 type  2   force =     0.02075129   -0.00839645    0.01606672
     atom    4 type  3   force =     0.01503272    0.00159264    0.01207427
     atom    5 type  3   force =    -0.01151690   -0.01345305   -0.01315940
     atom    6 type  4   force =     0.00128473   -0.00733463   -0.02058800
     atom    7 type  4   force =     0.06700010    0.01820775    0.00110842
     atom    8 type  4   force =     0.02021008    0.03639183    0.01553090
     atom    9 type  4   force =    -0.03477670    0.01519388    0.01430214
     atom   10 type  4   force =    -0.08088771    0.01641239   -0.05541996
     atom   11 type  4   force =     0.03047564    0.02854806    0.10739690
     atom   12 type  4   force =     0.00762441    0.05141413   -0.06340206
     atom   13 type  5   force =    -0.05203671   -0.00080364   -0.00467021
     atom   14 type  5   force =    -0.01709673   -0.00581959   -0.01678575
     atom   15 type  5   force =    -0.00701331   -0.01065948    0.01822441
     atom   16 type  5   force =     0.01260950    0.03280420    0.00528807
     atom   17 type  5   force =     0.45617553   -3.70522077    3.34148411
     atom   18 type  5   force =     0.04002384   -0.01428531   -0.04878785
     atom   19 type  5   force =     0.01985909    0.01882674    0.01725207
     atom   20 type  5   force =    -0.05481964    0.00598339   -0.03171929
     atom   21 type  5   force =    -0.01885634   -0.02996275   -0.00721786
     atom   22 type  5   force =    -0.02228558   -0.01539238   -0.02349120
     atom   23 type  5   force =    -0.02319521   -0.05499855    0.06384200
     atom   24 type  5   force =    -0.01918662    0.02838755   -0.03153643
     atom   25 type  5   force =     0.06245841   -0.00500303    0.00925809
     atom   26 type  5   force =    -0.01694242   -0.03735207    0.05857011
     atom   27 type  5   force =    -0.02046177   -0.04914815    0.07740898
     atom   28 type  5   force =    -0.46288070    3.70572762   -3.34686063
     atom   29 type  5   force =     0.08403339    0.03720969   -0.01735008
     atom   30 type  5   force =     0.01594701    0.03508424   -0.04445350
     atom   31 type  5   force =     0.02262063    0.00630014    0.00542797
     atom   32 type  5   force =    -0.01557115    0.01005967    0.00297409
     atom   33 type  5   force =    -0.02096709    0.00755435   -0.03569612
     atom   34 type  5   force =    -0.01866320   -0.00399624   -0.01481648
     atom   35 type  5   force =     0.00395551   -0.04562089   -0.00001983
     atom   36 type  5   force =     0.07140720   -0.03039517    0.05942581
     atom   37 type  5   force =    -0.04947928    0.00462760    0.00584371
     atom   38 type  5   force =     0.03395566    0.00058898    0.03470640
     atom   39 type  5   force =     0.01216141   -0.00154862    0.05255503
     atom   40 type  5   force =    -0.02976639    0.01390157    0.01129151
     atom   41 type  5   force =    -0.02401740    0.00769554   -0.07424076
     atom   42 type  5   force =     0.01446684   -0.03498626   -0.02129077
     atom   43 type  5   force =    -0.02016066   -0.00769137   -0.01497329
     atom   44 type  5   force =    -0.01135771    0.00097621   -0.02216289

     Total force =     7.098191     Total SCF correction =     0.000744


     Computing stress (Cartesian axis) and pressure

          total   stress  (Ry/bohr**3)                   (kbar)     P=   13.99
  -0.00011030  -0.00007765   0.00009633        -16.23    -11.42     14.17
  -0.00007765   0.00031118  -0.00023146        -11.42     45.78    -34.05
   0.00009633  -0.00023146   0.00008442         14.17    -34.05     12.42


     number of scf cycles    =   6
     number of bfgs steps    =   5

     enthalpy old            =    -285.1442168476 Ry
     enthalpy new            =    -284.4863016019 Ry

     CASE: enthalpy_new > enthalpy_old

     new trust radius        =       0.1565213432 bohr
     new conv_thr            =       0.0000010000 Ry

     new unit-cell volume =   4706.11319 a.u.^3 (   697.37402 Ang^3 )
     density =      0.89868 g/cm^3

CELL_PARAMETERS (angstrom)
   8.817367407   0.256886650   0.279081776
   0.253273382   9.288635693   0.272556547
   0.277761598   0.275711382   8.537997609

ATOMIC_POSITIONS (angstrom)
K        6.405385817   5.337377172   2.771502248
K        4.133108971   1.145038132   6.525181840
Ba       6.513610292   6.358169683   5.644173916
Al       3.543978881   3.760848791   4.959144811
Al       2.230047644   8.150256491   6.322190770
B        1.694676054   8.158646609   2.201244429
B        3.587602669   4.846824261   7.464433331
B        7.900847057   8.278061500   6.267400817
B        3.816017976   5.942206631   5.635612813
B        6.707541890   2.474023736   2.948563235
B        5.205904114   3.009447760   1.712529814
B        4.635947869   7.011554223   1.238440282
H        7.364104027   4.296584979   4.867472380
H        3.732923272   7.745601462   1.870903002
H        1.572855159   6.765724150   6.759102302
H        6.704902455   8.627992696   6.077300348
H        1.432112239   3.080997880   3.188709493
H        5.829742001   3.149345504   4.365689402
H        8.229704345   6.550101743   2.928135134
H        4.548318403   6.043201369   6.743675327
H        5.935392938   4.809891412   7.136017447
H        8.055494866   1.491150547   7.760163507
H        4.450766811   6.714423279   4.343016398
H        6.179099907   2.586385253   7.377420778
H        8.116516740   4.068802516   4.977803338
H        1.726940898   7.587848077   4.348105942
H        5.222148197   8.322174415   8.132236099
H        1.437755690   3.709428784   2.807225374
H        2.574066645   5.622708737   5.731838476
H        1.956882507   8.131850581   3.763115199
H        5.977004650   1.407294893   2.930910961
H        3.634225162   2.556794326   1.098922908
H        4.826383880   4.852615039   6.093770591
H        3.236513781   2.337209097   1.731307764
H        5.173482138   1.599188466   1.879838771
H        5.481715468   3.757259153   6.598367925
H        3.970059747   7.867216351   5.926991953
H        7.564129385   2.328212049   2.117179468
H        5.957234650   1.905501922   3.793864556
H        4.854387508   4.923710456   7.972719422
H        4.583581180   2.999092158   3.262886024
H        5.365852232   4.404448108   5.258866426
H        4.393619546   3.742843961   7.341900403
H        4.993922803   1.158029117   1.248033332



     Writing output data file 00_K2BaAl2B7H32_Monster.save
     NEW-OLD atomic charge density approx. for the potential

     negative rho (up, down):  8.940E-05 0.000E+00
     extrapolated charge   67.77257, renormalised to   71.00000

     total cpu time spent up to now is     9430.6 secs

     Self-consistent Calculation

     iteration #  1     ecut=    50.00 Ry     beta=0.70
     Davidson diagonalization with overlap
     ethr =  1.00E-06,  avg # of iterations = 16.9

     total cpu time spent up to now is     9508.5 secs

     total energy              =    -282.40081865 Ry
     Harris-Foulkes estimate   =    -290.14982215 Ry
     estimated scf accuracy    <       3.14839243 Ry

     iteration #  2     ecut=    50.00 Ry     beta=0.70
     Davidson diagonalization with overlap
     ethr =  4.43E-03,  avg # of iterations =  5.0

     negative rho (up, down):  9.004E-08 0.000E+00

     total cpu time spent up to now is     9547.1 secs

     total energy              =    -281.98361492 Ry
     Harris-Foulkes estimate   =    -292.66480076 Ry
     estimated scf accuracy    <      46.18053475 Ry

     iteration #  3     ecut=    50.00 Ry     beta=0.70
     Davidson diagonalization with overlap
     ethr =  4.43E-03,  avg # of iterations =  4.4

     total cpu time spent up to now is     9579.0 secs

     total energy              =    -285.19735831 Ry
     Harris-Foulkes estimate   =    -286.26558683 Ry
     estimated scf accuracy    <       4.03929271 Ry

     iteration #  4     ecut=    50.00 Ry     beta=0.70
     Davidson diagonalization with overlap
     ethr =  4.43E-03,  avg # of iterations =  2.0

     total cpu time spent up to now is     9601.7 secs

     total energy              =    -285.34450658 Ry
     Harris-Foulkes estimate   =    -285.57882683 Ry
     estimated scf accuracy    <       2.21300716 Ry

     iteration #  5     ecut=    50.00 Ry     beta=0.70
     Davidson diagonalization with overlap
     ethr =  3.12E-03,  avg # of iterations =  1.2

     total cpu time spent up to now is     9623.1 secs

     total energy              =    -285.31408772 Ry
     Harris-Foulkes estimate   =    -285.44503512 Ry
     estimated scf accuracy    <       1.14458343 Ry

     iteration #  6     ecut=    50.00 Ry     beta=0.70
     Davidson diagonalization with overlap
     ethr =  1.61E-03,  avg # of iterations =  1.8

     total cpu time spent up to now is     9644.8 secs

     total energy              =    -285.25252279 Ry
     Harris-Foulkes estimate   =    -285.38282945 Ry
     estimated scf accuracy    <       0.83056544 Ry

     iteration #  7     ecut=    50.00 Ry     beta=0.70
     Davidson diagonalization with overlap
     ethr =  1.17E-03,  avg # of iterations =  2.4

     total cpu time spent up to now is     9667.9 secs

     total energy              =    -285.26767084 Ry
     Harris-Foulkes estimate   =    -285.30051109 Ry
     estimated scf accuracy    <       0.16612478 Ry

     iteration #  8     ecut=    50.00 Ry     beta=0.70
     Davidson diagonalization with overlap
     ethr =  2.34E-04,  avg # of iterations =  5.6

     total cpu time spent up to now is     9696.9 secs

     total energy              =    -285.28635296 Ry
     Harris-Foulkes estimate   =    -285.29637856 Ry
     estimated scf accuracy    <       0.05225370 Ry

     iteration #  9     ecut=    50.00 Ry     beta=0.70
     Davidson diagonalization with overlap
     ethr =  7.36E-05,  avg # of iterations =  1.8

     total cpu time spent up to now is     9719.1 secs

     total energy              =    -285.28733562 Ry
     Harris-Foulkes estimate   =    -285.29470576 Ry
     estimated scf accuracy    <       0.03242211 Ry

     iteration # 10     ecut=    50.00 Ry     beta=0.70
     Davidson diagonalization with overlap
     ethr =  4.57E-05,  avg # of iterations =  1.6

     total cpu time spent up to now is     9741.0 secs

     total energy              =    -285.29043507 Ry
     Harris-Foulkes estimate   =    -285.29231205 Ry
     estimated scf accuracy    <       0.00820556 Ry

     iteration # 11     ecut=    50.00 Ry     beta=0.70
     Davidson diagonalization with overlap
     ethr =  1.16E-05,  avg # of iterations =  5.9

     total cpu time spent up to now is     9766.3 secs

     total energy              =    -285.29093721 Ry
     Harris-Foulkes estimate   =    -285.29174794 Ry
     estimated scf accuracy    <       0.00259541 Ry

     iteration # 12     ecut=    50.00 Ry     beta=0.70
     Davidson diagonalization with overlap
     ethr =  3.66E-06,  avg # of iterations =  3.6

     total cpu time spent up to now is     9791.7 secs

     total energy              =    -285.29119407 Ry
     Harris-Foulkes estimate   =    -285.29164415 Ry
     estimated scf accuracy    <       0.00188219 Ry

     iteration # 13     ecut=    50.00 Ry     beta=0.70
     Davidson diagonalization with overlap
     ethr =  2.65E-06,  avg # of iterations =  2.0

     total cpu time spent up to now is     9813.9 secs

     total energy              =    -285.29137823 Ry
     Harris-Foulkes estimate   =    -285.29147751 Ry
     estimated scf accuracy    <       0.00036478 Ry

     iteration # 14     ecut=    50.00 Ry     beta=0.70
     Davidson diagonalization with overlap
     ethr =  5.14E-07,  avg # of iterations =  2.4

     total cpu time spent up to now is     9837.2 secs

     total energy              =    -285.29142422 Ry
     Harris-Foulkes estimate   =    -285.29144764 Ry
     estimated scf accuracy    <       0.00006049 Ry

     iteration # 15     ecut=    50.00 Ry     beta=0.70
     Davidson diagonalization with overlap
     ethr =  8.52E-08,  avg # of iterations =  3.0

     total cpu time spent up to now is     9862.0 secs

     total energy              =    -285.29143072 Ry
     Harris-Foulkes estimate   =    -285.29144434 Ry
     estimated scf accuracy    <       0.00006940 Ry

     iteration # 16     ecut=    50.00 Ry     beta=0.70
     Davidson diagonalization with overlap
     ethr =  8.52E-08,  avg # of iterations =  2.0

     total cpu time spent up to now is     9884.4 secs

     total energy              =    -285.29143458 Ry
     Harris-Foulkes estimate   =    -285.29144370 Ry
     estimated scf accuracy    <       0.00004610 Ry

     iteration # 17     ecut=    50.00 Ry     beta=0.70
     Davidson diagonalization with overlap
     ethr =  6.49E-08,  avg # of iterations =  1.8

     total cpu time spent up to now is     9906.9 secs

     total energy              =    -285.29143886 Ry
     Harris-Foulkes estimate   =    -285.29143969 Ry
     estimated scf accuracy    <       0.00000221 Ry

     iteration # 18     ecut=    50.00 Ry     beta=0.70
     Davidson diagonalization with overlap
     ethr =  3.11E-09,  avg # of iterations =  3.5

     total cpu time spent up to now is     9933.1 secs

     total energy              =    -285.29143937 Ry
     Harris-Foulkes estimate   =    -285.29143967 Ry
     estimated scf accuracy    <       0.00000115 Ry

     iteration # 19     ecut=    50.00 Ry     beta=0.70
     Davidson diagonalization with overlap
     ethr =  1.62E-09,  avg # of iterations =  2.1

     total cpu time spent up to now is     9955.6 secs

     End of self-consistent calculation

          k = 0.0000 0.0000 0.0000 ( 21247 PWs)   bands (ev):

   -28.1802 -15.2328 -13.9874 -13.5906 -13.3568 -12.4886 -10.2416  -9.9116
    -9.3749  -8.7997  -7.9990  -7.8238  -7.5578  -7.3722  -7.0763  -6.9850
    -6.6055  -6.4357  -5.9566  -5.3483  -4.6915  -4.5128  -4.0084  -3.8169
    -3.2794  -2.9628  -2.8711  -2.0490  -1.9605  -1.6909  -1.5823  -1.1550
    -1.0287  -0.8466  -0.4389  -0.3730  -0.2011  -0.1296   0.0762   0.2509
     0.6349   0.7076   0.8084

          k = 0.0146 0.0135-0.4742 ( 21362 PWs)   bands (ev):

   -28.1802 -15.2324 -13.9884 -13.5910 -13.3540 -12.4955 -10.2371  -9.8856
    -9.3586  -8.9131  -7.9927  -7.7331  -7.5881  -7.2965  -7.1152  -7.0021
    -6.5868  -6.4217  -5.9996  -5.3577  -4.7229  -4.4344  -4.0182  -3.8130
    -3.2664  -2.9849  -2.8573  -2.0993  -1.8523  -1.6471  -1.6083  -1.2764
    -0.9859  -0.7883  -0.5898  -0.3998  -0.2033  -0.1119   0.0278   0.1445
     0.4999   0.6356   0.8024

          k = 0.0269-0.4223-0.4606 ( 21216 PWs)   bands (ev):

   -28.1802 -15.2326 -13.9888 -13.5912 -13.3516 -12.4948 -10.2320  -9.8966
    -9.3571  -8.9185  -8.0082  -7.7588  -7.5556  -7.2957  -7.1207  -6.9735
    -6.5942  -6.4089  -6.0154  -5.3502  -4.7277  -4.4110  -3.9619  -3.7948
    -3.3010  -3.0172  -2.7813  -2.2223  -1.7717  -1.6350  -1.5448  -1.3033
    -1.1490  -0.8919  -0.7362  -0.5211  -0.2945  -0.0996   0.1357   0.4148
     0.5320   0.6112   0.8615

          k =-0.4323-0.4102-0.4460 ( 21368 PWs)   bands (ev):

   -28.1802 -15.2336 -13.9888 -13.5915 -13.3515 -12.4901 -10.2340  -9.8971
    -9.3546  -8.9152  -8.0602  -7.7003  -7.5670  -7.3975  -7.0851  -6.8196
    -6.6603  -6.4304  -6.0189  -5.4220  -4.7138  -4.4191  -3.9550  -3.6642
    -3.1698  -2.9915  -2.7745  -2.2839  -1.9905  -1.7405  -1.5262  -1.3082
    -1.2031  -0.7816  -0.6633  -0.5059  -0.3037  -0.0455   0.0823   0.2662
     0.3613   0.6487   0.8934

          k =-0.4591 0.0121 0.0145 ( 21362 PWs)   bands (ev):

   -28.1802 -15.2338 -13.9875 -13.5909 -13.3566 -12.4837 -10.2448  -9.9109
    -9.3734  -8.7937  -8.0432  -7.8004  -7.5745  -7.4358  -6.9926  -6.8852
    -6.6648  -6.4614  -5.9601  -5.4314  -4.7002  -4.5131  -3.9209  -3.7628
    -3.2223  -2.9005  -2.7671  -2.2730  -1.8866  -1.7914  -1.4745  -1.2659
    -0.9723  -0.9099  -0.7996  -0.4921  -0.1434  -0.1102   0.2151   0.3616
     0.5331   0.6603   0.9188

          k = 0.0123-0.4358 0.0137 ( 21362 PWs)   bands (ev):

   -28.1802 -15.2332 -13.9879 -13.5911 -13.3538 -12.4890 -10.2386  -9.9144
    -9.3780  -8.8111  -8.0038  -7.8365  -7.5715  -7.3533  -7.0778  -6.9626
    -6.6034  -6.4194  -5.9640  -5.3520  -4.6903  -4.4717  -3.9460  -3.8331
    -3.3728  -2.9324  -2.8385  -2.1872  -1.8488  -1.6326  -1.6085  -1.1498
    -0.9927  -0.9042  -0.7804  -0.4774  -0.2089  -0.1590   0.2038   0.3843
     0.5937   0.7028   0.9849

          k =-0.4738-0.0014 0.4888 ( 21216 PWs)   bands (ev):

   -28.1802 -15.2333 -13.9884 -13.5913 -13.3536 -12.4906 -10.2408  -9.8819
    -9.3584  -8.9102  -8.0408  -7.6986  -7.5720  -7.4006  -7.0937  -6.8312
    -6.6596  -6.4407  -6.0090  -5.4225  -4.7141  -4.4376  -4.0052  -3.7037
    -3.2400  -2.8739  -2.7589  -2.3161  -1.8733  -1.5833  -1.4929  -1.3457
    -1.0780  -1.0335  -0.7286  -0.5101  -0.4117  -0.0757   0.2840   0.3183
     0.4564   0.7077   0.8226

          k =-0.4714 0.4479 0.0009 ( 21216 PWs)   bands (ev):

   -28.1802 -15.2340 -13.9879 -13.5914 -13.3535 -12.4841 -10.2409  -9.9143
    -9.3764  -8.8040  -8.0469  -7.8090  -7.6110  -7.3998  -6.9764  -6.8815
    -6.6550  -6.4509  -5.9665  -5.4366  -4.6996  -4.4735  -3.8835  -3.7097
    -3.2901  -2.9346  -2.7712  -2.2681  -2.0117  -1.7873  -1.4659  -1.3008
    -1.1256  -0.8479  -0.5458  -0.3769  -0.2424  -0.0919   0.0775   0.2934
     0.4866   0.6931   0.9028

     the Fermi energy is    -0.4464 ev

!    total energy              =    -285.29143897 Ry
     Harris-Foulkes estimate   =    -285.29143962 Ry
     estimated scf accuracy    <       0.00000074 Ry

     The total energy is the sum of the following terms:

     one-electron contribution =    -133.89635195 Ry
     hartree contribution      =      81.07272179 Ry
     xc contribution           =     -95.10077566 Ry
     ewald contribution        =     -31.28515456 Ry
     one-center paw contrib.   =    -106.08208636 Ry
     smearing contrib. (-TS)   =       0.00020776 Ry

     convergence has been achieved in  19 iterations

     Forces acting on atoms (cartesian axes, Ry/au):

     atom    1 type  1   force =    -0.02141278   -0.02319892   -0.04619743
     atom    2 type  1   force =     0.01814948   -0.00868003    0.02229632
     atom    3 type  2   force =     0.02112160    0.00325402    0.02220367
     atom    4 type  3   force =    -0.00298784   -0.00159065   -0.01028210
     atom    5 type  3   force =    -0.01753732   -0.02775119   -0.00633273
     atom    6 type  4   force =     0.00614748   -0.00717079   -0.01684035
     atom    7 type  4   force =     0.06333657   -0.01177032    0.00235840
     atom    8 type  4   force =     0.03818788    0.06008427    0.02006869
     atom    9 type  4   force =    -0.02558444    0.03584111   -0.01458472
     atom   10 type  4   force =    -0.09186987    0.01275921   -0.03069268
     atom   11 type  4   force =     0.00495763    0.00896415    0.08432784
     atom   12 type  4   force =    -0.00390461    0.05288723   -0.05461254
     atom   13 type  5   force =     0.05103033   -0.03635826    0.01069161
     atom   14 type  5   force =    -0.01855177   -0.00850647   -0.01478470
     atom   15 type  5   force =    -0.00313179    0.00183627    0.01540144
     atom   16 type  5   force =     0.00142346    0.02897882    0.00015849
     atom   17 type  5   force =    -0.00198106   -0.02109392    0.01194581
     atom   18 type  5   force =     0.04934765   -0.01075246   -0.04105781
     atom   19 type  5   force =     0.04541020    0.03595093    0.01994531
     atom   20 type  5   force =    -0.05401558    0.03034406   -0.00179300
     atom   21 type  5   force =    -0.00293119   -0.02309251   -0.00359707
     atom   22 type  5   force =    -0.02264360   -0.00691629   -0.02002370
     atom   23 type  5   force =    -0.01809504   -0.05232881    0.05696465
     atom   24 type  5   force =    -0.00095062    0.01935546   -0.01498166
     atom   25 type  5   force =    -0.03427477    0.01817506   -0.00530252
     atom   26 type  5   force =    -0.00256593   -0.00129801    0.01720085
     atom   27 type  5   force =    -0.01344848   -0.04474451    0.06241592
     atom   28 type  5   force =    -0.00329210    0.02323920   -0.01581931
     atom   29 type  5   force =     0.04601374    0.03241148   -0.01682653
     atom   30 type  5   force =     0.00039161   -0.00183480   -0.00444343
     atom   31 type  5   force =     0.03338285   -0.01058561    0.01513066
     atom   32 type  5   force =    -0.01157399    0.01384715   -0.00864449
     atom   33 type  5   force =    -0.01269534   -0.00590495   -0.03700644
     atom   34 type  5   force =    -0.02124453   -0.00499886   -0.00226364
     atom   35 type  5   force =    -0.00740613   -0.04857133   -0.01167841
     atom   36 type  5   force =     0.06668817   -0.02397080    0.05042349
     atom   37 type  5   force =    -0.03992505    0.00546134    0.00703576
     atom   38 type  5   force =     0.03287641   -0.00817887    0.04230326
     atom   39 type  5   force =     0.03289850    0.00278519    0.03260391
     atom   40 type  5   force =    -0.03033291    0.01620762    0.02735181
     atom   41 type  5   force =    -0.02727034    0.01754473   -0.07433048
     atom   42 type  5   force =     0.01792524   -0.04172715   -0.03731135
     atom   43 type  5   force =    -0.03044756    0.00756929   -0.00549161
     atom   44 type  5   force =    -0.00921414    0.00352891   -0.02592919

     Total force =     0.338024     Total SCF correction =     0.001219


     Computing stress (Cartesian axis) and pressure

          total   stress  (Ry/bohr**3)                   (kbar)     P=    0.81
  -0.00002345   0.00001136   0.00010225         -3.45      1.67     15.04
   0.00001136   0.00012902   0.00007230          1.67     18.98     10.64
   0.00010225   0.00007230  -0.00008900         15.04     10.64    -13.09


     number of scf cycles    =   7
     number of bfgs steps    =   5

     enthalpy old            =    -285.1442168476 Ry
     enthalpy new            =    -285.2914389722 Ry

     CASE: enthalpy_new < enthalpy_old

     new trust radius        =       0.2272728815 bohr
     new conv_thr            =       0.0000009187 Ry

     new unit-cell volume =   4795.96152 a.u.^3 (   710.68817 Ang^3 )
     density =      0.88184 g/cm^3

CELL_PARAMETERS (angstrom)
   8.873539019   0.283829604   0.333329797
   0.280330054   9.412513650   0.317490079
   0.332490913   0.321520151   8.539714020

ATOMIC_POSITIONS (angstrom)
K        6.455369165   5.465637388   2.803867696
K        4.187659423   1.110239124   6.569919949
Ba       6.622805012   6.522214357   5.737247108
Al       3.570542611   3.838800088   4.940523128
Al       2.263702600   8.275840929   6.372454585
B        1.746232788   8.272126189   2.236611297
B        3.707131507   4.942972436   7.522358189
B        8.054733758   8.545527081   6.385359624
B        3.902937578   6.078226185   5.663205938
B        6.709254867   2.525943265   2.966837530
B        5.227975337   3.038395819   1.795302279
B        4.683639716   7.173277000   1.254205057
H        7.477525616   4.354497707   4.933072978
H        3.765367983   7.855296068   1.915331400
H        1.636624231   6.895049138   6.814112572
H        6.822580629   8.803415629   6.158211420
H        1.470731765   3.174364040   3.197389260
H        5.945190660   3.214945213   4.386092136
H        8.383361082   6.732109623   3.033483248
H        4.582752396   6.228484850   6.813372068
H        6.053636126   4.916814000   7.197455520
H        8.132883943   1.562062813   7.796451465
H        4.507821529   6.783651244   4.441208044
H        6.302559931   2.708069936   7.432053893
H        8.210147247   4.170932829   5.044083428
H        1.787388247   7.724934648   4.399185453
H        5.313615067   8.440328832   8.249839937
H        1.466574112   3.745656735   2.845053374
H        2.631626626   5.765723926   5.759597755
H        2.006466289   8.247184656   3.816007947
H        6.069707800   1.419709346   2.993658465
H        3.656934053   2.617816706   1.127846348
H        4.897074290   4.946363392   6.102679180
H        3.253480151   2.380058784   1.756315114
H        5.198478957   1.594621060   1.889677024
H        5.644367178   3.813076006   6.684681808
H        4.040606082   8.030167113   5.989153954
H        7.648521009   2.383592603   2.229762947
H        6.069532507   1.968991241   3.875842388
H        4.923626707   5.068599677   8.080124532
H        4.602582007   3.091682739   3.241730186
H        5.445636392   4.436116376   5.256930087
H        4.434988752   3.846639190   7.391912210
H        5.021429607   1.181876928   1.247544424



     Writing output data file 00_K2BaAl2B7H32_Monster.save
     NEW-OLD atomic charge density approx. for the potential

     negative rho (up, down):  3.833E-06 0.000E+00
     extrapolated charge   72.32901, renormalised to   71.00000

     total cpu time spent up to now is    10780.7 secs

     Self-consistent Calculation

     iteration #  1     ecut=    50.00 Ry     beta=0.70
     Davidson diagonalization with overlap
     ethr =  1.00E-06,  avg # of iterations = 11.5

     total cpu time spent up to now is    10842.2 secs

     total energy              =    -284.66497734 Ry
     Harris-Foulkes estimate   =    -283.80014131 Ry
     estimated scf accuracy    <       0.89801550 Ry

     iteration #  2     ecut=    50.00 Ry     beta=0.70
     Davidson diagonalization with overlap
     ethr =  1.26E-03,  avg # of iterations =  5.0

     total cpu time spent up to now is    10880.7 secs

     total energy              =    -284.02117818 Ry
     Harris-Foulkes estimate   =    -287.88505277 Ry
     estimated scf accuracy    <      17.73027082 Ry

     iteration #  3     ecut=    50.00 Ry     beta=0.70
     Davidson diagonalization with overlap
     ethr =  1.26E-03,  avg # of iterations =  4.8

     total cpu time spent up to now is    10913.0 secs

     total energy              =    -285.41208192 Ry
     Harris-Foulkes estimate   =    -285.67084404 Ry
     estimated scf accuracy    <       2.06182861 Ry

     iteration #  4     ecut=    50.00 Ry     beta=0.70
     Davidson diagonalization with overlap
     ethr =  1.26E-03,  avg # of iterations =  1.1

     total cpu time spent up to now is    10935.1 secs

     total energy              =    -285.50057171 Ry
     Harris-Foulkes estimate   =    -285.57687016 Ry
     estimated scf accuracy    <       0.83341412 Ry

     iteration #  5     ecut=    50.00 Ry     beta=0.70
     Davidson diagonalization with overlap
     ethr =  1.17E-03,  avg # of iterations =  1.0

     total cpu time spent up to now is    10956.3 secs

     total energy              =    -285.49125073 Ry
     Harris-Foulkes estimate   =    -285.51958077 Ry
     estimated scf accuracy    <       0.39704378 Ry

     iteration #  6     ecut=    50.00 Ry     beta=0.70
     Davidson diagonalization with overlap
     ethr =  5.59E-04,  avg # of iterations =  1.2

     total cpu time spent up to now is    10978.1 secs

     total energy              =    -285.46782137 Ry
     Harris-Foulkes estimate   =    -285.50140391 Ry
     estimated scf accuracy    <       0.34863324 Ry

     iteration #  7     ecut=    50.00 Ry     beta=0.70
     Davidson diagonalization with overlap
     ethr =  4.91E-04,  avg # of iterations =  4.8

     total cpu time spent up to now is    11002.5 secs

     total energy              =    -285.47341092 Ry
     Harris-Foulkes estimate   =    -285.48180171 Ry
     estimated scf accuracy    <       0.09832529 Ry

     iteration #  8     ecut=    50.00 Ry     beta=0.70
     Davidson diagonalization with overlap
     ethr =  1.38E-04,  avg # of iterations =  3.5

     total cpu time spent up to now is    11026.9 secs

     total energy              =    -285.47441118 Ry
     Harris-Foulkes estimate   =    -285.47792436 Ry
     estimated scf accuracy    <       0.03966602 Ry

     iteration #  9     ecut=    50.00 Ry     beta=0.70
     Davidson diagonalization with overlap
     ethr =  5.59E-05,  avg # of iterations =  4.6

     total cpu time spent up to now is    11051.1 secs

     total energy              =    -285.47198414 Ry
     Harris-Foulkes estimate   =    -285.47585493 Ry
     estimated scf accuracy    <       0.02391085 Ry

     iteration # 10     ecut=    50.00 Ry     beta=0.70
     Davidson diagonalization with overlap
     ethr =  3.37E-05,  avg # of iterations =  3.5

     total cpu time spent up to now is    11074.1 secs

     total energy              =    -285.47344806 Ry
     Harris-Foulkes estimate   =    -285.47407111 Ry
     estimated scf accuracy    <       0.00294468 Ry

     iteration # 11     ecut=    50.00 Ry     beta=0.70
     Davidson diagonalization with overlap
     ethr =  4.15E-06,  avg # of iterations =  6.0

     total cpu time spent up to now is    11104.4 secs

     total energy              =    -285.47334416 Ry
     Harris-Foulkes estimate   =    -285.47439769 Ry
     estimated scf accuracy    <       0.00468427 Ry

     iteration # 12     ecut=    50.00 Ry     beta=0.70
     Davidson diagonalization with overlap
     ethr =  4.15E-06,  avg # of iterations =  2.2

     total cpu time spent up to now is    11127.1 secs

     total energy              =    -285.47357946 Ry
     Harris-Foulkes estimate   =    -285.47425139 Ry
     estimated scf accuracy    <       0.00288427 Ry

     iteration # 13     ecut=    50.00 Ry     beta=0.70
     Davidson diagonalization with overlap
     ethr =  4.06E-06,  avg # of iterations =  1.6

     total cpu time spent up to now is    11148.8 secs

     total energy              =    -285.47386287 Ry
     Harris-Foulkes estimate   =    -285.47408042 Ry
     estimated scf accuracy    <       0.00131545 Ry

     iteration # 14     ecut=    50.00 Ry     beta=0.70
     Davidson diagonalization with overlap
     ethr =  1.85E-06,  avg # of iterations =  1.0

     total cpu time spent up to now is    11171.2 secs

     total energy              =    -285.47397699 Ry
     Harris-Foulkes estimate   =    -285.47400520 Ry
     estimated scf accuracy    <       0.00013547 Ry

     iteration # 15     ecut=    50.00 Ry     beta=0.70
     Davidson diagonalization with overlap
     ethr =  1.91E-07,  avg # of iterations =  3.0

     total cpu time spent up to now is    11194.6 secs

     total energy              =    -285.47398941 Ry
     Harris-Foulkes estimate   =    -285.47400134 Ry
     estimated scf accuracy    <       0.00004903 Ry

     iteration # 16     ecut=    50.00 Ry     beta=0.70
     Davidson diagonalization with overlap
     ethr =  6.91E-08,  avg # of iterations =  2.1

     total cpu time spent up to now is    11217.6 secs

     total energy              =    -285.47399016 Ry
     Harris-Foulkes estimate   =    -285.47400410 Ry
     estimated scf accuracy    <       0.00007803 Ry

     iteration # 17     ecut=    50.00 Ry     beta=0.70
     Davidson diagonalization with overlap
     ethr =  6.91E-08,  avg # of iterations =  1.5

     total cpu time spent up to now is    11239.6 secs

     total energy              =    -285.47399679 Ry
     Harris-Foulkes estimate   =    -285.47399728 Ry
     estimated scf accuracy    <       0.00000141 Ry

     iteration # 18     ecut=    50.00 Ry     beta=0.70
     Davidson diagonalization with overlap
     ethr =  1.99E-09,  avg # of iterations =  4.0

     total cpu time spent up to now is    11266.7 secs

     total energy              =    -285.47399705 Ry
     Harris-Foulkes estimate   =    -285.47399743 Ry
     estimated scf accuracy    <       0.00000115 Ry

     iteration # 19     ecut=    50.00 Ry     beta=0.70
     Davidson diagonalization with overlap
     ethr =  1.62E-09,  avg # of iterations =  2.0

     total cpu time spent up to now is    11290.5 secs

     End of self-consistent calculation

          k = 0.0000 0.0000 0.0000 ( 21247 PWs)   bands (ev):

   -28.3602 -14.8856 -14.0197 -13.7645 -13.0512 -12.2512 -10.1823  -9.9088
    -9.2596  -8.7130  -7.9954  -7.9073  -7.6554  -7.5412  -7.2610  -6.8090
    -6.4451  -6.3933  -6.0810  -5.5882  -4.8011  -4.5852  -4.1559  -4.0267
    -3.4727  -3.1501  -2.9873  -2.1489  -2.0040  -1.7239  -1.6143  -1.2332
    -0.9777  -0.8370  -0.5127  -0.4340  -0.2288  -0.1314   0.0968   0.2017
     0.6244   0.7057   0.8208

          k = 0.0173 0.0155-0.4745 ( 21362 PWs)   bands (ev):

   -28.3602 -14.8852 -14.0202 -13.7650 -13.0467 -12.2611 -10.1797  -9.8856
    -9.2404  -8.8173  -8.0204  -7.8499  -7.6823  -7.4857  -7.1725  -6.8678
    -6.4524  -6.3685  -6.1058  -5.5937  -4.8526  -4.5437  -4.1681  -3.9466
    -3.4900  -3.1280  -3.0415  -2.1653  -1.9392  -1.6792  -1.6230  -1.2885
    -0.9891  -0.7526  -0.6675  -0.4592  -0.2329  -0.1601   0.0614   0.1283
     0.4769   0.6264   0.8130

          k = 0.0305-0.4148-0.4588 ( 21216 PWs)   bands (ev):

   -28.3602 -14.8856 -14.0205 -13.7651 -13.0445 -12.2604 -10.1740  -9.8960
    -9.2404  -8.8241  -8.0420  -7.8642  -7.6355  -7.4893  -7.1851  -6.8509
    -6.4436  -6.3665  -6.1225  -5.5876  -4.8526  -4.5423  -4.1135  -3.9219
    -3.5114  -3.1002  -3.0402  -2.2800  -1.8277  -1.6749  -1.5544  -1.3643
    -1.1610  -0.9175  -0.7187  -0.5475  -0.3341  -0.1267   0.1310   0.4743
     0.4776   0.6098   0.8485

          k =-0.4260-0.4018-0.4415 ( 21368 PWs)   bands (ev):

   -28.3602 -14.8866 -14.0206 -13.7653 -13.0442 -12.2547 -10.1762  -9.8981
    -9.2382  -8.8131  -8.1218  -7.7804  -7.6766  -7.5271  -7.1138  -6.8258
    -6.4756  -6.3703  -6.1247  -5.6465  -4.8351  -4.5472  -4.1150  -3.8227
    -3.4134  -3.1294  -2.9504  -2.3594  -1.9987  -1.7611  -1.5637  -1.2695
    -1.2579  -0.7630  -0.7167  -0.5900  -0.3186  -0.1108   0.0537   0.2467
     0.4679   0.6308   0.8839

          k =-0.4565 0.0130 0.0173 ( 21362 PWs)   bands (ev):

   -28.3602 -14.8867 -14.0198 -13.7647 -13.0509 -12.2455 -10.1862  -9.9091
    -9.2586  -8.6973  -8.0901  -7.8350  -7.6940  -7.5815  -7.1318  -6.8147
    -6.4706  -6.4060  -6.0819  -5.6565  -4.8132  -4.5869  -4.1116  -3.9456
    -3.4488  -3.0837  -2.8613  -2.3570  -1.9515  -1.7873  -1.5226  -1.2986
    -0.9882  -0.9372  -0.8159  -0.5432  -0.1455  -0.1175   0.1853   0.3517
     0.5594   0.6516   0.8945

          k = 0.0132-0.4303 0.0157 ( 21362 PWs)   bands (ev):

   -28.3602 -14.8860 -14.0199 -13.7647 -13.0484 -12.2519 -10.1801  -9.9096
    -9.2644  -8.7253  -7.9993  -7.9110  -7.6742  -7.5253  -7.2574  -6.7924
    -6.4387  -6.3811  -6.0845  -5.5939  -4.8026  -4.5648  -4.1073  -4.0161
    -3.5312  -3.1028  -3.0177  -2.2526  -1.8964  -1.6927  -1.6174  -1.2182
    -0.9908  -0.9100  -0.7928  -0.5218  -0.2282  -0.1559   0.1738   0.3995
     0.5520   0.7132   0.9603

          k =-0.4738-0.0025 0.4918 ( 21216 PWs)   bands (ev):

   -28.3602 -14.8862 -14.0203 -13.7651 -13.0462 -12.2553 -10.1842  -9.8834
    -9.2399  -8.8062  -8.1012  -7.7803  -7.7080  -7.5122  -7.1140  -6.8340
    -6.4824  -6.3752  -6.1170  -5.6468  -4.8386  -4.5479  -4.1647  -3.8643
    -3.4593  -3.1109  -2.8568  -2.3802  -1.9115  -1.5915  -1.5485  -1.3485
    -1.1054  -1.0759  -0.7558  -0.5525  -0.4227  -0.0697   0.2616   0.3729
     0.4301   0.6711   0.8100

          k =-0.4697 0.4433 0.0016 ( 21216 PWs)   bands (ev):

   -28.3602 -14.8871 -14.0200 -13.7649 -13.0480 -12.2460 -10.1829  -9.9107
    -9.2633  -8.7092  -8.0877  -7.8326  -7.7431  -7.5462  -7.1289  -6.7956
    -6.4578  -6.4008  -6.0886  -5.6611  -4.8134  -4.5636  -4.0893  -3.8716
    -3.4979  -3.0747  -2.9440  -2.3510  -2.0296  -1.7988  -1.5160  -1.3503
    -1.0743  -0.8497  -0.6033  -0.4547  -0.2928  -0.1079   0.0680   0.2545
     0.5489   0.7057   0.8752

     the Fermi energy is    -0.4980 ev

!    total energy              =    -285.47399684 Ry
     Harris-Foulkes estimate   =    -285.47399731 Ry
     estimated scf accuracy    <       0.00000056 Ry

     The total energy is the sum of the following terms:

     one-electron contribution =    -131.47256521 Ry
     hartree contribution      =      79.75880003 Ry
     xc contribution           =     -95.08109655 Ry
     ewald contribution        =     -32.61376703 Ry
     one-center paw contrib.   =    -106.06594330 Ry
     smearing contrib. (-TS)   =       0.00057523 Ry

     convergence has been achieved in  19 iterations

     Forces acting on atoms (cartesian axes, Ry/au):

     atom    1 type  1   force =    -0.00917036   -0.02078914   -0.04172214
     atom    2 type  1   force =     0.01952792    0.00643460    0.01941956
     atom    3 type  2   force =     0.02285711   -0.00284308    0.01877872
     atom    4 type  3   force =     0.00491269   -0.00085177    0.00212058
     atom    5 type  3   force =    -0.01484504   -0.02067558   -0.00967307
     atom    6 type  4   force =     0.00487256   -0.00722630   -0.01661086
     atom    7 type  4   force =     0.05984681    0.00161486   -0.00013579
     atom    8 type  4   force =     0.02729694    0.04795774    0.01740258
     atom    9 type  4   force =    -0.02553381    0.02445709   -0.00656987
     atom   10 type  4   force =    -0.07530001    0.01962994   -0.04841551
     atom   11 type  4   force =     0.01502781    0.01322466    0.10295376
     atom   12 type  4   force =     0.00211076    0.05325137   -0.06064380
     atom   13 type  5   force =     0.01544330   -0.01951221    0.00590165
     atom   14 type  5   force =    -0.01741348   -0.00735814   -0.01595882
     atom   15 type  5   force =    -0.00509656   -0.00451040    0.01727536
     atom   16 type  5   force =     0.00697288    0.02926717    0.00224222
     atom   17 type  5   force =    -0.00164224   -0.12016268    0.07279535
     atom   18 type  5   force =     0.04725288   -0.01483408   -0.04707052
     atom   19 type  5   force =     0.03008916    0.02568544    0.01886582
     atom   20 type  5   force =    -0.05157662    0.02031924   -0.01247800
     atom   21 type  5   force =    -0.01069038   -0.03007470   -0.00656282
     atom   22 type  5   force =    -0.02226091   -0.01156245   -0.02215118
     atom   23 type  5   force =    -0.02222834   -0.05505744    0.06277164
     atom   24 type  5   force =    -0.01005968    0.02394085   -0.02243553
     atom   25 type  5   force =    -0.00237292    0.00793631   -0.00098882
     atom   26 type  5   force =    -0.00584995   -0.01013343    0.02706792
     atom   27 type  5   force =    -0.01744841   -0.04794592    0.07187672
     atom   28 type  5   force =    -0.00442646    0.12201911   -0.07730620
     atom   29 type  5   force =     0.05914542    0.03457311   -0.01707974
     atom   30 type  5   force =     0.00382193    0.00748156   -0.01524438
     atom   31 type  5   force =     0.02473501   -0.00443195    0.01068684
     atom   32 type  5   force =    -0.01554727    0.01071846   -0.00213683
     atom   33 type  5   force =    -0.01615633   -0.00015996   -0.03744421
     atom   34 type  5   force =    -0.02017225   -0.00407356   -0.01141329
     atom   35 type  5   force =    -0.00199119   -0.04363337   -0.00709789
     atom   36 type  5   force =     0.07064018   -0.02277724    0.05501936
     atom   37 type  5   force =    -0.04383762    0.00622201    0.00667702
     atom   38 type  5   force =     0.02952838   -0.00295400    0.04467053
     atom   39 type  5   force =     0.02142520    0.00021875    0.04149828
     atom   40 type  5   force =    -0.02558000    0.01663889    0.02155822
     atom   41 type  5   force =    -0.02487588    0.01445439   -0.07736007
     atom   42 type  5   force =     0.01608943   -0.03587847   -0.02798241
     atom   43 type  5   force =    -0.02705675    0.00075913   -0.01087532
     atom   44 type  5   force =    -0.01046390    0.00064121   -0.02422504

     Total force =     0.387244     Total SCF correction =     0.000621


     Computing stress (Cartesian axis) and pressure

          total   stress  (Ry/bohr**3)                   (kbar)     P=   -4.95
  -0.00005938  -0.00001508   0.00008769         -8.73     -2.22     12.90
  -0.00001508   0.00008327   0.00004956         -2.22     12.25      7.29
   0.00008769   0.00004956  -0.00012485         12.90      7.29    -18.37


     number of scf cycles    =   8
     number of bfgs steps    =   6

     enthalpy old            =    -285.2914389722 Ry
     enthalpy new            =    -285.4739968368 Ry

     CASE: enthalpy_new < enthalpy_old

     new trust radius        =       0.3464843289 bohr
     new conv_thr            =       0.0000010000 Ry

     new unit-cell volume =   4914.24943 a.u.^3 (   728.21662 Ang^3 )
     density =      0.86061 g/cm^3

CELL_PARAMETERS (angstrom)
   8.947638829   0.319024858   0.416963581
   0.316063550   9.591736525   0.384701091
   0.417029179   0.390026803   8.528961688

ATOMIC_POSITIONS (angstrom)
K        6.522843491   5.647053278   2.846718104
K        4.270415163   1.061482206   6.628386537
Ba       6.782560123   6.759344451   5.871873080
Al       3.608919791   3.950190430   4.911329378
Al       2.308503688   8.456386281   6.434736395
B        1.817261642   8.433900235   2.282798202
B        3.889667475   5.089383001   7.599381409
B        8.275493253   8.942946375   6.558711355
B        4.028937105   6.282110014   5.700239364
B        6.700329758   2.601250427   2.978303373
B        5.262986276   3.083620361   1.936783043
B        4.748603137   7.416755226   1.270322536
H        7.629606780   4.435135816   5.024870713
H        3.803829490   8.010746365   1.977260855
H        1.728256026   7.080384862   6.888728429
H        6.993440704   9.062538863   6.274733372
H        1.526506183   3.269321559   3.226141665
H        6.115078913   3.302434393   4.405175286
H        8.601960575   6.998448882   3.193488743
H        4.623010229   6.499062891   6.902539367
H        6.218872372   5.062334526   7.277736240
H        8.237700608   1.657436261   7.836750499
H        4.582598438   6.870381167   4.589430365
H        6.476413804   2.891957307   7.499646273
H        8.350147914   4.316079680   5.140166325
H        1.872522176   7.920640605   4.475792830
H        5.440690396   8.600277794   8.424544867
H        1.506108324   3.839037076   2.876821350
H        2.722612658   5.976060701   5.792953484
H        2.077618837   8.417435743   3.887083730
H        6.202245011   1.435425880   3.084665781
H        3.682626206   2.705847734   1.171960769
H        4.992324605   5.081733451   6.103687402
H        3.271114208   2.439481050   1.787113159
H        5.230220725   1.577523052   1.902686798
H        5.895613800   3.889580304   6.814934304
H        4.132406165   8.267706719   6.074590133
H        7.769448691   2.464761199   2.404359552
H        6.232335264   2.060742653   4.003200770
H        5.022711570   5.284683980   8.230007880
H        4.620649513   3.225169934   3.196644667
H        5.558171353   4.472085989   5.247673158
H        4.489341228   3.992559180   7.452006401
H        5.053608728   1.211323097   1.244076873



     Writing output data file 00_K2BaAl2B7H32_Monster.save
     NEW-OLD atomic charge density approx. for the potential

     negative rho (up, down):  2.535E-05 0.000E+00
     extrapolated charge   72.70756, renormalised to   71.00000

     total cpu time spent up to now is    12115.2 secs

     Self-consistent Calculation

     iteration #  1     ecut=    50.00 Ry     beta=0.70
     Davidson diagonalization with overlap
     ethr =  1.00E-06,  avg # of iterations = 13.8

     total cpu time spent up to now is    12180.0 secs

     total energy              =    -284.51758821 Ry
     Harris-Foulkes estimate   =    -283.70782683 Ry
     estimated scf accuracy    <       1.39538247 Ry

     iteration #  2     ecut=    50.00 Ry     beta=0.70
     Davidson diagonalization with overlap
     ethr =  1.97E-03,  avg # of iterations =  5.1

     total cpu time spent up to now is    12218.5 secs

     total energy              =    -283.79000091 Ry
     Harris-Foulkes estimate   =    -289.42912847 Ry
     estimated scf accuracy    <      25.07091234 Ry

     iteration #  3     ecut=    50.00 Ry     beta=0.70
     Davidson diagonalization with overlap
     ethr =  1.97E-03,  avg # of iterations =  4.4

     total cpu time spent up to now is    12251.7 secs

     total energy              =    -285.70504096 Ry
     Harris-Foulkes estimate   =    -286.02265736 Ry
     estimated scf accuracy    <       1.92465118 Ry

     iteration #  4     ecut=    50.00 Ry     beta=0.70
     Davidson diagonalization with overlap
     ethr =  1.97E-03,  avg # of iterations =  1.5

     negative rho (up, down):  2.965E-08 0.000E+00

     total cpu time spent up to now is    12273.4 secs

     total energy              =    -285.78417254 Ry
     Harris-Foulkes estimate   =    -285.88905093 Ry
     estimated scf accuracy    <       1.17186442 Ry

     iteration #  5     ecut=    50.00 Ry     beta=0.70
     Davidson diagonalization with overlap
     ethr =  1.65E-03,  avg # of iterations =  1.0

     total cpu time spent up to now is    12294.8 secs

     total energy              =    -285.76411393 Ry
     Harris-Foulkes estimate   =    -285.81231234 Ry
     estimated scf accuracy    <       0.64919330 Ry

     iteration #  6     ecut=    50.00 Ry     beta=0.70
     Davidson diagonalization with overlap
     ethr =  9.14E-04,  avg # of iterations =  1.0

     total cpu time spent up to now is    12316.8 secs

     total energy              =    -285.71801530 Ry
     Harris-Foulkes estimate   =    -285.78159620 Ry
     estimated scf accuracy    <       0.58477298 Ry

     iteration #  7     ecut=    50.00 Ry     beta=0.70
     Davidson diagonalization with overlap
     ethr =  8.24E-04,  avg # of iterations =  4.8

     total cpu time spent up to now is    12341.4 secs

     total energy              =    -285.73479789 Ry
     Harris-Foulkes estimate   =    -285.74978077 Ry
     estimated scf accuracy    <       0.10890147 Ry

     iteration #  8     ecut=    50.00 Ry     beta=0.70
     Davidson diagonalization with overlap
     ethr =  1.53E-04,  avg # of iterations =  3.1

     total cpu time spent up to now is    12366.5 secs

     total energy              =    -285.73950951 Ry
     Harris-Foulkes estimate   =    -285.74588796 Ry
     estimated scf accuracy    <       0.05174886 Ry

     iteration #  9     ecut=    50.00 Ry     beta=0.70
     Davidson diagonalization with overlap
     ethr =  7.29E-05,  avg # of iterations =  1.2

     negative rho (up, down):  2.308E-06 0.000E+00

     total cpu time spent up to now is    12388.0 secs

     total energy              =    -285.74122631 Ry
     Harris-Foulkes estimate   =    -285.74379026 Ry
     estimated scf accuracy    <       0.01662250 Ry

     iteration # 10     ecut=    50.00 Ry     beta=0.70
     Davidson diagonalization with overlap
     ethr =  2.34E-05,  avg # of iterations =  2.9

     negative rho (up, down):  1.513E-05 0.000E+00

     total cpu time spent up to now is    12411.2 secs

     total energy              =    -285.73962482 Ry
     Harris-Foulkes estimate   =    -285.74368169 Ry
     estimated scf accuracy    <       0.02470778 Ry

     iteration # 11     ecut=    50.00 Ry     beta=0.70
     Davidson diagonalization with overlap
     ethr =  2.34E-05,  avg # of iterations =  3.4

     negative rho (up, down):  1.706E-05 0.000E+00

     total cpu time spent up to now is    12434.5 secs

     total energy              =    -285.74154179 Ry
     Harris-Foulkes estimate   =    -285.74218648 Ry
     estimated scf accuracy    <       0.00430170 Ry

     iteration # 12     ecut=    50.00 Ry     beta=0.70
     Davidson diagonalization with overlap
     ethr =  6.06E-06,  avg # of iterations =  4.0

     negative rho (up, down):  1.693E-05 0.000E+00

     total cpu time spent up to now is    12458.2 secs

     total energy              =    -285.74166435 Ry
     Harris-Foulkes estimate   =    -285.74198471 Ry
     estimated scf accuracy    <       0.00109055 Ry

     iteration # 13     ecut=    50.00 Ry     beta=0.70
     Davidson diagonalization with overlap
     ethr =  1.54E-06,  avg # of iterations =  7.1

     negative rho (up, down):  1.657E-05 0.000E+00

     total cpu time spent up to now is    12488.6 secs

     total energy              =    -285.74163122 Ry
     Harris-Foulkes estimate   =    -285.74219461 Ry
     estimated scf accuracy    <       0.00344717 Ry

     iteration # 14     ecut=    50.00 Ry     beta=0.70
     Davidson diagonalization with overlap
     ethr =  1.54E-06,  avg # of iterations =  3.0

     negative rho (up, down):  1.677E-05 0.000E+00

     total cpu time spent up to now is    12511.9 secs

     total energy              =    -285.74188847 Ry
     Harris-Foulkes estimate   =    -285.74190121 Ry
     estimated scf accuracy    <       0.00007515 Ry

     iteration # 15     ecut=    50.00 Ry     beta=0.70
     Davidson diagonalization with overlap
     ethr =  1.06E-07,  avg # of iterations =  3.0

     negative rho (up, down):  1.694E-05 0.000E+00

     total cpu time spent up to now is    12536.9 secs

     total energy              =    -285.74189854 Ry
     Harris-Foulkes estimate   =    -285.74190443 Ry
     estimated scf accuracy    <       0.00002263 Ry

     iteration # 16     ecut=    50.00 Ry     beta=0.70
     Davidson diagonalization with overlap
     ethr =  3.19E-08,  avg # of iterations =  2.0

     negative rho (up, down):  1.708E-05 0.000E+00

     total cpu time spent up to now is    12559.9 secs

     total energy              =    -285.74190063 Ry
     Harris-Foulkes estimate   =    -285.74190367 Ry
     estimated scf accuracy    <       0.00001201 Ry

     iteration # 17     ecut=    50.00 Ry     beta=0.70
     Davidson diagonalization with overlap
     ethr =  1.69E-08,  avg # of iterations =  2.1

     negative rho (up, down):  1.717E-05 0.000E+00

     total cpu time spent up to now is    12582.6 secs

     total energy              =    -285.74190193 Ry
     Harris-Foulkes estimate   =    -285.74190288 Ry
     estimated scf accuracy    <       0.00000276 Ry

     iteration # 18     ecut=    50.00 Ry     beta=0.70
     Davidson diagonalization with overlap
     ethr =  3.89E-09,  avg # of iterations =  2.1

     negative rho (up, down):  1.729E-05 0.000E+00

     total cpu time spent up to now is    12606.1 secs

     End of self-consistent calculation

          k = 0.0000 0.0000 0.0000 ( 21247 PWs)   bands (ev):

   -28.6506 -14.6310 -14.1554 -14.0307 -12.5666 -11.8446  -9.9639  -9.8577
    -9.1296  -8.5807  -7.9775  -7.8890  -7.7966  -7.6512  -7.2789  -6.5799
    -6.4141  -6.3388  -6.0809  -5.7902  -5.0124  -4.7516  -4.3478  -4.2896
    -3.8164  -3.4501  -3.1436  -2.3028  -2.0310  -1.7803  -1.5969  -1.4469
    -0.8692  -0.8258  -0.5987  -0.4372  -0.2225  -0.0967   0.1821   0.1952
     0.6541   0.7241   0.7952

          k = 0.0215 0.0184-0.4757 ( 21362 PWs)   bands (ev):

   -28.6506 -14.6307 -14.1557 -14.0311 -12.5587 -11.8589  -9.9864  -9.8146
    -9.1076  -8.6695  -8.0305  -7.8696  -7.8099  -7.5913  -7.1379  -6.6860
    -6.3851  -6.3617  -5.9890  -5.8473  -5.0822  -4.7858  -4.3797  -4.1009
    -3.8372  -3.4842  -3.1336  -2.2960  -2.0201  -1.7395  -1.5942  -1.4809
    -0.9547  -0.6942  -0.6580  -0.5032  -0.2812  -0.1429   0.0565   0.2208
     0.5327   0.6494   0.7882

          k = 0.0357-0.4042-0.4571 ( 21216 PWs)   bands (ev):

   -28.6506 -14.6310 -14.1558 -14.0311 -12.5565 -11.8582  -9.9738  -9.8324
    -9.1059  -8.6793  -8.0697  -7.8713  -7.7429  -7.5919  -7.1667  -6.6749
    -6.3922  -6.3570  -5.9781  -5.8526  -5.0750  -4.8033  -4.3285  -4.0808
    -3.8466  -3.4413  -3.1544  -2.3731  -1.9012  -1.7516  -1.5696  -1.5500
    -1.1648  -0.8673  -0.6748  -0.4845  -0.3470  -0.1297   0.1501   0.4498
     0.5725   0.6141   0.8616

          k =-0.4174-0.3901-0.4356 ( 21368 PWs)   bands (ev):

   -28.6506 -14.6320 -14.1560 -14.0312 -12.5561 -11.8511  -9.9749  -9.8390
    -9.1049  -8.6513  -8.1449  -7.8434  -7.8205  -7.5123  -7.1417  -6.6698
    -6.3877  -6.3667  -5.9952  -5.8849  -5.0542  -4.8055  -4.3371  -4.0438
    -3.7785  -3.4560  -3.0522  -2.4759  -1.9878  -1.7624  -1.6471  -1.4545
    -1.1448  -0.7574  -0.6958  -0.6538  -0.3082  -0.1293   0.0370   0.2569
     0.6107   0.6332   0.8811

          k =-0.4532 0.0141 0.0215 ( 21362 PWs)   bands (ev):

   -28.6506 -14.6320 -14.1556 -14.0307 -12.5660 -11.8375  -9.9700  -9.8588
    -9.1296  -8.5440  -8.1066  -7.9052  -7.7668  -7.6053  -7.2145  -6.5915
    -6.4119  -6.3480  -6.1156  -5.8167  -5.0289  -4.7485  -4.3557  -4.1908
    -3.8262  -3.4142  -2.9738  -2.4726  -2.0047  -1.7691  -1.5826  -1.4181
    -1.0256  -0.9417  -0.7708  -0.5325  -0.1244  -0.0879   0.1608   0.4281
     0.5811   0.6633   0.8754

          k = 0.0142-0.4225 0.0186 ( 21362 PWs)   bands (ev):

   -28.6506 -14.6313 -14.1555 -14.0307 -12.5637 -11.8458  -9.9650  -9.8542
    -9.1350  -8.5939  -7.9466  -7.9122  -7.8274  -7.6347  -7.2758  -6.5631
    -6.4196  -6.3287  -6.0604  -5.8062  -5.0154  -4.7563  -4.3432  -4.2289
    -3.8411  -3.4411  -3.1594  -2.3608  -1.9473  -1.7725  -1.6087  -1.4428
    -0.9890  -0.8220  -0.7727  -0.4926  -0.2183  -0.1059   0.1537   0.4589
     0.5112   0.7523   0.9146

          k =-0.4747-0.0043 0.4972 ( 21216 PWs)   bands (ev):

   -28.6506 -14.6317 -14.1559 -14.0311 -12.5580 -11.8517  -9.9937  -9.8126
    -9.1081  -8.6402  -8.1135  -7.8824  -7.8356  -7.5069  -7.1229  -6.6681
    -6.3896  -6.3728  -6.0059  -5.8792  -5.0614  -4.7923  -4.3861  -4.0769
    -3.8053  -3.4639  -2.9550  -2.4794  -1.9400  -1.6632  -1.6010  -1.4561
    -1.1172  -1.0602  -0.7304  -0.5509  -0.3848  -0.0237   0.2546   0.3590
     0.5017   0.6261   0.8122

          k =-0.4674 0.4366 0.0029 ( 21216 PWs)   bands (ev):

   -28.6506 -14.6323 -14.1557 -14.0308 -12.5630 -11.8385  -9.9691  -9.8568
    -9.1354  -8.5586  -8.0878  -7.9154  -7.8037  -7.5781  -7.2136  -6.5669
    -6.4210  -6.3414  -6.1012  -5.8281  -5.0287  -4.7466  -4.3460  -4.1125
    -3.8522  -3.4047  -3.0701  -2.4715  -2.0161  -1.7692  -1.6143  -1.4898
    -0.9670  -0.8544  -0.6582  -0.5130  -0.2914  -0.0919   0.0897   0.2769
     0.6240   0.7346   0.8118

     the Fermi energy is    -0.5064 ev

!    total energy              =    -285.74190190 Ry
     Harris-Foulkes estimate   =    -285.74190250 Ry
     estimated scf accuracy    <       0.00000073 Ry

     The total energy is the sum of the following terms:

     one-electron contribution =    -128.15099046 Ry
     hartree contribution      =      78.00555022 Ry
     xc contribution           =     -95.08557078 Ry
     ewald contribution        =     -34.46861490 Ry
     one-center paw contrib.   =    -106.04277476 Ry
     smearing contrib. (-TS)   =       0.00049878 Ry

     convergence has been achieved in  18 iterations

     negative rho (up, down):  1.729E-05 0.000E+00

     Forces acting on atoms (cartesian axes, Ry/au):

     atom    1 type  1   force =     0.00191519   -0.01714828   -0.03590124
     atom    2 type  1   force =     0.01954208    0.01940623    0.01685812
     atom    3 type  2   force =     0.02365673   -0.00399725    0.01316895
     atom    4 type  3   force =     0.01573265    0.00306052    0.01541690
     atom    5 type  3   force =    -0.01351931   -0.00748018   -0.01510657
     atom    6 type  4   force =     0.00245567   -0.00733531   -0.01435387
     atom    7 type  4   force =     0.05827159    0.02219487   -0.00243510
     atom    8 type  4   force =     0.01261463    0.03509745    0.01674609
     atom    9 type  4   force =    -0.03192705   -0.00116071    0.01971880
     atom   10 type  4   force =    -0.03625633    0.00674640   -0.04602165
     atom   11 type  4   force =     0.02393134    0.02111650    0.10091884
     atom   12 type  4   force =     0.00767266    0.05251772   -0.06257894
     atom   13 type  5   force =    -0.01907296   -0.00677135    0.00097866
     atom   14 type  5   force =    -0.01076350   -0.00809145   -0.02073532
     atom   15 type  5   force =    -0.00829607   -0.01355944    0.02086803
     atom   16 type  5   force =     0.01931696    0.02894481    0.00674727
     atom   17 type  5   force =     0.00122111   -0.12519316    0.07507164
     atom   18 type  5   force =     0.03554692   -0.02262097   -0.05244840
     atom   19 type  5   force =     0.01552454    0.01524152    0.01642984
     atom   20 type  5   force =    -0.04616583    0.00842107   -0.02757427
     atom   21 type  5   force =    -0.02058686   -0.03072571   -0.00991909
     atom   22 type  5   force =    -0.01941174   -0.02234150   -0.02607794
     atom   23 type  5   force =    -0.01778491   -0.04552167    0.05217308
     atom   24 type  5   force =    -0.02486742    0.03846346   -0.03758029
     atom   25 type  5   force =     0.02859428    0.00177530    0.00356035
     atom   26 type  5   force =    -0.00896773   -0.01710985    0.03797415
     atom   27 type  5   force =    -0.02477176   -0.04836847    0.08175659
     atom   28 type  5   force =    -0.00841541    0.12709659   -0.08023914
     atom   29 type  5   force =     0.07190598    0.03649834   -0.01708560
     atom   30 type  5   force =     0.00642770    0.01636082   -0.02968957
     atom   31 type  5   force =     0.01546288    0.00439943    0.00760969
     atom   32 type  5   force =    -0.01735205    0.00632931    0.00486278
     atom   33 type  5   force =    -0.01889288    0.00819807   -0.03491436
     atom   34 type  5   force =    -0.02019046   -0.00380915   -0.01973636
     atom   35 type  5   force =     0.00168969   -0.03545317   -0.00456997
     atom   36 type  5   force =     0.07765989   -0.03731659    0.06447052
     atom   37 type  5   force =    -0.04723652    0.00541355    0.00558352
     atom   38 type  5   force =     0.00566526    0.00626187    0.04484317
     atom   39 type  5   force =     0.01913305    0.00752968    0.03796162
     atom   40 type  5   force =    -0.02125372    0.01849112    0.01858345
     atom   41 type  5   force =    -0.02279416    0.01104064   -0.06677783
     atom   42 type  5   force =     0.01031557   -0.02874397   -0.01800595
     atom   43 type  5   force =    -0.02488311   -0.01493578   -0.01870181
     atom   44 type  5   force =    -0.01084658   -0.00292131   -0.02184875

     Total force =     0.389368     Total SCF correction =     0.000674


     Computing stress (Cartesian axis) and pressure


     negative rho (up, down):  1.729E-05 0.000E+00
          total   stress  (Ry/bohr**3)                   (kbar)     P=  -11.72
  -0.00011346  -0.00004486   0.00006924        -16.69     -6.60     10.19
  -0.00004486   0.00002284   0.00003057         -6.60      3.36      4.50
   0.00006924   0.00003057  -0.00014836         10.19      4.50    -21.83


     number of scf cycles    =   9
     number of bfgs steps    =   7

     enthalpy old            =    -285.4739968368 Ry
     enthalpy new            =    -285.7419019018 Ry

     CASE: enthalpy_new < enthalpy_old

     new trust radius        =       0.5317251818 bohr
     new conv_thr            =       0.0000010000 Ry

     new unit-cell volume =   5063.36934 a.u.^3 (   750.31391 Ang^3 )
     density =      0.83527 g/cm^3

CELL_PARAMETERS (angstrom)
   9.037380678   0.362960457   0.545391265
   0.361812451   9.850794468   0.485819027
   0.547687087   0.493326027   8.495825911

ATOMIC_POSITIONS (angstrom)
K        6.609709453   5.908567128   2.906373135
K        4.391219321   0.988100397   6.703860089
Ba       7.012233990   7.108214875   6.067508223
Al       3.664446116   4.113479780   4.868782675
Al       2.362531779   8.722333151   6.508676336
B        1.911251469   8.662865218   2.343996088
B        4.170213134   5.323500973   7.705516718
B        8.584036495   9.537656290   6.819099006
B        4.209904863   6.581318157   5.767558148
B        6.683374767   2.690241937   2.987536642
B        5.314911111   3.156433820   2.159328818
B        4.831796576   7.785207567   1.287325177
H        7.821481177   4.542227857   5.152074735
H        3.846769184   8.226994036   2.060200264
H        1.857283593   7.341999113   6.992393257
H        7.244493839   9.447365595   6.448494557
H        1.608626791   3.404498833   3.263146285
H        6.351628114   3.409721487   4.417093338
H        8.906539064   7.388713213   3.437989704
H        4.662613934   6.893270402   7.009631848
H        6.442359396   5.262218866   7.381932357
H        8.372368058   1.774627830   7.874847118
H        4.683060010   6.983674783   4.801880522
H        6.711357478   3.183163762   7.576612211
H        8.558907965   4.524506082   5.282962292
H        1.990758341   8.199792373   4.594886779
H        5.610334821   8.814584261   8.687067468
H        1.555353913   3.977872422   2.918705762
H        2.860138362   6.281674410   5.833799071
H        2.177481585   8.670115207   3.978622401
H        6.387628154   1.457010217   3.218656416
H        3.706667017   2.831431754   1.241131545
H        5.114626175   5.279633350   6.090372426
H        3.281882204   2.519796465   1.821859963
H        5.263556820   1.535899231   1.917567275
H        6.287044701   3.976094244   7.019536965
H        4.245916443   8.611706346   6.191556148
H        7.921178032   2.587851849   2.672195677
H        6.473153643   2.204102463   4.195247655
H        5.161620359   5.611830388   8.443410413
H        4.626523697   3.416971058   3.119911642
H        5.707479038   4.505335980   5.225485601
H        4.553240841   4.186817804   7.518025793
H        5.083791689   1.242861910   1.234569896



     Writing output data file 00_K2BaAl2B7H32_Monster.save
     NEW-OLD atomic charge density approx. for the potential

     negative rho (up, down):  6.170E-05 0.000E+00
     extrapolated charge   73.08925, renormalised to   71.00000

     total cpu time spent up to now is    13431.1 secs

     Self-consistent Calculation

     iteration #  1     ecut=    50.00 Ry     beta=0.70
     Davidson diagonalization with overlap
     ethr =  1.00E-06,  avg # of iterations = 16.8

     total cpu time spent up to now is    13503.7 secs

     total energy              =    -284.35497146 Ry
     Harris-Foulkes estimate   =    -283.70941125 Ry
     estimated scf accuracy    <       2.00289446 Ry

     iteration #  2     ecut=    50.00 Ry     beta=0.70
     Davidson diagonalization with overlap
     ethr =  2.82E-03,  avg # of iterations =  5.0

     negative rho (up, down):  4.484E-08 0.000E+00

     total cpu time spent up to now is    13540.8 secs

     total energy              =    -283.83209811 Ry
     Harris-Foulkes estimate   =    -291.18774101 Ry
     estimated scf accuracy    <      31.99295807 Ry

     iteration #  3     ecut=    50.00 Ry     beta=0.70
     Davidson diagonalization with overlap
     ethr =  2.82E-03,  avg # of iterations =  5.0

     negative rho (up, down):  1.187E-06 0.000E+00

     total cpu time spent up to now is    13574.6 secs

     total energy              =    -285.91408975 Ry
     Harris-Foulkes estimate   =    -286.55529481 Ry
     estimated scf accuracy    <       3.48742160 Ry

     iteration #  4     ecut=    50.00 Ry     beta=0.70
     Davidson diagonalization with overlap
     ethr =  2.82E-03,  avg # of iterations =  2.1

     negative rho (up, down):  2.305E-06 0.000E+00

     total cpu time spent up to now is    13596.7 secs

     total energy              =    -286.06416171 Ry
     Harris-Foulkes estimate   =    -286.27552441 Ry
     estimated scf accuracy    <       1.68588123 Ry

     iteration #  5     ecut=    50.00 Ry     beta=0.70
     Davidson diagonalization with overlap
     ethr =  2.37E-03,  avg # of iterations =  1.0

     negative rho (up, down):  1.256E-06 0.000E+00

     total cpu time spent up to now is    13618.2 secs

     total energy              =    -286.03752370 Ry
     Harris-Foulkes estimate   =    -286.12283636 Ry
     estimated scf accuracy    <       1.06835147 Ry

     iteration #  6     ecut=    50.00 Ry     beta=0.70
     Davidson diagonalization with overlap
     ethr =  1.50E-03,  avg # of iterations =  1.0

     negative rho (up, down):  4.186E-06 0.000E+00

     total cpu time spent up to now is    13639.9 secs

     total energy              =    -286.00904735 Ry
     Harris-Foulkes estimate   =    -286.08597943 Ry
     estimated scf accuracy    <       0.52682970 Ry

     iteration #  7     ecut=    50.00 Ry     beta=0.70
     Davidson diagonalization with overlap
     ethr =  7.42E-04,  avg # of iterations =  5.0

     negative rho (up, down):  1.740E-05 0.000E+00

     total cpu time spent up to now is    13666.0 secs

     total energy              =    -286.01594145 Ry
     Harris-Foulkes estimate   =    -286.06307960 Ry
     estimated scf accuracy    <       0.28015460 Ry

     iteration #  8     ecut=    50.00 Ry     beta=0.70
     Davidson diagonalization with overlap
     ethr =  3.95E-04,  avg # of iterations =  1.4

     negative rho (up, down):  3.453E-05 0.000E+00

     total cpu time spent up to now is    13688.2 secs

     total energy              =    -286.03610839 Ry
     Harris-Foulkes estimate   =    -286.05376902 Ry
     estimated scf accuracy    <       0.14719484 Ry

     iteration #  9     ecut=    50.00 Ry     beta=0.70
     Davidson diagonalization with overlap
     ethr =  2.07E-04,  avg # of iterations =  1.0

     negative rho (up, down):  1.255E-04 0.000E+00

     total cpu time spent up to now is    13709.5 secs

     total energy              =    -286.03777130 Ry
     Harris-Foulkes estimate   =    -286.04269904 Ry
     estimated scf accuracy    <       0.03265420 Ry

     iteration # 10     ecut=    50.00 Ry     beta=0.70
     Davidson diagonalization with overlap
     ethr =  4.60E-05,  avg # of iterations =  3.1

     negative rho (up, down):  1.871E-04 0.000E+00

     total cpu time spent up to now is    13732.8 secs

     total energy              =    -286.03933850 Ry
     Harris-Foulkes estimate   =    -286.04115250 Ry
     estimated scf accuracy    <       0.00936427 Ry

     iteration # 11     ecut=    50.00 Ry     beta=0.70
     Davidson diagonalization with overlap
     ethr =  1.32E-05,  avg # of iterations =  4.8

     negative rho (up, down):  2.042E-04 0.000E+00

     total cpu time spent up to now is    13758.5 secs

     total energy              =    -286.03980298 Ry
     Harris-Foulkes estimate   =    -286.04109357 Ry
     estimated scf accuracy    <       0.00648049 Ry

     iteration # 12     ecut=    50.00 Ry     beta=0.70
     Davidson diagonalization with overlap
     ethr =  9.13E-06,  avg # of iterations =  2.1

     negative rho (up, down):  2.242E-04 0.000E+00

     total cpu time spent up to now is    13780.7 secs

     total energy              =    -286.04024254 Ry
     Harris-Foulkes estimate   =    -286.04075172 Ry
     estimated scf accuracy    <       0.00189795 Ry

     iteration # 13     ecut=    50.00 Ry     beta=0.70
     Davidson diagonalization with overlap
     ethr =  2.67E-06,  avg # of iterations =  3.6

     negative rho (up, down):  2.277E-04 0.000E+00

     total cpu time spent up to now is    13805.9 secs

     total energy              =    -286.04042338 Ry
     Harris-Foulkes estimate   =    -286.04071253 Ry
     estimated scf accuracy    <       0.00182029 Ry

     iteration # 14     ecut=    50.00 Ry     beta=0.70
     Davidson diagonalization with overlap
     ethr =  2.56E-06,  avg # of iterations =  1.8

     negative rho (up, down):  2.348E-04 0.000E+00

     total cpu time spent up to now is    13827.7 secs

     total energy              =    -286.04055831 Ry
     Harris-Foulkes estimate   =    -286.04057281 Ry
     estimated scf accuracy    <       0.00008919 Ry

     iteration # 15     ecut=    50.00 Ry     beta=0.70
     Davidson diagonalization with overlap
     ethr =  1.26E-07,  avg # of iterations =  3.6

     negative rho (up, down):  2.356E-04 0.000E+00

     total cpu time spent up to now is    13852.8 secs

     total energy              =    -286.04056796 Ry
     Harris-Foulkes estimate   =    -286.04058251 Ry
     estimated scf accuracy    <       0.00004805 Ry

     iteration # 16     ecut=    50.00 Ry     beta=0.70
     Davidson diagonalization with overlap
     ethr =  6.77E-08,  avg # of iterations =  2.4

     negative rho (up, down):  2.365E-04 0.000E+00

     total cpu time spent up to now is    13876.6 secs

     total energy              =    -286.04057470 Ry
     Harris-Foulkes estimate   =    -286.04057713 Ry
     estimated scf accuracy    <       0.00001179 Ry

     iteration # 17     ecut=    50.00 Ry     beta=0.70
     Davidson diagonalization with overlap
     ethr =  1.66E-08,  avg # of iterations =  2.2

     negative rho (up, down):  2.372E-04 0.000E+00

     total cpu time spent up to now is    13898.9 secs

     total energy              =    -286.04057570 Ry
     Harris-Foulkes estimate   =    -286.04057598 Ry
     estimated scf accuracy    <       0.00000128 Ry

     iteration # 18     ecut=    50.00 Ry     beta=0.70
     Davidson diagonalization with overlap
     ethr =  1.80E-09,  avg # of iterations =  3.6

     negative rho (up, down):  2.372E-04 0.000E+00

     total cpu time spent up to now is    13925.0 secs

     total energy              =    -286.04057582 Ry
     Harris-Foulkes estimate   =    -286.04057608 Ry
     estimated scf accuracy    <       0.00000152 Ry

     iteration # 19     ecut=    50.00 Ry     beta=0.70
     Davidson diagonalization with overlap
     ethr =  1.80E-09,  avg # of iterations =  1.9

     negative rho (up, down):  2.372E-04 0.000E+00

     total cpu time spent up to now is    13946.9 secs

     End of self-consistent calculation

          k = 0.0000 0.0000 0.0000 ( 21247 PWs)   bands (ev):

   -28.9821 -14.5473 -14.3587 -14.2703 -12.0168 -11.2956  -9.6545  -9.6238
    -9.0002  -8.4735  -8.3868  -7.9219  -7.7649  -7.6347  -7.3655  -6.7228
    -6.4482  -6.3220  -6.0221  -5.6224  -5.4244  -5.0223  -4.5998  -4.4359
    -4.1058  -3.8876  -3.3961  -2.6803  -2.2815  -1.9057  -1.7771  -1.4312
    -0.8873  -0.6731  -0.6153  -0.2930  -0.1376  -0.0081   0.2182   0.3549
     0.4534   0.7344   0.8869

          k = 0.0280 0.0226-0.4788 ( 21362 PWs)   bands (ev):

   -28.9821 -14.5473 -14.3588 -14.2706 -12.0064 -11.3105  -9.7278  -9.5474
    -8.9666  -8.5194  -8.4471  -7.9078  -7.7662  -7.6149  -7.2424  -6.7234
    -6.5133  -6.3695  -5.9128  -5.6502  -5.4822  -5.0997  -4.6125  -4.3265
    -4.0256  -3.9160  -3.3697  -2.6949  -2.2580  -1.9461  -1.7452  -1.4688
    -0.8547  -0.7767  -0.5009  -0.3899  -0.2455  -0.0339   0.0551   0.3461
     0.4449   0.7920   0.8434

          k = 0.0431-0.3893-0.4558 ( 21216 PWs)   bands (ev):

   -28.9821 -14.5474 -14.3589 -14.2707 -12.0046 -11.3099  -9.7090  -9.5748
    -8.9576  -8.5773  -8.3988  -7.8765  -7.7841  -7.6011  -7.2787  -6.7168
    -6.5139  -6.3775  -5.9045  -5.6386  -5.4731  -5.1175  -4.5745  -4.3372
    -4.0283  -3.8771  -3.3713  -2.5904  -2.4223  -1.8957  -1.6892  -1.5791
    -1.1657  -0.6746  -0.5238  -0.2987  -0.2822  -0.0651   0.1510   0.4193
     0.4862   0.8147   0.9006

          k =-0.4063-0.3742-0.4277 ( 21368 PWs)   bands (ev):

   -28.9821 -14.5482 -14.3591 -14.2707 -12.0038 -11.3009  -9.7112  -9.5897
    -8.9584  -8.5566  -8.3194  -8.1162  -7.7117  -7.5374  -7.2854  -6.6956
    -6.5070  -6.3624  -5.9411  -5.6317  -5.4691  -5.1288  -4.5809  -4.3407
    -4.0082  -3.8938  -3.2693  -2.6810  -2.3952  -1.8500  -1.7440  -1.4634
    -0.9765  -0.9453  -0.5621  -0.4844  -0.1857  -0.0607   0.0301   0.2659
     0.5950   0.6494   0.8936

          k =-0.4495 0.0151 0.0281 ( 21362 PWs)   bands (ev):

   -28.9821 -14.5481 -14.3589 -14.2703 -12.0157 -11.2867  -9.6629  -9.6305
    -9.0008  -8.4675  -8.3172  -8.1213  -7.7158  -7.5291  -7.3732  -6.7176
    -6.4606  -6.3454  -6.0373  -5.6266  -5.4256  -5.0051  -4.6059  -4.4318
    -4.1222  -3.8913  -3.2225  -2.6747  -2.3758  -1.8439  -1.6341  -1.5892
    -1.0202  -0.8056  -0.6052  -0.4317  -0.0677   0.0284   0.1770   0.4441
     0.4875   0.6905   0.8881

          k = 0.0152-0.4119 0.0229 ( 21362 PWs)   bands (ev):

   -28.9822 -14.5474 -14.3588 -14.2703 -12.0143 -11.2972  -9.6735  -9.6002
    -9.0074  -8.4379  -8.4331  -7.9115  -7.7900  -7.6280  -7.3568  -6.7200
    -6.4523  -6.2989  -6.0311  -5.6217  -5.4268  -5.0269  -4.5865  -4.4220
    -4.1109  -3.8778  -3.3798  -2.6031  -2.4222  -1.8601  -1.6777  -1.6064
    -0.9707  -0.7095  -0.5711  -0.2945  -0.1371   0.0109   0.1546   0.3301
     0.5834   0.7797   0.8913

          k =-0.4775-0.0075 0.5069 ( 21216 PWs)   bands (ev):

   -28.9821 -14.5480 -14.3590 -14.2706 -12.0053 -11.3015  -9.7405  -9.5482
    -8.9696  -8.4983  -8.3718  -8.1240  -7.7341  -7.5315  -7.2433  -6.6942
    -6.5092  -6.3690  -5.9417  -5.6458  -5.4744  -5.1123  -4.6188  -4.3633
    -4.0134  -3.9097  -3.2186  -2.6682  -2.3499  -1.8462  -1.6535  -1.5591
    -1.0724  -0.9331  -0.5300  -0.4350  -0.2313   0.0797   0.1246   0.3192
     0.4062   0.6656   0.8697

          k =-0.4646 0.4271 0.0052 ( 21216 PWs)   bands (ev):

   -28.9821 -14.5482 -14.3590 -14.2703 -12.0132 -11.2878  -9.6818  -9.6063
    -9.0091  -8.4532  -8.3388  -8.1350  -7.6886  -7.5453  -7.3740  -6.7196
    -6.4494  -6.3247  -6.0483  -5.6292  -5.4191  -5.0229  -4.5927  -4.3845
    -4.1328  -3.8742  -3.2763  -2.6725  -2.3964  -1.8616  -1.7119  -1.4732
    -0.9917  -0.7990  -0.5561  -0.4656  -0.1645  -0.0344   0.1559   0.3272
     0.5970   0.6798   0.9202

     the Fermi energy is    -0.3790 ev

!    total energy              =    -286.04057570 Ry
     Harris-Foulkes estimate   =    -286.04057601 Ry
     estimated scf accuracy    <       0.00000036 Ry

     The total energy is the sum of the following terms:

     one-electron contribution =    -124.14739324 Ry
     hartree contribution      =      75.94871849 Ry
     xc contribution           =     -95.25414418 Ry
     ewald contribution        =     -36.56897743 Ry
     one-center paw contrib.   =    -106.01926840 Ry
     smearing contrib. (-TS)   =       0.00048906 Ry

     convergence has been achieved in  19 iterations

     negative rho (up, down):  2.372E-04 0.000E+00

     Forces acting on atoms (cartesian axes, Ry/au):

     atom    1 type  1   force =     0.00769636   -0.01219659   -0.02845762
     atom    2 type  1   force =     0.01842725    0.02878027    0.01553225
     atom    3 type  2   force =     0.01982899   -0.00273933    0.00707617
     atom    4 type  3   force =     0.02803402    0.00990883    0.02928765
     atom    5 type  3   force =    -0.01770467    0.00353236   -0.02610023
     atom    6 type  4   force =    -0.00347780   -0.00772400   -0.00608910
     atom    7 type  4   force =     0.07637873    0.02756380   -0.01439342
     atom    8 type  4   force =    -0.00239772    0.02310116    0.02224598
     atom    9 type  4   force =    -0.09328858   -0.08063222    0.14160060
     atom   10 type  4   force =     0.07104330   -0.04628754    0.03173429
     atom   11 type  4   force =     0.02954260    0.03222447    0.00461095
     atom   12 type  4   force =    -0.00993198    0.00616635    0.02537580
     atom   13 type  5   force =    -0.00964595   -0.00381369    0.00296468
     atom   14 type  5   force =     0.00933608   -0.01185572   -0.03130574
     atom   15 type  5   force =    -0.01137303   -0.02035028    0.02850709
     atom   16 type  5   force =     0.03942281    0.03119578    0.01498139
     atom   17 type  5   force =     0.00697627   -0.12093496    0.07003277
     atom   18 type  5   force =     0.00876176   -0.03571549   -0.04611060
     atom   19 type  5   force =     0.00717550    0.00771812    0.01207467
     atom   20 type  5   force =    -0.03135082   -0.00049682   -0.04764439
     atom   21 type  5   force =    -0.02495542   -0.00358253   -0.00941045
     atom   22 type  5   force =    -0.01402784   -0.04150819   -0.03463253
     atom   23 type  5   force =     0.04009173    0.01556567   -0.05378708
     atom   24 type  5   force =    -0.03902287    0.06053266   -0.06070059
     atom   25 type  5   force =     0.01557007    0.00450876    0.00118264
     atom   26 type  5   force =    -0.00832530   -0.01503850    0.04280119
     atom   27 type  5   force =    -0.01888379    0.00048936    0.00806425
     atom   28 type  5   force =    -0.01587951    0.12266200   -0.07648247
     atom   29 type  5   force =     0.08594972    0.03607151   -0.01561300
     atom   30 type  5   force =     0.00598423    0.01722374   -0.04424849
     atom   31 type  5   force =     0.00892461    0.01784565    0.00152158
     atom   32 type  5   force =    -0.01147216    0.00235520    0.00844451
     atom   33 type  5   force =    -0.02212781    0.02092985   -0.02415154
     atom   34 type  5   force =    -0.01829882   -0.00467987   -0.01948619
     atom   35 type  5   force =     0.00070940   -0.02555036   -0.00521614
     atom   36 type  5   force =     0.07140171   -0.07765637    0.07561641
     atom   37 type  5   force =    -0.05160066    0.00821390    0.00564677
     atom   38 type  5   force =    -0.04857764    0.01666418    0.02119427
     atom   39 type  5   force =     0.01414981    0.03287829    0.00608418
     atom   40 type  5   force =    -0.02416665    0.02047015    0.01646672
     atom   41 type  5   force =    -0.04869239    0.01599035    0.00176070
     atom   42 type  5   force =    -0.00178132   -0.01985598   -0.01425018
     atom   43 type  5   force =    -0.02995388   -0.02563435   -0.02038268
     atom   44 type  5   force =    -0.00846832   -0.00633962   -0.01634509

     Total force =     0.422823     Total SCF correction =     0.000408


     Computing stress (Cartesian axis) and pressure


     negative rho (up, down):  2.372E-04 0.000E+00
          total   stress  (Ry/bohr**3)                   (kbar)     P=  -12.67
  -0.00019175  -0.00005786   0.00001652        -28.21     -8.51      2.43
  -0.00005786  -0.00000264  -0.00001218         -8.51     -0.39     -1.79
   0.00001652  -0.00001218  -0.00006393          2.43     -1.79     -9.40


     number of scf cycles    =  10
     number of bfgs steps    =   8

     enthalpy old            =    -285.7419019018 Ry
     enthalpy new            =    -286.0405756983 Ry

     CASE: enthalpy_new < enthalpy_old

     new trust radius        =       0.6767572851 bohr
     new conv_thr            =       0.0000010000 Ry

     new unit-cell volume =   5186.97801 a.u.^3 (   768.63083 Ang^3 )
     density =      0.81536 g/cm^3

CELL_PARAMETERS (angstrom)
   9.078611242   0.399627902   0.676957724
   0.402930741  10.119221524   0.585057555
   0.685289087   0.594576633   8.463444354

ATOMIC_POSITIONS (angstrom)
K        6.653474700   6.153874241   2.946914730
K        4.511332174   0.920898754   6.791729872
Ba       7.225278419   7.466931993   6.274724367
Al       3.721172029   4.286909429   4.843888338
Al       2.388843621   8.984920886   6.560148045
B        1.987280982   8.888404683   2.391354612
B        4.500428667   5.575085508   7.814355250
B        8.862724529  10.177250748   7.107256476
B        4.347902411   6.884643662   5.938046907
B        6.695525659   2.724802403   3.044527887
B        5.357067693   3.253478088   2.356310203
B        4.873001027   8.155195770   1.348088923
H        7.995657712   4.628956758   5.287026259
H        3.873218439   8.430320267   2.120289537
H        1.977690448   7.596409349   7.110397959
H        7.494823978   9.869182294   6.642438903
H        1.690595734   3.500481023   3.311678136
H        6.552499348   3.475533695   4.406818366
H        9.185436278   7.803040306   3.700998176
H        4.658245369   7.294323334   7.087130385
H        6.624413436   5.467149697   7.483554736
H        8.451980960   1.839942421   7.886773240
H        4.803507751   7.123484415   4.957787464
H        6.892514334   3.522060440   7.623911680
H        8.712285007   4.740585208   5.426576851
H        2.101918474   8.484099855   4.733170038
H        5.750565750   9.043998184   8.925185762
H        1.585503532   4.159946403   2.944389371
H        2.996895108   6.565415256   5.872447413
H        2.267933447   8.931221058   4.056598541
H        6.556082832   1.487807653   3.360489293
H        3.706966095   2.961120998   1.312585945
H        5.195762077   5.487517340   6.065001396
H        3.260149142   2.590774082   1.846798597
H        5.261026299   1.458813619   1.922669590
H        6.703825833   3.990870436   7.273344064
H        4.304597382   8.952112772   6.306443038
H        7.995271288   2.719107615   2.944517577
H        6.704137466   2.384117113   4.390040652
H        5.265900750   5.962169168   8.668539063
H        4.563908843   3.624065447   3.058194328
H        5.819981417   4.504627584   5.186431911
H        4.570084909   4.357328472   7.567992535
H        5.077534729   1.261350014   1.214348457



     Writing output data file 00_K2BaAl2B7H32_Monster.save
     NEW-OLD atomic charge density approx. for the potential

     negative rho (up, down):  1.914E-04 0.000E+00
     extrapolated charge   72.69055, renormalised to   71.00000

     total cpu time spent up to now is    14771.7 secs

     Self-consistent Calculation

     iteration #  1     ecut=    50.00 Ry     beta=0.70
     Davidson diagonalization with overlap
     ethr =  1.00E-06,  avg # of iterations = 17.2

     negative rho (up, down):  1.164E-05 0.000E+00

     total cpu time spent up to now is    14844.8 secs

     total energy              =    -285.11881467 Ry
     Harris-Foulkes estimate   =    -284.33426001 Ry
     estimated scf accuracy    <       1.36527122 Ry

     iteration #  2     ecut=    50.00 Ry     beta=0.70
     Davidson diagonalization with overlap
     ethr =  1.92E-03,  avg # of iterations =  5.9

     negative rho (up, down):  1.189E-06 0.000E+00

     total cpu time spent up to now is    14882.1 secs

     total energy              =    -284.30217035 Ry
     Harris-Foulkes estimate   =    -289.37495144 Ry
     estimated scf accuracy    <      23.38004886 Ry

     iteration #  3     ecut=    50.00 Ry     beta=0.70
     Davidson diagonalization with overlap
     ethr =  1.92E-03,  avg # of iterations =  5.1

     negative rho (up, down):  2.567E-06 0.000E+00

     total cpu time spent up to now is    14914.2 secs

     total energy              =    -285.97813920 Ry
     Harris-Foulkes estimate   =    -286.50048059 Ry
     estimated scf accuracy    <       2.86333698 Ry

     iteration #  4     ecut=    50.00 Ry     beta=0.70
     Davidson diagonalization with overlap
     ethr =  1.92E-03,  avg # of iterations =  3.0

     negative rho (up, down):  1.001E-06 0.000E+00

     total cpu time spent up to now is    14937.4 secs

     total energy              =    -286.09567891 Ry
     Harris-Foulkes estimate   =    -286.23277047 Ry
     estimated scf accuracy    <       0.75559168 Ry

     iteration #  5     ecut=    50.00 Ry     beta=0.70
     Davidson diagonalization with overlap
     ethr =  1.06E-03,  avg # of iterations =  4.0

     negative rho (up, down):  8.709E-06 0.000E+00

     total cpu time spent up to now is    14962.0 secs

     total energy              =    -286.10783594 Ry
     Harris-Foulkes estimate   =    -286.15885438 Ry
     estimated scf accuracy    <       0.28597875 Ry

     iteration #  6     ecut=    50.00 Ry     beta=0.70
     Davidson diagonalization with overlap
     ethr =  4.03E-04,  avg # of iterations =  5.9

     negative rho (up, down):  1.487E-04 0.000E+00

     total cpu time spent up to now is    14987.7 secs

     total energy              =    -286.11809934 Ry
     Harris-Foulkes estimate   =    -286.15343294 Ry
     estimated scf accuracy    <       0.16047102 Ry

     iteration #  7     ecut=    50.00 Ry     beta=0.70
     Davidson diagonalization with overlap
     ethr =  2.26E-04,  avg # of iterations =  4.2

     negative rho (up, down):  3.553E-04 0.000E+00

     total cpu time spent up to now is    15012.4 secs

     total energy              =    -286.13328590 Ry
     Harris-Foulkes estimate   =    -286.13819057 Ry
     estimated scf accuracy    <       0.01713670 Ry

     iteration #  8     ecut=    50.00 Ry     beta=0.70
     Davidson diagonalization with overlap
     ethr =  2.41E-05,  avg # of iterations =  4.2

     negative rho (up, down):  4.034E-04 0.000E+00

     total cpu time spent up to now is    15039.7 secs

     total energy              =    -286.13169383 Ry
     Harris-Foulkes estimate   =    -286.14049445 Ry
     estimated scf accuracy    <       0.04358691 Ry

     iteration #  9     ecut=    50.00 Ry     beta=0.70
     Davidson diagonalization with overlap
     ethr =  2.41E-05,  avg # of iterations =  3.4

     negative rho (up, down):  4.801E-04 0.000E+00

     total cpu time spent up to now is    15063.9 secs

     total energy              =    -286.13488008 Ry
     Harris-Foulkes estimate   =    -286.13953584 Ry
     estimated scf accuracy    <       0.03307851 Ry

     iteration # 10     ecut=    50.00 Ry     beta=0.70
     Davidson diagonalization with overlap
     ethr =  2.41E-05,  avg # of iterations =  2.0

     negative rho (up, down):  5.167E-04 0.000E+00

     total cpu time spent up to now is    15085.9 secs

     total energy              =    -286.13698010 Ry
     Harris-Foulkes estimate   =    -286.13743106 Ry
     estimated scf accuracy    <       0.00249798 Ry

     iteration # 11     ecut=    50.00 Ry     beta=0.70
     Davidson diagonalization with overlap
     ethr =  3.52E-06,  avg # of iterations =  3.8

     negative rho (up, down):  5.727E-04 0.000E+00

     total cpu time spent up to now is    15110.1 secs

     total energy              =    -286.13733216 Ry
     Harris-Foulkes estimate   =    -286.13745925 Ry
     estimated scf accuracy    <       0.00122892 Ry

     iteration # 12     ecut=    50.00 Ry     beta=0.70
     Davidson diagonalization with overlap
     ethr =  1.73E-06,  avg # of iterations =  1.0

     negative rho (up, down):  5.978E-04 0.000E+00

     total cpu time spent up to now is    15132.3 secs

     total energy              =    -286.13738889 Ry
     Harris-Foulkes estimate   =    -286.13739793 Ry
     estimated scf accuracy    <       0.00004414 Ry

     iteration # 13     ecut=    50.00 Ry     beta=0.70
     Davidson diagonalization with overlap
     ethr =  6.22E-08,  avg # of iterations =  3.9

     negative rho (up, down):  5.984E-04 0.000E+00

     total cpu time spent up to now is    15158.1 secs

     total energy              =    -286.13739540 Ry
     Harris-Foulkes estimate   =    -286.13740287 Ry
     estimated scf accuracy    <       0.00003296 Ry

     iteration # 14     ecut=    50.00 Ry     beta=0.70
     Davidson diagonalization with overlap
     ethr =  4.64E-08,  avg # of iterations =  2.0

     negative rho (up, down):  5.969E-04 0.000E+00

     total cpu time spent up to now is    15180.8 secs

     total energy              =    -286.13739785 Ry
     Harris-Foulkes estimate   =    -286.13739917 Ry
     estimated scf accuracy    <       0.00000470 Ry

     iteration # 15     ecut=    50.00 Ry     beta=0.70
     Davidson diagonalization with overlap
     ethr =  6.61E-09,  avg # of iterations =  3.4

     negative rho (up, down):  5.979E-04 0.000E+00

     total cpu time spent up to now is    15205.9 secs

     total energy              =    -286.13739839 Ry
     Harris-Foulkes estimate   =    -286.13739929 Ry
     estimated scf accuracy    <       0.00000312 Ry

     iteration # 16     ecut=    50.00 Ry     beta=0.70
     Davidson diagonalization with overlap
     ethr =  4.39E-09,  avg # of iterations =  2.0

     negative rho (up, down):  5.989E-04 0.000E+00

     total cpu time spent up to now is    15228.7 secs

     total energy              =    -286.13739874 Ry
     Harris-Foulkes estimate   =    -286.13739891 Ry
     estimated scf accuracy    <       0.00000109 Ry

     iteration # 17     ecut=    50.00 Ry     beta=0.70
     Davidson diagonalization with overlap
     ethr =  1.54E-09,  avg # of iterations =  2.2

     negative rho (up, down):  5.994E-04 0.000E+00

     total cpu time spent up to now is    15251.5 secs

     End of self-consistent calculation

          k = 0.0000 0.0000 0.0000 ( 21247 PWs)   bands (ev):

   -29.3263 -14.6982 -14.6260 -14.4886 -11.6617 -11.0529  -9.5228  -9.4873
    -9.1775  -8.7634  -8.2994  -7.9352  -7.5808  -7.4687  -7.3341  -7.0432
    -6.6011  -6.4507  -6.1484  -5.9229  -5.4684  -5.0476  -4.8108  -4.5946
    -4.1742  -4.0999  -3.7473  -3.1466  -2.6157  -1.9649  -1.8399  -1.4990
    -1.3832  -0.5640  -0.4258  -0.1371   0.0865   0.1047   0.1751   0.3510
     0.5690   0.8245   0.9928

          k = 0.0348 0.0265-0.4822 ( 21362 PWs)   bands (ev):

   -29.3263 -14.6984 -14.6261 -14.4888 -11.6507 -11.0623  -9.5934  -9.4585
    -9.1497  -8.7438  -8.3698  -7.8937  -7.5275  -7.4360  -7.3058  -7.0984
    -6.6574  -6.5101  -6.0956  -5.8115  -5.5560  -5.0636  -4.8567  -4.5632
    -4.1429  -3.9925  -3.7678  -3.1598  -2.5941  -1.9804  -1.7975  -1.5181
    -1.4311  -0.6758  -0.3218  -0.2306  -0.0858   0.0370   0.2017   0.3138
     0.5003   0.8763   1.0893

          k = 0.0505-0.3751-0.4552 ( 21216 PWs)   bands (ev):

   -29.3263 -14.6984 -14.6261 -14.4888 -11.6493 -11.0619  -9.5477  -9.5194
    -9.1413  -8.7432  -8.3598  -7.8846  -7.5235  -7.4621  -7.2948  -7.1192
    -6.6319  -6.5394  -6.0872  -5.8210  -5.5275  -5.0602  -4.8198  -4.5991
    -4.1446  -3.9914  -3.7326  -3.0459  -2.7410  -1.9547  -1.8132  -1.7558
    -1.3225  -0.6288  -0.3421  -0.2286  -0.1187   0.0595   0.2352   0.4255
     0.4956   0.8629   1.0837

          k =-0.3980-0.3592-0.4200 ( 21368 PWs)   bands (ev):

   -29.3263 -14.6989 -14.6263 -14.4889 -11.6480 -11.0532  -9.5596  -9.5240
    -9.1452  -8.7428  -8.2830  -8.0003  -7.5198  -7.4542  -7.3318  -7.0766
    -6.6068  -6.4898  -6.0959  -5.8310  -5.5417  -5.0808  -4.8553  -4.6001
    -4.1936  -3.9877  -3.6401  -3.0197  -2.7419  -1.8844  -1.8075  -1.5717
    -1.4313  -0.8207  -0.3438  -0.2673  -0.0827   0.0177   0.1966   0.2551
     0.5117   0.7390   1.0752

          k =-0.4485 0.0158 0.0352 ( 21362 PWs)   bands (ev):

   -29.3263 -14.6987 -14.6262 -14.4887 -11.6600 -11.0445  -9.5330  -9.4856
    -9.1957  -8.7663  -8.2160  -8.0363  -7.5908  -7.3872  -7.3362  -7.0835
    -6.5904  -6.4777  -6.1400  -5.9094  -5.4716  -5.0554  -4.7763  -4.6700
    -4.1893  -4.1483  -3.6065  -3.0095  -2.7050  -1.9170  -1.8056  -1.6991
    -1.2289  -0.6869  -0.4578  -0.2956   0.0527   0.1826   0.2404   0.3106
     0.5262   0.7742   1.0090

          k = 0.0157-0.4015 0.0269 ( 21362 PWs)   bands (ev):

   -29.3263 -14.6983 -14.6261 -14.4887 -11.6596 -11.0547  -9.5482  -9.4541
    -9.1877  -8.7596  -8.3097  -7.9241  -7.5813  -7.4984  -7.3049  -7.0543
    -6.6075  -6.4552  -6.1278  -5.9388  -5.4550  -5.0453  -4.7741  -4.6237
    -4.1610  -4.1248  -3.6983  -3.0535  -2.7584  -1.9569  -1.7986  -1.7612
    -1.2134  -0.6011  -0.3670  -0.0805  -0.0104   0.0611   0.1811   0.4006
     0.6469   0.8476   1.0307

          k =-0.4832-0.0107 0.5174 ( 21216 PWs)   bands (ev):

   -29.3263 -14.6989 -14.6262 -14.4889 -11.6490 -11.0535  -9.6074  -9.4636
    -9.1458  -8.7456  -8.2946  -8.0043  -7.5539  -7.3800  -7.3315  -7.1024
    -6.6001  -6.4799  -6.1050  -5.8319  -5.5581  -5.0819  -4.8379  -4.6424
    -4.1797  -4.0071  -3.6417  -3.0017  -2.6880  -1.9282  -1.7828  -1.7047
    -1.2774  -0.7921  -0.3384  -0.2496  -0.0643   0.0668   0.1995   0.2746
     0.3229   0.7501   1.0764

          k =-0.4641 0.4174 0.0083 ( 21216 PWs)   bands (ev):

   -29.3263 -14.6988 -14.6262 -14.4888 -11.6579 -11.0456  -9.5554  -9.4579
    -9.1977  -8.7709  -8.2287  -8.0311  -7.5393  -7.4616  -7.3299  -7.0595
    -6.5915  -6.4852  -6.1180  -5.9259  -5.4621  -5.0602  -4.7912  -4.6303
    -4.2082  -4.1186  -3.6106  -3.0094  -2.7554  -1.9131  -1.7707  -1.6029
    -1.3845  -0.6886  -0.3584  -0.3166  -0.0822   0.1359   0.2235   0.3752
     0.5834   0.7661   1.0362

     the Fermi energy is    -0.2109 ev

!    total energy              =    -286.13739871 Ry
     Harris-Foulkes estimate   =    -286.13739887 Ry
     estimated scf accuracy    <       0.00000019 Ry

     The total energy is the sum of the following terms:

     one-electron contribution =    -120.48930856 Ry
     hartree contribution      =      74.07751999 Ry
     xc contribution           =     -95.58641219 Ry
     ewald contribution        =     -38.13065875 Ry
     one-center paw contrib.   =    -106.00795114 Ry
     smearing contrib. (-TS)   =      -0.00058806 Ry

     convergence has been achieved in  17 iterations

     negative rho (up, down):  5.994E-04 0.000E+00

     Forces acting on atoms (cartesian axes, Ry/au):

     atom    1 type  1   force =     0.00838777   -0.00849755   -0.02004533
     atom    2 type  1   force =     0.01500202    0.03028655    0.01539731
     atom    3 type  2   force =     0.01394348   -0.00275202    0.00478989
     atom    4 type  3   force =     0.03534407    0.00553699    0.03165755
     atom    5 type  3   force =    -0.02494863    0.01018058   -0.03043819
     atom    6 type  4   force =    -0.01029680   -0.01066378    0.00596819
     atom    7 type  4   force =     0.10988915   -0.03610278   -0.07305614
     atom    8 type  4   force =    -0.01195503    0.02467030    0.04154018
     atom    9 type  4   force =    -0.11910601   -0.12987645    0.14842802
     atom   10 type  4   force =     0.12989028   -0.06651564    0.09419889
     atom   11 type  4   force =     0.05007446    0.02173238   -0.06660400
     atom   12 type  4   force =    -0.09835729   -0.14681856    0.43303037
     atom   13 type  5   force =    -0.02540605   -0.00311114   -0.00032904
     atom   14 type  5   force =     0.02087144   -0.00510182   -0.02886415
     atom   15 type  5   force =    -0.01415661   -0.01718706    0.03106556
     atom   16 type  5   force =     0.05908299    0.03638213    0.02219385
     atom   17 type  5   force =    -0.00607206    0.01027046   -0.00939581
     atom   18 type  5   force =    -0.00902209   -0.05123828   -0.02381283
     atom   19 type  5   force =     0.00726830    0.00639758    0.00691758
     atom   20 type  5   force =    -0.00379838    0.01069386   -0.02725211
     atom   21 type  5   force =    -0.03709002    0.03333835    0.00035445
     atom   22 type  5   force =    -0.01075250   -0.06799547   -0.05477652
     atom   23 type  5   force =     0.06558996    0.03533147   -0.09227817
     atom   24 type  5   force =     0.09998387   -0.25225264    0.17019593
     atom   25 type  5   force =     0.02884890    0.00686016    0.00347690
     atom   26 type  5   force =    -0.00217058   -0.00397467    0.03092096
     atom   27 type  5   force =     0.06653872    0.14734253   -0.40191297
     atom   28 type  5   force =    -0.00401509   -0.00848061    0.00148421
     atom   29 type  5   force =     0.09238899    0.03055706   -0.00322793
     atom   30 type  5   force =     0.00013942    0.00665674   -0.04648011
     atom   31 type  5   force =     0.00090849    0.01649561   -0.01060151
     atom   32 type  5   force =    -0.01070900   -0.00674281    0.01409236
     atom   33 type  5   force =    -0.02741345    0.03264490   -0.00020154
     atom   34 type  5   force =    -0.00902290   -0.00175189   -0.02043570
     atom   35 type  5   force =    -0.00014694   -0.01629458   -0.00476148
     atom   36 type  5   force =    -0.08547743    0.21179148   -0.16746258
     atom   37 type  5   force =    -0.06128503    0.02022706    0.00374139
     atom   38 type  5   force =    -0.06151184    0.01641692   -0.01845600
     atom   39 type  5   force =    -0.00229613    0.04462694   -0.01087406
     atom   40 type  5   force =    -0.02787298    0.02648841    0.01997961
     atom   41 type  5   force =    -0.08444189    0.03961964    0.05009937
     atom   42 type  5   force =    -0.01957628   -0.00006368   -0.01108189
     atom   43 type  5   force =    -0.03315357    0.01843171    0.00298631
     atom   44 type  5   force =    -0.00409772   -0.00755836   -0.01017082

     Total force =     0.887608     Total SCF correction =     0.000496


     Computing stress (Cartesian axis) and pressure


     negative rho (up, down):  5.994E-04 0.000E+00
          total   stress  (Ry/bohr**3)                   (kbar)     P=   -4.47
  -0.00022406  -0.00008588  -0.00002446        -32.96    -12.63     -3.60
  -0.00008588   0.00002536  -0.00008132        -12.63      3.73    -11.96
  -0.00002446  -0.00008132   0.00010762         -3.60    -11.96     15.83


     number of scf cycles    =  11
     number of bfgs steps    =   9

     enthalpy old            =    -286.0405756983 Ry
     enthalpy new            =    -286.1373987088 Ry

     CASE: enthalpy_new < enthalpy_old

     new trust radius        =       0.2517368964 bohr
     new conv_thr            =       0.0000010000 Ry

     new unit-cell volume =   5133.56014 a.u.^3 (   760.71512 Ang^3 )
     density =      0.82385 g/cm^3

CELL_PARAMETERS (angstrom)
   9.009283925   0.376383795   0.663354283
   0.382399644  10.085418454   0.563211040
   0.676200427   0.572087577   8.464135542

ATOMIC_POSITIONS (angstrom)
K        6.593966072   6.082485123   2.913176899
K        4.496475174   0.952669255   6.797434501
Ba       7.163380674   7.398985802   6.249975216
Al       3.719072193   4.264971436   4.869714960
Al       2.350212627   8.936677654   6.522880425
B        1.947416857   8.844846888   2.359984864
B        4.503743474   5.527375085   7.777595507
B        8.767868452  10.100612220   7.085628218
B        4.277521532   6.838039637   5.987046521
B        6.702970975   2.669702752   3.075021948
B        5.345494568   3.263304255   2.333505587
B        4.805974571   8.067195145   1.447498338
H        7.920762902   4.586927768   5.269403774
H        3.838940383   8.385091185   2.085376410
H        1.942938310   7.540424132   7.103888874
H        7.444465919   9.836198592   6.628916987
H        1.668820697   3.444267240   3.312914110
H        6.483062872   3.408653147   4.374437647
H        9.091819142   7.741543822   3.673213411
H        4.603948806   7.227517378   7.042468190
H        6.533406648   5.424494002   7.458543204
H        8.372406824   1.754225028   7.847860575
H        4.781175718   7.102827325   4.901569551
H        6.840055368   3.391958209   7.632592477
H        8.636160804   4.704052987   5.407299068
H        2.067939656   8.434179952   4.731386256
H        5.693130777   9.032998472   8.791517551
H        1.561894513   4.169706561   2.919888571
H        2.985050607   6.490946789   5.859592775
H        2.237731799   8.898888670   4.023408610
H        6.500967802   1.485428901   3.344294503
H        3.670796661   2.937206977   1.305710834
H        5.131913639   5.464405146   6.050917602
H        3.223855315   2.566983722   1.827967091
H        5.223133052   1.429457893   1.916690991
H        6.618271556   4.015156775   7.227917092
H        4.216873759   8.888732080   6.280610260
H        7.898623922   2.694481231   2.911789102
H        6.642716481   2.379225895   4.370021086
H        5.201752138   5.920381761   8.643804383
H        4.494818497   3.607393515   3.064291231
H        5.760973883   4.473754372   5.175261225
H        4.514839346   4.311953398   7.545475412
H        5.035343725   1.242420888   1.205946025



     Writing output data file 00_K2BaAl2B7H32_Monster.save
     NEW-OLD atomic charge density approx. for the potential

     negative rho (up, down):  1.085E-03 0.000E+00
     extrapolated charge   70.26182, renormalised to   71.00000

     total cpu time spent up to now is    16076.0 secs

     Self-consistent Calculation

     iteration #  1     ecut=    50.00 Ry     beta=0.70
     Davidson diagonalization with overlap
     ethr =  1.00E-06,  avg # of iterations = 12.1

     negative rho (up, down):  3.006E-04 0.000E+00

     total cpu time spent up to now is    16137.3 secs

     total energy              =    -286.29455586 Ry
     Harris-Foulkes estimate   =    -287.28624777 Ry
     estimated scf accuracy    <       0.13179758 Ry

     iteration #  2     ecut=    50.00 Ry     beta=0.70
     Davidson diagonalization with overlap
     ethr =  1.86E-04,  avg # of iterations =  6.0

     negative rho (up, down):  2.448E-04 0.000E+00

     total cpu time spent up to now is    16172.3 secs

     total energy              =    -286.21137373 Ry
     Harris-Foulkes estimate   =    -286.64070078 Ry
     estimated scf accuracy    <       2.30460760 Ry

     iteration #  3     ecut=    50.00 Ry     beta=0.70
     Davidson diagonalization with overlap
     ethr =  1.86E-04,  avg # of iterations =  5.2

     negative rho (up, down):  1.685E-04 0.000E+00

     total cpu time spent up to now is    16202.7 secs

     total energy              =    -286.33678631 Ry
     Harris-Foulkes estimate   =    -286.41422278 Ry
     estimated scf accuracy    <       0.30138684 Ry

     iteration #  4     ecut=    50.00 Ry     beta=0.70
     Davidson diagonalization with overlap
     ethr =  1.86E-04,  avg # of iterations =  4.2

     negative rho (up, down):  2.259E-04 0.000E+00

     total cpu time spent up to now is    16227.9 secs

     total energy              =    -286.35776980 Ry
     Harris-Foulkes estimate   =    -286.38565625 Ry
     estimated scf accuracy    <       0.19452872 Ry

     iteration #  5     ecut=    50.00 Ry     beta=0.70
     Davidson diagonalization with overlap
     ethr =  1.86E-04,  avg # of iterations =  2.0

     negative rho (up, down):  2.682E-04 0.000E+00

     total cpu time spent up to now is    16249.9 secs

     total energy              =    -286.36949705 Ry
     Harris-Foulkes estimate   =    -286.38319016 Ry
     estimated scf accuracy    <       0.06991583 Ry

     iteration #  6     ecut=    50.00 Ry     beta=0.70
     Davidson diagonalization with overlap
     ethr =  9.85E-05,  avg # of iterations =  2.0

     negative rho (up, down):  2.864E-04 0.000E+00

     total cpu time spent up to now is    16272.7 secs

     total energy              =    -286.37399773 Ry
     Harris-Foulkes estimate   =    -286.37746560 Ry
     estimated scf accuracy    <       0.01106509 Ry

     iteration #  7     ecut=    50.00 Ry     beta=0.70
     Davidson diagonalization with overlap
     ethr =  1.56E-05,  avg # of iterations =  4.8

     negative rho (up, down):  3.049E-04 0.000E+00

     total cpu time spent up to now is    16297.6 secs

     total energy              =    -286.37551188 Ry
     Harris-Foulkes estimate   =    -286.37731452 Ry
     estimated scf accuracy    <       0.01136970 Ry

     iteration #  8     ecut=    50.00 Ry     beta=0.70
     Davidson diagonalization with overlap
     ethr =  1.56E-05,  avg # of iterations =  2.2

     negative rho (up, down):  3.195E-04 0.000E+00

     total cpu time spent up to now is    16320.1 secs

     total energy              =    -286.37625869 Ry
     Harris-Foulkes estimate   =    -286.37655516 Ry
     estimated scf accuracy    <       0.00224526 Ry

     iteration #  9     ecut=    50.00 Ry     beta=0.70
     Davidson diagonalization with overlap
     ethr =  3.16E-06,  avg # of iterations =  3.1

     negative rho (up, down):  3.368E-04 0.000E+00

     total cpu time spent up to now is    16342.9 secs

     total energy              =    -286.37640217 Ry
     Harris-Foulkes estimate   =    -286.37642666 Ry
     estimated scf accuracy    <       0.00023131 Ry

     iteration # 10     ecut=    50.00 Ry     beta=0.70
     Davidson diagonalization with overlap
     ethr =  3.26E-07,  avg # of iterations =  3.5

     negative rho (up, down):  3.445E-04 0.000E+00

     total cpu time spent up to now is    16367.1 secs

     total energy              =    -286.37642698 Ry
     Harris-Foulkes estimate   =    -286.37643253 Ry
     estimated scf accuracy    <       0.00002306 Ry

     iteration # 11     ecut=    50.00 Ry     beta=0.70
     Davidson diagonalization with overlap
     ethr =  3.25E-08,  avg # of iterations =  3.0

     negative rho (up, down):  3.496E-04 0.000E+00

     total cpu time spent up to now is    16392.3 secs

     total energy              =    -286.37643019 Ry
     Harris-Foulkes estimate   =    -286.37643158 Ry
     estimated scf accuracy    <       0.00000555 Ry

     iteration # 12     ecut=    50.00 Ry     beta=0.70
     Davidson diagonalization with overlap
     ethr =  7.82E-09,  avg # of iterations =  3.1

     negative rho (up, down):  3.506E-04 0.000E+00

     total cpu time spent up to now is    16418.7 secs

     total energy              =    -286.37643051 Ry
     Harris-Foulkes estimate   =    -286.37643246 Ry
     estimated scf accuracy    <       0.00000853 Ry

     iteration # 13     ecut=    50.00 Ry     beta=0.70
     Davidson diagonalization with overlap
     ethr =  7.82E-09,  avg # of iterations =  2.8

     negative rho (up, down):  3.513E-04 0.000E+00

     total cpu time spent up to now is    16442.3 secs

     End of self-consistent calculation

          k = 0.0000 0.0000 0.0000 ( 21247 PWs)   bands (ev):

   -29.3356 -14.7009 -14.6347 -14.5162 -11.8772 -11.2282  -9.4310  -9.2013
    -8.8348  -8.4661  -8.2497  -7.8460  -7.5879  -7.4781  -7.0522  -6.5177
    -6.4327  -6.2549  -6.0528  -5.7847  -5.5454  -5.1445  -4.9097  -4.6697
    -4.2258  -4.0586  -3.7019  -3.1020  -2.6521  -1.9689  -1.8195  -1.5065
    -1.3628  -0.5952  -0.3761  -0.0996   0.1377   0.2337   0.2532   0.4259
     0.6539   0.9452   1.0846

          k = 0.0344 0.0256-0.4819 ( 21362 PWs)   bands (ev):

   -29.3356 -14.7010 -14.6348 -14.5164 -11.8702 -11.2332  -9.4810  -9.1605
    -8.8189  -8.4862  -8.3182  -7.8310  -7.5757  -7.3471  -7.0250  -6.5844
    -6.5210  -6.2842  -5.9077  -5.7275  -5.6684  -5.1777  -4.9568  -4.6466
    -4.1850  -3.9350  -3.7172  -3.1174  -2.6268  -1.9774  -1.7921  -1.5406
    -1.3900  -0.7087  -0.2881  -0.1847  -0.0371   0.1471   0.3097   0.3632
     0.6164   0.9921   1.1789

          k = 0.0493-0.3771-0.4559 ( 21216 PWs)   bands (ev):

   -29.3356 -14.7010 -14.6348 -14.5164 -11.8687 -11.2331  -9.4675  -9.1909
    -8.8092  -8.5023  -8.2962  -7.8041  -7.5793  -7.3823  -7.0222  -6.6007
    -6.5023  -6.2961  -5.9106  -5.7106  -5.6625  -5.1733  -4.9318  -4.6775
    -4.1611  -3.9391  -3.6947  -2.9651  -2.7877  -1.9339  -1.8865  -1.7505
    -1.2792  -0.6516  -0.2924  -0.2033  -0.0445   0.1236   0.3448   0.4986
     0.6250   0.9791   1.1755

          k =-0.4025-0.3619-0.4208 ( 21368 PWs)   bands (ev):

   -29.3356 -14.7017 -14.6349 -14.5165 -11.8678 -11.2249  -9.4774  -9.2026
    -8.8043  -8.5000  -8.2268  -7.9053  -7.6146  -7.3603  -7.0338  -6.5408
    -6.4650  -6.2718  -5.9401  -5.7257  -5.6606  -5.1924  -4.9653  -4.6714
    -4.2223  -3.9332  -3.5979  -2.9852  -2.7667  -1.8905  -1.7938  -1.5630
    -1.4158  -0.8669  -0.3171  -0.2404  -0.0400   0.0819   0.3413   0.3824
     0.5945   0.8538   1.1764

          k =-0.4518 0.0152 0.0351 ( 21362 PWs)   bands (ev):

   -29.3356 -14.7015 -14.6348 -14.5163 -11.8760 -11.2202  -9.4403  -9.2063
    -8.8376  -8.4794  -8.1963  -7.9250  -7.5996  -7.4209  -7.0214  -6.5615
    -6.4196  -6.2732  -6.0438  -5.7961  -5.5464  -5.1481  -4.8812  -4.7277
    -4.2083  -4.1193  -3.5561  -2.9769  -2.7170  -1.9756  -1.8245  -1.6833
    -1.1689  -0.7125  -0.4165  -0.2403   0.1267   0.2431   0.3548   0.4137
     0.5807   0.8826   1.1349

          k = 0.0149-0.4027 0.0260 ( 21362 PWs)   bands (ev):

   -29.3356 -14.7009 -14.6347 -14.5163 -11.8754 -11.2293  -9.4418  -9.1780
    -8.8549  -8.4511  -8.2697  -7.8316  -7.6096  -7.4670  -7.0478  -6.5365
    -6.4331  -6.2356  -6.0536  -5.7779  -5.5557  -5.1375  -4.8870  -4.6977
    -4.1973  -4.0805  -3.6591  -2.9729  -2.8030  -1.9532  -1.8708  -1.7423
    -1.1563  -0.6078  -0.3438  -0.0493   0.0785   0.1279   0.2606   0.4922
     0.7459   0.9529   1.1567

          k =-0.4862-0.0104 0.5170 ( 21216 PWs)   bands (ev):

   -29.3356 -14.7016 -14.6349 -14.5165 -11.8689 -11.2250  -9.4954  -9.1647
    -8.8156  -8.4797  -8.2528  -7.9246  -7.6167  -7.3249  -7.0303  -6.5540
    -6.4663  -6.2607  -5.9409  -5.7326  -5.6651  -5.1988  -4.9555  -4.7106
    -4.2110  -3.9492  -3.5864  -2.9709  -2.6962  -1.9838  -1.7930  -1.6916
    -1.2325  -0.8268  -0.3028  -0.2410   0.0027   0.1756   0.2994   0.3613
     0.4423   0.8542   1.1905

          k =-0.4667 0.4179 0.0090 ( 21216 PWs)   bands (ev):

   -29.3356 -14.7015 -14.6348 -14.5163 -11.8741 -11.2208  -9.4520  -9.1809
    -8.8546  -8.4768  -8.2104  -7.9259  -7.5771  -7.4361  -7.0220  -6.5500
    -6.4255  -6.2682  -6.0384  -5.7924  -5.5578  -5.1430  -4.9040  -4.6811
    -4.2293  -4.0864  -3.5781  -2.9746  -2.7800  -1.9174  -1.7583  -1.5873
    -1.3943  -0.7098  -0.3045  -0.2707   0.0036   0.2053   0.3079   0.4498
     0.6474   0.8844   1.1627

     the Fermi energy is    -0.1678 ev

!    total energy              =    -286.37643120 Ry
     Harris-Foulkes estimate   =    -286.37643143 Ry
     estimated scf accuracy    <       0.00000030 Ry

     The total energy is the sum of the following terms:

     one-electron contribution =    -120.06392802 Ry
     hartree contribution      =      73.94692013 Ry
     xc contribution           =     -95.49866964 Ry
     ewald contribution        =     -38.75936213 Ry
     one-center paw contrib.   =    -106.00041283 Ry
     smearing contrib. (-TS)   =      -0.00097870 Ry

     convergence has been achieved in  13 iterations

     negative rho (up, down):  3.513E-04 0.000E+00

     Forces acting on atoms (cartesian axes, Ry/au):

     atom    1 type  1   force =     0.01186805   -0.00950475   -0.01805325
     atom    2 type  1   force =     0.01233271    0.02616548    0.01285559
     atom    3 type  2   force =     0.01560790    0.00197017    0.00318144
     atom    4 type  3   force =     0.03288686    0.00110464    0.02778776
     atom    5 type  3   force =    -0.03506749   -0.00156936   -0.02593031
     atom    6 type  4   force =    -0.01089157   -0.00982720    0.01218789
     atom    7 type  4   force =     0.10054728   -0.04415340   -0.09371071
     atom    8 type  4   force =    -0.00397219    0.03406885    0.04511679
     atom    9 type  4   force =    -0.06706892   -0.12666788   -0.02195740
     atom   10 type  4   force =     0.02783945   -0.01918220    0.05436987
     atom   11 type  4   force =     0.04347580    0.02190791   -0.02330309
     atom   12 type  4   force =     0.03312992   -0.02869677    0.00348822
     atom   13 type  5   force =    -0.02644795   -0.00317602   -0.00025426
     atom   14 type  5   force =    -0.03348988    0.01156370    0.00992684
     atom   15 type  5   force =    -0.01190307   -0.00787734    0.02803820
     atom   16 type  5   force =     0.05513000    0.03130761    0.02035137
     atom   17 type  5   force =    -0.01421159    0.07184255   -0.04205402
     atom   18 type  5   force =    -0.00163827   -0.04300939   -0.02493708
     atom   19 type  5   force =     0.00756752    0.00622925    0.00699278
     atom   20 type  5   force =     0.00975208    0.03992389    0.03271679
     atom   21 type  5   force =    -0.04109790    0.02313818   -0.00024866
     atom   22 type  5   force =    -0.01156707   -0.07133310   -0.05794390
     atom   23 type  5   force =     0.01579164    0.00760490    0.01159828
     atom   24 type  5   force =     0.00658000   -0.01651613   -0.00703443
     atom   25 type  5   force =     0.03014041    0.00717778    0.00342737
     atom   26 type  5   force =     0.00084918    0.00655894    0.01595914
     atom   27 type  5   force =    -0.00997282    0.01177662   -0.01176058
     atom   28 type  5   force =     0.00472392   -0.06933521    0.03462086
     atom   29 type  5   force =     0.07714377    0.03072783    0.00254736
     atom   30 type  5   force =    -0.00431585   -0.00407676   -0.03842309
     atom   31 type  5   force =    -0.00285973   -0.01216810   -0.00720911
     atom   32 type  5   force =    -0.00803354   -0.00397120    0.00854786
     atom   33 type  5   force =    -0.02764574    0.03279067    0.00602974
     atom   34 type  5   force =    -0.01225476   -0.00411719   -0.01597750
     atom   35 type  5   force =    -0.00052210   -0.01649027   -0.00676404
     atom   36 type  5   force =     0.01049151   -0.02107447    0.01092118
     atom   37 type  5   force =    -0.05818709    0.02827705    0.00635313
     atom   38 type  5   force =    -0.00156547    0.01504543   -0.01392398
     atom   39 type  5   force =     0.00495264    0.03282172    0.00690472
     atom   40 type  5   force =    -0.01912147    0.03620397    0.03746492
     atom   41 type  5   force =    -0.04507711    0.02211637    0.02222322
     atom   42 type  5   force =    -0.02061172    0.00106839   -0.01108158
     atom   43 type  5   force =    -0.03106133    0.01730933    0.00371763
     atom   44 type  5   force =    -0.00222601   -0.00595451   -0.00676200

     Total force =     0.353720     Total SCF correction =     0.000512


     Computing stress (Cartesian axis) and pressure


     negative rho (up, down):  3.513E-04 0.000E+00
          total   stress  (Ry/bohr**3)                   (kbar)     P=  -13.19
  -0.00019495  -0.00007556   0.00000584        -28.68    -11.12      0.86
  -0.00007556  -0.00002778   0.00001346        -11.12     -4.09      1.98
   0.00000584   0.00001346  -0.00004631          0.86      1.98     -6.81


     number of scf cycles    =  12
     number of bfgs steps    =  10

     enthalpy old            =    -286.1373987088 Ry
     enthalpy new            =    -286.3764311960 Ry

     CASE: enthalpy_new < enthalpy_old

     new trust radius        =       0.4559236473 bohr
     new conv_thr            =       0.0000010000 Ry

     new unit-cell volume =   5124.44821 a.u.^3 (   759.36487 Ang^3 )
     density =      0.82531 g/cm^3

CELL_PARAMETERS (angstrom)
   8.926569394   0.359630381   0.734469768
   0.374818127  10.218742890   0.608085332
   0.759637528   0.619683164   8.432844970

ATOMIC_POSITIONS (angstrom)
K        6.539243746   6.155951385   2.903064115
K        4.549813308   0.953483062   6.856767703
Ba       7.211612774   7.554272678   6.355863844
Al       3.757008137   4.351414182   4.892155164
Al       2.287382027   9.047154892   6.496147034
B        1.929356794   8.931366956   2.359358533
B        4.740119548   5.580617047   7.746594185
B        8.810220043  10.453660771   7.274846356
B        4.280767864   6.939034118   6.081480905
B        6.694822124   2.625880481   3.162815506
B        5.363351495   3.336145493   2.430191604
B        4.763691914   8.177834736   1.588039867
H        7.895569448   4.583968120   5.327837477
H        3.769787425   8.473966000   2.100824352
H        1.971078474   7.644347880   7.177150092
H        7.553016325  10.088883560   6.756249896
H        1.677464559   3.498319600   3.325786189
H        6.504182759   3.335439760   4.320701874
H        9.130630602   7.932186386   3.818263902
H        4.548736528   7.458927156   7.078961496
H        6.505298775   5.522444419   7.490888482
H        8.294940255   1.631194738   7.765736492
H        4.813121447   7.162767702   4.967433354
H        6.894092142   3.431399988   7.676533749
H        8.647046085   4.798328160   5.483508175
H        2.094554599   8.571632397   4.819617818
H        5.693966131   9.169327053   8.789666105
H        1.556146642   4.243455801   2.921445394
H        3.044351805   6.563080552   5.876024637
H        2.242540733   9.019096209   4.025993157
H        6.517735771   1.473792574   3.407698105
H        3.611524504   2.984157328   1.350044330
H        5.081685984   5.593500165   6.024199017
H        3.152694162   2.578436062   1.811352651
H        5.159622682   1.329706949   1.907939819
H        6.759743929   4.051231665   7.324831743
H        4.114105131   9.048191309   6.320770402
H        7.829141439   2.751465283   3.039678494
H        6.700277821   2.502070759   4.481708616
H        5.183612956   6.133649584   8.776914481
H        4.345004998   3.733259907   3.037820268
H        5.729215663   4.434125382   5.129361789
H        4.440515042   4.397597683   7.552682957
H        4.964428889   1.218803063   1.182072226



     Writing output data file 00_K2BaAl2B7H32_Monster.save
     NEW-OLD atomic charge density approx. for the potential

     negative rho (up, down):  5.406E-04 0.000E+00
     extrapolated charge   70.87386, renormalised to   71.00000

     total cpu time spent up to now is    17266.8 secs

     Self-consistent Calculation

     iteration #  1     ecut=    50.00 Ry     beta=0.70
     Davidson diagonalization with overlap
     c_bands:  1 eigenvalues not converged
     ethr =  1.00E-06,  avg # of iterations = 15.8

     negative rho (up, down):  2.877E-04 0.000E+00

     total cpu time spent up to now is    17333.3 secs

     total energy              =    -286.50286657 Ry
     Harris-Foulkes estimate   =    -286.83275950 Ry
     estimated scf accuracy    <       0.23628451 Ry

     iteration #  2     ecut=    50.00 Ry     beta=0.70
     Davidson diagonalization with overlap
     ethr =  3.33E-04,  avg # of iterations =  6.0

     negative rho (up, down):  2.474E-04 0.000E+00

     total cpu time spent up to now is    17367.1 secs

     total energy              =    -286.35861172 Ry
     Harris-Foulkes estimate   =    -287.16916230 Ry
     estimated scf accuracy    <       3.92001669 Ry

     iteration #  3     ecut=    50.00 Ry     beta=0.70
     Davidson diagonalization with overlap
     ethr =  3.33E-04,  avg # of iterations =  5.8

     negative rho (up, down):  1.608E-04 0.000E+00

     total cpu time spent up to now is    17398.3 secs

     total energy              =    -286.60283171 Ry
     Harris-Foulkes estimate   =    -286.65387541 Ry
     estimated scf accuracy    <       0.16224795 Ry

     iteration #  4     ecut=    50.00 Ry     beta=0.70
     Davidson diagonalization with overlap
     ethr =  2.29E-04,  avg # of iterations =  4.1

     negative rho (up, down):  1.709E-04 0.000E+00

     total cpu time spent up to now is    17424.2 secs

     total energy              =    -286.62003985 Ry
     Harris-Foulkes estimate   =    -286.64679034 Ry
     estimated scf accuracy    <       0.11721949 Ry

     iteration #  5     ecut=    50.00 Ry     beta=0.70
     Davidson diagonalization with overlap
     ethr =  1.65E-04,  avg # of iterations =  3.0

     negative rho (up, down):  1.850E-04 0.000E+00

     total cpu time spent up to now is    17446.9 secs

     total energy              =    -286.62602540 Ry
     Harris-Foulkes estimate   =    -286.63935423 Ry
     estimated scf accuracy    <       0.06935914 Ry

     iteration #  6     ecut=    50.00 Ry     beta=0.70
     Davidson diagonalization with overlap
     ethr =  9.77E-05,  avg # of iterations =  3.2

     negative rho (up, down):  2.206E-04 0.000E+00

     total cpu time spent up to now is    17470.4 secs

     total energy              =    -286.63452230 Ry
     Harris-Foulkes estimate   =    -286.64053679 Ry
     estimated scf accuracy    <       0.03728675 Ry

     iteration #  7     ecut=    50.00 Ry     beta=0.70
     Davidson diagonalization with overlap
     ethr =  5.25E-05,  avg # of iterations =  1.2

     negative rho (up, down):  2.730E-04 0.000E+00

     total cpu time spent up to now is    17492.1 secs

     total energy              =    -286.63623725 Ry
     Harris-Foulkes estimate   =    -286.63674198 Ry
     estimated scf accuracy    <       0.00401698 Ry

     iteration #  8     ecut=    50.00 Ry     beta=0.70
     Davidson diagonalization with overlap
     ethr =  5.66E-06,  avg # of iterations =  5.6

     negative rho (up, down):  2.955E-04 0.000E+00

     total cpu time spent up to now is    17517.8 secs

     total energy              =    -286.63645273 Ry
     Harris-Foulkes estimate   =    -286.63659045 Ry
     estimated scf accuracy    <       0.00085629 Ry

     iteration #  9     ecut=    50.00 Ry     beta=0.70
     Davidson diagonalization with overlap
     ethr =  1.21E-06,  avg # of iterations =  3.2

     negative rho (up, down):  3.226E-04 0.000E+00

     total cpu time spent up to now is    17541.3 secs

     total energy              =    -286.63649444 Ry
     Harris-Foulkes estimate   =    -286.63658739 Ry
     estimated scf accuracy    <       0.00090099 Ry

     iteration # 10     ecut=    50.00 Ry     beta=0.70
     Davidson diagonalization with overlap
     ethr =  1.21E-06,  avg # of iterations =  1.0

     negative rho (up, down):  3.181E-04 0.000E+00

     total cpu time spent up to now is    17562.6 secs

     total energy              =    -286.63654616 Ry
     Harris-Foulkes estimate   =    -286.63655477 Ry
     estimated scf accuracy    <       0.00005207 Ry

     iteration # 11     ecut=    50.00 Ry     beta=0.70
     Davidson diagonalization with overlap
     ethr =  7.33E-08,  avg # of iterations =  3.6

     negative rho (up, down):  3.213E-04 0.000E+00

     total cpu time spent up to now is    17587.4 secs

     total energy              =    -286.63655420 Ry
     Harris-Foulkes estimate   =    -286.63655604 Ry
     estimated scf accuracy    <       0.00002351 Ry

     iteration # 12     ecut=    50.00 Ry     beta=0.70
     Davidson diagonalization with overlap
     ethr =  3.31E-08,  avg # of iterations =  1.0

     negative rho (up, down):  3.212E-04 0.000E+00

     total cpu time spent up to now is    17608.8 secs

     total energy              =    -286.63655513 Ry
     Harris-Foulkes estimate   =    -286.63655525 Ry
     estimated scf accuracy    <       0.00000152 Ry

     iteration # 13     ecut=    50.00 Ry     beta=0.70
     Davidson diagonalization with overlap
     ethr =  2.14E-09,  avg # of iterations =  3.8

     negative rho (up, down):  3.207E-04 0.000E+00

     total cpu time spent up to now is    17633.3 secs

     End of self-consistent calculation

          k = 0.0000 0.0000 0.0000 ( 21247 PWs)   bands (ev):

   -29.6428 -14.9286 -14.8879 -14.7703 -12.4454 -11.0874  -9.2037  -9.0084
    -8.6590  -8.2023  -7.9718  -7.7550  -7.5681  -7.3704  -6.8633  -6.5338
    -6.4015  -6.0716  -5.9933  -5.5114  -5.3551  -5.0471  -4.9656  -4.7254
    -4.3345  -3.9705  -3.8744  -3.4768  -2.9368  -2.0034  -1.9612  -1.7779
    -1.5027  -0.6050  -0.2412   0.0321   0.1941   0.3217   0.4493   0.7488
     1.0992   1.1293   1.3129

          k = 0.0388 0.0274-0.4847 ( 21362 PWs)   bands (ev):

   -29.6428 -14.9287 -14.8879 -14.7704 -12.4439 -11.0845  -9.2511  -8.9573
    -8.6870  -8.2447  -8.0389  -7.6692  -7.5850  -7.2214  -6.8030  -6.6286
    -6.4300  -6.1858  -5.9160  -5.4670  -5.3581  -5.0823  -4.9733  -4.7614
    -4.3440  -3.8843  -3.7886  -3.5054  -2.9198  -1.9942  -1.9450  -1.7829
    -1.5365  -0.7259  -0.2246  -0.1203   0.0743   0.2505   0.4423   0.7905
     1.1105   1.1775   1.3477

          k = 0.0525-0.3702-0.4567 ( 21216 PWs)   bands (ev):

   -29.6428 -14.9287 -14.8880 -14.7704 -12.4432 -11.0841  -9.2328  -8.9935
    -8.6845  -8.2351  -8.0161  -7.6747  -7.5757  -7.2588  -6.8007  -6.6396
    -6.4256  -6.1652  -5.9313  -5.4565  -5.3558  -5.0786  -4.9573  -4.7816
    -4.3268  -3.8376  -3.7688  -3.4218  -3.0592  -2.2353  -1.9287  -1.7247
    -1.4299  -0.7245  -0.2025  -0.1753   0.0383   0.2507   0.5841   0.9257
     1.0912   1.0984   1.2584

          k =-0.4041-0.3559-0.4167 ( 21368 PWs)   bands (ev):

   -29.6428 -14.9293 -14.8880 -14.7706 -12.4429 -11.0756  -9.2432  -9.0078
    -8.6752  -8.2163  -7.9405  -7.7501  -7.6431  -7.2563  -6.8633  -6.5735
    -6.3066  -6.1356  -6.0064  -5.4560  -5.3494  -5.1035  -4.9710  -4.8080
    -4.3993  -3.7961  -3.7758  -3.4018  -2.9880  -2.0479  -1.9246  -1.7209
    -1.4831  -0.8718  -0.2614  -0.1549   0.1114   0.1621   0.6158   0.7238
     1.0144   1.0771   1.2475

          k =-0.4566 0.0144 0.0401 ( 21362 PWs)   bands (ev):

   -29.6428 -14.9291 -14.8879 -14.7705 -12.4450 -11.0789  -9.2110  -9.0093
    -8.6763  -8.2140  -7.9133  -7.7709  -7.6144  -7.3428  -6.8265  -6.6157
    -6.2722  -6.1182  -6.0536  -5.5285  -5.3543  -5.0452  -4.9564  -4.7543
    -4.3704  -4.0150  -3.6943  -3.3892  -2.9652  -2.2842  -1.7975  -1.7243
    -1.3932  -0.7098  -0.2846  -0.0537   0.1865   0.3546   0.4437   0.7639
     0.9046   1.1820   1.2870

          k = 0.0137-0.3976 0.0280 ( 21362 PWs)   bands (ev):

   -29.6428 -14.9286 -14.8879 -14.7703 -12.4450 -11.0873  -9.2238  -8.9705
    -8.6860  -8.1778  -7.9907  -7.7242  -7.6206  -7.3561  -6.8642  -6.5452
    -6.3997  -6.0285  -6.0215  -5.5029  -5.3615  -5.0493  -4.9528  -4.7443
    -4.3261  -3.9777  -3.7610  -3.4298  -3.0698  -2.2571  -1.9213  -1.7138
    -1.3922  -0.6088  -0.2145   0.0936   0.1804   0.2032   0.4554   0.9256
     1.0816   1.1459   1.1681

          k =-0.4954-0.0131 0.5248 ( 21216 PWs)   bands (ev):

   -29.6428 -14.9293 -14.8879 -14.7706 -12.4432 -11.0759  -9.2662  -8.9664
    -8.6823  -8.1976  -7.9764  -7.7557  -7.6532  -7.2188  -6.8563  -6.5857
    -6.3114  -6.1370  -5.9992  -5.4585  -5.3498  -5.1138  -4.9523  -4.8570
    -4.3923  -3.8080  -3.7530  -3.3738  -2.9592  -2.2806  -1.7535  -1.7312
    -1.4083  -0.8480  -0.2124  -0.2017   0.1149   0.3435   0.3723   0.6705
     0.9643   1.0487   1.3268

          k =-0.4703 0.4120 0.0121 ( 21216 PWs)   bands (ev):

   -29.6428 -14.9291 -14.8879 -14.7705 -12.4443 -11.0785  -9.2302  -8.9703
    -8.6935  -8.2322  -7.9267  -7.7224  -7.6374  -7.3474  -6.8273  -6.6164
    -6.2718  -6.0934  -6.0637  -5.5252  -5.3625  -5.0511  -4.9456  -4.7314
    -4.3677  -4.0022  -3.7529  -3.3766  -2.9944  -2.0626  -1.9254  -1.7418
    -1.4850  -0.7063  -0.1771  -0.0793   0.0846   0.2824   0.5213   0.7697
     0.9779   1.1445   1.2706

     the Fermi energy is    -0.0641 ev

!    total energy              =    -286.63655523 Ry
     Harris-Foulkes estimate   =    -286.63655532 Ry
     estimated scf accuracy    <       0.00000016 Ry

     The total energy is the sum of the following terms:

     one-electron contribution =    -117.06886193 Ry
     hartree contribution      =      72.50173996 Ry
     xc contribution           =     -95.64527507 Ry
     ewald contribution        =     -40.43414024 Ry
     one-center paw contrib.   =    -105.98786756 Ry
     smearing contrib. (-TS)   =      -0.00215039 Ry

     convergence has been achieved in  13 iterations

     negative rho (up, down):  3.207E-04 0.000E+00

     Forces acting on atoms (cartesian axes, Ry/au):

     atom    1 type  1   force =     0.01420190   -0.00857205   -0.01178132
     atom    2 type  1   force =     0.00537459    0.02259371    0.00947009
     atom    3 type  2   force =     0.00927645    0.00203623    0.00407594
     atom    4 type  3   force =     0.03086094   -0.01038020    0.02442636
     atom    5 type  3   force =    -0.04197167   -0.00020463   -0.00482526
     atom    6 type  4   force =    -0.01598532   -0.00995907    0.03137882
     atom    7 type  4   force =     0.14110339   -0.00642446   -0.04680336
     atom    8 type  4   force =    -0.00596724    0.05674058    0.06282211
     atom    9 type  4   force =    -0.03370406   -0.14138688   -0.06391635
     atom   10 type  4   force =    -0.03515791   -0.00269508    0.03066109
     atom   11 type  4   force =     0.00193746    0.02788555    0.00520303
     atom   12 type  4   force =     0.07965943   -0.02610633   -0.07073756
     atom   13 type  5   force =     0.03865308    0.01575865    0.01320636
     atom   14 type  5   force =    -0.07222889    0.02346269    0.02921769
     atom   15 type  5   force =    -0.01318962    0.00203930    0.01867357
     atom   16 type  5   force =     0.06210832    0.02641535    0.02687509
     atom   17 type  5   force =    -0.01780592    0.08863007   -0.05056700
     atom   18 type  5   force =    -0.01523972    0.00908731    0.00248216
     atom   19 type  5   force =     0.01009602    0.00728315    0.00270966
     atom   20 type  5   force =     0.01443099    0.03592691    0.03697273
     atom   21 type  5   force =    -0.06383615    0.01765453    0.00122121
     atom   22 type  5   force =    -0.00300050   -0.09857692   -0.08400936
     atom   23 type  5   force =     0.00746634    0.01464772    0.02743759
     atom   24 type  5   force =     0.01917125   -0.06183708    0.02222480
     atom   25 type  5   force =    -0.03657693   -0.00967764   -0.01048431
     atom   26 type  5   force =     0.00059120    0.00786890   -0.00681021
     atom   27 type  5   force =    -0.01277413   -0.00632386    0.03847812
     atom   28 type  5   force =     0.00785265   -0.08586475    0.04257544
     atom   29 type  5   force =     0.06367015    0.02782256    0.00910901
     atom   30 type  5   force =    -0.00919130   -0.01003150   -0.04398008
     atom   31 type  5   force =    -0.00840592   -0.03581974   -0.00893855
     atom   32 type  5   force =    -0.00321775   -0.00283914   -0.00041241
     atom   33 type  5   force =    -0.02813822    0.04281694    0.03277413
     atom   34 type  5   force =    -0.01373548   -0.00699309   -0.00910534
     atom   35 type  5   force =    -0.00176628   -0.01369367   -0.01228066
     atom   36 type  5   force =    -0.00532183    0.02350212   -0.01925484
     atom   37 type  5   force =    -0.06186780    0.04108546    0.00652367
     atom   38 type  5   force =     0.05560227    0.01779748   -0.03018396
     atom   39 type  5   force =     0.01102252   -0.01477176    0.01739327
     atom   40 type  5   force =    -0.05508368    0.00089839   -0.02213618
     atom   41 type  5   force =     0.01477573    0.00413330   -0.00493693
     atom   42 type  5   force =    -0.02794973    0.01604023   -0.00800238
     atom   43 type  5   force =    -0.00749932    0.02465733    0.01046834
     atom   44 type  5   force =     0.00176069   -0.00462659    0.00278574

     Total force =     0.416413     Total SCF correction =     0.000332


     Computing stress (Cartesian axis) and pressure


     negative rho (up, down):  3.207E-04 0.000E+00
          total   stress  (Ry/bohr**3)                   (kbar)     P=  -16.65
  -0.00022634  -0.00008838  -0.00000252        -33.30    -13.00     -0.37
  -0.00008838  -0.00002213  -0.00000437        -13.00     -3.26     -0.64
  -0.00000252  -0.00000437  -0.00009108         -0.37     -0.64    -13.40


     number of scf cycles    =  13
     number of bfgs steps    =  11

     enthalpy old            =    -286.3764311960 Ry
     enthalpy new            =    -286.6365552258 Ry

     CASE: enthalpy_new < enthalpy_old

     new trust radius        =       0.5079956915 bohr
     new conv_thr            =       0.0000010000 Ry

     new unit-cell volume =   5093.05527 a.u.^3 (   754.71292 Ang^3 )
     density =      0.83040 g/cm^3

CELL_PARAMETERS (angstrom)
   8.821961307   0.334646103   0.804546191
   0.360660857  10.350123725   0.649827269
   0.843437251   0.663748030   8.391103816

ATOMIC_POSITIONS (angstrom)
K        6.468002238   6.218365546   2.888182758
K        4.594917789   0.955014347   6.908847945
Ba       7.240057230   7.701180413   6.453603348
Al       3.791367816   4.428939521   4.914059877
Al       2.208759368   9.152711738   6.458879814
B        1.897936727   9.011213832   2.357899750
B        4.994343320   5.638112934   7.716904047
B        8.828312455  10.821648318   7.469682837
B        4.280555813   7.013019407   6.152896184
B        6.658027313   2.572966074   3.245121537
B        5.361724812   3.415006275   2.528575025
B        4.724794797   8.273093876   1.709810921
H        7.866289483   4.584852503   5.386301635
H        3.669983160   8.564754862   2.115791938
H        1.991508650   7.744983466   7.240200664
H        7.653463381  10.341963087   6.884722688
H        1.677421708   3.558834865   3.331385792
H        6.501111919   3.265382046   4.267000391
H        9.143406962   8.115754735   3.958495569
H        4.486642418   7.692698434   7.109940532
H        6.443625492   5.613158238   7.509661427
H        8.193292022   1.456429014   7.649386906
H        4.833822280   7.223582248   5.029874391
H        6.936474459   3.432165358   7.718278833
H        8.618533523   4.871407644   5.545218123
H        2.112619501   8.705363588   4.895745995
H        5.677518308   9.294994275   8.783013556
H        1.546438738   4.305163132   2.918792562
H        3.090804725   6.616255753   5.887295074
H        2.233973613   9.130005555   4.014486538
H        6.513420964   1.440522379   3.462580921
H        3.542816916   3.026558312   1.390493491
H        5.014604250   5.732073912   5.999885577
H        3.070058551   2.582595997   1.789233014
H        5.082456044   1.218995510   1.892659052
H        6.877579801   4.096426127   7.404124605
H        3.988207103   9.210050358   6.349014387
H        7.758886722   2.808425765   3.158272693
H        6.742876564   2.605121534   4.591720057
H        5.133946747   6.329039008   8.876837672
H        4.197434684   3.852847926   3.003757040
H        5.674779138   4.391664685   5.075529451
H        4.361394236   4.483741340   7.551645164
H        4.881677317   1.188030116   1.158604695



     Writing output data file 00_K2BaAl2B7H32_Monster.save
     NEW-OLD atomic charge density approx. for the potential

     negative rho (up, down):  4.848E-04 0.000E+00
     extrapolated charge   70.56273, renormalised to   71.00000

     total cpu time spent up to now is    18458.4 secs

     Self-consistent Calculation

     iteration #  1     ecut=    50.00 Ry     beta=0.70
     Davidson diagonalization with overlap
     c_bands:  1 eigenvalues not converged
     c_bands:  1 eigenvalues not converged
     ethr =  1.00E-06,  avg # of iterations = 19.0

     negative rho (up, down):  2.670E-04 0.000E+00

     total cpu time spent up to now is    18527.9 secs

     total energy              =    -286.67252347 Ry
     Harris-Foulkes estimate   =    -287.38385688 Ry
     estimated scf accuracy    <       0.29765627 Ry

     iteration #  2     ecut=    50.00 Ry     beta=0.70
     Davidson diagonalization with overlap
     ethr =  4.19E-04,  avg # of iterations =  5.1

     negative rho (up, down):  2.532E-04 0.000E+00

     total cpu time spent up to now is    18560.6 secs

     total energy              =    -286.46128224 Ry
     Harris-Foulkes estimate   =    -287.44921046 Ry
     estimated scf accuracy    <       4.58611629 Ry

     iteration #  3     ecut=    50.00 Ry     beta=0.70
     Davidson diagonalization with overlap
     ethr =  4.19E-04,  avg # of iterations =  4.9

     negative rho (up, down):  2.034E-04 0.000E+00

     total cpu time spent up to now is    18590.9 secs

     total energy              =    -286.81960910 Ry
     Harris-Foulkes estimate   =    -286.87224329 Ry
     estimated scf accuracy    <       0.14682614 Ry

     iteration #  4     ecut=    50.00 Ry     beta=0.70
     Davidson diagonalization with overlap
     ethr =  2.07E-04,  avg # of iterations =  4.4

     negative rho (up, down):  2.007E-04 0.000E+00

     total cpu time spent up to now is    18616.5 secs

     total energy              =    -286.82568896 Ry
     Harris-Foulkes estimate   =    -286.86494915 Ry
     estimated scf accuracy    <       0.22090690 Ry

     iteration #  5     ecut=    50.00 Ry     beta=0.70
     Davidson diagonalization with overlap
     ethr =  2.07E-04,  avg # of iterations =  2.1

     negative rho (up, down):  2.172E-04 0.000E+00

     total cpu time spent up to now is    18638.6 secs

     total energy              =    -286.84387058 Ry
     Harris-Foulkes estimate   =    -286.84995130 Ry
     estimated scf accuracy    <       0.03119489 Ry

     iteration #  6     ecut=    50.00 Ry     beta=0.70
     Davidson diagonalization with overlap
     ethr =  4.39E-05,  avg # of iterations =  3.2

     negative rho (up, down):  1.832E-04 0.000E+00

     total cpu time spent up to now is    18662.3 secs

     total energy              =    -286.84402462 Ry
     Harris-Foulkes estimate   =    -286.84945437 Ry
     estimated scf accuracy    <       0.02728863 Ry

     iteration #  7     ecut=    50.00 Ry     beta=0.70
     Davidson diagonalization with overlap
     ethr =  3.84E-05,  avg # of iterations =  2.6

     negative rho (up, down):  1.934E-04 0.000E+00

     total cpu time spent up to now is    18684.8 secs

     total energy              =    -286.84705834 Ry
     Harris-Foulkes estimate   =    -286.84832239 Ry
     estimated scf accuracy    <       0.00483300 Ry

     iteration #  8     ecut=    50.00 Ry     beta=0.70
     Davidson diagonalization with overlap
     ethr =  6.81E-06,  avg # of iterations =  5.1

     negative rho (up, down):  2.164E-04 0.000E+00

     total cpu time spent up to now is    18709.7 secs

     total energy              =    -286.84766536 Ry
     Harris-Foulkes estimate   =    -286.84773584 Ry
     estimated scf accuracy    <       0.00034107 Ry

     iteration #  9     ecut=    50.00 Ry     beta=0.70
     Davidson diagonalization with overlap
     ethr =  4.80E-07,  avg # of iterations =  4.6

     negative rho (up, down):  2.240E-04 0.000E+00

     total cpu time spent up to now is    18735.9 secs

     total energy              =    -286.84770057 Ry
     Harris-Foulkes estimate   =    -286.84772607 Ry
     estimated scf accuracy    <       0.00010579 Ry

     iteration # 10     ecut=    50.00 Ry     beta=0.70
     Davidson diagonalization with overlap
     ethr =  1.49E-07,  avg # of iterations =  2.9

     negative rho (up, down):  2.315E-04 0.000E+00

     total cpu time spent up to now is    18759.1 secs

     total energy              =    -286.84771034 Ry
     Harris-Foulkes estimate   =    -286.84772702 Ry
     estimated scf accuracy    <       0.00015875 Ry

     iteration # 11     ecut=    50.00 Ry     beta=0.70
     Davidson diagonalization with overlap
     ethr =  1.49E-07,  avg # of iterations =  1.0

     negative rho (up, down):  2.353E-04 0.000E+00

     total cpu time spent up to now is    18780.8 secs

     total energy              =    -286.84771913 Ry
     Harris-Foulkes estimate   =    -286.84771968 Ry
     estimated scf accuracy    <       0.00000320 Ry

     iteration # 12     ecut=    50.00 Ry     beta=0.70
     Davidson diagonalization with overlap
     ethr =  4.50E-09,  avg # of iterations =  4.0

     negative rho (up, down):  2.376E-04 0.000E+00

     total cpu time spent up to now is    18806.1 secs

     End of self-consistent calculation

          k = 0.0000 0.0000 0.0000 ( 21247 PWs)   bands (ev):

   -29.9812 -15.2040 -15.1831 -15.0779 -13.0678 -10.9228  -8.9524  -8.8917
    -8.5288  -8.2579  -7.8680  -7.7871  -7.5169  -7.1862  -6.7775  -6.4963
    -6.4091  -6.0094  -5.7267  -5.2863  -5.1446  -4.9814  -4.6297  -4.5923
    -4.5433  -4.3376  -3.8138  -3.5245  -3.2535  -2.4761  -2.0441  -1.8146
    -1.3841  -0.6775  -0.1743   0.1101   0.1731   0.3822   0.4988   0.9603
     1.2639   1.3160   1.3884

          k = 0.0434 0.0291-0.4883 ( 21362 PWs)   bands (ev):

   -29.9812 -15.2042 -15.1832 -15.0780 -13.0673 -10.9177  -9.0248  -8.8111
    -8.5591  -8.3118  -7.8546  -7.8263  -7.4913  -7.0215  -6.6936  -6.5946
    -6.4326  -6.0722  -5.7892  -5.2619  -5.0993  -4.9426  -4.7246  -4.5705
    -4.4687  -4.3938  -3.6496  -3.5941  -3.2412  -2.4280  -2.0333  -1.8566
    -1.3847  -0.7906  -0.2270  -0.1090   0.1464   0.3150   0.4875   1.0324
     1.2199   1.3145   1.4483

          k = 0.0556-0.3636-0.4584 ( 21216 PWs)   bands (ev):

   -29.9812 -15.2042 -15.1832 -15.0780 -13.0670 -10.9171  -8.9912  -8.8651
    -8.5704  -8.2395  -7.9055  -7.8370  -7.4589  -7.0600  -6.6903  -6.5989
    -6.4299  -6.0245  -5.8332  -5.2380  -5.0945  -4.9383  -4.6405  -4.5947
    -4.4918  -4.3710  -3.6512  -3.5872  -3.3325  -2.5152  -1.9762  -1.8271
    -1.3824  -0.8017  -0.2143  -0.1482   0.0890   0.2996   0.6503   1.0756
     1.2434   1.3555   1.4858

          k =-0.4071-0.3503-0.4130 ( 21368 PWs)   bands (ev):

   -29.9812 -15.2045 -15.1832 -15.0783 -13.0669 -10.9083  -9.0043  -8.8860
    -8.5421  -8.2356  -7.9185  -7.7614  -7.5565  -7.0756  -6.7847  -6.5457
    -6.2331  -6.1061  -5.8537  -5.2356  -5.0839  -4.9407  -4.7458  -4.5636
    -4.5043  -4.4092  -3.6626  -3.5982  -3.1800  -2.4582  -2.0134  -1.7380
    -1.3352  -0.9303  -0.2487  -0.1375   0.1881   0.2084   0.7263   1.0121
     1.1079   1.2463   1.3721

          k =-0.4627 0.0133 0.0455 ( 21362 PWs)   bands (ev):

   -29.9812 -15.2044 -15.1831 -15.0782 -13.0677 -10.9138  -8.9590  -8.8886
    -8.5863  -8.1961  -7.8900  -7.7169  -7.5956  -7.1717  -6.7432  -6.6015
    -6.2556  -6.0756  -5.7894  -5.2914  -5.1216  -4.9802  -4.6835  -4.5823
    -4.5128  -4.3398  -3.7677  -3.5222  -3.2448  -2.5045  -1.9698  -1.7780
    -1.3209  -0.7761  -0.2040   0.0559   0.1948   0.4248   0.4702   0.9876
     1.1068   1.2276   1.5270

          k = 0.0122-0.3928 0.0298 ( 21362 PWs)   bands (ev):

   -29.9812 -15.2040 -15.1832 -15.0779 -13.0678 -10.9225  -9.0036  -8.8246
    -8.5545  -8.1936  -7.9310  -7.8171  -7.4974  -7.1864  -6.7808  -6.4904
    -6.4100  -5.9964  -5.7363  -5.2610  -5.1355  -4.9755  -4.6924  -4.5562
    -4.4855  -4.3333  -3.7989  -3.5299  -3.3484  -2.5647  -1.9837  -1.7851
    -1.3800  -0.6769  -0.1573   0.1452   0.1682   0.3040   0.5711   1.0683
     1.1120   1.3126   1.3930

          k =-0.5062-0.0159 0.5337 ( 21216 PWs)   bands (ev):

   -29.9812 -15.2045 -15.1832 -15.0783 -13.0667 -10.9086  -9.0516  -8.8211
    -8.5679  -8.1690  -7.9540  -7.7702  -7.5979  -7.0323  -6.7747  -6.5613
    -6.2342  -6.1247  -5.8304  -5.2278  -5.1007  -4.9417  -4.8258  -4.5209
    -4.4840  -4.3988  -3.6607  -3.5669  -3.2287  -2.4809  -1.9564  -1.7383
    -1.3095  -0.9184  -0.2305  -0.1593   0.1826   0.3847   0.4654   0.9872
     1.1013   1.1632   1.4233

          k =-0.4749 0.4060 0.0156 ( 21216 PWs)   bands (ev):

   -29.9812 -15.2044 -15.1832 -15.0782 -13.0673 -10.9133  -8.9996  -8.8234
    -8.5716  -8.2970  -7.8193  -7.7208  -7.5967  -7.1836  -6.7431  -6.6058
    -6.2469  -6.0726  -5.7808  -5.2838  -5.1130  -4.9830  -4.6097  -4.5947
    -4.5700  -4.3724  -3.7769  -3.5242  -3.1970  -2.4961  -2.0100  -1.7760
    -1.3523  -0.7709  -0.1200   0.0356   0.1248   0.3174   0.6343   0.9535
     1.1313   1.2221   1.4630

     the Fermi energy is    -0.0159 ev

!    total energy              =    -286.84771970 Ry
     Harris-Foulkes estimate   =    -286.84771982 Ry
     estimated scf accuracy    <       0.00000021 Ry

     The total energy is the sum of the following terms:

     one-electron contribution =    -114.13963201 Ry
     hartree contribution      =      71.07380923 Ry
     xc contribution           =     -95.80653824 Ry
     ewald contribution        =     -41.99137676 Ry
     one-center paw contrib.   =    -105.98260185 Ry
     smearing contrib. (-TS)   =      -0.00138006 Ry

     convergence has been achieved in  12 iterations

     negative rho (up, down):  2.376E-04 0.000E+00

     Forces acting on atoms (cartesian axes, Ry/au):

     atom    1 type  1   force =     0.01548648   -0.00771971   -0.00632012
     atom    2 type  1   force =    -0.00299642    0.01910113    0.00460680
     atom    3 type  2   force =     0.00204873    0.00913461    0.00434712
     atom    4 type  3   force =     0.02375108   -0.02070952    0.02195417
     atom    5 type  3   force =    -0.03166645    0.02074324    0.03791253
     atom    6 type  4   force =    -0.02022672   -0.00990374    0.05378249
     atom    7 type  4   force =     0.08861293    0.00038075    0.00457395
     atom    8 type  4   force =    -0.01464855   -0.00659328    0.02166618
     atom    9 type  4   force =     0.00191185   -0.11742501   -0.06218130
     atom   10 type  4   force =    -0.05245469   -0.00246798   -0.00801396
     atom   11 type  4   force =    -0.02862205    0.02526228    0.01368743
     atom   12 type  4   force =     0.07560860   -0.01861108   -0.08972954
     atom   13 type  5   force =     0.05636605    0.02855121    0.01663146
     atom   14 type  5   force =    -0.07082910    0.01951679    0.02249464
     atom   15 type  5   force =    -0.02019171    0.01048766    0.00918328
     atom   16 type  5   force =     0.05598955    0.02155106    0.02756008
     atom   17 type  5   force =    -0.01968963    0.09308312   -0.05305008
     atom   18 type  5   force =    -0.05233251    0.09526066    0.02519085
     atom   19 type  5   force =     0.01349870    0.00836100   -0.00374272
     atom   20 type  5   force =     0.01295086    0.00355961    0.00526786
     atom   21 type  5   force =    -0.07912484    0.00022599    0.00305264
     atom   22 type  5   force =     0.01202488   -0.05132702   -0.05136069
     atom   23 type  5   force =     0.00332169    0.02440431    0.02756583
     atom   24 type  5   force =     0.01322836   -0.03652561    0.01086477
     atom   25 type  5   force =    -0.05509102   -0.02104826   -0.01438293
     atom   26 type  5   force =    -0.00524959   -0.00190189   -0.03892821
     atom   27 type  5   force =    -0.00678981   -0.01454096    0.05846101
     atom   28 type  5   force =     0.00918392   -0.09029241    0.04480834
     atom   29 type  5   force =     0.04775049    0.02510214    0.01380982
     atom   30 type  5   force =    -0.01235370   -0.00816005   -0.05415127
     atom   31 type  5   force =    -0.01093681   -0.05435469   -0.00748644
     atom   32 type  5   force =    -0.00273198   -0.00401492   -0.00403708
     atom   33 type  5   force =    -0.02012800    0.04596754    0.05297569
     atom   34 type  5   force =    -0.01056042   -0.00616079   -0.00704014
     atom   35 type  5   force =    -0.00264656   -0.01070439   -0.01656163
     atom   36 type  5   force =     0.00014019    0.00282085   -0.00806635
     atom   37 type  5   force =    -0.05402331    0.04554890    0.00643557
     atom   38 type  5   force =     0.08057373    0.01969502   -0.04492968
     atom   39 type  5   force =     0.02836005   -0.07885135    0.04190103
     atom   40 type  5   force =    -0.04147286   -0.03216853   -0.06997660
     atom   41 type  5   force =     0.05931222   -0.00852699   -0.00830551
     atom   42 type  5   force =    -0.02743350    0.02673211   -0.00656978
     atom   43 type  5   force =     0.03784603    0.06069586    0.01638946
     atom   44 type  5   force =     0.00423383   -0.00417766    0.00971101

     Total force =     0.428536     Total SCF correction =     0.000465


     Computing stress (Cartesian axis) and pressure


     negative rho (up, down):  2.376E-04 0.000E+00
          total   stress  (Ry/bohr**3)                   (kbar)     P=  -17.76
  -0.00023794  -0.00008931  -0.00000188        -35.00    -13.14     -0.28
  -0.00008931  -0.00002393  -0.00001266        -13.14     -3.52     -1.86
  -0.00000188  -0.00001266  -0.00010041         -0.28     -1.86    -14.77


     number of scf cycles    =  14
     number of bfgs steps    =  12

     enthalpy old            =    -286.6365552258 Ry
     enthalpy new            =    -286.8477197026 Ry

     CASE: enthalpy_new < enthalpy_old

     new trust radius        =       0.3946782061 bohr
     new conv_thr            =       0.0000010000 Ry

     new unit-cell volume =   4979.26305 a.u.^3 (   737.85065 Ang^3 )
     density =      0.84938 g/cm^3

CELL_PARAMETERS (angstrom)
   8.657598096   0.281646648   0.833855209
   0.320499367  10.386030230   0.659855391
   0.888020402   0.676314149   8.338833603

ATOMIC_POSITIONS (angstrom)
K        6.353552671   6.179905582   2.855892302
K        4.582511593   0.991275595   6.919760721
Ba       7.159466107   7.720888013   6.472953312
Al       3.799519801   4.430369626   4.945995003
Al       2.109040300   9.194876302   6.418262174
B        1.818619304   9.006640276   2.351671600
B        5.116069880   5.590363682   7.637975147
B        8.687923944  10.897165521   7.534200506
B        4.232274383   6.951077573   6.137591611
B        6.570729232   2.487373804   3.291620452
B        5.305013137   3.466232452   2.558874855
B        4.658740632   8.226868811   1.760511167
H        7.748102036   4.565447418   5.399414985
H        3.516086526   8.584915332   2.109370871
H        1.952272560   7.762554923   7.251307294
H        7.649285132  10.453481196   6.952233066
H        1.632371978   3.614627472   3.306228568
H        6.373790222   3.248719011   4.222190432
H        9.014426374   8.142710000   4.004997982
H        4.405446697   7.768143030   7.091524827
H        6.257793740   5.614252472   7.472932232
H        8.041954536   1.256120753   7.516426873
H        4.791372546   7.248540489   5.044959892
H        6.873379126   3.350711824   7.701687909
H        8.488141460   4.841405675   5.544391177
H        2.069207434   8.724947305   4.894539840
H        5.585959157   9.321220528   8.727053291
H        1.522226751   4.272559782   2.905537150
H        3.077500698   6.552159288   5.881058267
H        2.171630094   9.142309452   3.951828338
H        6.413545797   1.349281918   3.456994003
H        3.451518614   3.014248380   1.405043642
H        4.897972951   5.825442360   5.996073394
H        2.974255077   2.554144582   1.751934422
H        4.979453663   1.119616609   1.867673069
H        6.846370498   4.065324975   7.408732212
H        3.803293069   9.271645490   6.329310214
H        7.648783406   2.819249194   3.171847462
H        6.692939859   2.575829398   4.649132928
H        5.020495488   6.371251068   8.853715123
H        4.077158742   3.892070393   2.994632178
H        5.548296043   4.358816511   5.023998540
H        4.291821307   4.564577087   7.538137018
H        4.778933101   1.141072663   1.146290433



     Writing output data file 00_K2BaAl2B7H32_Monster.save
     NEW-OLD atomic charge density approx. for the potential

     negative rho (up, down):  6.736E-04 0.000E+00
     extrapolated charge   69.37878, renormalised to   71.00000

     total cpu time spent up to now is    19631.3 secs

     Self-consistent Calculation

     iteration #  1     ecut=    50.00 Ry     beta=0.70
     Davidson diagonalization with overlap
     c_bands:  1 eigenvalues not converged
     c_bands:  1 eigenvalues not converged
     c_bands:  1 eigenvalues not converged
     c_bands:  1 eigenvalues not converged
     ethr =  1.00E-06,  avg # of iterations = 19.4

     negative rho (up, down):  1.546E-04 0.000E+00

     total cpu time spent up to now is    19701.0 secs

     total energy              =    -286.68331174 Ry
     Harris-Foulkes estimate   =    -288.72751087 Ry
     estimated scf accuracy    <       0.35892479 Ry

     iteration #  2     ecut=    50.00 Ry     beta=0.70
     Davidson diagonalization with overlap
     ethr =  5.06E-04,  avg # of iterations =  5.9

     negative rho (up, down):  1.279E-04 0.000E+00

     total cpu time spent up to now is    19735.4 secs

     total energy              =    -286.52168635 Ry
     Harris-Foulkes estimate   =    -287.41153466 Ry
     estimated scf accuracy    <       3.74012674 Ry

     iteration #  3     ecut=    50.00 Ry     beta=0.70
     Davidson diagonalization with overlap
     ethr =  5.06E-04,  avg # of iterations =  5.1

     negative rho (up, down):  3.431E-05 0.000E+00

     total cpu time spent up to now is    19764.7 secs

     total energy              =    -286.82125860 Ry
     Harris-Foulkes estimate   =    -287.09027322 Ry
     estimated scf accuracy    <       1.23437325 Ry

     iteration #  4     ecut=    50.00 Ry     beta=0.70
     Davidson diagonalization with overlap
     ethr =  5.06E-04,  avg # of iterations =  3.0

     negative rho (up, down):  4.126E-05 0.000E+00

     total cpu time spent up to now is    19788.5 secs

     total energy              =    -286.92506861 Ry
     Harris-Foulkes estimate   =    -286.97264305 Ry
     estimated scf accuracy    <       0.34730535 Ry

     iteration #  5     ecut=    50.00 Ry     beta=0.70
     Davidson diagonalization with overlap
     ethr =  4.89E-04,  avg # of iterations =  1.0

     negative rho (up, down):  8.014E-05 0.000E+00

     total cpu time spent up to now is    19810.6 secs

     total energy              =    -286.93720172 Ry
     Harris-Foulkes estimate   =    -286.94547459 Ry
     estimated scf accuracy    <       0.03829159 Ry

     iteration #  6     ecut=    50.00 Ry     beta=0.70
     Davidson diagonalization with overlap
     ethr =  5.39E-05,  avg # of iterations =  5.8

     negative rho (up, down):  2.860E-04 0.000E+00

     total cpu time spent up to now is    19837.0 secs

     total energy              =    -286.93809727 Ry
     Harris-Foulkes estimate   =    -286.94172440 Ry
     estimated scf accuracy    <       0.02258107 Ry

     iteration #  7     ecut=    50.00 Ry     beta=0.70
     Davidson diagonalization with overlap
     ethr =  3.18E-05,  avg # of iterations =  2.2

     negative rho (up, down):  4.061E-04 0.000E+00

     total cpu time spent up to now is    19860.1 secs

     total energy              =    -286.93958274 Ry
     Harris-Foulkes estimate   =    -286.94080120 Ry
     estimated scf accuracy    <       0.00330398 Ry

     iteration #  8     ecut=    50.00 Ry     beta=0.70
     Davidson diagonalization with overlap
     ethr =  4.65E-06,  avg # of iterations =  6.8

     negative rho (up, down):  3.774E-04 0.000E+00

     total cpu time spent up to now is    19889.6 secs

     total energy              =    -286.94023336 Ry
     Harris-Foulkes estimate   =    -286.94053242 Ry
     estimated scf accuracy    <       0.00144139 Ry

     iteration #  9     ecut=    50.00 Ry     beta=0.70
     Davidson diagonalization with overlap
     ethr =  2.03E-06,  avg # of iterations =  2.2

     negative rho (up, down):  4.083E-04 0.000E+00

     total cpu time spent up to now is    19912.1 secs

     total energy              =    -286.94032798 Ry
     Harris-Foulkes estimate   =    -286.94043447 Ry
     estimated scf accuracy    <       0.00052547 Ry

     iteration # 10     ecut=    50.00 Ry     beta=0.70
     Davidson diagonalization with overlap
     ethr =  7.40E-07,  avg # of iterations =  2.2

     negative rho (up, down):  3.837E-04 0.000E+00

     total cpu time spent up to now is    19935.2 secs

     total energy              =    -286.94034777 Ry
     Harris-Foulkes estimate   =    -286.94043108 Ry
     estimated scf accuracy    <       0.00039829 Ry

     iteration # 11     ecut=    50.00 Ry     beta=0.70
     Davidson diagonalization with overlap
     ethr =  5.61E-07,  avg # of iterations =  2.0

     negative rho (up, down):  3.968E-04 0.000E+00

     total cpu time spent up to now is    19957.3 secs

     total energy              =    -286.94039159 Ry
     Harris-Foulkes estimate   =    -286.94039527 Ry
     estimated scf accuracy    <       0.00002867 Ry

     iteration # 12     ecut=    50.00 Ry     beta=0.70
     Davidson diagonalization with overlap
     ethr =  4.04E-08,  avg # of iterations =  3.0

     negative rho (up, down):  4.031E-04 0.000E+00

     total cpu time spent up to now is    19981.2 secs

     total energy              =    -286.94039446 Ry
     Harris-Foulkes estimate   =    -286.94039510 Ry
     estimated scf accuracy    <       0.00000280 Ry

     iteration # 13     ecut=    50.00 Ry     beta=0.70
     Davidson diagonalization with overlap
     ethr =  3.95E-09,  avg # of iterations =  3.0

     negative rho (up, down):  4.035E-04 0.000E+00

     total cpu time spent up to now is    20005.6 secs

     total energy              =    -286.94039480 Ry
     Harris-Foulkes estimate   =    -286.94039505 Ry
     estimated scf accuracy    <       0.00000114 Ry

     iteration # 14     ecut=    50.00 Ry     beta=0.70
     Davidson diagonalization with overlap
     ethr =  1.60E-09,  avg # of iterations =  2.4

     negative rho (up, down):  4.011E-04 0.000E+00

     total cpu time spent up to now is    20028.0 secs

     End of self-consistent calculation

          k = 0.0000 0.0000 0.0000 ( 21247 PWs)   bands (ev):

   -30.0985 -15.3231 -15.2952 -15.1829 -12.6752 -11.2506  -9.0884  -8.9714
    -8.6916  -8.5568  -7.8985  -7.7393  -7.5028  -7.0242  -6.8170  -6.4454
    -6.3096  -6.0444  -5.7407  -5.3898  -5.1676  -4.9103  -4.8567  -4.5235
    -4.3755  -4.2375  -3.6984  -3.4714  -3.3766  -2.6679  -2.0214  -1.8097
    -1.2497  -0.7513  -0.1133   0.1690   0.2387   0.4583   0.5748   1.0672
     1.3567   1.3712   1.5141

          k = 0.0464 0.0298-0.4920 ( 21362 PWs)   bands (ev):

   -30.0985 -15.3231 -15.2954 -15.1830 -12.6740 -11.2482  -9.1087  -9.0030
    -8.6014  -8.5921  -7.9198  -7.8440  -7.4761  -6.8727  -6.7461  -6.5081
    -6.2954  -6.0900  -5.7114  -5.4774  -5.2054  -4.9414  -4.8580  -4.5153
    -4.3080  -4.1856  -3.6770  -3.4860  -3.2883  -2.6310  -2.0036  -1.8819
    -1.2431  -0.8519  -0.2113  -0.1049   0.2566   0.4092   0.5645   1.1346
     1.2629   1.4088   1.5404

          k = 0.0562-0.3615-0.4613 ( 21216 PWs)   bands (ev):

   -30.0985 -15.3231 -15.2954 -15.1830 -12.6736 -11.2479  -9.1166  -8.9721
    -8.6843  -8.5327  -7.9107  -7.8834  -7.4296  -6.9164  -6.7427  -6.5119
    -6.2923  -6.0416  -5.7560  -5.4159  -5.1731  -4.9881  -4.8582  -4.5325
    -4.3117  -4.1493  -3.7037  -3.4944  -3.3032  -2.6594  -1.9709  -1.8725
    -1.2602  -0.8580  -0.2052  -0.1288   0.1857   0.3738   0.7365   1.1281
     1.3063   1.4318   1.6226

          k =-0.4157-0.3501-0.4120 ( 21368 PWs)   bands (ev):

   -30.0985 -15.3231 -15.2959 -15.1833 -12.6732 -11.2407  -9.0865  -9.0442
    -8.6631  -8.5219  -7.8934  -7.8313  -7.5197  -6.9340  -6.7488  -6.4684
    -6.2189  -6.1004  -5.7990  -5.4265  -5.1536  -4.9484  -4.8615  -4.5601
    -4.3237  -4.2140  -3.7085  -3.5061  -3.2255  -2.6142  -2.0046  -1.7075
    -1.1920  -1.0030  -0.2256  -0.1155   0.2788   0.2824   0.8000   1.1308
     1.1987   1.3964   1.4538

          k =-0.4719 0.0114 0.0493 ( 21362 PWs)   bands (ev):

   -30.0986 -15.3231 -15.2957 -15.1832 -12.6747 -11.2433  -9.1299  -8.9011
    -8.7203  -8.5951  -7.8171  -7.7338  -7.5772  -6.9894  -6.7791  -6.5629
    -6.1915  -6.0998  -5.7968  -5.3109  -5.1512  -4.9617  -4.9152  -4.5223
    -4.3369  -4.2823  -3.6622  -3.4918  -3.3389  -2.6149  -2.0104  -1.7593
    -1.1810  -0.8607  -0.1312   0.1284   0.2650   0.5109   0.5490   1.0830
     1.2127   1.3276   1.6145

          k = 0.0098-0.3914 0.0307 ( 21362 PWs)   bands (ev):

   -30.0986 -15.3232 -15.2952 -15.1829 -12.6749 -11.2507  -9.1129  -8.9403
    -8.6483  -8.6002  -7.8954  -7.8114  -7.4422  -7.0415  -6.8171  -6.4391
    -6.3063  -6.0227  -5.7548  -5.2971  -5.2072  -4.9593  -4.8613  -4.5116
    -4.3567  -4.2447  -3.6924  -3.4994  -3.3947  -2.7000  -1.9823  -1.8026
    -1.2600  -0.7511  -0.1056   0.1813   0.2492   0.4144   0.6575   1.0920
     1.1747   1.3880   1.5494

          k =-0.5183-0.0184 0.5413 ( 21216 PWs)   bands (ev):

   -30.0985 -15.3230 -15.2959 -15.1833 -12.6732 -11.2407  -9.1765  -8.9342
    -8.6085  -8.5856  -7.8540  -7.8380  -7.5951  -6.9018  -6.7174  -6.4810
    -6.2324  -6.1176  -5.7838  -5.3966  -5.1966  -4.9763  -4.8494  -4.5331
    -4.3165  -4.2267  -3.6919  -3.5121  -3.2449  -2.6031  -1.9983  -1.7039
    -1.1619  -1.0002  -0.2201  -0.1211   0.2597   0.4465   0.5734   1.1033
     1.2014   1.2767   1.5159

          k =-0.4817 0.4028 0.0186 ( 21216 PWs)   bands (ev):

   -30.0985 -15.3231 -15.2957 -15.1832 -12.6742 -11.2432  -9.0740  -8.9846
    -8.6845  -8.6127  -7.8120  -7.7692  -7.5230  -7.0123  -6.7815  -6.5642
    -6.1838  -6.0886  -5.7806  -5.2964  -5.1607  -5.0012  -4.8908  -4.5301
    -4.3491  -4.2887  -3.6408  -3.4971  -3.3190  -2.6331  -2.0042  -1.7624
    -1.2123  -0.8559  -0.0604   0.1102   0.1998   0.4203   0.7139   1.0548
     1.1687   1.3753   1.5544

     the Fermi energy is     0.0395 ev

!    total energy              =    -286.94039445 Ry
     Harris-Foulkes estimate   =    -286.94039495 Ry
     estimated scf accuracy    <       0.00000060 Ry

     The total energy is the sum of the following terms:

     one-electron contribution =    -113.02903013 Ry
     hartree contribution      =      70.69376422 Ry
     xc contribution           =     -96.16798474 Ry
     ewald contribution        =     -42.44809208 Ry
     one-center paw contrib.   =    -105.98950534 Ry
     smearing contrib. (-TS)   =       0.00045361 Ry

     convergence has been achieved in  14 iterations

     negative rho (up, down):  4.011E-04 0.000E+00

     Forces acting on atoms (cartesian axes, Ry/au):

     atom    1 type  1   force =     0.01975126   -0.00626582   -0.00331322
     atom    2 type  1   force =    -0.00755741    0.01512798    0.00178236
     atom    3 type  2   force =     0.00184335    0.01770535    0.00675216
     atom    4 type  3   force =     0.00011851   -0.03157768    0.01505576
     atom    5 type  3   force =    -0.03713338    0.02399371    0.06048158
     atom    6 type  4   force =    -0.01857821   -0.01118772    0.06803808
     atom    7 type  4   force =    -0.10757530    0.03893216    0.06755323
     atom    8 type  4   force =     0.08779948   -0.21278710   -0.14950223
     atom    9 type  4   force =     0.01729085   -0.03180274   -0.01855143
     atom   10 type  4   force =    -0.04966582    0.01023760   -0.01453525
     atom   11 type  4   force =    -0.02739288    0.00324250    0.01679512
     atom   12 type  4   force =     0.01568801    0.00783052   -0.08351914
     atom   13 type  5   force =     0.04304648    0.02277968    0.01227908
     atom   14 type  5   force =    -0.02372210    0.00197115    0.00319787
     atom   15 type  5   force =    -0.02434201    0.01757776    0.00094446
     atom   16 type  5   force =     0.01312507   -0.00641672   -0.00046039
     atom   17 type  5   force =    -0.00857247    0.03011607   -0.01889184
     atom   18 type  5   force =    -0.04899532    0.05022499    0.05255187
     atom   19 type  5   force =     0.01695132    0.00919661   -0.01035423
     atom   20 type  5   force =     0.00515071   -0.03649262   -0.03524634
     atom   21 type  5   force =     0.05755150   -0.01451883   -0.01814358
     atom   22 type  5   force =    -0.05250656    0.17219704    0.14153411
     atom   23 type  5   force =     0.00064651    0.02253386    0.01553536
     atom   24 type  5   force =     0.01017733    0.01316978   -0.00833759
     atom   25 type  5   force =    -0.04162585   -0.01479986   -0.01016470
     atom   26 type  5   force =    -0.00968821   -0.00762409   -0.04912200
     atom   27 type  5   force =     0.00150303   -0.02256555    0.06423265
     atom   28 type  5   force =    -0.00149405   -0.02737550    0.01146779
     atom   29 type  5   force =     0.02519092    0.02123846    0.00997180
     atom   30 type  5   force =    -0.01400776   -0.00400639   -0.06084958
     atom   31 type  5   force =    -0.01089574   -0.04735478   -0.00727140
     atom   32 type  5   force =     0.00643563    0.00501068   -0.01144419
     atom   33 type  5   force =     0.00787998    0.01572264    0.05475166
     atom   34 type  5   force =    -0.01697865   -0.01336253    0.00085729
     atom   35 type  5   force =     0.00150188   -0.00895536   -0.00229618
     atom   36 type  5   force =     0.00312616   -0.04295793    0.01093146
     atom   37 type  5   force =    -0.02967734    0.04540601    0.00891595
     atom   38 type  5   force =     0.07581339    0.01354941   -0.04517832
     atom   39 type  5   force =     0.01196463   -0.03333020    0.01538775
     atom   40 type  5   force =    -0.00990728   -0.04562458   -0.08603754
     atom   41 type  5   force =     0.06892411   -0.00737930   -0.00084651
     atom   42 type  5   force =    -0.00712255    0.02818159   -0.00908813
     atom   43 type  5   force =     0.05555504    0.04475198    0.00827843
     atom   44 type  5   force =     0.00040375   -0.00431222   -0.00414204

     Total force =     0.499169     Total SCF correction =     0.000714


     Computing stress (Cartesian axis) and pressure


     negative rho (up, down):  4.011E-04 0.000E+00
          total   stress  (Ry/bohr**3)                   (kbar)     P=   -8.20
  -0.00013932  -0.00008521  -0.00000968        -20.49    -12.53     -1.42
  -0.00008521   0.00003503   0.00003556        -12.53      5.15      5.23
  -0.00000968   0.00003556  -0.00006303         -1.42      5.23     -9.27


     number of scf cycles    =  15
     number of bfgs steps    =  13

     enthalpy old            =    -286.8477197026 Ry
     enthalpy new            =    -286.9403944547 Ry

     CASE: enthalpy_new < enthalpy_old

     new trust radius        =       0.4342619836 bohr
     new conv_thr            =       0.0000010000 Ry

     new unit-cell volume =   4878.08399 a.u.^3 (   722.85746 Ang^3 )
     density =      0.86700 g/cm^3

CELL_PARAMETERS (angstrom)
   8.571788423   0.237433532   0.788182288
   0.281899224  10.286585040   0.631143645
   0.845893201   0.649618097   8.318918146

ATOMIC_POSITIONS (angstrom)
K        6.292578082   6.059726018   2.831195866
K        4.515367682   1.041853834   6.874351065
Ba       7.027470191   7.582671342   6.388320335
Al       3.768038243   4.344410255   4.961906341
Al       2.048803809   9.120847158   6.401584994
B        1.750751581   8.913693868   2.352283326
B        4.970681083   5.494571276   7.565563426
B        8.517735085  10.529210792   7.371870999
B        4.161455569   6.799241754   6.035927332
B        6.498015239   2.452024963   3.271183321
B        5.243505454   3.437139431   2.487284432
B        4.615487976   8.064473303   1.677832248
H        7.633955046   4.538578142   5.349276942
H        3.431660737   8.511295656   2.092788485
H        1.873194265   7.680064504   7.199841547
H        7.524522913  10.299726054   6.884502345
H        1.575431612   3.612721272   3.269867020
H        6.229707078   3.247150080   4.224008050
H        8.839840035   7.968059344   3.904496560
H        4.371162960   7.609209224   7.043366391
H        6.130768022   5.526019037   7.408244645
H        7.947998231   1.266654287   7.512615327
H        4.711942567   7.213153181   4.995979520
H        6.751278454   3.240870064   7.637112249
H        8.353704143   4.725758462   5.471781442
H        1.992117668   8.611435428   4.817461806
H        5.482633562   9.215973137   8.672352815
H        1.497529152   4.171694900   2.892169293
H        3.005754850   6.417189062   5.862102531
H        2.097203399   9.034654088   3.885368544
H        6.293189155   1.276585782   3.384357661
H        3.416243609   2.954510353   1.377629984
H        4.824937760   5.780586321   6.019669483
H        2.940691324   2.508501089   1.730666896
H        4.939502440   1.120310547   1.857042701
H        6.667628667   3.983333701   7.316025153
H        3.702096991   9.174599587   6.279003501
H        7.592314316   2.764551507   3.052661337
H        6.570953654   2.468593251   4.581532900
H        4.918950540   6.213485602   8.715881127
H        4.084732475   3.808655152   3.021904989
H        5.450368365   4.370644015   5.018902210
H        4.272524971   4.544626317   7.514438493
H        4.741686975   1.113603093   1.150462292



     Writing output data file 00_K2BaAl2B7H32_Monster.save
     NEW-OLD atomic charge density approx. for the potential

     negative rho (up, down):  7.946E-04 0.000E+00
     extrapolated charge   69.52858, renormalised to   71.00000

     total cpu time spent up to now is    20852.7 secs

     Self-consistent Calculation

     iteration #  1     ecut=    50.00 Ry     beta=0.70
     Davidson diagonalization with overlap
     c_bands:  1 eigenvalues not converged
     c_bands:  1 eigenvalues not converged
     c_bands:  2 eigenvalues not converged
     c_bands:  2 eigenvalues not converged
     c_bands:  1 eigenvalues not converged
     ethr =  1.00E-06,  avg # of iterations = 20.0

     negative rho (up, down):  1.071E-04 0.000E+00

     total cpu time spent up to now is    20920.2 secs

     total energy              =    -286.86940969 Ry
     Harris-Foulkes estimate   =    -288.71038945 Ry
     estimated scf accuracy    <       0.23075451 Ry

     iteration #  2     ecut=    50.00 Ry     beta=0.70
     Davidson diagonalization with overlap
     ethr =  3.25E-04,  avg # of iterations =  5.1

     negative rho (up, down):  9.792E-05 0.000E+00

     total cpu time spent up to now is    20955.9 secs

     total energy              =    -286.84649334 Ry
     Harris-Foulkes estimate   =    -287.53863709 Ry
     estimated scf accuracy    <       3.07457440 Ry

     iteration #  3     ecut=    50.00 Ry     beta=0.70
     Davidson diagonalization with overlap
     ethr =  3.25E-04,  avg # of iterations =  5.5

     negative rho (up, down):  4.943E-05 0.000E+00

     total cpu time spent up to now is    20986.3 secs

     total energy              =    -287.02608636 Ry
     Harris-Foulkes estimate   =    -287.07975528 Ry
     estimated scf accuracy    <       0.14750848 Ry

     iteration #  4     ecut=    50.00 Ry     beta=0.70
     Davidson diagonalization with overlap
     ethr =  2.08E-04,  avg # of iterations =  2.4

     negative rho (up, down):  7.027E-05 0.000E+00

     total cpu time spent up to now is    21010.5 secs

     total energy              =    -287.04063453 Ry
     Harris-Foulkes estimate   =    -287.05632926 Ry
     estimated scf accuracy    <       0.08665152 Ry

     iteration #  5     ecut=    50.00 Ry     beta=0.70
     Davidson diagonalization with overlap
     ethr =  1.22E-04,  avg # of iterations =  2.2

     negative rho (up, down):  9.226E-05 0.000E+00

     total cpu time spent up to now is    21032.7 secs

     total energy              =    -287.03745365 Ry
     Harris-Foulkes estimate   =    -287.04960833 Ry
     estimated scf accuracy    <       0.06243211 Ry

     iteration #  6     ecut=    50.00 Ry     beta=0.70
     Davidson diagonalization with overlap
     ethr =  8.79E-05,  avg # of iterations =  2.0

     negative rho (up, down):  1.277E-04 0.000E+00

     total cpu time spent up to now is    21054.7 secs

     total energy              =    -287.04634167 Ry
     Harris-Foulkes estimate   =    -287.05182295 Ry
     estimated scf accuracy    <       0.05267071 Ry

     iteration #  7     ecut=    50.00 Ry     beta=0.70
     Davidson diagonalization with overlap
     ethr =  7.42E-05,  avg # of iterations =  2.5

     negative rho (up, down):  1.522E-04 0.000E+00

     total cpu time spent up to now is    21077.5 secs

     total energy              =    -287.04687740 Ry
     Harris-Foulkes estimate   =    -287.04810744 Ry
     estimated scf accuracy    <       0.01730347 Ry

     iteration #  8     ecut=    50.00 Ry     beta=0.70
     Davidson diagonalization with overlap
     ethr =  2.44E-05,  avg # of iterations =  4.5

     negative rho (up, down):  1.689E-04 0.000E+00

     total cpu time spent up to now is    21101.3 secs

     total energy              =    -287.04698622 Ry
     Harris-Foulkes estimate   =    -287.04738629 Ry
     estimated scf accuracy    <       0.00540342 Ry

     iteration #  9     ecut=    50.00 Ry     beta=0.70
     Davidson diagonalization with overlap
     ethr =  7.61E-06,  avg # of iterations =  5.1

     negative rho (up, down):  1.826E-04 0.000E+00

     total cpu time spent up to now is    21126.3 secs

     total energy              =    -287.04712491 Ry
     Harris-Foulkes estimate   =    -287.04720572 Ry
     estimated scf accuracy    <       0.00068835 Ry

     iteration # 10     ecut=    50.00 Ry     beta=0.70
     Davidson diagonalization with overlap
     ethr =  9.70E-07,  avg # of iterations =  4.2

     negative rho (up, down):  1.905E-04 0.000E+00

     total cpu time spent up to now is    21150.8 secs

     total energy              =    -287.04717596 Ry
     Harris-Foulkes estimate   =    -287.04718440 Ry
     estimated scf accuracy    <       0.00003015 Ry

     iteration # 11     ecut=    50.00 Ry     beta=0.70
     Davidson diagonalization with overlap
     ethr =  4.25E-08,  avg # of iterations =  4.0

     negative rho (up, down):  1.966E-04 0.000E+00

     total cpu time spent up to now is    21178.6 secs

     total energy              =    -287.04718515 Ry
     Harris-Foulkes estimate   =    -287.04718578 Ry
     estimated scf accuracy    <       0.00000732 Ry

     iteration # 12     ecut=    50.00 Ry     beta=0.70
     Davidson diagonalization with overlap
     ethr =  1.03E-08,  avg # of iterations =  2.2

     negative rho (up, down):  1.983E-04 0.000E+00

     total cpu time spent up to now is    21201.5 secs

     total energy              =    -287.04718582 Ry
     Harris-Foulkes estimate   =    -287.04718605 Ry
     estimated scf accuracy    <       0.00000168 Ry

     iteration # 13     ecut=    50.00 Ry     beta=0.70
     Davidson diagonalization with overlap
     ethr =  2.37E-09,  avg # of iterations =  2.4

     negative rho (up, down):  1.985E-04 0.000E+00

     total cpu time spent up to now is    21224.1 secs

     End of self-consistent calculation

          k = 0.0000 0.0000 0.0000 ( 21247 PWs)   bands (ev):

   -29.9187 -15.1892 -15.1493 -15.0359 -12.2738 -11.6951  -9.0186  -8.9128
    -8.6448  -8.4604  -8.0877  -7.6484  -7.5356  -7.1776  -6.9491  -6.4710
    -6.2823  -6.0643  -5.9005  -5.2968  -5.0776  -5.0001  -4.8459  -4.5088
    -4.2936  -4.1656  -3.6111  -3.4247  -3.3676  -2.7716  -2.0704  -1.8366
    -1.1967  -0.7479  -0.0871   0.1603   0.3489   0.5128   0.6768   1.1530
     1.4607   1.4890   1.6058

          k = 0.0445 0.0290-0.4926 ( 21362 PWs)   bands (ev):

   -29.9187 -15.1891 -15.1494 -15.0362 -12.2700 -11.6971  -9.0847  -8.8845
    -8.5720  -8.4876  -8.0949  -7.7818  -7.5216  -7.1199  -6.7877  -6.4774
    -6.2944  -6.0749  -5.8675  -5.4969  -5.0401  -5.0292  -4.8452  -4.4838
    -4.3106  -4.0694  -3.6186  -3.4111  -3.2547  -2.7272  -2.0714  -1.8933
    -1.1932  -0.8511  -0.1844  -0.0892   0.2900   0.5125   0.6438   1.2169
     1.3985   1.4671   1.6601

          k = 0.0527-0.3659-0.4626 ( 21216 PWs)   bands (ev):

   -29.9187 -15.1892 -15.1494 -15.0362 -12.2686 -11.6980  -9.0830  -8.8598
    -8.6307  -8.4595  -8.0863  -7.8356  -7.4438  -7.1331  -6.8307  -6.4895
    -6.2756  -6.0517  -5.8780  -5.4714  -5.0322  -5.0235  -4.8437  -4.4974
    -4.2663  -4.0511  -3.6376  -3.4961  -3.2536  -2.7587  -2.0373  -1.8772
    -1.2044  -0.8558  -0.1779  -0.1095   0.2354   0.4683   0.8006   1.2285
     1.3731   1.4985   1.7775

          k =-0.4234-0.3558-0.4149 ( 21368 PWs)   bands (ev):

   -29.9187 -15.1896 -15.1499 -15.0364 -12.2677 -11.6919  -9.0899  -8.9111
    -8.5940  -8.4325  -8.0259  -7.8665  -7.5478  -7.0827  -6.8415  -6.4519
    -6.2772  -6.0438  -5.9114  -5.4700  -5.0403  -5.0018  -4.8610  -4.4992
    -4.3274  -4.0594  -3.6639  -3.4215  -3.2253  -2.7195  -2.0887  -1.7141
    -1.1454  -1.0077  -0.2151  -0.0824   0.2921   0.4000   0.8869   1.2380
     1.2683   1.4919   1.5771

          k =-0.4761 0.0101 0.0476 ( 21362 PWs)   bands (ev):

   -29.9187 -15.1895 -15.1497 -15.0361 -12.2726 -11.6892  -9.0643  -8.8278
    -8.6804  -8.5321  -7.9884  -7.6297  -7.6216  -7.0834  -6.9762  -6.5421
    -6.2195  -6.1008  -5.9152  -5.3458  -5.0640  -4.9975  -4.8417  -4.5336
    -4.2432  -4.1412  -3.6460  -3.4111  -3.3733  -2.7232  -2.0645  -1.7711
    -1.1253  -0.8706  -0.1096   0.1372   0.3169   0.5974   0.6755   1.1218
     1.3334   1.4204   1.7499

          k = 0.0082-0.3949 0.0300 ( 21362 PWs)   bands (ev):

   -29.9187 -15.1893 -15.1493 -15.0359 -12.2725 -11.6964  -9.0462  -8.8747
    -8.6167  -8.4932  -8.0873  -7.7391  -7.4579  -7.1835  -6.9524  -6.4746
    -6.2805  -6.0198  -5.9162  -5.3059  -5.0724  -4.9800  -4.8329  -4.5711
    -4.2172  -4.1365  -3.6610  -3.4488  -3.4082  -2.8009  -2.0280  -1.8300
    -1.1996  -0.7494  -0.0833   0.2074   0.3299   0.4629   0.7570   1.2016
     1.2627   1.4722   1.6553

          k =-0.5206-0.0189 0.5402 ( 21216 PWs)   bands (ev):

   -29.9187 -15.1895 -15.1499 -15.0364 -12.2686 -11.6909  -9.1411  -8.8267
    -8.5893  -8.4672  -8.0211  -7.8020  -7.6527  -7.0803  -6.7786  -6.4389
    -6.3135  -6.0507  -5.9202  -5.4583  -5.0579  -5.0046  -4.8468  -4.5842
    -4.2389  -4.0356  -3.6405  -3.4780  -3.2440  -2.7135  -2.0629  -1.7079
    -1.1147  -1.0089  -0.1966  -0.0902   0.2675   0.5948   0.6301   1.1763
     1.2979   1.3868   1.6133

          k =-0.4843 0.4051 0.0176 ( 21216 PWs)   bands (ev):

   -29.9187 -15.1896 -15.1497 -15.0361 -12.2713 -11.6902  -9.0364  -8.8679
    -8.6746  -8.5285  -7.9914  -7.7150  -7.5224  -7.0927  -6.9858  -6.5490
    -6.2138  -6.0592  -5.9238  -5.3492  -5.0684  -4.9946  -4.8429  -4.4807
    -4.3062  -4.1931  -3.6019  -3.4119  -3.3327  -2.7404  -2.0778  -1.7736
    -1.1579  -0.8698  -0.0355   0.1121   0.2697   0.5067   0.8327   1.1229
     1.2481   1.4888   1.6756

     the Fermi energy is     0.0626 ev

!    total energy              =    -287.04718594 Ry
     Harris-Foulkes estimate   =    -287.04718598 Ry
     estimated scf accuracy    <       0.00000006 Ry

     The total energy is the sum of the following terms:

     one-electron contribution =    -114.83208011 Ry
     hartree contribution      =      71.76121662 Ry
     xc contribution           =     -96.35968177 Ry
     ewald contribution        =     -41.62839861 Ry
     one-center paw contrib.   =    -105.98852317 Ry
     smearing contrib. (-TS)   =       0.00028110 Ry

     convergence has been achieved in  13 iterations

     negative rho (up, down):  1.985E-04 0.000E+00

     Forces acting on atoms (cartesian axes, Ry/au):

     atom    1 type  1   force =     0.02330078   -0.00437971   -0.00357803
     atom    2 type  1   force =    -0.00421251    0.01236661    0.00417998
     atom    3 type  2   force =     0.01064966    0.01925129    0.00881040
     atom    4 type  3   force =    -0.01723498   -0.03537646    0.00985518
     atom    5 type  3   force =    -0.05940629   -0.00309972    0.03216533
     atom    6 type  4   force =    -0.01303340   -0.01397260    0.05912226
     atom    7 type  4   force =    -0.01492709    0.09770891    0.07437647
     atom    8 type  4   force =     0.10700046    0.06018151    0.08680480
     atom    9 type  4   force =    -0.00194306    0.03710663    0.02403100
     atom   10 type  4   force =    -0.03930828    0.00790826   -0.00968013
     atom   11 type  4   force =    -0.01414354   -0.01191795    0.02042619
     atom   12 type  4   force =    -0.02270248    0.02996893   -0.06643979
     atom   13 type  5   force =    -0.00604931    0.00328442    0.00242097
     atom   14 type  5   force =     0.00637576   -0.01177101   -0.00964236
     atom   15 type  5   force =    -0.01986971    0.01283968    0.00053661
     atom   16 type  5   force =    -0.08527370   -0.04105279   -0.05217623
     atom   17 type  5   force =     0.01015852   -0.09815811    0.06604032
     atom   18 type  5   force =    -0.03183135    0.00902973    0.02531825
     atom   19 type  5   force =     0.01862129    0.01042495   -0.00923251
     atom   20 type  5   force =    -0.00757595   -0.04017123   -0.05100291
     atom   21 type  5   force =     0.04373914   -0.01659318   -0.01670588
     atom   22 type  5   force =     0.02732796   -0.04749945   -0.03743241
     atom   23 type  5   force =    -0.00087469    0.00864131    0.00843120
     atom   24 type  5   force =     0.00486992    0.04770090   -0.02501785
     atom   25 type  5   force =     0.00873622    0.00388846   -0.00015350
     atom   26 type  5   force =    -0.00715753   -0.00085248   -0.02562603
     atom   27 type  5   force =     0.00039025   -0.02405234    0.05782765
     atom   28 type  5   force =    -0.01907760    0.10092971   -0.07256559
     atom   29 type  5   force =     0.01523868    0.01873149    0.00089823
     atom   30 type  5   force =    -0.01352851   -0.00415552   -0.05494300
     atom   31 type  5   force =    -0.00687750   -0.00983655   -0.00868166
     atom   32 type  5   force =     0.01362640    0.01285750   -0.01534461
     atom   33 type  5   force =     0.02976822   -0.02535920    0.03391728
     atom   34 type  5   force =    -0.02404575   -0.01896148    0.00634817
     atom   35 type  5   force =     0.00694577   -0.00910870    0.01720898
     atom   36 type  5   force =     0.00789121   -0.07804672    0.02712786
     atom   37 type  5   force =    -0.01601835    0.04687528    0.01103403
     atom   38 type  5   force =     0.04582507    0.00506020   -0.02432271
     atom   39 type  5   force =     0.01298604   -0.01132511    0.01708710
     atom   40 type  5   force =    -0.01910242   -0.03017704   -0.06698261
     atom   41 type  5   force =     0.04640209    0.00339171   -0.00262989
     atom   42 type  5   force =     0.01429574    0.01969644   -0.01134147
     atom   43 type  5   force =    -0.00406827   -0.02593239   -0.00442792
     atom   44 type  5   force =    -0.00588690   -0.00604420   -0.02604116

     Total force =     0.393487     Total SCF correction =     0.000258


     Computing stress (Cartesian axis) and pressure


     negative rho (up, down):  1.985E-04 0.000E+00
          total   stress  (Ry/bohr**3)                   (kbar)     P=   -5.03
  -0.00006453  -0.00004283   0.00005217         -9.49     -6.30      7.67
  -0.00004283   0.00003361  -0.00001181         -6.30      4.94     -1.74
   0.00005217  -0.00001181  -0.00007163          7.67     -1.74    -10.54


     number of scf cycles    =  16
     number of bfgs steps    =  14

     enthalpy old            =    -286.9403944547 Ry
     enthalpy new            =    -287.0471859409 Ry

     CASE: enthalpy_new < enthalpy_old

     new trust radius        =       0.1828011819 bohr
     new conv_thr            =       0.0000010000 Ry

     new unit-cell volume =   4870.62981 a.u.^3 (   721.75286 Ang^3 )
     density =      0.86832 g/cm^3

CELL_PARAMETERS (angstrom)
   8.562024133   0.227453223   0.799554892
   0.273475550  10.296687506   0.631664004
   0.858144403   0.649809848   8.309659793

ATOMIC_POSITIONS (angstrom)
K        6.294619322   6.055610368   2.839730008
K        4.515386172   1.043324316   6.872836838
Ba       7.026406115   7.601789045   6.397938937
Al       3.752190079   4.310757889   4.956578357
Al       2.023388260   9.133773450   6.418156613
B        1.742610599   8.915698501   2.384773844
B        4.945322895   5.573237114   7.613340342
B        8.580655006  10.531924606   7.405343774
B        4.168583518   6.835629839   6.045916693
B        6.469322428   2.451832892   3.269540642
B        5.222438285   3.420719908   2.489222252
B        4.582139172   8.077309794   1.655860553
H        7.632805633   4.539153128   5.356763134
H        3.427514519   8.506787574   2.092003879
H        1.864393537   7.700593300   7.190390806
H        7.460027813  10.255049595   6.845713675
H        1.582901227   3.592572298   3.276749450
H        6.205919287   3.267506701   4.250444221
H        8.839688069   7.974648380   3.908778508
H        4.363119797   7.566896457   7.009168069
H        6.165789969   5.513715970   7.404575618
H        7.961567978   1.274063967   7.526342952
H        4.708608332   7.229033029   5.000507643
H        6.761995369   3.263802712   7.637308570
H        8.345836123   4.722086573   5.476191510
H        1.981740192   8.614790850   4.790107145
H        5.491967895   9.210785763   8.688073848
H        1.484592730   4.197798397   2.878914326
H        3.008633362   6.435244377   5.864238655
H        2.077853646   9.029078766   3.856510518
H        6.282740414   1.252620400   3.381440487
H        3.420791864   2.962999846   1.372743993
H        4.848849985   5.765115014   6.046141399
H        2.925653501   2.492038866   1.736576889
H        4.939845196   1.113903908   1.870594282
H        6.660311399   3.926496461   7.312694541
H        3.700165627   9.223785788   6.287110737
H        7.612256775   2.759991486   3.046326930
H        6.576666962   2.448726280   4.591345442
H        4.906778986   6.172744229   8.664677520
H        4.116982371   3.811310803   3.035228810
H        5.456004343   4.390686238   5.019105780
H        4.283857504   4.536980451   7.513974423
H        4.732220744   1.103082128   1.143434409



     Writing output data file 00_K2BaAl2B7H32_Monster.save
     NEW-OLD atomic charge density approx. for the potential

     negative rho (up, down):  3.194E-04 0.000E+00
     extrapolated charge   70.89143, renormalised to   71.00000

     total cpu time spent up to now is    22049.2 secs

     Self-consistent Calculation

     iteration #  1     ecut=    50.00 Ry     beta=0.70
     Davidson diagonalization with overlap
     ethr =  1.00E-06,  avg # of iterations =  8.9

     negative rho (up, down):  2.820E-04 0.000E+00

     total cpu time spent up to now is    22101.5 secs

     total energy              =    -287.11861504 Ry
     Harris-Foulkes estimate   =    -287.27780865 Ry
     estimated scf accuracy    <       0.04621788 Ry

     iteration #  2     ecut=    50.00 Ry     beta=0.70
     Davidson diagonalization with overlap
     ethr =  6.51E-05,  avg # of iterations =  6.2

     negative rho (up, down):  1.601E-04 0.000E+00

     total cpu time spent up to now is    22133.1 secs

     total energy              =    -287.05403391 Ry
     Harris-Foulkes estimate   =    -287.26506555 Ry
     estimated scf accuracy    <       1.58617900 Ry

     iteration #  3     ecut=    50.00 Ry     beta=0.70
     Davidson diagonalization with overlap
     ethr =  6.51E-05,  avg # of iterations =  5.0

     negative rho (up, down):  1.508E-04 0.000E+00

     total cpu time spent up to now is    22162.9 secs

     total energy              =    -287.13383797 Ry
     Harris-Foulkes estimate   =    -287.14019557 Ry
     estimated scf accuracy    <       0.02963538 Ry

     iteration #  4     ecut=    50.00 Ry     beta=0.70
     Davidson diagonalization with overlap
     ethr =  4.17E-05,  avg # of iterations =  3.4

     negative rho (up, down):  1.644E-04 0.000E+00

     total cpu time spent up to now is    22186.6 secs

     total energy              =    -287.13081309 Ry
     Harris-Foulkes estimate   =    -287.14539750 Ry
     estimated scf accuracy    <       0.11266771 Ry

     iteration #  5     ecut=    50.00 Ry     beta=0.70
     Davidson diagonalization with overlap
     ethr =  4.17E-05,  avg # of iterations =  2.5

     negative rho (up, down):  1.632E-04 0.000E+00

     total cpu time spent up to now is    22209.8 secs

     total energy              =    -287.13799848 Ry
     Harris-Foulkes estimate   =    -287.13951342 Ry
     estimated scf accuracy    <       0.00624104 Ry

     iteration #  6     ecut=    50.00 Ry     beta=0.70
     Davidson diagonalization with overlap
     ethr =  8.79E-06,  avg # of iterations =  3.1

     negative rho (up, down):  1.741E-04 0.000E+00

     total cpu time spent up to now is    22233.7 secs

     total energy              =    -287.13880923 Ry
     Harris-Foulkes estimate   =    -287.13915858 Ry
     estimated scf accuracy    <       0.00132636 Ry

     iteration #  7     ecut=    50.00 Ry     beta=0.70
     Davidson diagonalization with overlap
     ethr =  1.87E-06,  avg # of iterations =  2.5

     negative rho (up, down):  1.807E-04 0.000E+00

     total cpu time spent up to now is    22256.9 secs

     total energy              =    -287.13899231 Ry
     Harris-Foulkes estimate   =    -287.13900599 Ry
     estimated scf accuracy    <       0.00009423 Ry

     iteration #  8     ecut=    50.00 Ry     beta=0.70
     Davidson diagonalization with overlap
     ethr =  1.33E-07,  avg # of iterations =  3.1

     negative rho (up, down):  1.852E-04 0.000E+00

     total cpu time spent up to now is    22282.4 secs

     total energy              =    -287.13900779 Ry
     Harris-Foulkes estimate   =    -287.13901122 Ry
     estimated scf accuracy    <       0.00001234 Ry

     iteration #  9     ecut=    50.00 Ry     beta=0.70
     Davidson diagonalization with overlap
     ethr =  1.74E-08,  avg # of iterations =  3.1

     negative rho (up, down):  1.869E-04 0.000E+00

     total cpu time spent up to now is    22307.3 secs

     total energy              =    -287.13901034 Ry
     Harris-Foulkes estimate   =    -287.13901088 Ry
     estimated scf accuracy    <       0.00000249 Ry

     iteration # 10     ecut=    50.00 Ry     beta=0.70
     Davidson diagonalization with overlap
     ethr =  3.51E-09,  avg # of iterations =  2.9

     negative rho (up, down):  1.875E-04 0.000E+00

     total cpu time spent up to now is    22332.0 secs

     End of self-consistent calculation

          k = 0.0000 0.0000 0.0000 ( 21247 PWs)   bands (ev):

   -29.8343 -15.0981 -15.0666 -14.9717 -12.0035 -11.4822  -8.8927  -8.7465
    -8.5828  -8.3424  -8.0627  -7.7007  -7.5276  -7.1442  -6.9100  -6.5796
    -6.1446  -5.9450  -5.7303  -5.3019  -4.9949  -4.9277  -4.6917  -4.6231
    -4.2033  -4.0982  -3.6115  -3.5515  -3.4365  -2.8219  -2.2351  -1.8802
    -1.2599  -0.7325  -0.1051   0.1475   0.3451   0.5194   0.6875   1.1623
     1.4721   1.5355   1.5888

          k = 0.0453 0.0291-0.4933 ( 21362 PWs)   bands (ev):

   -29.8343 -15.0981 -15.0667 -14.9720 -11.9979 -11.4857  -8.9750  -8.6517
    -8.5343  -8.4403  -8.0689  -7.7658  -7.5242  -6.9703  -6.8157  -6.6463
    -6.1914  -5.9890  -5.7140  -5.4152  -4.9861  -4.9092  -4.6969  -4.5592
    -4.2166  -4.0892  -3.6601  -3.4837  -3.3180  -2.7761  -2.2362  -1.9222
    -1.2569  -0.8461  -0.2070  -0.0946   0.2634   0.5151   0.6735   1.2622
     1.4462   1.4591   1.6862

          k = 0.0530-0.3655-0.4632 ( 21216 PWs)   bands (ev):

   -29.8343 -15.0981 -15.0667 -14.9720 -11.9964 -11.4868  -8.9643  -8.6841
    -8.4858  -8.4649  -8.0687  -7.8086  -7.4547  -7.0057  -6.8383  -6.6567
    -6.1727  -5.9638  -5.7412  -5.3696  -4.9845  -4.9039  -4.6847  -4.5429
    -4.1879  -4.0886  -3.6981  -3.5623  -3.3122  -2.8144  -2.1893  -1.9119
    -1.2634  -0.8514  -0.1898  -0.1307   0.2263   0.4895   0.8014   1.2508
     1.4127   1.5229   1.7723

          k =-0.4238-0.3558-0.4147 ( 21368 PWs)   bands (ev):

   -29.8343 -15.0988 -15.0669 -14.9721 -11.9951 -11.4795  -8.9782  -8.7558
    -8.4733  -8.3691  -8.0231  -7.8643  -7.5144  -6.9780  -6.8842  -6.5998
    -6.1474  -5.9589  -5.7757  -5.3774  -4.9914  -4.8733  -4.6958  -4.6213
    -4.1987  -4.0881  -3.7164  -3.4736  -3.2937  -2.7740  -2.2482  -1.7650
    -1.2081  -0.9831  -0.2309  -0.0814   0.2824   0.4150   0.8875   1.2274
     1.2774   1.4903   1.6002

          k =-0.4768 0.0097 0.0485 ( 21362 PWs)   bands (ev):

   -29.8343 -15.0988 -15.0668 -14.9719 -12.0019 -11.4753  -8.9122  -8.7195
    -8.5937  -8.4173  -7.9848  -7.6625  -7.5883  -7.0684  -6.9209  -6.6360
    -6.0960  -6.0028  -5.7717  -5.3211  -4.9940  -4.8923  -4.7081  -4.5807
    -4.1860  -4.1191  -3.6287  -3.5472  -3.4421  -2.7674  -2.2155  -1.8285
    -1.1954  -0.8342  -0.1269   0.0966   0.3206   0.6081   0.6879   1.1279
     1.3287   1.4107   1.7793

          k = 0.0077-0.3945 0.0301 ( 21362 PWs)   bands (ev):

   -29.8343 -15.0981 -15.0667 -14.9717 -12.0020 -11.4839  -8.9269  -8.6855
    -8.5820  -8.3520  -8.0672  -7.7723  -7.4936  -7.1280  -6.9102  -6.5899
    -6.1471  -5.9017  -5.7623  -5.2737  -4.9900  -4.9192  -4.6828  -4.6345
    -4.1400  -4.1062  -3.6708  -3.5696  -3.4759  -2.8576  -2.1861  -1.8715
    -1.2615  -0.7377  -0.0899   0.1862   0.3315   0.4561   0.7650   1.2258
     1.2873   1.5003   1.6459

          k =-0.5221-0.0194 0.5418 ( 21216 PWs)   bands (ev):

   -29.8343 -15.0988 -15.0668 -14.9722 -11.9962 -11.4784  -9.0238  -8.6547
    -8.5181  -8.3705  -8.0136  -7.8241  -7.6108  -6.9653  -6.8291  -6.6142
    -6.1658  -5.9516  -5.7805  -5.3578  -4.9922  -4.9032  -4.7023  -4.6390
    -4.1719  -4.0590  -3.6917  -3.5424  -3.3063  -2.7578  -2.2173  -1.7636
    -1.1795  -0.9845  -0.2010  -0.1133   0.2625   0.6214   0.6241   1.1895
     1.3249   1.3829   1.6399

          k =-0.4845 0.4042 0.0184 ( 21216 PWs)   bands (ev):

   -29.8343 -15.0988 -15.0668 -14.9719 -12.0003 -11.4765  -8.9131  -8.6451
    -8.6443  -8.4572  -7.9847  -7.6858  -7.5457  -7.0777  -6.9234  -6.6299
    -6.0955  -5.9625  -5.7911  -5.3344  -4.9951  -4.8940  -4.6976  -4.5777
    -4.2080  -4.1457  -3.6079  -3.5080  -3.4207  -2.7918  -2.2379  -1.8282
    -1.2218  -0.8336  -0.0531   0.0829   0.2653   0.5148   0.8379   1.1176
     1.2565   1.4666   1.7025

     the Fermi energy is     0.0451 ev

!    total energy              =    -287.13901044 Ry
     Harris-Foulkes estimate   =    -287.13901078 Ry
     estimated scf accuracy    <       0.00000045 Ry

     The total energy is the sum of the following terms:

     one-electron contribution =    -113.92750477 Ry
     hartree contribution      =      71.36993477 Ry
     xc contribution           =     -96.28696209 Ry
     ewald contribution        =     -42.31107603 Ry
     one-center paw contrib.   =    -105.98330234 Ry
     smearing contrib. (-TS)   =      -0.00009999 Ry

     convergence has been achieved in  10 iterations

     negative rho (up, down):  1.875E-04 0.000E+00

     Forces acting on atoms (cartesian axes, Ry/au):

     atom    1 type  1   force =     0.02018059   -0.00281807   -0.00481191
     atom    2 type  1   force =    -0.00305404    0.01193558    0.00477946
     atom    3 type  2   force =     0.01147608    0.01733455    0.00776868
     atom    4 type  3   force =    -0.00850728   -0.02927160    0.01467648
     atom    5 type  3   force =    -0.03997942   -0.00196023    0.01420381
     atom    6 type  4   force =    -0.01919422   -0.01664776    0.05404170
     atom    7 type  4   force =     0.02523467   -0.00176977   -0.01045532
     atom    8 type  4   force =    -0.01275951    0.03883536    0.03650735
     atom    9 type  4   force =    -0.00126682   -0.02763806   -0.00803444
     atom   10 type  4   force =    -0.00059578    0.00765069   -0.00154966
     atom   11 type  4   force =    -0.00424612   -0.01159639    0.01633243
     atom   12 type  4   force =    -0.00874187    0.02010107   -0.05642305
     atom   13 type  5   force =    -0.01559657    0.00074769    0.00078638
     atom   14 type  5   force =    -0.00038738   -0.00882699   -0.00717744
     atom   15 type  5   force =    -0.02133681    0.00671515    0.00379508
     atom   16 type  5   force =     0.02379706   -0.01178377    0.00450277
     atom   17 type  5   force =     0.00059549   -0.02162839    0.01430883
     atom   18 type  5   force =    -0.02319887   -0.01062555    0.01978836
     atom   19 type  5   force =     0.02256345    0.01261447   -0.01184098
     atom   20 type  5   force =    -0.00316453   -0.00365050   -0.01302065
     atom   21 type  5   force =    -0.00554906   -0.00882680   -0.00440424
     atom   22 type  5   force =     0.03077874   -0.05294743   -0.04199115
     atom   23 type  5   force =     0.00284463    0.01046598    0.00789313
     atom   24 type  5   force =     0.01143935   -0.02027578    0.00526933
     atom   25 type  5   force =     0.01843076    0.00614608    0.00143984
     atom   26 type  5   force =    -0.00860472    0.00166004   -0.00610503
     atom   27 type  5   force =    -0.00377613   -0.01840075    0.04849540
     atom   28 type  5   force =    -0.00902473    0.02501625   -0.02076720
     atom   29 type  5   force =     0.02159524    0.01902095    0.00107724
     atom   30 type  5   force =    -0.00990947   -0.00051092   -0.05484554
     atom   31 type  5   force =    -0.00477124    0.00593564   -0.00889880
     atom   32 type  5   force =    -0.00951450   -0.01059777    0.00425643
     atom   33 type  5   force =     0.00823278    0.00525172    0.03166091
     atom   34 type  5   force =     0.00145661    0.00489756   -0.01128923
     atom   35 type  5   force =    -0.00115388   -0.00973113   -0.01268978
     atom   36 type  5   force =    -0.00050610   -0.00728430   -0.00338217
     atom   37 type  5   force =    -0.02454815    0.04253448    0.01147836
     atom   38 type  5   force =     0.00517439   -0.00369891   -0.01630042
     atom   39 type  5   force =     0.00548331    0.00045146    0.00759306
     atom   40 type  5   force =    -0.02634237    0.01517888   -0.00732574
     atom   41 type  5   force =     0.03048563    0.00643945   -0.00134469
     atom   42 type  5   force =     0.00847423    0.01755249   -0.01143087
     atom   43 type  5   force =     0.01526799    0.01020168    0.00012435
     atom   44 type  5   force =     0.00221855   -0.00619638    0.00330894

     Total force =     0.207521     Total SCF correction =     0.000686


     Computing stress (Cartesian axis) and pressure


     negative rho (up, down):  1.875E-04 0.000E+00
          total   stress  (Ry/bohr**3)                   (kbar)     P=   -9.83
  -0.00015463  -0.00006271   0.00003429        -22.75     -9.23      5.04
  -0.00006271   0.00001341   0.00001008         -9.23      1.97      1.48
   0.00003429   0.00001008  -0.00005934          5.04      1.48     -8.73


     number of scf cycles    =  17
     number of bfgs steps    =  15

     enthalpy old            =    -287.0471859409 Ry
     enthalpy new            =    -287.1390104355 Ry

     CASE: enthalpy_new < enthalpy_old

     new trust radius        =       0.2413233720 bohr
     new conv_thr            =       0.0000005642 Ry

     new unit-cell volume =   4779.80731 a.u.^3 (   708.29436 Ang^3 )
     density =      0.88482 g/cm^3

CELL_PARAMETERS (angstrom)
   8.434379267   0.173678322   0.827047766
   0.231377193  10.320650657   0.640736474
   0.897611322   0.662122901   8.267135620

ATOMIC_POSITIONS (angstrom)
K        6.218764794   6.015726976   2.837267574
K        4.494427679   1.074582418   6.872514111
Ba       6.956383093   7.630755574   6.420332632
Al       3.717438589   4.247964120   4.970069584
Al       1.924329357   9.166467926   6.416441868
B        1.672817941   8.902297629   2.436496941
B        4.933851192   5.600268463   7.602000667
B        8.512021168  10.514116109   7.442593737
B        4.141740494   6.834029013   6.042125004
B        6.382699555   2.410508302   3.298859239
B        5.147815046   3.407633271   2.505479042
B        4.470714697   8.063615709   1.637705637
H        7.529293405   4.516605512   5.366700362
H        3.332047762   8.495844202   2.087377117
H        1.816663128   7.736191566   7.179920008
H        7.375696572  10.241495727   6.849191860
H        1.561067222   3.596035244   3.269098593
H        6.083249773   3.246317843   4.266870216
H        8.737178049   7.980284266   3.930959608
H        4.296392625   7.547404969   6.958312445
H        6.098155694   5.488890680   7.378285120
H        7.885261383   1.192740407   7.486913714
H        4.662011258   7.262865804   5.011832737
H        6.722283937   3.210994596   7.630369972
H        8.247386737   4.698693582   5.483494724
H        1.930258132   8.625661029   4.757712301
H        5.434868507   9.205565790   8.690886669
H        1.447099403   4.209968508   2.856217131
H        2.987227783   6.412633509   5.863224881
H        2.002896799   9.022128830   3.775420988
H        6.193105093   1.185515839   3.368821890
H        3.358155265   2.945418062   1.376325974
H        4.805513428   5.796254492   6.090256530
H        2.856119466   2.464469999   1.721689475
H        4.866999354   1.045828145   1.864227394
H        6.599731904   3.852808817   7.296088549
H        3.584419979   9.330306264   6.292118798
H        7.533912668   2.735287401   3.032410403
H        6.523951162   2.419111831   4.621239352
H        4.814251871   6.166589437   8.598711288
H        4.090087197   3.830528818   3.054826396
H        5.383382098   4.407168819   4.994347618
H        4.262437197   4.578030851   7.507840942
H        4.656280425   1.058079269   1.139610028



     Writing output data file 00_K2BaAl2B7H32_Monster.save
     NEW-OLD atomic charge density approx. for the potential

     negative rho (up, down):  2.448E-04 0.000E+00
     extrapolated charge   69.65204, renormalised to   71.00000

     total cpu time spent up to now is    23156.8 secs

     Self-consistent Calculation

     iteration #  1     ecut=    50.00 Ry     beta=0.70
     Davidson diagonalization with overlap
     ethr =  1.00E-06,  avg # of iterations = 13.6

     negative rho (up, down):  2.269E-04 0.000E+00

     total cpu time spent up to now is    23219.4 secs

     total energy              =    -287.12786302 Ry
     Harris-Foulkes estimate   =    -288.68488378 Ry
     estimated scf accuracy    <       0.10372549 Ry

     iteration #  2     ecut=    50.00 Ry     beta=0.70
     Davidson diagonalization with overlap
     ethr =  1.46E-04,  avg # of iterations =  5.8

     negative rho (up, down):  2.100E-04 0.000E+00

     total cpu time spent up to now is    23255.2 secs

     total energy              =    -287.10355285 Ry
     Harris-Foulkes estimate   =    -287.45309169 Ry
     estimated scf accuracy    <       1.83834443 Ry

     iteration #  3     ecut=    50.00 Ry     beta=0.70
     Davidson diagonalization with overlap
     ethr =  1.46E-04,  avg # of iterations =  5.0

     negative rho (up, down):  2.062E-04 0.000E+00

     total cpu time spent up to now is    23285.3 secs

     total energy              =    -287.20899514 Ry
     Harris-Foulkes estimate   =    -287.25346542 Ry
     estimated scf accuracy    <       0.14040041 Ry

     iteration #  4     ecut=    50.00 Ry     beta=0.70
     Davidson diagonalization with overlap
     ethr =  1.46E-04,  avg # of iterations =  2.1

     negative rho (up, down):  2.196E-04 0.000E+00

     total cpu time spent up to now is    23308.3 secs

     total energy              =    -287.21991485 Ry
     Harris-Foulkes estimate   =    -287.22857288 Ry
     estimated scf accuracy    <       0.09077055 Ry

     iteration #  5     ecut=    50.00 Ry     beta=0.70
     Davidson diagonalization with overlap
     ethr =  1.28E-04,  avg # of iterations =  1.0

     negative rho (up, down):  2.655E-04 0.000E+00

     total cpu time spent up to now is    23329.5 secs

     total energy              =    -287.22087549 Ry
     Harris-Foulkes estimate   =    -287.22574609 Ry
     estimated scf accuracy    <       0.02773621 Ry

     iteration #  6     ecut=    50.00 Ry     beta=0.70
     Davidson diagonalization with overlap
     ethr =  3.91E-05,  avg # of iterations =  2.1

     negative rho (up, down):  2.967E-04 0.000E+00

     total cpu time spent up to now is    23352.1 secs

     total energy              =    -287.22153683 Ry
     Harris-Foulkes estimate   =    -287.22296539 Ry
     estimated scf accuracy    <       0.00329995 Ry

     iteration #  7     ecut=    50.00 Ry     beta=0.70
     Davidson diagonalization with overlap
     ethr =  4.65E-06,  avg # of iterations =  7.9

     negative rho (up, down):  2.933E-04 0.000E+00

     total cpu time spent up to now is    23384.9 secs

     total energy              =    -287.22239607 Ry
     Harris-Foulkes estimate   =    -287.22258911 Ry
     estimated scf accuracy    <       0.00120545 Ry

     iteration #  8     ecut=    50.00 Ry     beta=0.70
     Davidson diagonalization with overlap
     ethr =  1.70E-06,  avg # of iterations =  2.2

     negative rho (up, down):  2.826E-04 0.000E+00

     total cpu time spent up to now is    23408.3 secs

     total energy              =    -287.22242854 Ry
     Harris-Foulkes estimate   =    -287.22253951 Ry
     estimated scf accuracy    <       0.00070316 Ry

     iteration #  9     ecut=    50.00 Ry     beta=0.70
     Davidson diagonalization with overlap
     ethr =  9.90E-07,  avg # of iterations =  2.0

     negative rho (up, down):  2.785E-04 0.000E+00

     total cpu time spent up to now is    23430.2 secs

     total energy              =    -287.22244974 Ry
     Harris-Foulkes estimate   =    -287.22247205 Ry
     estimated scf accuracy    <       0.00018484 Ry

     iteration # 10     ecut=    50.00 Ry     beta=0.70
     Davidson diagonalization with overlap
     ethr =  2.60E-07,  avg # of iterations =  1.9

     negative rho (up, down):  2.770E-04 0.000E+00

     total cpu time spent up to now is    23452.1 secs

     total energy              =    -287.22245680 Ry
     Harris-Foulkes estimate   =    -287.22246013 Ry
     estimated scf accuracy    <       0.00002773 Ry

     iteration # 11     ecut=    50.00 Ry     beta=0.70
     Davidson diagonalization with overlap
     ethr =  3.91E-08,  avg # of iterations =  3.6

     negative rho (up, down):  2.780E-04 0.000E+00

     total cpu time spent up to now is    23476.8 secs

     total energy              =    -287.22246029 Ry
     Harris-Foulkes estimate   =    -287.22246070 Ry
     estimated scf accuracy    <       0.00000130 Ry

     iteration # 12     ecut=    50.00 Ry     beta=0.70
     Davidson diagonalization with overlap
     ethr =  1.83E-09,  avg # of iterations =  3.1

     negative rho (up, down):  2.778E-04 0.000E+00

     total cpu time spent up to now is    23502.7 secs

     End of self-consistent calculation

          k = 0.0000 0.0000 0.0000 ( 21247 PWs)   bands (ev):

   -29.7242 -15.0147 -14.9575 -14.8775 -11.7993 -11.5062  -8.9128  -8.7971
    -8.5478  -8.3755  -8.0034  -7.7783  -7.5174  -7.1094  -6.8440  -6.5572
    -6.0751  -5.9113  -5.6475  -5.3655  -4.9806  -4.7906  -4.6939  -4.5582
    -4.1114  -4.0370  -3.6509  -3.5718  -3.4790  -2.8693  -2.3624  -1.9117
    -1.2658  -0.7137  -0.0825   0.1757   0.3976   0.5717   0.7597   1.2506
     1.5634   1.6125   1.6774

          k = 0.0481 0.0297-0.4964 ( 21362 PWs)   bands (ev):

   -29.7242 -15.0146 -14.9576 -14.8779 -11.7867 -11.5170  -8.9609  -8.7524
    -8.5355  -8.4350  -8.0112  -7.7911  -7.5289  -6.9012  -6.7848  -6.6514
    -6.1389  -5.9442  -5.6784  -5.4167  -4.9590  -4.7717  -4.6304  -4.5529
    -4.1338  -4.0691  -3.6483  -3.5480  -3.3394  -2.8437  -2.3640  -1.9200
    -1.2620  -0.8405  -0.1934  -0.0842   0.3033   0.5929   0.7617   1.3395
     1.5036   1.5684   1.8112

          k = 0.0531-0.3639-0.4655 ( 21216 PWs)   bands (ev):

   -29.7242 -15.0147 -14.9576 -14.8779 -11.7836 -11.5196  -8.9437  -8.7869
    -8.4842  -8.4664  -8.0131  -7.8208  -7.4740  -6.9459  -6.8057  -6.6535
    -6.1179  -5.9257  -5.6945  -5.3622  -4.9597  -4.7645  -4.6129  -4.5392
    -4.1334  -4.0917  -3.7035  -3.5734  -3.3351  -2.8691  -2.3223  -1.9121
    -1.2700  -0.8439  -0.1707  -0.1255   0.2712   0.5901   0.8583   1.3192
     1.4664   1.6395   1.8638

          k =-0.4313-0.3562-0.4135 ( 21368 PWs)   bands (ev):

   -29.7242 -15.0156 -14.9579 -14.8779 -11.7809 -11.5125  -8.9588  -8.8372
    -8.4810  -8.3852  -7.9798  -7.8715  -7.5077  -6.9167  -6.8726  -6.5790
    -6.1138  -5.9128  -5.7302  -5.3822  -4.9668  -4.7295  -4.6941  -4.5430
    -4.1246  -4.0852  -3.7052  -3.5355  -3.3238  -2.8151  -2.3734  -1.7861
    -1.2113  -0.9550  -0.2035  -0.0484   0.3222   0.5070   0.9362   1.3093
     1.3604   1.5400   1.7169

          k =-0.4844 0.0076 0.0520 ( 21362 PWs)   bands (ev):

   -29.7242 -15.0156 -14.9578 -14.8777 -11.7956 -11.4998  -8.9129  -8.7718
    -8.6057  -8.4308  -7.9345  -7.7314  -7.5607  -7.0099  -6.8650  -6.6351
    -6.0265  -5.9915  -5.6972  -5.3426  -4.9812  -4.7563  -4.6640  -4.5350
    -4.1461  -4.0784  -3.6418  -3.5923  -3.4714  -2.7857  -2.3485  -1.8747
    -1.2005  -0.7709  -0.0976   0.0828   0.3740   0.6734   0.7746   1.1878
     1.4162   1.4625   1.9004

          k = 0.0051-0.3936 0.0310 ( 21362 PWs)   bands (ev):

   -29.7242 -15.0147 -14.9576 -14.8775 -11.7959 -11.5097  -8.9441  -8.7521
    -8.5398  -8.3804  -8.0066  -7.8222  -7.5176  -7.0763  -6.8545  -6.5704
    -6.0781  -5.8813  -5.6743  -5.3125  -4.9782  -4.7795  -4.6982  -4.5463
    -4.0953  -4.0578  -3.7241  -3.5529  -3.5055  -2.8928  -2.3193  -1.9067
    -1.2692  -0.7217  -0.0556   0.2014   0.3857   0.5225   0.8292   1.2856
     1.3816   1.6004   1.7303

          k =-0.5325-0.0221 0.5484 ( 21216 PWs)   bands (ev):

   -29.7242 -15.0156 -14.9578 -14.8780 -11.7834 -11.5100  -9.0156  -8.7540
    -8.4899  -8.3925  -7.9604  -7.8623  -7.5726  -6.9216  -6.8186  -6.5987
    -6.1214  -5.8966  -5.7421  -5.3561  -4.9643  -4.8016  -4.6572  -4.5526
    -4.1257  -4.0647  -3.6858  -3.5851  -3.3295  -2.7932  -2.3521  -1.7870
    -1.1817  -0.9582  -0.1595  -0.1002   0.3038   0.6707   0.7246   1.2660
     1.4331   1.4559   1.7491

          k =-0.4895 0.4012 0.0210 ( 21216 PWs)   bands (ev):

   -29.7242 -15.0157 -14.9578 -14.8777 -11.7925 -11.5027  -8.9176  -8.7323
    -8.6057  -8.4846  -7.9300  -7.7321  -7.5501  -7.0219  -6.8566  -6.6175
    -6.0257  -5.9607  -5.7234  -5.3681  -4.9803  -4.7518  -4.6719  -4.5282
    -4.1485  -4.0747  -3.6004  -3.5892  -3.4677  -2.8110  -2.3638  -1.8738
    -1.2251  -0.7720  -0.0393   0.0902   0.3207   0.5979   0.8976   1.1874
     1.3082   1.5297   1.8171

     the Fermi energy is     0.0635 ev

!    total energy              =    -287.22246043 Ry
     Harris-Foulkes estimate   =    -287.22246067 Ry
     estimated scf accuracy    <       0.00000030 Ry

     The total energy is the sum of the following terms:

     one-electron contribution =    -112.97068535 Ry
     hartree contribution      =      71.09823113 Ry
     xc contribution           =     -96.51536898 Ry
     ewald contribution        =     -42.85058627 Ry
     one-center paw contrib.   =    -105.98366869 Ry
     smearing contrib. (-TS)   =      -0.00038226 Ry

     convergence has been achieved in  12 iterations

     negative rho (up, down):  2.778E-04 0.000E+00

     Forces acting on atoms (cartesian axes, Ry/au):

     atom    1 type  1   force =     0.01767593    0.00204180   -0.00540878
     atom    2 type  1   force =    -0.00345667    0.00876850    0.00483991
     atom    3 type  2   force =     0.01403868    0.01785649    0.00905414
     atom    4 type  3   force =    -0.01583779   -0.02763424    0.01463355
     atom    5 type  3   force =    -0.01335491   -0.00617972   -0.00066571
     atom    6 type  4   force =    -0.03087718   -0.02462387    0.04334065
     atom    7 type  4   force =    -0.00803378   -0.03328718   -0.04787713
     atom    8 type  4   force =    -0.04601136    0.02315775    0.01442434
     atom    9 type  4   force =    -0.02267073   -0.03157865   -0.03298045
     atom   10 type  4   force =     0.00916165    0.00094790   -0.00350984
     atom   11 type  4   force =     0.01002675   -0.02167512    0.01420001
     atom   12 type  4   force =    -0.00104786    0.01042347   -0.03753122
     atom   13 type  5   force =    -0.00945141    0.00268895    0.00146186
     atom   14 type  5   force =    -0.00544481   -0.00940877   -0.00471311
     atom   15 type  5   force =    -0.02441515    0.00002546    0.00516769
     atom   16 type  5   force =     0.03235564   -0.01207871    0.01001061
     atom   17 type  5   force =    -0.00205288   -0.00051896    0.00115532
     atom   18 type  5   force =    -0.01950914   -0.01717451    0.01316241
     atom   19 type  5   force =     0.03171472    0.01755847   -0.02139973
     atom   20 type  5   force =    -0.00204491    0.02854608    0.02134568
     atom   21 type  5   force =     0.03000946   -0.00896294   -0.00471199
     atom   22 type  5   force =     0.03214481   -0.02881092   -0.02363865
     atom   23 type  5   force =     0.00648801    0.00660522    0.00184433
     atom   24 type  5   force =     0.01285878   -0.03132950    0.01246909
     atom   25 type  5   force =     0.01243030    0.00464184    0.00067166
     atom   26 type  5   force =    -0.01377321    0.00060112    0.01516416
     atom   27 type  5   force =    -0.00570923   -0.00965373    0.02806130
     atom   28 type  5   force =    -0.00512491    0.00458044   -0.00720597
     atom   29 type  5   force =     0.02035977    0.01687675   -0.00098507
     atom   30 type  5   force =    -0.00128438    0.00979663   -0.04635149
     atom   31 type  5   force =    -0.00315773    0.02476860   -0.00729219
     atom   32 type  5   force =    -0.00925412   -0.01169578    0.00568865
     atom   33 type  5   force =     0.01912405   -0.01015708    0.02503043
     atom   34 type  5   force =     0.00359932    0.00657352   -0.01061148
     atom   35 type  5   force =    -0.00063379   -0.00894132   -0.01104532
     atom   36 type  5   force =    -0.00423724    0.00766752   -0.01055469
     atom   37 type  5   force =    -0.01824477    0.03553342    0.01233816
     atom   38 type  5   force =    -0.01014304   -0.00774722   -0.00846517
     atom   39 type  5   force =     0.00242379    0.00406124    0.00301140
     atom   40 type  5   force =    -0.02319908    0.04432835    0.03557038
     atom   41 type  5   force =     0.01343602    0.01087278    0.00180202
     atom   42 type  5   force =     0.01704654    0.01653145   -0.01057492
     atom   43 type  5   force =     0.01253485    0.00248526   -0.00079095
     atom   44 type  5   force =     0.00154104   -0.00648079    0.00186612

     Total force =     0.205520     Total SCF correction =     0.000597


     Computing stress (Cartesian axis) and pressure


     negative rho (up, down):  2.778E-04 0.000E+00
          total   stress  (Ry/bohr**3)                   (kbar)     P=   -4.24
  -0.00011741  -0.00007085   0.00002907        -17.27    -10.42      4.28
  -0.00007085   0.00003418   0.00003440        -10.42      5.03      5.06
   0.00002907   0.00003440  -0.00000321          4.28      5.06     -0.47


     number of scf cycles    =  18
     number of bfgs steps    =  16

     enthalpy old            =    -287.1390104355 Ry
     enthalpy new            =    -287.2224604293 Ry

     CASE: enthalpy_new < enthalpy_old

     new trust radius        =       0.2680752097 bohr
     new conv_thr            =       0.0000004788 Ry

     new unit-cell volume =   4693.42485 a.u.^3 (   695.49380 Ang^3 )
     density =      0.90111 g/cm^3

CELL_PARAMETERS (angstrom)
   8.298255022   0.109575532   0.861939166
   0.182041064  10.361578678   0.658336615
   0.947373282   0.685619132   8.230562765

ATOMIC_POSITIONS (angstrom)
K        6.137932951   5.985469596   2.843212219
K        4.475704415   1.107152200   6.883522186
Ba       6.889070992   7.684411454   6.465672203
Al       3.674338372   4.180561813   4.990094111
Al       1.825950724   9.215671778   6.422381005
B        1.587771783   8.889165816   2.499551269
B        4.908761965   5.616348719   7.580759074
B        8.421181950  10.525064501   7.500244146
B        4.106039704   6.846704964   6.036221127
B        6.293115366   2.361756869   3.332931536
B        5.073631692   3.382029996   2.536591554
B        4.350054510   8.061677148   1.625629140
H        7.424494182   4.498731751   5.390981675
H        3.224390282   8.490217049   2.088763145
H        1.763447929   7.788962984   7.182112539
H        7.294469488  10.238342307   6.874258498
H        1.538957995   3.608517368   3.267369831
H        5.955833522   3.219149234   4.289959194
H        8.638839445   8.006561192   3.966394636
H        4.227501585   7.575303109   6.936611791
H        6.052365075   5.469252590   7.367184910
H        7.816856047   1.107119397   7.456403708
H        4.614414618   7.307082309   5.035881946
H        6.690568323   3.150694668   7.640868993
H        8.144343242   4.679088737   5.504056293
H        1.873340212   8.655237774   4.745962905
H        5.374850666   9.216555457   8.712508107
H        1.406676857   4.232229568   2.837188711
H        2.962790109   6.399564302   5.871558324
H        1.924156035   9.038375347   3.696264406
H        6.103065246   1.131344518   3.365921714
H        3.288966956   2.927052590   1.385861696
H        4.770550932   5.826705684   6.149062332
H        2.782085720   2.439812457   1.708511537
H        4.789025496   0.965815931   1.859272620
H        6.543871031   3.788102552   7.290896556
H        3.462820884   9.470973192   6.314809573
H        7.442985946   2.704306399   3.031267724
H        6.473251616   2.392438026   4.665158067
H        4.720836996   6.210934736   8.570870663
H        4.055936668   3.863794511   3.079853330
H        5.314929626   4.431581157   4.975385734
H        4.241062276   4.625612402   7.512156236
H        4.573779005   1.004519249   1.135701304



     Writing output data file 00_K2BaAl2B7H32_Monster.save
     NEW-OLD atomic charge density approx. for the potential

     negative rho (up, down):  4.199E-04 0.000E+00
     extrapolated charge   69.69434, renormalised to   71.00000

     total cpu time spent up to now is    24327.5 secs

     Self-consistent Calculation

     iteration #  1     ecut=    50.00 Ry     beta=0.70
     Davidson diagonalization with overlap
     ethr =  1.00E-06,  avg # of iterations = 12.8

     negative rho (up, down):  2.486E-04 0.000E+00

     total cpu time spent up to now is    24388.3 secs

     total energy              =    -287.21997008 Ry
     Harris-Foulkes estimate   =    -288.68375547 Ry
     estimated scf accuracy    <       0.08917653 Ry

     iteration #  2     ecut=    50.00 Ry     beta=0.70
     Davidson diagonalization with overlap
     ethr =  1.26E-04,  avg # of iterations =  5.8

     negative rho (up, down):  1.954E-04 0.000E+00

     total cpu time spent up to now is    24423.5 secs

     total energy              =    -287.16992630 Ry
     Harris-Foulkes estimate   =    -287.43247273 Ry
     estimated scf accuracy    <       1.49871076 Ry

     iteration #  3     ecut=    50.00 Ry     beta=0.70
     Davidson diagonalization with overlap
     ethr =  1.26E-04,  avg # of iterations =  4.5

     negative rho (up, down):  1.825E-04 0.000E+00

     total cpu time spent up to now is    24451.1 secs

     total energy              =    -287.28235261 Ry
     Harris-Foulkes estimate   =    -287.33301032 Ry
     estimated scf accuracy    <       0.15445809 Ry

     iteration #  4     ecut=    50.00 Ry     beta=0.70
     Davidson diagonalization with overlap
     ethr =  1.26E-04,  avg # of iterations =  2.6

     negative rho (up, down):  1.896E-04 0.000E+00

     total cpu time spent up to now is    24474.9 secs

     total energy              =    -287.29094467 Ry
     Harris-Foulkes estimate   =    -287.29984744 Ry
     estimated scf accuracy    <       0.03925496 Ry

     iteration #  5     ecut=    50.00 Ry     beta=0.70
     Davidson diagonalization with overlap
     ethr =  5.53E-05,  avg # of iterations =  2.0

     negative rho (up, down):  2.826E-04 0.000E+00

     total cpu time spent up to now is    24497.8 secs

     total energy              =    -287.29376048 Ry
     Harris-Foulkes estimate   =    -287.29768026 Ry
     estimated scf accuracy    <       0.01626635 Ry

     iteration #  6     ecut=    50.00 Ry     beta=0.70
     Davidson diagonalization with overlap
     ethr =  2.29E-05,  avg # of iterations =  3.5

     negative rho (up, down):  3.255E-04 0.000E+00

     total cpu time spent up to now is    24521.6 secs

     total energy              =    -287.29464907 Ry
     Harris-Foulkes estimate   =    -287.29580433 Ry
     estimated scf accuracy    <       0.00419121 Ry

     iteration #  7     ecut=    50.00 Ry     beta=0.70
     Davidson diagonalization with overlap
     ethr =  5.90E-06,  avg # of iterations =  4.0

     negative rho (up, down):  3.512E-04 0.000E+00

     total cpu time spent up to now is    24547.0 secs

     total energy              =    -287.29493375 Ry
     Harris-Foulkes estimate   =    -287.29548238 Ry
     estimated scf accuracy    <       0.00347672 Ry

     iteration #  8     ecut=    50.00 Ry     beta=0.70
     Davidson diagonalization with overlap
     ethr =  4.90E-06,  avg # of iterations =  2.0

     negative rho (up, down):  3.351E-04 0.000E+00

     total cpu time spent up to now is    24569.1 secs

     total energy              =    -287.29522338 Ry
     Harris-Foulkes estimate   =    -287.29533063 Ry
     estimated scf accuracy    <       0.00046787 Ry

     iteration #  9     ecut=    50.00 Ry     beta=0.70
     Davidson diagonalization with overlap
     ethr =  6.59E-07,  avg # of iterations =  2.2

     negative rho (up, down):  3.240E-04 0.000E+00

     total cpu time spent up to now is    24591.7 secs

     total energy              =    -287.29525932 Ry
     Harris-Foulkes estimate   =    -287.29527144 Ry
     estimated scf accuracy    <       0.00005694 Ry

     iteration # 10     ecut=    50.00 Ry     beta=0.70
     Davidson diagonalization with overlap
     ethr =  8.02E-08,  avg # of iterations =  2.2

     negative rho (up, down):  3.133E-04 0.000E+00

     total cpu time spent up to now is    24614.8 secs

     total energy              =    -287.29525826 Ry
     Harris-Foulkes estimate   =    -287.29526409 Ry
     estimated scf accuracy    <       0.00001322 Ry

     iteration # 11     ecut=    50.00 Ry     beta=0.70
     Davidson diagonalization with overlap
     ethr =  1.86E-08,  avg # of iterations =  2.9

     negative rho (up, down):  3.140E-04 0.000E+00

     total cpu time spent up to now is    24640.2 secs

     total energy              =    -287.29526110 Ry
     Harris-Foulkes estimate   =    -287.29526175 Ry
     estimated scf accuracy    <       0.00000274 Ry

     iteration # 12     ecut=    50.00 Ry     beta=0.70
     Davidson diagonalization with overlap
     ethr =  3.86E-09,  avg # of iterations =  2.0

     negative rho (up, down):  3.141E-04 0.000E+00

     total cpu time spent up to now is    24663.1 secs

     total energy              =    -287.29526143 Ry
     Harris-Foulkes estimate   =    -287.29526159 Ry
     estimated scf accuracy    <       0.00000115 Ry

     iteration # 13     ecut=    50.00 Ry     beta=0.70
     Davidson diagonalization with overlap
     ethr =  1.62E-09,  avg # of iterations =  1.0

     negative rho (up, down):  3.139E-04 0.000E+00

     total cpu time spent up to now is    24684.4 secs

     End of self-consistent calculation

          k = 0.0000 0.0000 0.0000 ( 21247 PWs)   bands (ev):

   -29.6022 -14.9155 -14.8361 -14.7692 -11.6836 -11.4325  -9.0599  -8.7169
    -8.5221  -8.4170  -7.9923  -7.8944  -7.5023  -6.9885  -6.7419  -6.4567
    -6.0238  -5.8780  -5.5876  -5.4130  -4.9118  -4.7843  -4.6764  -4.4695
    -4.0779  -3.9915  -3.6881  -3.5780  -3.5264  -2.8265  -2.4290  -1.9074
    -1.3063  -0.7067  -0.0461   0.2295   0.4466   0.6236   0.8339   1.3260
     1.6306   1.6721   1.7971

          k = 0.0515 0.0308-0.4995 ( 21362 PWs)   bands (ev):

   -29.6022 -14.9155 -14.8361 -14.7696 -11.6658 -11.4487  -9.0309  -8.7717
    -8.5835  -8.3960  -7.9436  -7.9301  -7.5043  -6.7864  -6.7048  -6.5579
    -6.0931  -5.8985  -5.6583  -5.4203  -4.8684  -4.7378  -4.6535  -4.4694
    -4.0975  -4.0340  -3.6340  -3.5562  -3.4404  -2.8408  -2.4225  -1.8637
    -1.3021  -0.8382  -0.1606  -0.0638   0.3566   0.6765   0.8501   1.3769
     1.5334   1.6918   1.9207

          k = 0.0533-0.3613-0.4670 ( 21216 PWs)   bands (ev):

   -29.6022 -14.9155 -14.8362 -14.7696 -11.6615 -11.4526  -9.0213  -8.8003
    -8.5492  -8.4071  -7.9569  -7.9361  -7.4713  -6.8205  -6.7448  -6.5420
    -6.0784  -5.8842  -5.6580  -5.3652  -4.8696  -4.7197  -4.6483  -4.4594
    -4.1479  -4.0497  -3.6502  -3.5567  -3.4599  -2.8592  -2.3816  -1.8582
    -1.3116  -0.8396  -0.1376  -0.1039   0.3258   0.6954   0.9183   1.3722
     1.4948   1.7539   1.9328

          k =-0.4396-0.3562-0.4107 ( 21368 PWs)   bands (ev):

   -29.6022 -14.9167 -14.8366 -14.7696 -11.6548 -11.4479  -9.0506  -8.8206
    -8.5099  -8.3864  -8.0297  -7.8768  -7.4794  -6.8554  -6.7350  -6.4786
    -6.1053  -5.8687  -5.6971  -5.3821  -4.8825  -4.7729  -4.6265  -4.4590
    -4.1092  -4.0616  -3.6765  -3.5710  -3.4179  -2.7785  -2.4202  -1.7651
    -1.2505  -0.9374  -0.1562   0.0097   0.3722   0.5998   0.9822   1.3849
     1.4360   1.5857   1.8116

          k =-0.4929 0.0051 0.0563 ( 21362 PWs)   bands (ev):

   -29.6022 -14.9167 -14.8365 -14.7694 -11.6759 -11.4285  -9.0331  -8.7354
    -8.5824  -8.4669  -7.9454  -7.8281  -7.5243  -6.8473  -6.7836  -6.5621
    -5.9928  -5.9627  -5.6427  -5.3465  -4.9102  -4.7357  -4.6409  -4.4681
    -4.1700  -4.0197  -3.6378  -3.6034  -3.5449  -2.7358  -2.4094  -1.8783
    -1.2390  -0.7097  -0.0562   0.0844   0.4296   0.7376   0.8654   1.2317
     1.4928   1.5104   1.9903

          k = 0.0018-0.3921 0.0325 ( 21362 PWs)   bands (ev):

   -29.6022 -14.9156 -14.8361 -14.7692 -11.6789 -11.4374  -9.0678  -8.7021
    -8.4947  -8.4380  -7.9933  -7.9169  -7.5183  -6.9578  -6.7590  -6.4635
    -6.0254  -5.8661  -5.6052  -5.3477  -4.9088  -4.7723  -4.6752  -4.4599
    -4.1274  -4.0033  -3.6869  -3.6203  -3.5180  -2.8456  -2.3869  -1.9070
    -1.3107  -0.7155  -0.0125   0.2463   0.4344   0.5943   0.8925   1.3238
     1.4822   1.6792   1.8323

          k =-0.5444-0.0257 0.5558 ( 21216 PWs)   bands (ev):

   -29.6021 -14.9167 -14.8366 -14.7696 -11.6586 -11.4441  -9.0750  -8.7925
    -8.4774  -8.4111  -8.0134  -7.8846  -7.5114  -6.8665  -6.7045  -6.4881
    -6.0971  -5.8609  -5.7153  -5.3480  -4.8775  -4.8171  -4.6085  -4.4798
    -4.1196  -4.0589  -3.6429  -3.5839  -3.4430  -2.7651  -2.4000  -1.7684
    -1.2188  -0.9404  -0.1067  -0.0511   0.3555   0.7149   0.8244   1.3210
     1.5155   1.5482   1.8411

          k =-0.4947 0.3972 0.0239 ( 21216 PWs)   bands (ev):

   -29.6022 -14.9168 -14.8365 -14.7694 -11.6716 -11.4326  -9.0345  -8.6900
    -8.5670  -8.5446  -7.9241  -7.8448  -7.5195  -6.8675  -6.7580  -6.5407
    -5.9701  -5.9601  -5.6753  -5.3785  -4.9068  -4.7444  -4.6372  -4.4525
    -4.1470  -4.0141  -3.6612  -3.5744  -3.5382  -2.7514  -2.4233  -1.8772
    -1.2636  -0.7123  -0.0196   0.1191   0.3783   0.6862   0.9563   1.2482
     1.3485   1.5851   1.9091

     the Fermi energy is     0.0991 ev

!    total energy              =    -287.29526151 Ry
     Harris-Foulkes estimate   =    -287.29526152 Ry
     estimated scf accuracy    <       0.00000002 Ry

     The total energy is the sum of the following terms:

     one-electron contribution =    -111.43769644 Ry
     hartree contribution      =      70.54159596 Ry
     xc contribution           =     -96.72006573 Ry
     ewald contribution        =     -43.69458356 Ry
     one-center paw contrib.   =    -105.98405074 Ry
     smearing contrib. (-TS)   =      -0.00046099 Ry

     convergence has been achieved in  13 iterations

     negative rho (up, down):  3.139E-04 0.000E+00

     Forces acting on atoms (cartesian axes, Ry/au):

     atom    1 type  1   force =     0.01439161    0.00572191   -0.00628353
     atom    2 type  1   force =    -0.00381820    0.00557670    0.00472431
     atom    3 type  2   force =     0.01479268    0.01664495    0.01174497
     atom    4 type  3   force =    -0.01711440   -0.02583376    0.01219999
     atom    5 type  3   force =     0.02053846   -0.01382677   -0.01351517
     atom    6 type  4   force =    -0.05123395   -0.03859390    0.00905099
     atom    7 type  4   force =    -0.01770931   -0.00736257   -0.02429527
     atom    8 type  4   force =    -0.06557678   -0.00705026   -0.01416133
     atom    9 type  4   force =    -0.03300063   -0.02204896   -0.01974013
     atom   10 type  4   force =     0.01488234    0.00576296    0.00251910
     atom   11 type  4   force =     0.01647213   -0.02599716    0.01278328
     atom   12 type  4   force =     0.00427601   -0.00571065   -0.00612689
     atom   13 type  5   force =    -0.00782817    0.00342204    0.00127920
     atom   14 type  5   force =    -0.01156658   -0.00982927   -0.00115093
     atom   15 type  5   force =    -0.02675580   -0.00546461    0.00674890
     atom   16 type  5   force =     0.03073304   -0.01090810    0.01220714
     atom   17 type  5   force =    -0.00572562    0.02062196   -0.01278864
     atom   18 type  5   force =    -0.01518475   -0.02195654    0.00522016
     atom   19 type  5   force =     0.04135472    0.02220975   -0.03453234
     atom   20 type  5   force =    -0.00587791    0.03549138    0.02456627
     atom   21 type  5   force =     0.04619812   -0.00915847   -0.00212529
     atom   22 type  5   force =     0.02160892    0.01373978    0.00492542
     atom   23 type  5   force =     0.01280782    0.00344625   -0.01122914
     atom   24 type  5   force =     0.01015015   -0.01978820    0.00778464
     atom   25 type  5   force =     0.01091578    0.00430248    0.00065735
     atom   26 type  5   force =    -0.02002823   -0.00154696    0.03421650
     atom   27 type  5   force =    -0.00588936    0.00513128   -0.00629645
     atom   28 type  5   force =    -0.00003728   -0.01604836    0.00714419
     atom   29 type  5   force =     0.01694054    0.01437787   -0.00409529
     atom   30 type  5   force =     0.01755411    0.02628286   -0.01126249
     atom   31 type  5   force =    -0.00369883    0.02909942   -0.00501910
     atom   32 type  5   force =    -0.00599418   -0.00996280    0.00487226
     atom   33 type  5   force =     0.02389751   -0.01625009    0.01633500
     atom   34 type  5   force =     0.00210793    0.00487110   -0.00801330
     atom   35 type  5   force =    -0.00122936   -0.00796499   -0.01247301
     atom   36 type  5   force =    -0.00371135   -0.00062769   -0.00545886
     atom   37 type  5   force =    -0.01107376    0.02752583    0.01242876
     atom   38 type  5   force =    -0.01759678   -0.00963950   -0.00335586
     atom   39 type  5   force =    -0.00140909    0.00515164   -0.00390303
     atom   40 type  5   force =    -0.01310483    0.03469660    0.01911983
     atom   41 type  5   force =     0.00340958    0.01224949    0.00219017
     atom   42 type  5   force =     0.02020120    0.01495337   -0.00915095
     atom   43 type  5   force =    -0.00011452   -0.01924072   -0.00203181
     atom   44 type  5   force =     0.00204702   -0.00646927    0.00429038

     Total force =     0.198888     Total SCF correction =     0.000145


     Computing stress (Cartesian axis) and pressure


     negative rho (up, down):  3.139E-04 0.000E+00
          total   stress  (Ry/bohr**3)                   (kbar)     P=    0.95
  -0.00007692  -0.00007535   0.00002894        -11.32    -11.08      4.26
  -0.00007535   0.00005453   0.00003894        -11.08      8.02      5.73
   0.00002894   0.00003894   0.00004182          4.26      5.73      6.15


     number of scf cycles    =  19
     number of bfgs steps    =  17

     enthalpy old            =    -287.2224604293 Ry
     enthalpy new            =    -287.2952615059 Ry

     CASE: enthalpy_new < enthalpy_old

     new trust radius        =       0.4072354368 bohr
     new conv_thr            =       0.0000006558 Ry

     new unit-cell volume =   4576.25736 a.u.^3 (   678.13137 Ang^3 )
     density =      0.92418 g/cm^3

CELL_PARAMETERS (angstrom)
   8.099319612   0.004902960   0.918089434
   0.101711659  10.432087539   0.688025910
   1.027965269   0.726621866   8.189556972

ATOMIC_POSITIONS (angstrom)
K        6.017453472   5.946958230   2.860909423
K        4.451462367   1.152685081   6.912290026
Ba       6.794945925   7.776807185   6.555171678
Al       3.607264090   4.072398889   5.026469582
Al       1.706327176   9.284113982   6.434461574
B        1.432812898   8.844065658   2.573890544
B        4.874634147   5.672822821   7.578535791
B        8.248653872  10.538875556   7.585540498
B        4.042240625   6.877399317   6.039424653
B        6.164952652   2.299163638   3.391203638
B        4.972387413   3.323553853   2.598021225
B        4.173655011   8.055489454   1.620899739
H        7.271466458   4.472377584   5.438848572
H        3.056939462   8.480689364   2.096073017
H        1.680643769   7.873035729   7.196654744
H        7.178620564  10.232122047   6.932461761
H        1.503065839   3.641046091   3.267969574
H        5.772869217   3.163664911   4.327186528
H        8.502065914   8.056496517   4.019592455
H        4.123453734   7.647820754   6.928062002
H        6.004162123   5.436046976   7.371336810
H        7.730086111   1.002365927   7.437292786
H        4.544618544   7.370931661   5.075917165
H        6.649106553   3.064578619   7.670770320
H        7.996405571   4.650880805   5.548683083
H        1.783752084   8.710790615   4.757801311
H        5.282305489   9.248504875   8.750241437
H        1.350214353   4.262690523   2.817299707
H        2.927597338   6.393966148   5.892490757
H        1.823830084   9.102277270   3.610677600
H        5.973484896   1.067650714   3.372329363
H        3.186105066   2.895795768   1.405540813
H        4.729994516   5.861501282   6.247456700
H        2.675441281   2.406252086   1.691569150
H        4.674206021   0.839503455   1.850912119
H        6.466762887   3.685052748   7.301030465
H        3.289069223   9.695857103   6.365418493
H        7.300012702   2.644789279   3.040408443
H        6.397153114   2.350019107   4.735182319
H        4.587179352   6.290083159   8.540131976
H        4.001769179   3.918712345   3.120987911
H        5.222516242   4.473074907   4.959301881
H        4.203417160   4.668353938   7.524415654
H        4.455084466   0.918575529   1.136941979



     Writing output data file 00_K2BaAl2B7H32_Monster.save
     NEW-OLD atomic charge density approx. for the potential

     negative rho (up, down):  5.396E-04 0.000E+00
     extrapolated charge   69.18369, renormalised to   71.00000

     total cpu time spent up to now is    25509.3 secs

     Self-consistent Calculation

     iteration #  1     ecut=    50.00 Ry     beta=0.70
     Davidson diagonalization with overlap
     c_bands:  1 eigenvalues not converged
     c_bands:  1 eigenvalues not converged
     c_bands:  1 eigenvalues not converged
     ethr =  1.00E-06,  avg # of iterations = 16.8

     negative rho (up, down):  2.883E-04 0.000E+00

     total cpu time spent up to now is    25574.0 secs

     total energy              =    -287.21296790 Ry
     Harris-Foulkes estimate   =    -289.26513965 Ry
     estimated scf accuracy    <       0.19566798 Ry

     iteration #  2     ecut=    50.00 Ry     beta=0.70
     Davidson diagonalization with overlap
     ethr =  2.76E-04,  avg # of iterations =  5.1

     negative rho (up, down):  1.971E-04 0.000E+00

     total cpu time spent up to now is    25607.7 secs

     total energy              =    -287.20428389 Ry
     Harris-Foulkes estimate   =    -287.58122799 Ry
     estimated scf accuracy    <       1.50301602 Ry

     iteration #  3     ecut=    50.00 Ry     beta=0.70
     Davidson diagonalization with overlap
     ethr =  2.76E-04,  avg # of iterations =  3.6

     negative rho (up, down):  1.758E-04 0.000E+00

     total cpu time spent up to now is    25635.0 secs

     total energy              =    -287.28889998 Ry
     Harris-Foulkes estimate   =    -287.46293942 Ry
     estimated scf accuracy    <       0.76156069 Ry

     iteration #  4     ecut=    50.00 Ry     beta=0.70
     Davidson diagonalization with overlap
     ethr =  2.76E-04,  avg # of iterations =  3.6

     negative rho (up, down):  2.519E-04 0.000E+00

     total cpu time spent up to now is    25659.6 secs

     total energy              =    -287.36629796 Ry
     Harris-Foulkes estimate   =    -287.37841581 Ry
     estimated scf accuracy    <       0.04169386 Ry

     iteration #  5     ecut=    50.00 Ry     beta=0.70
     Davidson diagonalization with overlap
     ethr =  5.87E-05,  avg # of iterations =  3.1

     negative rho (up, down):  3.842E-04 0.000E+00

     total cpu time spent up to now is    25684.3 secs

     total energy              =    -287.36545882 Ry
     Harris-Foulkes estimate   =    -287.37236779 Ry
     estimated scf accuracy    <       0.02825812 Ry

     iteration #  6     ecut=    50.00 Ry     beta=0.70
     Davidson diagonalization with overlap
     ethr =  3.98E-05,  avg # of iterations =  2.0

     negative rho (up, down):  4.453E-04 0.000E+00

     total cpu time spent up to now is    25706.4 secs

     total energy              =    -287.36683296 Ry
     Harris-Foulkes estimate   =    -287.37007479 Ry
     estimated scf accuracy    <       0.02173156 Ry

     iteration #  7     ecut=    50.00 Ry     beta=0.70
     Davidson diagonalization with overlap
     ethr =  3.06E-05,  avg # of iterations =  2.4

     negative rho (up, down):  4.573E-04 0.000E+00

     total cpu time spent up to now is    25728.6 secs

     total energy              =    -287.36823266 Ry
     Harris-Foulkes estimate   =    -287.36864188 Ry
     estimated scf accuracy    <       0.00119195 Ry

     iteration #  8     ecut=    50.00 Ry     beta=0.70
     Davidson diagonalization with overlap
     ethr =  1.68E-06,  avg # of iterations =  6.8

     negative rho (up, down):  4.493E-04 0.000E+00

     total cpu time spent up to now is    25759.9 secs

     total energy              =    -287.36850319 Ry
     Harris-Foulkes estimate   =    -287.36868244 Ry
     estimated scf accuracy    <       0.00069001 Ry

     iteration #  9     ecut=    50.00 Ry     beta=0.70
     Davidson diagonalization with overlap
     ethr =  9.72E-07,  avg # of iterations =  2.0

     negative rho (up, down):  4.424E-04 0.000E+00

     total cpu time spent up to now is    25782.1 secs

     total energy              =    -287.36855865 Ry
     Harris-Foulkes estimate   =    -287.36858641 Ry
     estimated scf accuracy    <       0.00008911 Ry

     iteration # 10     ecut=    50.00 Ry     beta=0.70
     Davidson diagonalization with overlap
     ethr =  1.26E-07,  avg # of iterations =  2.9

     negative rho (up, down):  4.430E-04 0.000E+00

     total cpu time spent up to now is    25806.4 secs

     total energy              =    -287.36857115 Ry
     Harris-Foulkes estimate   =    -287.36857394 Ry
     estimated scf accuracy    <       0.00001570 Ry

     iteration # 11     ecut=    50.00 Ry     beta=0.70
     Davidson diagonalization with overlap
     ethr =  2.21E-08,  avg # of iterations =  2.4

     negative rho (up, down):  4.454E-04 0.000E+00

     total cpu time spent up to now is    25829.7 secs

     total energy              =    -287.36857262 Ry
     Harris-Foulkes estimate   =    -287.36857333 Ry
     estimated scf accuracy    <       0.00000353 Ry

     iteration # 12     ecut=    50.00 Ry     beta=0.70
     Davidson diagonalization with overlap
     ethr =  4.97E-09,  avg # of iterations =  2.0

     negative rho (up, down):  4.458E-04 0.000E+00

     total cpu time spent up to now is    25851.8 secs

     End of self-consistent calculation

          k = 0.0000 0.0000 0.0000 ( 21247 PWs)   bands (ev):

   -29.3824 -14.7387 -14.6204 -14.5783 -11.5904 -11.2646  -9.3130  -8.6283
    -8.5323  -8.2908  -8.2636  -7.7720  -7.4712  -6.8862  -6.5634  -6.3134
    -5.9506  -5.8202  -5.5696  -5.3590  -4.9544  -4.7821  -4.5439  -4.2913
    -4.1555  -4.0759  -3.8704  -3.5661  -3.4826  -2.8035  -2.3686  -1.8713
    -1.3676  -0.7011   0.0292   0.3392   0.5084   0.6876   0.9509   1.4002
     1.6641   1.7861   2.0133

          k = 0.0571 0.0327-0.5035 ( 21362 PWs)   bands (ev):

   -29.3824 -14.7386 -14.6204 -14.5786 -11.5761 -11.2772  -9.2765  -8.7266
    -8.5823  -8.2818  -8.2048  -7.7984  -7.4500  -6.6761  -6.5673  -6.4109
    -6.0163  -5.8403  -5.6453  -5.3400  -4.8759  -4.7496  -4.5383  -4.2924
    -4.1176  -4.0278  -3.9150  -3.5725  -3.4512  -2.8311  -2.3627  -1.7833
    -1.3619  -0.8098  -0.0933  -0.0111   0.4227   0.8059   0.9715   1.4088
     1.5292   1.8885   2.0195

          k = 0.0533-0.3570-0.4685 ( 21216 PWs)   bands (ev):

   -29.3824 -14.7387 -14.6204 -14.5786 -11.5725 -11.2804  -9.2748  -8.7472
    -8.5523  -8.2864  -8.2116  -7.8069  -7.4324  -6.6894  -6.6326  -6.3717
    -6.0129  -5.8245  -5.6226  -5.3023  -4.8710  -4.7511  -4.5299  -4.2617
    -4.2190  -4.0120  -3.9225  -3.5723  -3.4704  -2.8466  -2.3266  -1.7811
    -1.3699  -0.8082  -0.0768  -0.0437   0.3979   0.8425   1.0107   1.4244
     1.4930   1.9344   2.0172

          k =-0.4528-0.3563-0.4050 ( 21368 PWs)   bands (ev):

   -29.3824 -14.7403 -14.6212 -14.5787 -11.5627 -11.2752  -9.3031  -8.6732
    -8.6075  -8.3197  -8.2309  -7.7504  -7.4067  -6.7914  -6.5103  -6.3412
    -6.0964  -5.8292  -5.6521  -5.3097  -4.9257  -4.7565  -4.4970  -4.2738
    -4.1679  -4.0106  -3.9376  -3.6467  -3.4305  -2.7619  -2.3232  -1.7223
    -1.3094  -0.9157  -0.0733   0.1255   0.4448   0.7214   1.0604   1.4347
     1.5155   1.7138   1.9419

          k =-0.5062 0.0007 0.0635 ( 21362 PWs)   bands (ev):

   -29.3824 -14.7403 -14.6211 -14.5785 -11.5794 -11.2601  -9.2837  -8.7340
    -8.4821  -8.3903  -8.2277  -7.7040  -7.4710  -6.7163  -6.5935  -6.4422
    -5.9647  -5.8851  -5.6023  -5.2835  -4.8990  -4.7818  -4.5223  -4.3514
    -4.1604  -4.0838  -3.9046  -3.6229  -3.4599  -2.7235  -2.3308  -1.8431
    -1.2972  -0.6497   0.0296   0.1425   0.5014   0.8394   0.9937   1.2518
     1.5257   1.6501   2.0931

          k =-0.0037-0.3897 0.0350 ( 21362 PWs)   bands (ev):

   -29.3824 -14.7388 -14.6204 -14.5783 -11.5862 -11.2691  -9.3148  -8.6286
    -8.5116  -8.3123  -8.2554  -7.7808  -7.4885  -6.8725  -6.5795  -6.3035
    -5.9527  -5.8243  -5.5433  -5.3260  -4.9574  -4.7640  -4.5438  -4.2729
    -4.2212  -4.0882  -3.8773  -3.6016  -3.4583  -2.8190  -2.3337  -1.8767
    -1.3683  -0.7101   0.0682   0.3449   0.5041   0.6683   0.9973   1.3694
     1.6146   1.7423   2.0488

          k =-0.5632-0.0319 0.5670 ( 21216 PWs)   bands (ev):

   -29.3824 -14.7402 -14.6211 -14.5787 -11.5658 -11.2720  -9.3065  -8.7152
    -8.5383  -8.3293  -8.2285  -7.7558  -7.4210  -6.8018  -6.5174  -6.3289
    -6.0617  -5.8467  -5.6620  -5.2786  -4.9370  -4.7609  -4.5072  -4.3452
    -4.1262  -3.9828  -3.9464  -3.6347  -3.4502  -2.7593  -2.3021  -1.7287
    -1.2765  -0.9187  -0.0429   0.0835   0.4339   0.7662   0.9718   1.3517
     1.5973   1.7189   1.9842

          k =-0.5024 0.3904 0.0284 ( 21216 PWs)   bands (ev):

   -29.3824 -14.7404 -14.6211 -14.5784 -11.5755 -11.2639  -9.2837  -8.7047
    -8.5037  -8.4151  -8.2212  -7.7098  -7.4636  -6.7199  -6.5808  -6.4140
    -5.9534  -5.8831  -5.6504  -5.3041  -4.9077  -4.7688  -4.5011  -4.2906
    -4.1899  -4.1130  -3.8998  -3.6006  -3.4646  -2.7258  -2.3461  -1.8429
    -1.3195  -0.6536   0.0446   0.2052   0.4502   0.8116   1.0507   1.2833
     1.4084   1.6755   2.0185

     the Fermi energy is     0.1826 ev

!    total energy              =    -287.36857298 Ry
     Harris-Foulkes estimate   =    -287.36857310 Ry
     estimated scf accuracy    <       0.00000017 Ry

     The total energy is the sum of the following terms:

     one-electron contribution =    -109.42082196 Ry
     hartree contribution      =      69.84835719 Ry
     xc contribution           =     -97.02084672 Ry
     ewald contribution        =     -44.79138379 Ry
     one-center paw contrib.   =    -105.98360343 Ry
     smearing contrib. (-TS)   =      -0.00027426 Ry

     convergence has been achieved in  12 iterations

     negative rho (up, down):  4.458E-04 0.000E+00

     Forces acting on atoms (cartesian axes, Ry/au):

     atom    1 type  1   force =     0.00985554    0.00874186   -0.00774294
     atom    2 type  1   force =    -0.00358693    0.00178043    0.00486831
     atom    3 type  2   force =     0.01312426    0.01183208    0.01547879
     atom    4 type  3   force =    -0.00935234   -0.01983579    0.00792023
     atom    5 type  3   force =     0.05987637   -0.01904527   -0.02241047
     atom    6 type  4   force =    -0.06659290   -0.05119228   -0.04994230
     atom    7 type  4   force =    -0.03109874   -0.02349375   -0.00976987
     atom    8 type  4   force =    -0.06254599   -0.05442622   -0.04711620
     atom    9 type  4   force =    -0.02634896   -0.01096502    0.01388230
     atom   10 type  4   force =     0.01872811    0.00129469    0.01236424
     atom   11 type  4   force =     0.00902674   -0.01788256    0.01361495
     atom   12 type  4   force =     0.00633400   -0.03291614    0.04888091
     atom   13 type  5   force =    -0.00206447    0.00532974    0.00142679
     atom   14 type  5   force =    -0.02052443   -0.01172204    0.00442803
     atom   15 type  5   force =    -0.02807454   -0.01366511    0.01011730
     atom   16 type  5   force =     0.01231949   -0.00727151    0.00705485
     atom   17 type  5   force =    -0.00832654    0.03248681   -0.02170585
     atom   18 type  5   force =    -0.01058303   -0.02059616   -0.00433209
     atom   19 type  5   force =     0.03217683    0.00730820   -0.04794668
     atom   20 type  5   force =    -0.01109196    0.02841135    0.01299012
     atom   21 type  5   force =     0.04746378   -0.00295661    0.00603475
     atom   22 type  5   force =    -0.00383178    0.07895803    0.04488894
     atom   23 type  5   force =     0.02141737    0.00006018   -0.02709864
     atom   24 type  5   force =     0.00816104   -0.01374448    0.00646326
     atom   25 type  5   force =     0.00525491    0.00294148    0.00021396
     atom   26 type  5   force =    -0.02691615   -0.00510708    0.04601612
     atom   27 type  5   force =    -0.00318644    0.03139635   -0.06559952
     atom   28 type  5   force =     0.00469868   -0.02767866    0.01632243
     atom   29 type  5   force =     0.00686802    0.00881059   -0.00801865
     atom   30 type  5   force =     0.05490964    0.06210839    0.05064476
     atom   31 type  5   force =    -0.00529853    0.03090653   -0.00143343
     atom   32 type  5   force =     0.00282138   -0.00310151    0.00066398
     atom   33 type  5   force =     0.01667722   -0.00413234   -0.00589071
     atom   34 type  5   force =    -0.00565382   -0.00279556   -0.00217381
     atom   35 type  5   force =     0.00011601   -0.00718534   -0.00618683
     atom   36 type  5   force =    -0.00439944   -0.00191451   -0.00348040
     atom   37 type  5   force =     0.00065157    0.01644277    0.01088091
     atom   38 type  5   force =    -0.01746973   -0.00710571    0.00110888
     atom   39 type  5   force =    -0.00530358    0.00251701   -0.01152115
     atom   40 type  5   force =    -0.00010561    0.02775933    0.01294143
     atom   41 type  5   force =     0.00237166    0.00600151   -0.00358949
     atom   42 type  5   force =     0.01596928    0.01134071   -0.00448142
     atom   43 type  5   force =     0.00288562   -0.01236887    0.00102043
     atom   44 type  5   force =     0.00064838   -0.00532555    0.00021379

     Total force =     0.274248     Total SCF correction =     0.000425


     Computing stress (Cartesian axis) and pressure


     negative rho (up, down):  4.458E-04 0.000E+00
          total   stress  (Ry/bohr**3)                   (kbar)     P=    9.44
  -0.00001615  -0.00006983   0.00003464         -2.38    -10.27      5.10
  -0.00006983   0.00009125   0.00003175        -10.27     13.42      4.67
   0.00003464   0.00003175   0.00011749          5.10      4.67     17.28


     number of scf cycles    =  20
     number of bfgs steps    =  18

     enthalpy old            =    -287.2952615059 Ry
     enthalpy new            =    -287.3685729806 Ry

     CASE: enthalpy_new < enthalpy_old

     new trust radius        =       0.3685923437 bohr
     new conv_thr            =       0.0000007896 Ry

     new unit-cell volume =   4488.64566 a.u.^3 (   665.14865 Ang^3 )
     density =      0.94222 g/cm^3

CELL_PARAMETERS (angstrom)
   7.929111759  -0.097422438   0.970674528
   0.022848815  10.499753291   0.713000397
   1.105480145   0.764174085   8.177141179

ATOMIC_POSITIONS (angstrom)
K        5.911708173   5.913057414   2.884932995
K        4.435381354   1.191145500   6.957425696
Ba       6.717691204   7.860719278   6.659480642
Al       3.553141908   3.967196297   5.073280075
Al       1.634840848   9.328248435   6.452408309
B        1.263448348   8.765133672   2.601094609
B        4.844416584   5.695800128   7.592004704
B        8.064416318  10.530630871   7.663056277
B        3.980545817   6.902812326   6.066437395
B        6.057020630   2.244805206   3.453617565
B        4.889098824   3.259495772   2.671097658
B        4.026984609   8.031560662   1.634369255
H        7.141723216   4.449512651   5.496868272
H        2.899276452   8.464572272   2.106833566
H        1.603528156   7.941507195   7.225364514
H        7.070304553  10.215413737   7.000065487
H        1.468285887   3.676876293   3.274612605
H        5.617040758   3.097103661   4.364385855
H        8.375782790   8.080949650   4.055131704
H        4.030523358   7.727900511   6.943282563
H        5.972464966   5.402941700   7.404524013
H        7.665292085   0.945675208   7.457093542
H        4.485200909   7.419965713   5.113993559
H        6.615731791   2.981345727   7.716434261
H        7.869154040   4.621446866   5.603847508
H        1.698095377   8.765267519   4.798040777
H        5.192828782   9.294979904   8.783413136
H        1.304141325   4.287805909   2.808040876
H        2.898297009   6.402192622   5.922474498
H        1.770229087   9.227433527   3.592284308
H        5.861739555   1.035327578   3.391450235
H        3.099526069   2.865356620   1.428002128
H        4.698214022   5.890497314   6.342788304
H        2.582955696   2.372922233   1.679549185
H        4.578668573   0.722677244   1.849712085
H        6.401390167   3.587890386   7.333729968
H        3.145774654   9.898951782   6.429861156
H        7.170351468   2.579084613   3.058293925
H        6.326958994   2.302722816   4.799946123
H        4.477510695   6.379160699   8.541340586
H        3.958279498   3.959122931   3.160407854
H        5.147816854   4.514070646   4.964430275
H        4.178282432   4.697588091   7.553567091
H        4.354330202   0.835937678   1.142602949



     Writing output data file 00_K2BaAl2B7H32_Monster.save
     NEW-OLD atomic charge density approx. for the potential

     negative rho (up, down):  5.961E-04 0.000E+00
     extrapolated charge   69.61535, renormalised to   71.00000

     total cpu time spent up to now is    26677.4 secs

     Self-consistent Calculation

     iteration #  1     ecut=    50.00 Ry     beta=0.70
     Davidson diagonalization with overlap
     c_bands:  1 eigenvalues not converged
     c_bands:  1 eigenvalues not converged
     c_bands:  1 eigenvalues not converged
     ethr =  1.00E-06,  avg # of iterations = 15.6

     negative rho (up, down):  2.832E-04 0.000E+00

     total cpu time spent up to now is    26740.6 secs

     total energy              =    -287.32329242 Ry
     Harris-Foulkes estimate   =    -288.83251161 Ry
     estimated scf accuracy    <       0.12136217 Ry

     iteration #  2     ecut=    50.00 Ry     beta=0.70
     Davidson diagonalization with overlap
     ethr =  1.71E-04,  avg # of iterations =  5.6

     negative rho (up, down):  2.640E-04 0.000E+00

     total cpu time spent up to now is    26774.9 secs

     total energy              =    -287.37261954 Ry
     Harris-Foulkes estimate   =    -287.50491330 Ry
     estimated scf accuracy    <       0.36939758 Ry

     iteration #  3     ecut=    50.00 Ry     beta=0.70
     Davidson diagonalization with overlap
     ethr =  1.71E-04,  avg # of iterations =  4.0

     negative rho (up, down):  2.645E-04 0.000E+00

     total cpu time spent up to now is    26801.7 secs

     total energy              =    -287.39817031 Ry
     Harris-Foulkes estimate   =    -287.42660416 Ry
     estimated scf accuracy    <       0.08950422 Ry

     iteration #  4     ecut=    50.00 Ry     beta=0.70
     Davidson diagonalization with overlap
     ethr =  1.26E-04,  avg # of iterations =  2.4

     negative rho (up, down):  2.863E-04 0.000E+00

     total cpu time spent up to now is    26824.8 secs

     total energy              =    -287.39881425 Ry
     Harris-Foulkes estimate   =    -287.41842762 Ry
     estimated scf accuracy    <       0.13013006 Ry

     iteration #  5     ecut=    50.00 Ry     beta=0.70
     Davidson diagonalization with overlap
     ethr =  1.26E-04,  avg # of iterations =  2.0

     negative rho (up, down):  4.156E-04 0.000E+00

     total cpu time spent up to now is    26846.6 secs

     total energy              =    -287.40707045 Ry
     Harris-Foulkes estimate   =    -287.41658980 Ry
     estimated scf accuracy    <       0.04540106 Ry

     iteration #  6     ecut=    50.00 Ry     beta=0.70
     Davidson diagonalization with overlap
     ethr =  6.39E-05,  avg # of iterations =  2.8

     negative rho (up, down):  4.094E-04 0.000E+00

     total cpu time spent up to now is    26868.8 secs

     total energy              =    -287.41033588 Ry
     Harris-Foulkes estimate   =    -287.41152478 Ry
     estimated scf accuracy    <       0.01110187 Ry

     iteration #  7     ecut=    50.00 Ry     beta=0.70
     Davidson diagonalization with overlap
     ethr =  1.56E-05,  avg # of iterations =  4.1

     negative rho (up, down):  4.099E-04 0.000E+00

     total cpu time spent up to now is    26893.2 secs

     total energy              =    -287.41065018 Ry
     Harris-Foulkes estimate   =    -287.41113699 Ry
     estimated scf accuracy    <       0.00247478 Ry

     iteration #  8     ecut=    50.00 Ry     beta=0.70
     Davidson diagonalization with overlap
     ethr =  3.49E-06,  avg # of iterations =  5.1

     negative rho (up, down):  3.995E-04 0.000E+00

     total cpu time spent up to now is    26917.8 secs

     total energy              =    -287.41078860 Ry
     Harris-Foulkes estimate   =    -287.41096813 Ry
     estimated scf accuracy    <       0.00106576 Ry

     iteration #  9     ecut=    50.00 Ry     beta=0.70
     Davidson diagonalization with overlap
     ethr =  1.50E-06,  avg # of iterations =  1.0

     negative rho (up, down):  4.027E-04 0.000E+00

     total cpu time spent up to now is    26939.5 secs

     total energy              =    -287.41087870 Ry
     Harris-Foulkes estimate   =    -287.41088672 Ry
     estimated scf accuracy    <       0.00006637 Ry

     iteration # 10     ecut=    50.00 Ry     beta=0.70
     Davidson diagonalization with overlap
     ethr =  9.35E-08,  avg # of iterations =  3.4

     negative rho (up, down):  4.054E-04 0.000E+00

     total cpu time spent up to now is    26963.8 secs

     total energy              =    -287.41088582 Ry
     Harris-Foulkes estimate   =    -287.41088905 Ry
     estimated scf accuracy    <       0.00002667 Ry

     iteration # 11     ecut=    50.00 Ry     beta=0.70
     Davidson diagonalization with overlap
     ethr =  3.76E-08,  avg # of iterations =  1.1

     negative rho (up, down):  4.065E-04 0.000E+00

     total cpu time spent up to now is    26985.1 secs

     total energy              =    -287.41088697 Ry
     Harris-Foulkes estimate   =    -287.41088757 Ry
     estimated scf accuracy    <       0.00000387 Ry

     iteration # 12     ecut=    50.00 Ry     beta=0.70
     Davidson diagonalization with overlap
     ethr =  5.46E-09,  avg # of iterations =  2.6

     negative rho (up, down):  4.065E-04 0.000E+00

     total cpu time spent up to now is    27008.3 secs

     End of self-consistent calculation

          k = 0.0000 0.0000 0.0000 ( 21247 PWs)   bands (ev):

   -29.1447 -14.5644 -14.3931 -14.3649 -11.5100 -11.2085  -9.4510  -8.6685
    -8.4013  -8.3528  -8.1460  -7.6463  -7.4298  -6.8260  -6.4124  -6.1778
    -5.8944  -5.8381  -5.6000  -5.2610  -5.1353  -4.6939  -4.4780  -4.3451
    -4.2696  -4.1073  -3.8089  -3.5438  -3.3589  -2.8951  -2.1920  -1.8646
    -1.4246  -0.6748   0.0872   0.4256   0.5302   0.7373   1.0422   1.4155
     1.6674   1.9367   2.2420

          k = 0.0623 0.0342-0.5058 ( 21362 PWs)   bands (ev):

   -29.1447 -14.5643 -14.3932 -14.3653 -11.4957 -11.2207  -9.4146  -8.7491
    -8.4353  -8.3468  -8.1366  -7.6820  -7.3948  -6.6035  -6.4702  -6.2771
    -5.9456  -5.8262  -5.6057  -5.2487  -5.1170  -4.6494  -4.4773  -4.3109
    -4.2294  -4.1010  -3.8375  -3.5801  -3.3122  -2.9124  -2.1945  -1.7853
    -1.4188  -0.7500  -0.0557   0.0332   0.4640   0.9107   1.0424   1.4279
     1.4936   2.0596   2.1792

          k = 0.0530-0.3532-0.4684 ( 21216 PWs)   bands (ev):

   -29.1447 -14.5644 -14.3932 -14.3653 -11.4916 -11.2245  -9.4138  -8.7593
    -8.4120  -8.3522  -8.1405  -7.6969  -7.3833  -6.6167  -6.5338  -6.2074
    -5.9512  -5.8152  -5.5861  -5.2216  -5.1155  -4.6518  -4.4735  -4.3169
    -4.2400  -4.1314  -3.8376  -3.5898  -3.3209  -2.9248  -2.1669  -1.7846
    -1.4209  -0.7487  -0.0424   0.0044   0.4444   0.9390   1.0812   1.4451
     1.4725   2.0672   2.1848

          k =-0.4653-0.3569-0.3980 ( 21368 PWs)   bands (ev):

   -29.1447 -14.5664 -14.3945 -14.3653 -11.4797 -11.2180  -9.4421  -8.6787
    -8.4968  -8.3927  -8.1319  -7.6425  -7.3188  -6.7439  -6.3270  -6.2148
    -6.1304  -5.8010  -5.6141  -5.2728  -5.0952  -4.6533  -4.4375  -4.3448
    -4.2215  -4.1020  -3.8691  -3.6428  -3.3045  -2.8549  -2.1264  -1.7310
    -1.3673  -0.8970  -0.0091   0.1938   0.4850   0.8147   1.1391   1.4334
     1.5743   1.8800   2.0730

          k =-0.5183-0.0037 0.0704 ( 21362 PWs)   bands (ev):

   -29.1447 -14.5664 -14.3944 -14.3652 -11.4965 -11.2029  -9.4205  -8.7499
    -8.3696  -8.3349  -8.2573  -7.5916  -7.4145  -6.6505  -6.3713  -6.3437
    -5.9956  -5.8071  -5.6005  -5.2563  -5.0864  -4.7027  -4.4723  -4.3917
    -4.2692  -4.0965  -3.8535  -3.5951  -3.3372  -2.8224  -2.1499  -1.8311
    -1.3553  -0.6096   0.0987   0.2301   0.5389   0.9391   1.0729   1.2462
     1.5327   1.7871   2.2161

          k =-0.0093-0.3874 0.0375 ( 21362 PWs)   bands (ev):

   -29.1447 -14.5645 -14.3931 -14.3649 -11.5051 -11.2137  -9.4519  -8.6688
    -8.3819  -8.3626  -8.1470  -7.6554  -7.4470  -6.8261  -6.4359  -6.1287
    -5.9026  -5.8269  -5.5947  -5.2448  -5.1294  -4.6809  -4.4772  -4.3752
    -4.2499  -4.1550  -3.8094  -3.5721  -3.3406  -2.9046  -2.1699  -1.8710
    -1.4198  -0.6840   0.1295   0.4120   0.5487   0.7108   1.0781   1.3895
     1.6506   1.8831   2.2832

          k =-0.5807-0.0379 0.5763 ( 21216 PWs)   bands (ev):

   -29.1447 -14.5663 -14.3944 -14.3653 -11.4833 -11.2144  -9.4429  -8.7050
    -8.4456  -8.3962  -8.1357  -7.6506  -7.3274  -6.7583  -6.3835  -6.1550
    -6.0623  -5.8456  -5.6198  -5.2739  -5.0791  -4.6566  -4.4903  -4.3783
    -4.1780  -4.0775  -3.8730  -3.6350  -3.3188  -2.8530  -2.1067  -1.7375
    -1.3385  -0.8999   0.0039   0.1747   0.4780   0.8305   1.0735   1.3608
     1.6312   1.8941   2.1736

          k =-0.5090 0.3838 0.0329 ( 21216 PWs)   bands (ev):

   -29.1447 -14.5665 -14.3944 -14.3652 -11.4920 -11.2073  -9.4203  -8.7361
    -8.3614  -8.3476  -8.2806  -7.5963  -7.4024  -6.6358  -6.3962  -6.2955
    -5.9959  -5.8112  -5.6438  -5.2507  -5.0982  -4.6815  -4.4390  -4.3640
    -4.3060  -4.1206  -3.8532  -3.5771  -3.3359  -2.8232  -2.1606  -1.8358
    -1.3716  -0.6139   0.1163   0.2883   0.4911   0.9117   1.1202   1.2871
     1.4369   1.7826   2.1360

     the Fermi energy is     0.2502 ev

!    total energy              =    -287.41088736 Ry
     Harris-Foulkes estimate   =    -287.41088739 Ry
     estimated scf accuracy    <       0.00000006 Ry

     The total energy is the sum of the following terms:

     one-electron contribution =    -107.70112959 Ry
     hartree contribution      =      69.23565591 Ry
     xc contribution           =     -97.20845898 Ry
     ewald contribution        =     -45.75421333 Ry
     one-center paw contrib.   =    -105.98234267 Ry
     smearing contrib. (-TS)   =      -0.00039870 Ry

     convergence has been achieved in  12 iterations

     negative rho (up, down):  4.065E-04 0.000E+00

     Forces acting on atoms (cartesian axes, Ry/au):

     atom    1 type  1   force =     0.00731040    0.01064863   -0.00915875
     atom    2 type  1   force =    -0.00240354   -0.00159663    0.00579091
     atom    3 type  2   force =     0.00576627    0.00250653    0.01791384
     atom    4 type  3   force =     0.00214979   -0.01117860    0.00140644
     atom    5 type  3   force =     0.07136926   -0.00559398   -0.01556103
     atom    6 type  4   force =     0.10502785    0.07607527   -0.03521118
     atom    7 type  4   force =    -0.03592224   -0.00456011    0.03995499
     atom    8 type  4   force =    -0.04266902   -0.06519801   -0.04276031
     atom    9 type  4   force =    -0.00696338    0.01320415    0.03486570
     atom   10 type  4   force =     0.02315507    0.00108914    0.01976194
     atom   11 type  4   force =    -0.00538007   -0.00229249    0.01444492
     atom   12 type  4   force =     0.00501801   -0.04122844    0.06329760
     atom   13 type  5   force =    -0.00094785    0.00587308    0.00095200
     atom   14 type  5   force =    -0.02494158   -0.01771859    0.00771157
     atom   15 type  5   force =    -0.02747976   -0.02136741    0.01335056
     atom   16 type  5   force =    -0.01688954   -0.00191060   -0.00607711
     atom   17 type  5   force =    -0.00873979    0.03427027   -0.02435576
     atom   18 type  5   force =    -0.00894077   -0.01440446   -0.01132738
     atom   19 type  5   force =    -0.09688172   -0.09862302    0.01515816
     atom   20 type  5   force =    -0.01257242    0.01132645   -0.00320793
     atom   21 type  5   force =     0.04087877    0.00426333    0.01155204
     atom   22 type  5   force =    -0.00831725    0.09333431    0.05157074
     atom   23 type  5   force =     0.02341947   -0.00722524   -0.02840032
     atom   24 type  5   force =     0.00619067   -0.00812099    0.00456721
     atom   25 type  5   force =     0.00426845    0.00274787    0.00056521
     atom   26 type  5   force =    -0.02780814   -0.00756491    0.03656281
     atom   27 type  5   force =    -0.00222946    0.04064794   -0.08313497
     atom   28 type  5   force =     0.00721121   -0.02962997    0.01918142
     atom   29 type  5   force =    -0.00836119    0.00014250   -0.01021552
     atom   30 type  5   force =     0.02114218    0.04645004   -0.02521055
     atom   31 type  5   force =    -0.00915094    0.01728876    0.00078156
     atom   32 type  5   force =     0.00777303    0.00069908   -0.00133743
     atom   33 type  5   force =     0.00769311    0.00947832   -0.03707722
     atom   34 type  5   force =    -0.01063581   -0.00732281    0.00046654
     atom   35 type  5   force =    -0.00021780   -0.00627338   -0.00525629
     atom   36 type  5   force =    -0.00388652   -0.00379859   -0.00105295
     atom   37 type  5   force =     0.01057605    0.00838866    0.00798279
     atom   38 type  5   force =    -0.01089398   -0.00185919    0.00315908
     atom   39 type  5   force =    -0.00631678   -0.00128717   -0.01459734
     atom   40 type  5   force =     0.01965734    0.00063995   -0.01383263
     atom   41 type  5   force =     0.00587024   -0.00458872   -0.00924221
     atom   42 type  5   force =     0.00645243    0.00592730    0.00060043
     atom   43 type  5   force =    -0.00356386   -0.01722319    0.00353658
     atom   44 type  5   force =     0.00118380   -0.00443508    0.00188184

     Total force =     0.319818     Total SCF correction =     0.000312


     Computing stress (Cartesian axis) and pressure


     negative rho (up, down):  4.065E-04 0.000E+00
          total   stress  (Ry/bohr**3)                   (kbar)     P=   14.89
   0.00006050  -0.00001504   0.00001277          8.90     -2.21      1.88
  -0.00001504   0.00013348  -0.00002117         -2.21     19.64     -3.11
   0.00001277  -0.00002117   0.00010965          1.88     -3.11     16.13


     number of scf cycles    =  21
     number of bfgs steps    =  19

     enthalpy old            =    -287.3685729806 Ry
     enthalpy new            =    -287.4108873593 Ry

     CASE: enthalpy_new < enthalpy_old

     new trust radius        =       0.1852316771 bohr
     new conv_thr            =       0.0000010000 Ry

     new unit-cell volume =   4524.13232 a.u.^3 (   670.40723 Ang^3 )
     density =      0.93483 g/cm^3

CELL_PARAMETERS (angstrom)
   7.960852798  -0.095253678   0.959581025
   0.022954667  10.492947171   0.700507342
   1.094060558   0.751027265   8.208150569

ATOMIC_POSITIONS (angstrom)
K        5.934245461   5.916134882   2.886345765
K        4.437498343   1.185134393   6.970150504
Ba       6.731482425   7.840190424   6.664084095
Al       3.557187771   3.955181729   5.083678011
Al       1.683025008   9.295612566   6.457577586
B        1.292277123   8.794467917   2.585890354
B        4.830414102   5.671371677   7.611731762
B        8.032711246  10.488076626   7.638916960
B        3.977504655   6.897254627   6.074651225
B        6.084308312   2.260153242   3.458681610
B        4.906095496   3.247453833   2.673190443
B        4.057915524   8.003077706   1.633803226
H        7.156252611   4.452543171   5.497947461
H        2.904865981   8.448691241   2.105545288
H        1.592476105   7.909186087   7.233057126
H        7.067348870  10.185510538   6.991703627
H        1.463757458   3.682152973   3.275512768
H        5.630042405   3.078185311   4.364816240
H        8.354575115   7.993502818   4.018404264
H        4.043119854   7.724668549   6.966262643
H        5.998512893   5.395237672   7.429765640
H        7.697762404   0.990406702   7.495627214
H        4.495059177   7.400289888   5.100858321
H        6.618048517   2.971455719   7.726378753
H        7.891657981   4.615251904   5.606827551
H        1.691230094   8.754281141   4.821543139
H        5.187791040   9.301500262   8.772720191
H        1.313878922   4.271369716   2.817495470
H        2.892930342   6.401146543   5.925826768
H        1.794094518   9.268471049   3.612701162
H        5.871616678   1.071379162   3.394847725
H        3.116799630   2.858547795   1.425898398
H        4.710843307   5.869586323   6.336668902
H        2.598613372   2.372881751   1.683430644
H        4.598299377   0.736928417   1.852619424
H        6.395759879   3.587668964   7.342927609
H        3.174201386   9.871760068   6.441401884
H        7.183322573   2.565542029   3.049163568
H        6.323875886   2.289775917   4.781582695
H        4.497439870   6.368602564   8.558631807
H        3.980464989   3.935238678   3.160314498
H        5.169860166   4.522550881   4.986564122
H        4.186743333   4.655700300   7.564877722
H        4.377260774   0.839404108   1.151122586



     Writing output data file 00_K2BaAl2B7H32_Monster.save
     NEW-OLD atomic charge density approx. for the potential

     negative rho (up, down):  4.946E-04 0.000E+00
     extrapolated charge   71.55645, renormalised to   71.00000

     total cpu time spent up to now is    27833.5 secs

     Self-consistent Calculation

     iteration #  1     ecut=    50.00 Ry     beta=0.70
     Davidson diagonalization with overlap
     ethr =  1.00E-06,  avg # of iterations = 11.6

     negative rho (up, down):  4.968E-04 0.000E+00

     total cpu time spent up to now is    27884.9 secs

     total energy              =    -287.45233546 Ry
     Harris-Foulkes estimate   =    -286.92370929 Ry
     estimated scf accuracy    <       0.03525880 Ry

     iteration #  2     ecut=    50.00 Ry     beta=0.70
     Davidson diagonalization with overlap
     ethr =  4.97E-05,  avg # of iterations =  6.1

     negative rho (up, down):  3.413E-04 0.000E+00

     total cpu time spent up to now is    27917.7 secs

     total energy              =    -287.39112676 Ry
     Harris-Foulkes estimate   =    -287.54999528 Ry
     estimated scf accuracy    <       1.22889663 Ry

     iteration #  3     ecut=    50.00 Ry     beta=0.70
     Davidson diagonalization with overlap
     ethr =  4.97E-05,  avg # of iterations =  3.9

     negative rho (up, down):  2.976E-04 0.000E+00

     total cpu time spent up to now is    27945.0 secs

     total energy              =    -287.46876838 Ry
     Harris-Foulkes estimate   =    -287.48122979 Ry
     estimated scf accuracy    <       0.05565861 Ry

     iteration #  4     ecut=    50.00 Ry     beta=0.70
     Davidson diagonalization with overlap
     ethr =  4.97E-05,  avg # of iterations =  2.0

     negative rho (up, down):  3.375E-04 0.000E+00

     total cpu time spent up to now is    27968.2 secs

     total energy              =    -287.47014597 Ry
     Harris-Foulkes estimate   =    -287.47529697 Ry
     estimated scf accuracy    <       0.02031535 Ry

     iteration #  5     ecut=    50.00 Ry     beta=0.70
     Davidson diagonalization with overlap
     ethr =  2.86E-05,  avg # of iterations =  2.0

     negative rho (up, down):  3.472E-04 0.000E+00

     total cpu time spent up to now is    27990.2 secs

     total energy              =    -287.47249959 Ry
     Harris-Foulkes estimate   =    -287.47435770 Ry
     estimated scf accuracy    <       0.01342347 Ry

     iteration #  6     ecut=    50.00 Ry     beta=0.70
     Davidson diagonalization with overlap
     ethr =  1.89E-05,  avg # of iterations =  1.0

     negative rho (up, down):  3.567E-04 0.000E+00

     total cpu time spent up to now is    28011.4 secs

     total energy              =    -287.47330507 Ry
     Harris-Foulkes estimate   =    -287.47358281 Ry
     estimated scf accuracy    <       0.00100557 Ry

     iteration #  7     ecut=    50.00 Ry     beta=0.70
     Davidson diagonalization with overlap
     ethr =  1.42E-06,  avg # of iterations =  4.2

     negative rho (up, down):  3.652E-04 0.000E+00

     total cpu time spent up to now is    28036.8 secs

     total energy              =    -287.47344590 Ry
     Harris-Foulkes estimate   =    -287.47353195 Ry
     estimated scf accuracy    <       0.00030880 Ry

     iteration #  8     ecut=    50.00 Ry     beta=0.70
     Davidson diagonalization with overlap
     ethr =  4.35E-07,  avg # of iterations =  2.0

     negative rho (up, down):  3.719E-04 0.000E+00

     total cpu time spent up to now is    28059.1 secs

     total energy              =    -287.47349255 Ry
     Harris-Foulkes estimate   =    -287.47349589 Ry
     estimated scf accuracy    <       0.00002219 Ry

     iteration #  9     ecut=    50.00 Ry     beta=0.70
     Davidson diagonalization with overlap
     ethr =  3.13E-08,  avg # of iterations =  2.9

     negative rho (up, down):  3.739E-04 0.000E+00

     total cpu time spent up to now is    28083.0 secs

     total energy              =    -287.47349561 Ry
     Harris-Foulkes estimate   =    -287.47349603 Ry
     estimated scf accuracy    <       0.00000251 Ry

     iteration # 10     ecut=    50.00 Ry     beta=0.70
     Davidson diagonalization with overlap
     ethr =  3.54E-09,  avg # of iterations =  3.0

     negative rho (up, down):  3.757E-04 0.000E+00

     total cpu time spent up to now is    28107.4 secs

     End of self-consistent calculation

          k = 0.0000 0.0000 0.0000 ( 21247 PWs)   bands (ev):

   -29.1466 -14.5565 -14.3966 -14.3618 -11.4929 -11.2735  -9.1673  -8.5677
    -8.3821  -8.1862  -8.0869  -7.6388  -7.4565  -6.8771  -6.4317  -6.2117
    -5.9633  -5.8533  -5.5990  -5.2403  -4.9574  -4.6767  -4.5136  -4.3998
    -4.2612  -4.0975  -3.8780  -3.5617  -3.4320  -2.9884  -2.1683  -1.9355
    -1.4538  -0.7825   0.0667   0.3970   0.5392   0.7457   1.0056   1.4073
     1.6993   1.9217   2.2232

          k = 0.0611 0.0335-0.5036 ( 21362 PWs)   bands (ev):

   -29.1466 -14.5565 -14.3966 -14.3622 -11.4743 -11.2901  -9.1185  -8.6532
    -8.4254  -8.1915  -8.0632  -7.6755  -7.4268  -6.6718  -6.4738  -6.2850
    -6.0021  -5.8647  -5.6418  -5.2174  -4.9078  -4.6402  -4.5095  -4.3734
    -4.2190  -4.0998  -3.8980  -3.6250  -3.3571  -3.0042  -2.1491  -1.8928
    -1.4468  -0.8454  -0.0640   0.0168   0.4637   0.8922   1.0040   1.4192
     1.4909   2.0642   2.1845

          k = 0.0520-0.3541-0.4669 ( 21216 PWs)   bands (ev):

   -29.1466 -14.5565 -14.3967 -14.3622 -11.4686 -11.2953  -9.1166  -8.6677
    -8.4037  -8.1944  -8.0674  -7.6875  -7.4146  -6.6802  -6.5372  -6.2259
    -6.0090  -5.8537  -5.6220  -5.1848  -4.9077  -4.6280  -4.5138  -4.3894
    -4.1969  -4.1438  -3.8973  -3.6326  -3.3835  -3.0245  -2.1184  -1.8868
    -1.4484  -0.8442  -0.0508  -0.0111   0.4431   0.9102   1.0474   1.4332
     1.4723   2.0872   2.1862

          k =-0.4640-0.3576-0.3978 ( 21368 PWs)   bands (ev):

   -29.1466 -14.5582 -14.3982 -14.3622 -11.4611 -11.2851  -9.1542  -8.5865
    -8.4960  -8.1916  -8.0804  -7.6368  -7.3515  -6.7943  -6.3601  -6.2390
    -6.1370  -5.8271  -5.6935  -5.2074  -4.9263  -4.6464  -4.4736  -4.3834
    -4.1828  -4.1410  -3.9363  -3.6798  -3.3377  -2.9357  -2.1137  -1.8215
    -1.3954  -0.9766  -0.0254   0.1557   0.4781   0.8131   1.1110   1.4419
     1.5750   1.8872   2.0680

          k =-0.5160-0.0035 0.0691 ( 21362 PWs)   bands (ev):

   -29.1466 -14.5582 -14.3982 -14.3621 -11.4833 -11.2646  -9.1251  -8.6624
    -8.3590  -8.2644  -8.0767  -7.5950  -7.4361  -6.7209  -6.4047  -6.3737
    -5.9834  -5.8746  -5.6443  -5.2022  -4.9279  -4.6724  -4.5057  -4.4212
    -4.2127  -4.1561  -3.9258  -3.6093  -3.4043  -2.9038  -2.1051  -1.9412
    -1.3836  -0.7088   0.0801   0.1991   0.5330   0.9341   1.0504   1.2169
     1.5109   1.8261   2.2502

          k =-0.0091-0.3876 0.0367 ( 21362 PWs)   bands (ev):

   -29.1466 -14.5566 -14.3966 -14.3618 -11.4866 -11.2800  -9.1695  -8.5641
    -8.3680  -8.1956  -8.0867  -7.6496  -7.4708  -6.8746  -6.4551  -6.1723
    -5.9685  -5.8438  -5.5939  -5.2130  -4.9593  -4.6471  -4.5184  -4.4362
    -4.2190  -4.1607  -3.8752  -3.5896  -3.4269  -3.0065  -2.1504  -1.9277
    -1.4498  -0.7913   0.1098   0.3851   0.5449   0.7241   1.0382   1.3846
     1.6909   1.8663   2.2633

          k =-0.5771-0.0370 0.5726 ( 21216 PWs)   bands (ev):

   -29.1466 -14.5581 -14.3982 -14.3622 -11.4659 -11.2802  -9.1574  -8.6252
    -8.4321  -8.1857  -8.0902  -7.6473  -7.3588  -6.8017  -6.4195  -6.1848
    -6.0787  -5.8570  -5.7004  -5.2032  -4.9256  -4.6373  -4.5278  -4.4138
    -4.1575  -4.0975  -3.9413  -3.6688  -3.3668  -2.9298  -2.0921  -1.8266
    -1.3657  -0.9816  -0.0154   0.1394   0.4747   0.8353   1.0402   1.3555
     1.6383   1.9015   2.1697

          k =-0.5070 0.3841 0.0324 ( 21216 PWs)   bands (ev):

   -29.1466 -14.5582 -14.3982 -14.3620 -11.4776 -11.2702  -9.1249  -8.6407
    -8.3561  -8.3066  -8.0732  -7.6021  -7.4233  -6.7124  -6.4218  -6.3228
    -5.9878  -5.8688  -5.6925  -5.2007  -4.9353  -4.6470  -4.4780  -4.3856
    -4.2915  -4.1524  -3.9269  -3.5916  -3.3918  -2.9084  -2.1166  -1.9467
    -1.4001  -0.7124   0.0917   0.2604   0.4853   0.9009   1.1050   1.2556
     1.4151   1.8294   2.1521

     the Fermi energy is     0.2268 ev

!    total energy              =    -287.47349564 Ry
     Harris-Foulkes estimate   =    -287.47349600 Ry
     estimated scf accuracy    <       0.00000050 Ry

     The total energy is the sum of the following terms:

     one-electron contribution =    -107.48150554 Ry
     hartree contribution      =      69.02272554 Ry
     xc contribution           =     -97.04060813 Ry
     ewald contribution        =     -45.99688058 Ry
     one-center paw contrib.   =    -105.97698624 Ry
     smearing contrib. (-TS)   =      -0.00024069 Ry

     convergence has been achieved in  10 iterations

     negative rho (up, down):  3.757E-04 0.000E+00

     Forces acting on atoms (cartesian axes, Ry/au):

     atom    1 type  1   force =     0.00778233    0.00835400   -0.00824169
     atom    2 type  1   force =    -0.00151536   -0.00067537    0.00713901
     atom    3 type  2   force =     0.00934389    0.00125471    0.01713313
     atom    4 type  3   force =     0.00817136   -0.00833083    0.00062613
     atom    5 type  3   force =     0.02739775    0.00832691   -0.00835452
     atom    6 type  4   force =     0.03482731    0.01845957    0.02312430
     atom    7 type  4   force =    -0.00521816   -0.00923386    0.02347085
     atom    8 type  4   force =    -0.01419253   -0.01154377    0.00375380
     atom    9 type  4   force =     0.00461981    0.01478951    0.03195771
     atom   10 type  4   force =     0.01435339   -0.00170050    0.01274542
     atom   11 type  4   force =    -0.00170223   -0.00049816    0.01201441
     atom   12 type  4   force =    -0.00174116   -0.01415390    0.01931893
     atom   13 type  5   force =     0.00595310    0.00725846    0.00198058
     atom   14 type  5   force =    -0.02015320   -0.01791596    0.00318390
     atom   15 type  5   force =    -0.02544640   -0.01896238    0.01280191
     atom   16 type  5   force =    -0.03451537   -0.00184016   -0.01473582
     atom   17 type  5   force =    -0.00294024    0.01187269   -0.00766581
     atom   18 type  5   force =    -0.01061285   -0.00718968   -0.00907902
     atom   19 type  5   force =    -0.00683613   -0.02841286   -0.02472149
     atom   20 type  5   force =    -0.01227835    0.00447011   -0.01187575
     atom   21 type  5   force =     0.01386847    0.00963838    0.01364277
     atom   22 type  5   force =     0.01195235    0.02277211    0.01101689
     atom   23 type  5   force =     0.01688305   -0.01063110   -0.01574444
     atom   24 type  5   force =     0.00242082    0.00212922   -0.00250923
     atom   25 type  5   force =    -0.00251687    0.00103153   -0.00055068
     atom   26 type  5   force =    -0.02430242   -0.00854736    0.02728332
     atom   27 type  5   force =    -0.00453623    0.01707478   -0.03450462
     atom   28 type  5   force =     0.00129369   -0.00745703    0.00266177
     atom   29 type  5   force =    -0.00704963    0.00059255   -0.00907799
     atom   30 type  5   force =     0.00321646    0.02917204   -0.03905255
     atom   31 type  5   force =    -0.01149380    0.00280178   -0.00091108
     atom   32 type  5   force =     0.00865392    0.00185149   -0.00179105
     atom   33 type  5   force =     0.00397650    0.01493411   -0.02606026
     atom   34 type  5   force =    -0.01189637   -0.00836030    0.00092222
     atom   35 type  5   force =     0.00294411   -0.00779560    0.00479430
     atom   36 type  5   force =    -0.00008014   -0.01431921    0.00568071
     atom   37 type  5   force =     0.01324520    0.01172184    0.00828754
     atom   38 type  5   force =    -0.00012250    0.00331367    0.00222144
     atom   39 type  5   force =    -0.00057341   -0.00096483   -0.00655005
     atom   40 type  5   force =     0.01398050    0.00025312   -0.01242312
     atom   41 type  5   force =     0.00063996   -0.00065922   -0.00667379
     atom   42 type  5   force =    -0.00030101    0.00314795   -0.00060910
     atom   43 type  5   force =    -0.00339934   -0.01283377    0.00406505
     atom   44 type  5   force =    -0.00210025   -0.00319469   -0.00869401

     Total force =     0.151636     Total SCF correction =     0.000610


     Computing stress (Cartesian axis) and pressure


     negative rho (up, down):  3.757E-04 0.000E+00
          total   stress  (Ry/bohr**3)                   (kbar)     P=    6.76
  -0.00000703  -0.00001878   0.00004076         -1.03     -2.76      6.00
  -0.00001878   0.00008323  -0.00001731         -2.76     12.24     -2.55
   0.00004076  -0.00001731   0.00006168          6.00     -2.55      9.07


     number of scf cycles    =  22
     number of bfgs steps    =  20

     enthalpy old            =    -287.4108873593 Ry
     enthalpy new            =    -287.4734956351 Ry

     CASE: enthalpy_new < enthalpy_old

     new trust radius        =       0.2137357513 bohr
     new conv_thr            =       0.0000003905 Ry

     new unit-cell volume =   4507.87921 a.u.^3 (   667.99877 Ang^3 )
     density =      0.93820 g/cm^3

CELL_PARAMETERS (angstrom)
   7.873719615  -0.160610627   0.994712658
  -0.030751024  10.550540672   0.698842245
   1.146984694   0.754338861   8.238387741

ATOMIC_POSITIONS (angstrom)
K        5.884687152   5.910732043   2.905652429
K        4.437792940   1.198996399   7.028958884
Ba       6.702675792   7.882449544   6.758814199
Al       3.539040257   3.871323190   5.130992459
Al       1.694059886   9.321603549   6.479152438
B        1.254180851   8.828523110   2.629260639
B        4.811534279   5.660063533   7.666183298
B        7.890866246  10.457314431   7.687419410
B        3.949843797   6.930071658   6.127677512
B        6.047127811   2.238484674   3.523332446
B        4.865194607   3.206692075   2.737433630
B        3.988352882   7.968340801   1.642130482
H        7.091876446   4.452378951   5.552575636
H        2.793358841   8.421525491   2.108174880
H        1.530390034   7.913285680   7.265698008
H        6.970057349  10.159105544   7.020461090
H        1.437951911   3.721598213   3.281130742
H        5.536823858   3.015999560   4.390610467
H        8.237895215   7.902781134   4.000427282
H        3.989971603   7.779459892   6.992838963
H        6.009907332   5.382218225   7.498392155
H        7.698211792   0.992671154   7.564957578
H        4.472831987   7.406214174   5.116215481
H        6.604695021   2.907272338   7.777962062
H        7.827267197   4.591202395   5.656848397
H        1.624602172   8.784513549   4.878567186
H        5.125665093   9.352032742   8.784669110
H        1.295548937   4.273447842   2.821292469
H        2.870110550   6.409683321   5.947299889
H        1.761506355   9.409358717   3.578728814
H        5.800211925   1.072317238   3.416669634
H        3.080192834   2.839232971   1.441435593
H        4.700267618   5.891930107   6.385758740
H        2.544784207   2.344563106   1.680667669
H        4.555883927   0.664043162   1.864866209
H        6.358673302   3.506948908   7.389016449
H        3.120732643  10.008569501   6.506890298
H        7.113995790   2.519020502   3.066709717
H        6.277880809   2.242790358   4.817674338
H        4.459422754   6.411647133   8.577410415
H        3.970204277   3.940062489   3.185391818
H        5.139001659   4.559985861   5.017757859
H        4.183675083   4.626246127   7.607256405
H        4.327257259   0.785322460   1.161097688



     Writing output data file 00_K2BaAl2B7H32_Monster.save
     NEW-OLD atomic charge density approx. for the potential

     negative rho (up, down):  5.230E-04 0.000E+00
     extrapolated charge   70.74422, renormalised to   71.00000

     total cpu time spent up to now is    28932.5 secs

     Self-consistent Calculation

     iteration #  1     ecut=    50.00 Ry     beta=0.70
     Davidson diagonalization with overlap
     ethr =  1.00E-06,  avg # of iterations = 11.0

     negative rho (up, down):  2.346E-04 0.000E+00

     total cpu time spent up to now is    28990.4 secs

     total energy              =    -287.50366072 Ry
     Harris-Foulkes estimate   =    -287.78558063 Ry
     estimated scf accuracy    <       0.04941558 Ry

     iteration #  2     ecut=    50.00 Ry     beta=0.70
     Davidson diagonalization with overlap
     ethr =  6.96E-05,  avg # of iterations =  3.6

     negative rho (up, down):  1.716E-04 0.000E+00

     total cpu time spent up to now is    29019.9 secs

     total energy              =    -287.42058344 Ry
     Harris-Foulkes estimate   =    -287.61384333 Ry
     estimated scf accuracy    <       1.35528025 Ry

     iteration #  3     ecut=    50.00 Ry     beta=0.70
     Davidson diagonalization with overlap
     ethr =  6.96E-05,  avg # of iterations =  5.0

     negative rho (up, down):  1.478E-04 0.000E+00

     total cpu time spent up to now is    29048.5 secs

     total energy              =    -287.51905013 Ry
     Harris-Foulkes estimate   =    -287.53773769 Ry
     estimated scf accuracy    <       0.05626194 Ry

     iteration #  4     ecut=    50.00 Ry     beta=0.70
     Davidson diagonalization with overlap
     ethr =  6.96E-05,  avg # of iterations =  4.0

     negative rho (up, down):  1.031E-04 0.000E+00

     total cpu time spent up to now is    29072.7 secs

     total energy              =    -287.51799198 Ry
     Harris-Foulkes estimate   =    -287.53160119 Ry
     estimated scf accuracy    <       0.07433769 Ry

     iteration #  5     ecut=    50.00 Ry     beta=0.70
     Davidson diagonalization with overlap
     ethr =  6.96E-05,  avg # of iterations =  2.0

     negative rho (up, down):  9.642E-05 0.000E+00

     total cpu time spent up to now is    29094.7 secs

     total energy              =    -287.52578459 Ry
     Harris-Foulkes estimate   =    -287.52788418 Ry
     estimated scf accuracy    <       0.01709841 Ry

     iteration #  6     ecut=    50.00 Ry     beta=0.70
     Davidson diagonalization with overlap
     ethr =  2.41E-05,  avg # of iterations =  2.1

     negative rho (up, down):  1.077E-04 0.000E+00

     total cpu time spent up to now is    29117.4 secs

     total energy              =    -287.52641548 Ry
     Harris-Foulkes estimate   =    -287.52676091 Ry
     estimated scf accuracy    <       0.00232051 Ry

     iteration #  7     ecut=    50.00 Ry     beta=0.70
     Davidson diagonalization with overlap
     ethr =  3.27E-06,  avg # of iterations =  6.1

     negative rho (up, down):  1.157E-04 0.000E+00

     total cpu time spent up to now is    29142.4 secs

     total energy              =    -287.52651407 Ry
     Harris-Foulkes estimate   =    -287.52657887 Ry
     estimated scf accuracy    <       0.00060610 Ry

     iteration #  8     ecut=    50.00 Ry     beta=0.70
     Davidson diagonalization with overlap
     ethr =  8.54E-07,  avg # of iterations =  2.1

     negative rho (up, down):  1.291E-04 0.000E+00

     total cpu time spent up to now is    29165.2 secs

     total energy              =    -287.52653390 Ry
     Harris-Foulkes estimate   =    -287.52656592 Ry
     estimated scf accuracy    <       0.00018956 Ry

     iteration #  9     ecut=    50.00 Ry     beta=0.70
     Davidson diagonalization with overlap
     ethr =  2.67E-07,  avg # of iterations =  2.0

     negative rho (up, down):  1.376E-04 0.000E+00

     total cpu time spent up to now is    29187.4 secs

     total energy              =    -287.52654819 Ry
     Harris-Foulkes estimate   =    -287.52655149 Ry
     estimated scf accuracy    <       0.00002623 Ry

     iteration # 10     ecut=    50.00 Ry     beta=0.70
     Davidson diagonalization with overlap
     ethr =  3.69E-08,  avg # of iterations =  3.4

     negative rho (up, down):  1.406E-04 0.000E+00

     total cpu time spent up to now is    29211.1 secs

     total energy              =    -287.52655147 Ry
     Harris-Foulkes estimate   =    -287.52655217 Ry
     estimated scf accuracy    <       0.00000391 Ry

     iteration # 11     ecut=    50.00 Ry     beta=0.70
     Davidson diagonalization with overlap
     ethr =  5.51E-09,  avg # of iterations =  3.1

     negative rho (up, down):  1.406E-04 0.000E+00

     total cpu time spent up to now is    29235.3 secs

     total energy              =    -287.52655162 Ry
     Harris-Foulkes estimate   =    -287.52655199 Ry
     estimated scf accuracy    <       0.00000177 Ry

     iteration # 12     ecut=    50.00 Ry     beta=0.70
     Davidson diagonalization with overlap
     ethr =  2.49E-09,  avg # of iterations =  2.0

     negative rho (up, down):  1.412E-04 0.000E+00

     total cpu time spent up to now is    29257.5 secs

     End of self-consistent calculation

          k = 0.0000 0.0000 0.0000 ( 21247 PWs)   bands (ev):

   -28.9173 -14.3914 -14.1853 -14.1503 -11.5335 -11.1221  -9.1470  -8.4370
    -8.3160  -8.1301  -7.9425  -7.5782  -7.4315  -6.9294  -6.3967  -6.2010
    -5.9511  -5.8673  -5.5998  -5.0917  -4.9672  -4.5943  -4.4720  -4.4218
    -4.2507  -4.0522  -3.9023  -3.5559  -3.5195  -3.1494  -2.2668  -1.9642
    -1.5051  -1.0011   0.0549   0.3732   0.5502   0.7519   1.0154   1.3949
     1.6897   2.0467   2.3771

          k = 0.0642 0.0335-0.5025 ( 21362 PWs)   bands (ev):

   -28.9173 -14.3914 -14.1853 -14.1508 -11.5248 -11.1285  -9.1037  -8.5173
    -8.3386  -8.1574  -7.9274  -7.6145  -7.4188  -6.7036  -6.4729  -6.2504
    -5.9808  -5.8689  -5.6225  -5.0468  -4.9572  -4.5695  -4.4584  -4.3750
    -4.2642  -4.0577  -3.8821  -3.6530  -3.4222  -3.1558  -2.1900  -2.0086
    -1.4935  -1.0323  -0.0442   0.0014   0.4727   0.9054   0.9963   1.3670
     1.4498   2.2229   2.3097

          k = 0.0516-0.3521-0.4655 ( 21216 PWs)   bands (ev):

   -28.9173 -14.3915 -14.1853 -14.1508 -11.5225 -11.1301  -9.1021  -8.5350
    -8.3191  -8.1552  -7.9306  -7.6293  -7.4075  -6.7112  -6.5187  -6.1955
    -5.9919  -5.8617  -5.6067  -5.0227  -4.9525  -4.5349  -4.4771  -4.4093
    -4.2356  -4.0705  -3.8906  -3.6602  -3.4638  -3.1729  -2.1933  -1.9745
    -1.4894  -1.0297  -0.0465  -0.0113   0.4555   0.9139   1.0382   1.3639
     1.4528   2.2397   2.3210

          k =-0.4710-0.3584-0.3921 ( 21368 PWs)   bands (ev):

   -28.9173 -14.3931 -14.1879 -14.1506 -11.5179 -11.1140  -9.1362  -8.4759
    -8.4127  -8.1282  -7.9489  -7.5827  -7.3061  -6.8419  -6.3445  -6.2100
    -6.1237  -5.8072  -5.7183  -5.0959  -4.9400  -4.5658  -4.4349  -4.3890
    -4.2175  -4.0936  -3.9445  -3.6911  -3.4192  -3.0512  -2.1647  -1.9256
    -1.4501  -1.1459  -0.0274   0.1303   0.4953   0.8225   1.1065   1.4487
     1.5862   2.0293   2.1571

          k =-0.5227-0.0064 0.0734 ( 21362 PWs)   bands (ev):

   -28.9173 -14.3930 -14.1880 -14.1505 -11.5278 -11.1060  -9.1074  -8.5347
    -8.3292  -8.1635  -7.9369  -7.5522  -7.3986  -6.7767  -6.3694  -6.3274
    -5.9903  -5.8722  -5.6607  -5.1020  -4.9529  -4.5839  -4.4607  -4.4019
    -4.2026  -4.1289  -3.9618  -3.5958  -3.4929  -3.0336  -2.2125  -1.9637
    -1.4372  -0.9129   0.0772   0.1964   0.5321   0.9342   1.0530   1.1762
     1.4673   1.9876   2.3844

          k =-0.0125-0.3855 0.0370 ( 21362 PWs)   bands (ev):

   -28.9173 -14.3915 -14.1853 -14.1503 -11.5306 -11.1251  -9.1490  -8.4342
    -8.3044  -8.1359  -7.9439  -7.5911  -7.4422  -6.9294  -6.4198  -6.1540
    -5.9567  -5.8548  -5.6029  -5.0711  -4.9611  -4.5656  -4.4906  -4.4437
    -4.2190  -4.0985  -3.8957  -3.5972  -3.5116  -3.1657  -2.2792  -1.9311
    -1.4943  -1.0111   0.0977   0.3535   0.5478   0.7440   1.0320   1.3784
     1.6987   2.0018   2.4202

          k =-0.5868-0.0399 0.5759 ( 21216 PWs)   bands (ev):

   -28.9173 -14.3930 -14.1879 -14.1506 -11.5197 -11.1123  -9.1381  -8.5268
    -8.3428  -8.1087  -7.9633  -7.5964  -7.3139  -6.8474  -6.4122  -6.1314
    -6.0885  -5.8304  -5.7274  -5.0966  -4.9381  -4.5651  -4.4917  -4.3927
    -4.1739  -4.0803  -3.9492  -3.6773  -3.4508  -3.0436  -2.1618  -1.9107
    -1.4207  -1.1565  -0.0303   0.1304   0.4977   0.8318   1.0516   1.3602
     1.6357   2.0531   2.2913

          k =-0.5101 0.3791 0.0363 ( 21216 PWs)   bands (ev):

   -28.9173 -14.3931 -14.1879 -14.1505 -11.5252 -11.1084  -9.1075  -8.5050
    -8.3287  -8.2154  -7.9346  -7.5598  -7.3786  -6.7691  -6.3662  -6.3072
    -5.9806  -5.8654  -5.7109  -5.0914  -4.9594  -4.5553  -4.4476  -4.3901
    -4.2783  -4.1117  -3.9560  -3.5846  -3.4763  -3.0400  -2.2126  -1.9796
    -1.4485  -0.9177   0.0864   0.2518   0.4876   0.9062   1.1104   1.1823
     1.4048   1.9852   2.2576

     the Fermi energy is     0.2173 ev

!    total energy              =    -287.52655177 Ry
     Harris-Foulkes estimate   =    -287.52655184 Ry
     estimated scf accuracy    <       0.00000009 Ry

     The total energy is the sum of the following terms:

     one-electron contribution =    -106.22032004 Ry
     hartree contribution      =      68.43436246 Ry
     xc contribution           =     -96.98702468 Ry
     ewald contribution        =     -46.78151301 Ry
     one-center paw contrib.   =    -105.97178202 Ry
     smearing contrib. (-TS)   =      -0.00027449 Ry

     convergence has been achieved in  12 iterations

     negative rho (up, down):  1.412E-04 0.000E+00

     Forces acting on atoms (cartesian axes, Ry/au):

     atom    1 type  1   force =     0.00728764    0.00770025   -0.00779137
     atom    2 type  1   force =     0.00099526   -0.00132102    0.00890618
     atom    3 type  2   force =     0.00942232   -0.00852506    0.01473232
     atom    4 type  3   force =     0.01702848    0.00136603   -0.00430141
     atom    5 type  3   force =     0.00095190    0.00855549    0.00507390
     atom    6 type  4   force =     0.04588697    0.00860124    0.01800112
     atom    7 type  4   force =     0.00804857   -0.00912556    0.01511664
     atom    8 type  4   force =     0.01527890    0.02911994    0.03769693
     atom    9 type  4   force =     0.00377572    0.00799285    0.00940351
     atom   10 type  4   force =     0.00719065   -0.01336061    0.00465822
     atom   11 type  4   force =    -0.00117873    0.00439077    0.01257754
     atom   12 type  4   force =    -0.00912308    0.00857583   -0.01458431
     atom   13 type  5   force =    -0.00020793    0.00556663    0.00065939
     atom   14 type  5   force =    -0.02452426   -0.01515433    0.00416916
     atom   15 type  5   force =    -0.02168606   -0.00663796    0.00725163
     atom   16 type  5   force =    -0.05020621    0.00836054   -0.02226043
     atom   17 type  5   force =     0.00494664   -0.01841886    0.01654014
     atom   18 type  5   force =    -0.01621983    0.00709188   -0.00980239
     atom   19 type  5   force =     0.00230291   -0.01622821   -0.02035119
     atom   20 type  5   force =    -0.00960374    0.00377825   -0.00874433
     atom   21 type  5   force =    -0.00628375    0.01585073    0.01575836
     atom   22 type  5   force =     0.01462103   -0.02831671   -0.01705272
     atom   23 type  5   force =     0.01153543   -0.01494098   -0.00089037
     atom   24 type  5   force =     0.00288654   -0.00042801   -0.00057562
     atom   25 type  5   force =     0.00380182    0.00231173    0.00076289
     atom   26 type  5   force =    -0.02053486   -0.01083630    0.01726094
     atom   27 type  5   force =    -0.00372587   -0.00377008    0.00204450
     atom   28 type  5   force =    -0.00521675    0.02235898   -0.02106204
     atom   29 type  5   force =     0.00026245    0.00327304   -0.00529145
     atom   30 type  5   force =    -0.00713378    0.02185851   -0.03557804
     atom   31 type  5   force =    -0.01396778   -0.00839939   -0.00127260
     atom   32 type  5   force =    -0.00143648   -0.00813514    0.00331108
     atom   33 type  5   force =     0.00205588    0.01788210   -0.01837119
     atom   34 type  5   force =    -0.00162820    0.00138711   -0.00379632
     atom   35 type  5   force =    -0.00009724   -0.00562588   -0.00417735
     atom   36 type  5   force =    -0.00118985   -0.00877290    0.00354712
     atom   37 type  5   force =     0.01662873    0.00772520    0.00673581
     atom   38 type  5   force =     0.01390503    0.00951331    0.00117060
     atom   39 type  5   force =     0.00518415   -0.00381590    0.00007504
     atom   40 type  5   force =     0.01656554   -0.00954180   -0.01381533
     atom   41 type  5   force =    -0.00493335   -0.00161262   -0.00443435
     atom   42 type  5   force =    -0.01032397   -0.00225242    0.00084677
     atom   43 type  5   force =    -0.00268214   -0.00384440    0.00583535
     atom   44 type  5   force =     0.00134129   -0.00419629    0.00201768

     Total force =     0.149713     Total SCF correction =     0.000266


     Computing stress (Cartesian axis) and pressure


     negative rho (up, down):  1.412E-04 0.000E+00
          total   stress  (Ry/bohr**3)                   (kbar)     P=    3.10
  -0.00002670  -0.00001025   0.00005446         -3.93     -1.51      8.01
  -0.00001025   0.00005280  -0.00002151         -1.51      7.77     -3.16
   0.00005446  -0.00002151   0.00003722          8.01     -3.16      5.47


     number of scf cycles    =  23
     number of bfgs steps    =  21

     enthalpy old            =    -287.4734956351 Ry
     enthalpy new            =    -287.5265517689 Ry

     CASE: enthalpy_new < enthalpy_old

     new trust radius        =       0.3664862239 bohr
     new conv_thr            =       0.0000005021 Ry

     new unit-cell volume =   4479.66651 a.u.^3 (   663.81808 Ang^3 )
     density =      0.94410 g/cm^3

CELL_PARAMETERS (angstrom)
   7.730381662  -0.256291286   1.067686249
  -0.110012438  10.660342808   0.701330004
   1.248493043   0.763214199   8.284504560

ATOMIC_POSITIONS (angstrom)
K        5.801333356   5.922217469   2.941989703
K        4.454377202   1.213722358   7.136829328
Ba       6.672866484   7.959834288   6.930079960
Al       3.530066660   3.765196399   5.205778203
Al       1.705876836   9.392344324   6.526983340
B        1.227858165   8.897329743   2.705935612
B        4.807129528   5.648726597   7.764597296
B        7.723587801  10.474809605   7.811484805
B        3.920508641   7.000181223   6.218754785
B        5.990162673   2.181312891   3.633659203
B        4.803095154   3.163941865   2.854825265
B        3.863432754   7.957865927   1.657536730
H        6.999589552   4.459433656   5.653934663
H        2.616104078   8.392576225   2.114551639
H        1.452173006   7.948940587   7.323197872
H        6.815542554  10.172267560   7.073539722
H        1.415092503   3.779893937   3.301954558
H        5.395093939   2.946268905   4.432605098
H        8.071160865   7.796611632   4.002322979
H        3.910375545   7.893514683   7.039048638
H        6.030126681   5.395081845   7.624331252
H        7.694856709   0.966099163   7.674233231
H        4.450219383   7.417274790   5.161240223
H        6.603974383   2.814337536   7.877989927
H        7.735483231   4.572777219   5.755291510
H        1.534263302   8.843254275   4.969204217
H        5.050622204   9.435020714   8.826766668
H        1.262321035   4.300749750   2.820875021
H        2.849779624   6.437841039   5.988583472
H        1.701318699   9.645031520   3.520721492
H        5.691816892   1.051946073   3.462139277
H        3.015350307   2.805749053   1.474044866
H        4.686113884   5.959904620   6.466133001
H        2.463320360   2.316329795   1.678269390
H        4.480816323   0.541147473   1.879031367
H        6.325596838   3.392310506   7.478234358
H        3.051543111  10.245312331   6.619175930
H        7.016021172   2.472697042   3.124331834
H        6.226391295   2.181579807   4.899876468
H        4.421037577   6.481507558   8.618397773
H        3.937676728   3.964695435   3.226473857
H        5.083370796   4.608731405   5.064833691
H        4.188387876   4.611013349   7.688165753
H        4.248600348   0.701665328   1.188250966



     Writing output data file 00_K2BaAl2B7H32_Monster.save
     NEW-OLD atomic charge density approx. for the potential

     negative rho (up, down):  2.926E-04 0.000E+00
     extrapolated charge   70.55322, renormalised to   71.00000

     total cpu time spent up to now is    30082.3 secs

     Self-consistent Calculation

     iteration #  1     ecut=    50.00 Ry     beta=0.70
     Davidson diagonalization with overlap
     ethr =  1.00E-06,  avg # of iterations = 12.8

     negative rho (up, down):  3.953E-05 0.000E+00

     total cpu time spent up to now is    30145.3 secs

     total energy              =    -287.53257782 Ry
     Harris-Foulkes estimate   =    -288.02294589 Ry
     estimated scf accuracy    <       0.10210483 Ry

     iteration #  2     ecut=    50.00 Ry     beta=0.70
     Davidson diagonalization with overlap
     ethr =  1.44E-04,  avg # of iterations =  4.6

     negative rho (up, down):  3.633E-06 0.000E+00

     total cpu time spent up to now is    30175.3 secs

     total energy              =    -287.41192797 Ry
     Harris-Foulkes estimate   =    -287.73313982 Ry
     estimated scf accuracy    <       1.83720434 Ry

     iteration #  3     ecut=    50.00 Ry     beta=0.70
     Davidson diagonalization with overlap
     ethr =  1.44E-04,  avg # of iterations =  4.9

     negative rho (up, down):  2.802E-06 0.000E+00

     total cpu time spent up to now is    30203.7 secs

     total energy              =    -287.56573893 Ry
     Harris-Foulkes estimate   =    -287.60319852 Ry
     estimated scf accuracy    <       0.10003155 Ry

     iteration #  4     ecut=    50.00 Ry     beta=0.70
     Davidson diagonalization with overlap
     ethr =  1.41E-04,  avg # of iterations =  4.2

     total cpu time spent up to now is    30227.9 secs

     total energy              =    -287.57026450 Ry
     Harris-Foulkes estimate   =    -287.58644884 Ry
     estimated scf accuracy    <       0.07568148 Ry

     iteration #  5     ecut=    50.00 Ry     beta=0.70
     Davidson diagonalization with overlap
     ethr =  1.07E-04,  avg # of iterations =  2.0

     negative rho (up, down):  3.267E-06 0.000E+00

     total cpu time spent up to now is    30250.8 secs

     total energy              =    -287.57828090 Ry
     Harris-Foulkes estimate   =    -287.58324744 Ry
     estimated scf accuracy    <       0.03062743 Ry

     iteration #  6     ecut=    50.00 Ry     beta=0.70
     Davidson diagonalization with overlap
     ethr =  4.31E-05,  avg # of iterations =  3.1

     negative rho (up, down):  5.158E-06 0.000E+00

     total cpu time spent up to now is    30273.3 secs

     total energy              =    -287.57961784 Ry
     Harris-Foulkes estimate   =    -287.58026634 Ry
     estimated scf accuracy    <       0.00286061 Ry

     iteration #  7     ecut=    50.00 Ry     beta=0.70
     Davidson diagonalization with overlap
     ethr =  4.03E-06,  avg # of iterations =  7.5

     negative rho (up, down):  5.952E-06 0.000E+00

     total cpu time spent up to now is    30300.4 secs

     total energy              =    -287.57986004 Ry
     Harris-Foulkes estimate   =    -287.57996396 Ry
     estimated scf accuracy    <       0.00052343 Ry

     iteration #  8     ecut=    50.00 Ry     beta=0.70
     Davidson diagonalization with overlap
     ethr =  7.37E-07,  avg # of iterations =  2.9

     negative rho (up, down):  7.040E-06 0.000E+00

     total cpu time spent up to now is    30323.4 secs

     total energy              =    -287.57990183 Ry
     Harris-Foulkes estimate   =    -287.57994467 Ry
     estimated scf accuracy    <       0.00021307 Ry

     iteration #  9     ecut=    50.00 Ry     beta=0.70
     Davidson diagonalization with overlap
     ethr =  3.00E-07,  avg # of iterations =  2.0

     negative rho (up, down):  7.531E-06 0.000E+00

     total cpu time spent up to now is    30345.4 secs

     total energy              =    -287.57992201 Ry
     Harris-Foulkes estimate   =    -287.57992924 Ry
     estimated scf accuracy    <       0.00004208 Ry

     iteration # 10     ecut=    50.00 Ry     beta=0.70
     Davidson diagonalization with overlap
     ethr =  5.93E-08,  avg # of iterations =  2.6

     negative rho (up, down):  7.750E-06 0.000E+00

     total cpu time spent up to now is    30368.6 secs

     total energy              =    -287.57992788 Ry
     Harris-Foulkes estimate   =    -287.57992933 Ry
     estimated scf accuracy    <       0.00001313 Ry

     iteration # 11     ecut=    50.00 Ry     beta=0.70
     Davidson diagonalization with overlap
     ethr =  1.85E-08,  avg # of iterations =  2.0

     negative rho (up, down):  7.694E-06 0.000E+00

     total cpu time spent up to now is    30390.6 secs

     total energy              =    -287.57992814 Ry
     Harris-Foulkes estimate   =    -287.57992863 Ry
     estimated scf accuracy    <       0.00000246 Ry

     iteration # 12     ecut=    50.00 Ry     beta=0.70
     Davidson diagonalization with overlap
     ethr =  3.46E-09,  avg # of iterations =  2.6

     negative rho (up, down):  7.717E-06 0.000E+00

     total cpu time spent up to now is    30413.1 secs

     End of self-consistent calculation

          k = 0.0000 0.0000 0.0000 ( 21247 PWs)   bands (ev):

   -28.5342 -14.1181 -13.8487 -13.7964 -11.5497 -10.8084  -9.2633  -8.2326
    -8.1842  -8.0128  -7.8052  -7.4762  -7.4078  -6.9279  -6.3721  -6.1619
    -5.9413  -5.8368  -5.5538  -5.1491  -4.8155  -4.5182  -4.4721  -4.3845
    -4.2243  -4.0323  -3.9205  -3.6314  -3.5279  -3.3138  -2.6385  -1.8771
    -1.5570  -1.2598   0.0384   0.3376   0.5625   0.7708   1.0473   1.3558
     1.6501   2.2648   2.5973

          k = 0.0704 0.0337-0.5015 ( 21362 PWs)   bands (ev):

   -28.5342 -14.1181 -13.8488 -13.7971 -11.5450 -10.8097  -9.2289  -8.2970
    -8.1932  -8.0844  -7.7740  -7.5176  -7.4183  -6.6696  -6.4561  -6.2335
    -5.9763  -5.7976  -5.5209  -5.1673  -4.8183  -4.4978  -4.4261  -4.3731
    -4.2397  -4.0452  -3.8605  -3.6367  -3.5357  -3.3040  -2.5986  -1.9310
    -1.5332  -1.2627  -0.0178   0.0094   0.4788   0.9171   1.0163   1.2529
     1.4023   2.4084   2.5103

          k = 0.0525-0.3480-0.4637 ( 21216 PWs)   bands (ev):

   -28.5342 -14.1182 -13.8488 -13.7971 -11.5440 -10.8098  -9.2282  -8.3253
    -8.1811  -8.0583  -7.7817  -7.5350  -7.4095  -6.6755  -6.4936  -6.1729
    -5.9889  -5.7904  -5.5157  -5.1678  -4.7941  -4.4543  -4.4275  -4.3692
    -4.2877  -4.0323  -3.8745  -3.6374  -3.5852  -3.3154  -2.6012  -1.9150
    -1.5148  -1.2600  -0.0546   0.0304   0.4664   0.9240   1.0466   1.2432
     1.4130   2.4469   2.5103

          k =-0.4819-0.3589-0.3821 ( 21368 PWs)   bands (ev):

   -28.5342 -14.1201 -13.8532 -13.7966 -11.5394 -10.7867  -9.2573  -8.3660
    -8.1656  -8.0413  -7.8148  -7.4995  -7.2540  -6.8195  -6.2802  -6.1911
    -6.1478  -5.7442  -5.6462  -5.2231  -4.8355  -4.5272  -4.3942  -4.3709
    -4.1872  -4.0951  -3.9417  -3.6638  -3.5587  -3.1440  -2.5418  -1.8406
    -1.5179  -1.3489  -0.0292   0.0957   0.5362   0.8326   1.1274   1.4290
     1.5714   2.2331   2.2911

          k =-0.5344-0.0109 0.0815 ( 21362 PWs)   bands (ev):

   -28.5342 -14.1200 -13.8533 -13.7966 -11.5444 -10.7836  -9.2294  -8.3177
    -8.2583  -8.0097  -7.7809  -7.4803  -7.3806  -6.7303  -6.3286  -6.2671
    -6.0315  -5.8240  -5.6095  -5.2228  -4.8310  -4.4995  -4.4019  -4.3722
    -4.1978  -4.1082  -4.0150  -3.6310  -3.5399  -3.1452  -2.5916  -1.8514
    -1.4903  -1.1698   0.0731   0.2183   0.5119   0.9279   1.0538   1.1529
     1.4132   2.2177   2.5290

          k =-0.0179-0.3818 0.0379 ( 21362 PWs)   bands (ev):

   -28.5342 -14.1183 -13.8487 -13.7964 -11.5484 -10.8095  -9.2648  -8.2442
    -8.1544  -8.0260  -7.8052  -7.4913  -7.4129  -6.9288  -6.4021  -6.1015
    -5.9534  -5.8151  -5.5667  -5.1392  -4.8013  -4.5297  -4.4447  -4.3654
    -4.2643  -4.0532  -3.9095  -3.6591  -3.5405  -3.3197  -2.6490  -1.8635
    -1.5269  -1.2741   0.0819   0.3012   0.5577   0.7797   1.0509   1.3450
     1.6678   2.2443   2.6398

          k =-0.6048-0.0446 0.5831 ( 21216 PWs)   bands (ev):

   -28.5342 -14.1200 -13.8532 -13.7966 -11.5399 -10.7864  -9.2575  -8.3946
    -8.1425  -7.9816  -7.8326  -7.5278  -7.2608  -6.8297  -6.3600  -6.1188
    -6.0990  -5.7595  -5.6542  -5.2217  -4.8206  -4.5812  -4.3874  -4.3538
    -4.1818  -4.0918  -3.9542  -3.6482  -3.5787  -3.1336  -2.5441  -1.8178
    -1.4841  -1.3766  -0.0408   0.1125   0.5393   0.8338   1.0898   1.3534
     1.5989   2.2973   2.4480

          k =-0.5165 0.3709 0.0437 ( 21216 PWs)   bands (ev):

   -28.5342 -14.1201 -13.8533 -13.7966 -11.5432 -10.7844  -9.2297  -8.2773
    -8.2379  -8.1014  -7.7857  -7.4889  -7.3390  -6.7162  -6.3385  -6.2593
    -6.0162  -5.8117  -5.6521  -5.2136  -4.8424  -4.4634  -4.4269  -4.3708
    -4.2289  -4.0896  -3.9953  -3.6219  -3.5401  -3.1540  -2.5902  -1.8685
    -1.4877  -1.1790   0.0886   0.2539   0.4760   0.9120   1.0885   1.1356
     1.3871   2.2112   2.3748

     the Fermi energy is     0.2091 ev

!    total energy              =    -287.57992819 Ry
     Harris-Foulkes estimate   =    -287.57992849 Ry
     estimated scf accuracy    <       0.00000035 Ry

     The total energy is the sum of the following terms:

     one-electron contribution =    -104.10638626 Ry
     hartree contribution      =      67.45536395 Ry
     xc contribution           =     -96.90515298 Ry
     ewald contribution        =     -48.05694427 Ry
     one-center paw contrib.   =    -105.96603328 Ry
     smearing contrib. (-TS)   =      -0.00077534 Ry

     convergence has been achieved in  12 iterations

     negative rho (up, down):  7.717E-06 0.000E+00

     Forces acting on atoms (cartesian axes, Ry/au):

     atom    1 type  1   force =     0.00605655    0.00814590   -0.00760240
     atom    2 type  1   force =     0.00514091   -0.00168530    0.01077250
     atom    3 type  2   force =     0.00183016   -0.02498045    0.01032329
     atom    4 type  3   force =     0.02180744    0.01333279   -0.01074753
     atom    5 type  3   force =    -0.00768660    0.01342229    0.02195744
     atom    6 type  4   force =     0.04590056   -0.02345739    0.00554227
     atom    7 type  4   force =     0.01085694    0.01099617    0.00359983
     atom    8 type  4   force =     0.00931924    0.03499085    0.02987411
     atom    9 type  4   force =    -0.00618063   -0.00434542   -0.01816710
     atom   10 type  4   force =     0.00615578   -0.01052301    0.00181902
     atom   11 type  4   force =    -0.00095915    0.00855930    0.02009440
     atom   12 type  4   force =    -0.01175833    0.02443851   -0.03866291
     atom   13 type  5   force =    -0.00473251    0.00442319   -0.00036181
     atom   14 type  5   force =    -0.03329288   -0.00366288    0.01132645
     atom   15 type  5   force =    -0.01604364    0.00989902    0.00029051
     atom   16 type  5   force =    -0.02638606    0.03285761   -0.00467561
     atom   17 type  5   force =     0.00821785   -0.02543524    0.02423531
     atom   18 type  5   force =    -0.02628058    0.01953936   -0.01695700
     atom   19 type  5   force =     0.01844289    0.01159748   -0.01332780
     atom   20 type  5   force =    -0.00414977   -0.00182682   -0.00565624
     atom   21 type  5   force =    -0.01941051    0.01795727    0.01449405
     atom   22 type  5   force =     0.00907907   -0.05421981   -0.02843289
     atom   23 type  5   force =     0.00725414   -0.01341067    0.01274562
     atom   24 type  5   force =     0.00202798    0.00121936   -0.00071792
     atom   25 type  5   force =     0.00814567    0.00305845    0.00207383
     atom   26 type  5   force =    -0.01384690   -0.01123607    0.00333482
     atom   27 type  5   force =    -0.00095273   -0.02158720    0.02725434
     atom   28 type  5   force =    -0.00635471    0.02868114   -0.02831564
     atom   29 type  5   force =     0.01124063    0.00992150    0.00206630
     atom   30 type  5   force =    -0.01446202    0.01522255   -0.02534348
     atom   31 type  5   force =    -0.01660368   -0.02294633   -0.00272695
     atom   32 type  5   force =    -0.00189388   -0.00847401    0.00265194
     atom   33 type  5   force =     0.00424392    0.01329270   -0.00051916
     atom   34 type  5   force =    -0.00139127    0.00144147   -0.00323836
     atom   35 type  5   force =     0.00115755   -0.00547082    0.00106460
     atom   36 type  5   force =    -0.00060310   -0.00569601    0.00354735
     atom   37 type  5   force =     0.00943282   -0.00598582    0.00206151
     atom   38 type  5   force =     0.02433732    0.01170032   -0.00185269
     atom   39 type  5   force =     0.00911231   -0.00831830    0.00449203
     atom   40 type  5   force =     0.02093910   -0.02441100   -0.01514397
     atom   41 type  5   force =    -0.00605569   -0.00763070   -0.00218288
     atom   42 type  5   force =    -0.01764138   -0.00796501    0.00239030
     atom   43 type  5   force =    -0.00454514    0.00073942    0.00709609
     atom   44 type  5   force =     0.00053234   -0.00216839   -0.00047555

     Total force =     0.177493     Total SCF correction =     0.000479


     Computing stress (Cartesian axis) and pressure


     negative rho (up, down):  7.717E-06 0.000E+00
          total   stress  (Ry/bohr**3)                   (kbar)     P=   -1.68
  -0.00004487  -0.00000511   0.00005165         -6.60     -0.75      7.60
  -0.00000511   0.00000839  -0.00002075         -0.75      1.23     -3.05
   0.00005165  -0.00002075   0.00000220          7.60     -3.05      0.32


     number of scf cycles    =  24
     number of bfgs steps    =  22

     enthalpy old            =    -287.5265517689 Ry
     enthalpy new            =    -287.5799281923 Ry

     CASE: enthalpy_new < enthalpy_old

     new trust radius        =       0.4280072369 bohr
     new conv_thr            =       0.0000005422 Ry

     new unit-cell volume =   4429.46476 a.u.^3 (   656.37895 Ang^3 )
     density =      0.95481 g/cm^3

CELL_PARAMETERS (angstrom)
   7.564282071  -0.353436047   1.154608288
  -0.191367505  10.777711776   0.705031043
   1.365254093   0.772083663   8.323264086

ATOMIC_POSITIONS (angstrom)
K        5.699607900   5.939371170   2.979481990
K        4.480445074   1.228076891   7.256572449
Ba       6.635740547   8.017414461   7.112059242
Al       3.532625495   3.674075114   5.281127668
Al       1.714413684   9.489637266   6.589994398
B        1.222785124   8.937120696   2.783810147
B        4.810393173   5.659477233   7.865017486
B        7.560385518  10.506041036   7.947247422
B        3.886448341   7.073148230   6.299403514
B        5.928977600   2.108566292   3.760073781
B        4.736243462   3.138467983   2.990935904
B        3.713335148   7.968165602   1.670564987
H        6.896613230   4.467351270   5.763971066
H        2.419612128   8.376229226   2.123391976
H        1.382072185   8.009453235   7.377664249
H        6.659734279  10.243803164   7.147119198
H        1.399221638   3.839725973   3.327631466
H        5.230242445   2.897162534   4.462234026
H        7.897111981   7.720523959   4.026787429
H        3.826660825   8.011911441   7.079182638
H        6.036425818   5.427452140   7.758721790
H        7.672524409   0.899068096   7.775226072
H        4.428790345   7.425967908   5.221484530
H        6.605616476   2.716686650   7.986777210
H        7.632901091   4.560146877   5.865934304
H        1.448136054   8.899491869   5.050275143
H        4.981540394   9.506427170   8.874443903
H        1.222966167   4.334822526   2.811578683
H        2.836813691   6.464743715   6.036728112
H        1.619769922   9.889687754   3.446787882
H        5.568773962   0.995212104   3.506940292
H        2.942318913   2.770669343   1.510702307
H        4.668000429   6.045791097   6.556956738
H        2.370927201   2.285322155   1.673651127
H        4.396087772   0.402880400   1.899357239
H        6.296274912   3.269914657   7.574111756
H        2.974314960  10.481959863   6.728056129
H        6.913022586   2.439956935   3.197368930
H        6.177563625   2.115697294   4.999252944
H        4.390451920   6.526807707   8.651987050
H        3.886253248   3.989548283   3.270181914
H        5.007215765   4.645317554   5.106732569
H        4.190707989   4.610734206   7.774677499
H        4.155222644   0.613696792   1.214208799



     Writing output data file 00_K2BaAl2B7H32_Monster.save
     NEW-OLD atomic charge density approx. for the potential

     negative rho (up, down):  2.040E-04 0.000E+00
     extrapolated charge   70.19599, renormalised to   71.00000

     total cpu time spent up to now is    31238.8 secs

     Self-consistent Calculation

     iteration #  1     ecut=    50.00 Ry     beta=0.70
     Davidson diagonalization with overlap
     ethr =  1.00E-06,  avg # of iterations = 13.8

     negative rho (up, down):  1.079E-05 0.000E+00

     total cpu time spent up to now is    31301.8 secs

     total energy              =    -287.56424209 Ry
     Harris-Foulkes estimate   =    -288.40443321 Ry
     estimated scf accuracy    <       0.11359696 Ry

     iteration #  2     ecut=    50.00 Ry     beta=0.70
     Davidson diagonalization with overlap
     ethr =  1.60E-04,  avg # of iterations =  6.2

     negative rho (up, down):  1.267E-06 0.000E+00

     total cpu time spent up to now is    31334.8 secs

     total energy              =    -287.49437520 Ry
     Harris-Foulkes estimate   =    -287.75132173 Ry
     estimated scf accuracy    <       1.16352036 Ry

     iteration #  3     ecut=    50.00 Ry     beta=0.70
     Davidson diagonalization with overlap
     ethr =  1.60E-04,  avg # of iterations =  4.5

     total cpu time spent up to now is    31361.1 secs

     total energy              =    -287.60835580 Ry
     Harris-Foulkes estimate   =    -287.66180395 Ry
     estimated scf accuracy    <       0.18995163 Ry

     iteration #  4     ecut=    50.00 Ry     beta=0.70
     Davidson diagonalization with overlap
     ethr =  1.60E-04,  avg # of iterations =  3.8

     total cpu time spent up to now is    31385.5 secs

     total energy              =    -287.62090950 Ry
     Harris-Foulkes estimate   =    -287.63305581 Ry
     estimated scf accuracy    <       0.04338867 Ry

     iteration #  5     ecut=    50.00 Ry     beta=0.70
     Davidson diagonalization with overlap
     ethr =  6.11E-05,  avg # of iterations =  5.4

     total cpu time spent up to now is    31410.3 secs

     total energy              =    -287.62183713 Ry
     Harris-Foulkes estimate   =    -287.62838126 Ry
     estimated scf accuracy    <       0.02365655 Ry

     iteration #  6     ecut=    50.00 Ry     beta=0.70
     Davidson diagonalization with overlap
     ethr =  3.33E-05,  avg # of iterations =  2.0

     negative rho (up, down):  5.831E-07 0.000E+00

     total cpu time spent up to now is    31432.6 secs

     total energy              =    -287.62430416 Ry
     Harris-Foulkes estimate   =    -287.62971782 Ry
     estimated scf accuracy    <       0.02813573 Ry

     iteration #  7     ecut=    50.00 Ry     beta=0.70
     Davidson diagonalization with overlap
     ethr =  3.33E-05,  avg # of iterations =  1.0

     negative rho (up, down):  5.543E-07 0.000E+00

     total cpu time spent up to now is    31454.5 secs

     total energy              =    -287.62663701 Ry
     Harris-Foulkes estimate   =    -287.62694510 Ry
     estimated scf accuracy    <       0.00153391 Ry

     iteration #  8     ecut=    50.00 Ry     beta=0.70
     Davidson diagonalization with overlap
     ethr =  2.16E-06,  avg # of iterations =  6.2

     negative rho (up, down):  1.165E-06 0.000E+00

     total cpu time spent up to now is    31480.6 secs

     total energy              =    -287.62688900 Ry
     Harris-Foulkes estimate   =    -287.62692730 Ry
     estimated scf accuracy    <       0.00016786 Ry

     iteration #  9     ecut=    50.00 Ry     beta=0.70
     Davidson diagonalization with overlap
     ethr =  2.36E-07,  avg # of iterations =  3.0

     negative rho (up, down):  1.703E-06 0.000E+00

     total cpu time spent up to now is    31504.9 secs

     total energy              =    -287.62690513 Ry
     Harris-Foulkes estimate   =    -287.62691301 Ry
     estimated scf accuracy    <       0.00007774 Ry

     iteration # 10     ecut=    50.00 Ry     beta=0.70
     Davidson diagonalization with overlap
     ethr =  1.09E-07,  avg # of iterations =  1.0

     negative rho (up, down):  2.134E-06 0.000E+00

     total cpu time spent up to now is    31526.2 secs

     total energy              =    -287.62690791 Ry
     Harris-Foulkes estimate   =    -287.62690913 Ry
     estimated scf accuracy    <       0.00001064 Ry

     iteration # 11     ecut=    50.00 Ry     beta=0.70
     Davidson diagonalization with overlap
     ethr =  1.50E-08,  avg # of iterations =  2.0

     negative rho (up, down):  2.196E-06 0.000E+00

     total cpu time spent up to now is    31548.3 secs

     End of self-consistent calculation

          k = 0.0000 0.0000 0.0000 ( 21247 PWs)   bands (ev):

   -28.1526 -13.8347 -13.5393 -13.4545 -11.5436 -10.5505  -9.5025  -8.1374
    -8.0464  -7.8804  -7.6763  -7.4000  -7.2826  -6.8782  -6.3412  -6.1683
    -5.8739  -5.6898  -5.5466  -5.1560  -4.7026  -4.6131  -4.4058  -4.3051
    -4.1236  -4.0473  -3.8761  -3.6715  -3.4776  -3.4114  -2.9208  -1.8453
    -1.5687  -1.3816   0.0302   0.2917   0.6512   0.8518   1.1370   1.3274
     1.6751   2.4828   2.7858

          k = 0.0782 0.0342-0.5015 ( 21362 PWs)   bands (ev):

   -28.1526 -13.8347 -13.5396 -13.4555 -11.5403 -10.5480  -9.4734  -8.1719
    -8.0409  -7.9986  -7.6433  -7.4146  -7.3617  -6.5902  -6.4109  -6.2422
    -5.9125  -5.6152  -5.4730  -5.2774  -4.6747  -4.5590  -4.3943  -4.2874
    -4.1472  -4.0468  -3.8120  -3.6239  -3.5324  -3.4119  -2.8951  -1.9202
    -1.5277  -1.3717  -0.0206   0.0940   0.4864   0.9664   1.1111   1.2329
     1.3620   2.5078   2.7203

          k = 0.0546-0.3437-0.4626 ( 21216 PWs)   bands (ev):

   -28.1526 -13.8348 -13.5396 -13.4555 -11.5396 -10.5475  -9.4731  -8.1914
    -8.0503  -7.9596  -7.6590  -7.4274  -7.3531  -6.5878  -6.4490  -6.1844
    -5.9237  -5.5843  -5.5063  -5.2647  -4.6612  -4.5353  -4.3368  -4.3102
    -4.2083  -4.0472  -3.8070  -3.6458  -3.5585  -3.4129  -2.8980  -1.9212
    -1.4930  -1.3742  -0.0540   0.1134   0.4773   0.9760   1.1281   1.2184
     1.3761   2.5762   2.6885

          k =-0.4944-0.3595-0.3711 ( 21368 PWs)   bands (ev):

   -28.1526 -13.8384 -13.5452 -13.4546 -11.5344 -10.5147  -9.5014  -8.2603
    -8.0080  -7.9515  -7.6892  -7.4014  -7.1423  -6.7534  -6.2257  -6.1883
    -6.0710  -5.5821  -5.5664  -5.4085  -4.7479  -4.6425  -4.3501  -4.2581
    -4.1145  -4.0529  -3.9161  -3.6546  -3.5655  -3.2130  -2.8115  -1.8031
    -1.5816  -1.4143  -0.0335   0.0794   0.6434   0.8995   1.2176   1.4184
     1.6027   2.3248   2.5265

          k =-0.5490-0.0157 0.0915 ( 21362 PWs)   bands (ev):

   -28.1526 -13.8383 -13.5456 -13.4549 -11.5377 -10.5127  -9.4718  -8.1957
    -8.1544  -7.8841  -7.6413  -7.3794  -7.3387  -6.6198  -6.2496  -6.2273
    -6.0276  -5.6883  -5.5726  -5.3273  -4.6909  -4.5857  -4.3491  -4.3196
    -4.1118  -4.0762  -4.0056  -3.6944  -3.4687  -3.2210  -2.8490  -1.8115
    -1.5031  -1.3047   0.0799   0.2720   0.5167   0.9785   1.1039   1.2104
     1.4161   2.4338   2.6414

          k =-0.0236-0.3779 0.0389 ( 21362 PWs)   bands (ev):

   -28.1526 -13.8348 -13.5393 -13.4545 -11.5428 -10.5508  -9.5035  -8.1440
    -8.0110  -7.9168  -7.6680  -7.4142  -7.2822  -6.8783  -6.3849  -6.0990
    -5.8787  -5.6438  -5.5890  -5.1445  -4.7096  -4.6051  -4.3389  -4.3230
    -4.1901  -4.0585  -3.8566  -3.6871  -3.5290  -3.3792  -2.9289  -1.8522
    -1.5308  -1.3906   0.0736   0.2433   0.6504   0.8654   1.1402   1.3254
     1.6921   2.4817   2.7795

          k =-0.6271-0.0499 0.5930 ( 21216 PWs)   bands (ev):

   -28.1526 -13.8383 -13.5452 -13.4546 -11.5346 -10.5151  -9.5009  -8.2895
    -8.0201  -7.8409  -7.6976  -7.4588  -7.1514  -6.7694  -6.2958  -6.0962
    -6.0479  -5.6113  -5.5323  -5.4276  -4.7399  -4.6481  -4.3127  -4.3034
    -4.1260  -4.0430  -3.9415  -3.6519  -3.5600  -3.1953  -2.8173  -1.7789
    -1.5420  -1.4572  -0.0323   0.0877   0.6430   0.9078   1.1824   1.3713
     1.6044   2.5426   2.5513

          k =-0.5254 0.3622 0.0526 ( 21216 PWs)   bands (ev):

   -28.1526 -13.8384 -13.5456 -13.4549 -11.5370 -10.5129  -9.4720  -8.1753
    -8.0798  -8.0190  -7.6612  -7.3857  -7.2651  -6.5968  -6.3278  -6.1904
    -5.9889  -5.6655  -5.6310  -5.3133  -4.7196  -4.5918  -4.3632  -4.2670
    -4.1499  -4.0400  -3.9906  -3.6933  -3.4740  -3.2321  -2.8448  -1.8329
    -1.4794  -1.3244   0.0961   0.2883   0.4961   0.9686   1.0986   1.2010
     1.4127   2.4150   2.4850

     the Fermi energy is     0.2142 ev

!    total energy              =    -287.62690880 Ry
     Harris-Foulkes estimate   =    -287.62690892 Ry
     estimated scf accuracy    <       0.00000024 Ry

     The total energy is the sum of the following terms:

     one-electron contribution =    -102.32087360 Ry
     hartree contribution      =      66.69703427 Ry
     xc contribution           =     -96.87081764 Ry
     ewald contribution        =     -49.16947579 Ry
     one-center paw contrib.   =    -105.96094481 Ry
     smearing contrib. (-TS)   =      -0.00183122 Ry

     convergence has been achieved in  11 iterations

     negative rho (up, down):  2.196E-06 0.000E+00

     Forces acting on atoms (cartesian axes, Ry/au):

     atom    1 type  1   force =     0.00462151    0.00976355   -0.00796680
     atom    2 type  1   force =     0.00793657   -0.00289756    0.01105798
     atom    3 type  2   force =    -0.01860468   -0.03356311    0.00611307
     atom    4 type  3   force =     0.01723521    0.02322685   -0.01354672
     atom    5 type  3   force =    -0.00534761    0.01750149    0.02721882
     atom    6 type  4   force =     0.05507531   -0.02072406    0.01107799
     atom    7 type  4   force =    -0.00040682    0.00932380   -0.01224600
     atom    8 type  4   force =     0.00186078    0.03084402    0.01759407
     atom    9 type  4   force =    -0.01307347   -0.01251517   -0.03165052
     atom   10 type  4   force =     0.00769035   -0.02032799   -0.00600633
     atom   11 type  4   force =    -0.00120612    0.00708591    0.03165095
     atom   12 type  4   force =    -0.00681487    0.02967515   -0.04864733
     atom   13 type  5   force =    -0.00693227    0.00391383   -0.00072231
     atom   14 type  5   force =    -0.03454778    0.00853114    0.01974076
     atom   15 type  5   force =    -0.00914310    0.02239107   -0.00382290
     atom   16 type  5   force =    -0.01082243    0.03657791    0.00420959
     atom   17 type  5   force =     0.00597232   -0.01232493    0.01314584
     atom   18 type  5   force =    -0.03579014    0.02530823   -0.02898746
     atom   19 type  5   force =     0.01885235    0.02696225   -0.00273269
     atom   20 type  5   force =     0.00087685   -0.01052490   -0.00564567
     atom   21 type  5   force =    -0.01976264    0.01710145    0.01095195
     atom   22 type  5   force =     0.00636690   -0.05578328   -0.02546031
     atom   23 type  5   force =     0.00572274   -0.00724614    0.01649473
     atom   24 type  5   force =     0.00143422    0.00385040   -0.00123884
     atom   25 type  5   force =     0.00990526    0.00341378    0.00319322
     atom   26 type  5   force =    -0.00226745   -0.00690660   -0.00401955
     atom   27 type  5   force =     0.00040222   -0.02995985    0.03771327
     atom   28 type  5   force =    -0.00195321    0.01491475   -0.01718439
     atom   29 type  5   force =     0.01489712    0.01532116    0.00779846
     atom   30 type  5   force =    -0.02675805   -0.01262491   -0.03517973
     atom   31 type  5   force =    -0.01078873   -0.00919551    0.00008878
     atom   32 type  5   force =    -0.00573433   -0.01159944    0.00261508
     atom   33 type  5   force =     0.00773983    0.00544056    0.01137470
     atom   34 type  5   force =     0.00231294    0.00443365   -0.00352588
     atom   35 type  5   force =    -0.00319309   -0.00089722   -0.01053015
     atom   36 type  5   force =     0.00118281   -0.00321178    0.00416001
     atom   37 type  5   force =     0.00551657   -0.01891738   -0.00268036
     atom   38 type  5   force =     0.02644736    0.00769703   -0.00320602
     atom   39 type  5   force =     0.00949384   -0.01201440    0.00692696
     atom   40 type  5   force =     0.01947161   -0.02342685   -0.00343151
     atom   41 type  5   force =    -0.00437559   -0.01460918    0.00010417
     atom   42 type  5   force =    -0.01831794   -0.01052890    0.00361827
     atom   43 type  5   force =    -0.00083640    0.01102198    0.00715647
     atom   44 type  5   force =     0.00566204   -0.00450079    0.01442634

     Total force =     0.195792     Total SCF correction =     0.000409


     Computing stress (Cartesian axis) and pressure


     negative rho (up, down):  2.196E-06 0.000E+00
          total   stress  (Ry/bohr**3)                   (kbar)     P=   -4.79
  -0.00001506  -0.00000087   0.00003636         -2.22     -0.13      5.35
  -0.00000087  -0.00004774  -0.00001831         -0.13     -7.02     -2.69
   0.00003636  -0.00001831  -0.00003494          5.35     -2.69     -5.14


     number of scf cycles    =  25
     number of bfgs steps    =  23

     enthalpy old            =    -287.5799281923 Ry
     enthalpy new            =    -287.6269087954 Ry

     CASE: enthalpy_new < enthalpy_old

     new trust radius        =       0.4299478029 bohr
     new conv_thr            =       0.0000005578 Ry

     new unit-cell volume =   4372.45268 a.u.^3 (   647.93063 Ang^3 )
     density =      0.96725 g/cm^3

CELL_PARAMETERS (angstrom)
   7.408816112  -0.440296818   1.254962447
  -0.265616761  10.890030448   0.705693962
   1.491046788   0.774991695   8.354488116

ATOMIC_POSITIONS (angstrom)
K        5.602549174   5.973034974   3.017350661
K        4.528579735   1.230432205   7.387021742
Ba       6.603742727   8.026933927   7.291329275
Al       3.555189718   3.620204982   5.349231522
Al       1.738407432   9.615738733   6.670079843
B        1.272606778   8.957503033   2.874416197
B        4.822488945   5.673718787   7.958377805
B        7.436790218  10.553747276   8.091785764
B        3.863226954   7.145463906   6.365436935
B        5.891315639   1.999630087   3.892795993
B        4.684488029   3.137492102   3.151974689
B        3.560106556   8.004737826   1.674888577
H        6.810073773   4.479681340   5.879090880
H        2.222217181   8.379401911   2.140115537
H        1.328204403   8.091044305   7.423602822
H        6.514199131  10.372847207   7.227661441
H        1.395148379   3.899584274   3.354388980
H        5.054819354   2.882767583   4.460947293
H        7.748716353   7.683235057   4.072919847
H        3.755429535   8.108559613   7.104665272
H        6.047693483   5.490681008   7.904021458
H        7.658182671   0.789987784   7.870968449
H        4.427382881   7.420320209   5.294510043
H        6.626392764   2.626149060   8.102566810
H        7.550193876   4.554382264   5.987849799
H        1.380441741   8.941108468   5.119676815
H        4.940209637   9.546717699   8.925463924
H        1.188211853   4.366599212   2.796240992
H        2.836914466   6.488676067   6.089651210
H        1.517460578  10.098941063   3.338693794
H        5.455402309   0.923316102   3.556477436
H        2.875056347   2.728049556   1.548679242
H        4.662418625   6.143025134   6.648887586
H        2.284049763   2.258119427   1.670273358
H        4.313797645   0.264496705   1.916175433
H        6.290513843   3.147059823   7.675334704
H        2.919292270  10.677241968   6.824447293
H        6.836227290   2.425444190   3.290703463
H        6.151556837   2.041897013   5.112595229
H        4.394933721   6.530626146   8.685382756
H        3.829593154   3.997947427   3.311182794
H        4.928684858   4.658410293   5.144610531
H        4.203945665   4.628422697   7.868449495
H        4.074533075   0.526592183   1.256016808



     Writing output data file 00_K2BaAl2B7H32_Monster.save
     NEW-OLD atomic charge density approx. for the potential

     negative rho (up, down):  6.394E-05 0.000E+00
     extrapolated charge   70.07501, renormalised to   71.00000

     total cpu time spent up to now is    32373.6 secs

     Self-consistent Calculation

     iteration #  1     ecut=    50.00 Ry     beta=0.70
     Davidson diagonalization with overlap
     c_bands:  1 eigenvalues not converged
     ethr =  1.00E-06,  avg # of iterations = 15.8

     total cpu time spent up to now is    32437.7 secs

     total energy              =    -287.63312468 Ry
     Harris-Foulkes estimate   =    -288.56782238 Ry
     estimated scf accuracy    <       0.08616750 Ry

     iteration #  2     ecut=    50.00 Ry     beta=0.70
     Davidson diagonalization with overlap
     ethr =  1.21E-04,  avg # of iterations =  6.4

     total cpu time spent up to now is    32471.5 secs

     total energy              =    -287.63594951 Ry
     Harris-Foulkes estimate   =    -287.72523050 Ry
     estimated scf accuracy    <       0.25538346 Ry

     iteration #  3     ecut=    50.00 Ry     beta=0.70
     Davidson diagonalization with overlap
     ethr =  1.21E-04,  avg # of iterations =  4.6

     total cpu time spent up to now is    32499.0 secs

     total energy              =    -287.65880294 Ry
     Harris-Foulkes estimate   =    -287.68945865 Ry
     estimated scf accuracy    <       0.11564278 Ry

     iteration #  4     ecut=    50.00 Ry     beta=0.70
     Davidson diagonalization with overlap
     ethr =  1.21E-04,  avg # of iterations =  2.0

     total cpu time spent up to now is    32521.7 secs

     total energy              =    -287.67343119 Ry
     Harris-Foulkes estimate   =    -287.68287567 Ry
     estimated scf accuracy    <       0.02911627 Ry

     iteration #  5     ecut=    50.00 Ry     beta=0.70
     Davidson diagonalization with overlap
     ethr =  4.10E-05,  avg # of iterations =  3.9

     total cpu time spent up to now is    32545.6 secs

     total energy              =    -287.67418127 Ry
     Harris-Foulkes estimate   =    -287.67854032 Ry
     estimated scf accuracy    <       0.01901766 Ry

     iteration #  6     ecut=    50.00 Ry     beta=0.70
     Davidson diagonalization with overlap
     ethr =  2.68E-05,  avg # of iterations =  2.2

     total cpu time spent up to now is    32567.7 secs

     total energy              =    -287.67695861 Ry
     Harris-Foulkes estimate   =    -287.67845566 Ry
     estimated scf accuracy    <       0.01222502 Ry

     iteration #  7     ecut=    50.00 Ry     beta=0.70
     Davidson diagonalization with overlap
     ethr =  1.72E-05,  avg # of iterations =  1.0

     negative rho (up, down):  1.844E-06 0.000E+00

     total cpu time spent up to now is    32589.8 secs

     total energy              =    -287.67720538 Ry
     Harris-Foulkes estimate   =    -287.67756877 Ry
     estimated scf accuracy    <       0.00223030 Ry

     iteration #  8     ecut=    50.00 Ry     beta=0.70
     Davidson diagonalization with overlap
     ethr =  3.14E-06,  avg # of iterations =  5.4

     negative rho (up, down):  2.386E-06 0.000E+00

     total cpu time spent up to now is    32613.7 secs

     total energy              =    -287.67738912 Ry
     Harris-Foulkes estimate   =    -287.67740568 Ry
     estimated scf accuracy    <       0.00010380 Ry

     iteration #  9     ecut=    50.00 Ry     beta=0.70
     Davidson diagonalization with overlap
     ethr =  1.46E-07,  avg # of iterations =  3.6

     negative rho (up, down):  2.912E-06 0.000E+00

     total cpu time spent up to now is    32637.8 secs

     total energy              =    -287.67740320 Ry
     Harris-Foulkes estimate   =    -287.67740898 Ry
     estimated scf accuracy    <       0.00002267 Ry

     iteration # 10     ecut=    50.00 Ry     beta=0.70
     Davidson diagonalization with overlap
     ethr =  3.19E-08,  avg # of iterations =  2.2

     negative rho (up, down):  3.065E-06 0.000E+00

     total cpu time spent up to now is    32661.1 secs

     total energy              =    -287.67740671 Ry
     Harris-Foulkes estimate   =    -287.67740704 Ry
     estimated scf accuracy    <       0.00000129 Ry

     iteration # 11     ecut=    50.00 Ry     beta=0.70
     Davidson diagonalization with overlap
     ethr =  1.81E-09,  avg # of iterations =  3.1

     negative rho (up, down):  3.080E-06 0.000E+00

     total cpu time spent up to now is    32687.0 secs

     End of self-consistent calculation

          k = 0.0000 0.0000 0.0000 ( 21247 PWs)   bands (ev):

   -27.8852 -13.6342 -13.3149 -13.2292 -11.5488 -10.3918  -9.8463  -8.1216
    -8.0133  -7.8489  -7.5273  -7.3778  -7.1772  -6.8303  -6.3582  -6.2178
    -5.7856  -5.5526  -5.3120  -5.0886  -4.9186  -4.5596  -4.4043  -4.2547
    -4.0612  -4.0200  -3.8582  -3.6906  -3.5595  -3.4161  -3.1144  -1.8986
    -1.5326  -1.3807   0.0051   0.2101   0.8121   0.9905   1.2383   1.3753
     1.8478   2.6143   2.7857

          k = 0.0872 0.0347-0.5025 ( 21362 PWs)   bands (ev):

   -27.8852 -13.6342 -13.3156 -13.2307 -11.5462 -10.3815  -9.8265  -8.1460
    -8.0012  -7.9369  -7.5487  -7.3705  -7.3042  -6.5744  -6.3844  -6.2423
    -5.8219  -5.5345  -5.2525  -5.1862  -4.7851  -4.5697  -4.4000  -4.2490
    -4.0899  -4.0090  -3.7977  -3.6842  -3.5249  -3.4776  -3.0849  -1.9638
    -1.4975  -1.3628  -0.0347   0.1906   0.4610   1.0742   1.2720   1.3436
     1.3825   2.5369   2.7731

          k = 0.0582-0.3397-0.4626 ( 21216 PWs)   bands (ev):

   -27.8852 -13.6343 -13.3157 -13.2307 -11.5458 -10.3806  -9.8264  -8.1529
    -7.9990  -7.9309  -7.5674  -7.3563  -7.3114  -6.5629  -6.4230  -6.1951
    -5.8302  -5.5210  -5.2687  -5.1730  -4.7735  -4.5660  -4.3806  -4.2143
    -4.1436  -4.0268  -3.7922  -3.7024  -3.5542  -3.4605  -3.0874  -1.9693
    -1.4615  -1.3701  -0.0625   0.2074   0.4537   1.0812   1.2845   1.3210
     1.4009   2.5823   2.7934

          k =-0.5059-0.3601-0.3600 ( 21368 PWs)   bands (ev):

   -27.8852 -13.6424 -13.3194 -13.2295 -11.5399 -10.3374  -9.8517  -8.1956
    -8.0156  -7.9306  -7.5456  -7.3633  -7.0636  -6.7210  -6.2399  -6.1975
    -5.8956  -5.5681  -5.3961  -5.2867  -4.9246  -4.6666  -4.3530  -4.1935
    -4.0535  -3.9943  -3.9350  -3.7122  -3.5054  -3.2994  -2.9826  -1.8508
    -1.5756  -1.4036  -0.0699   0.0658   0.8036   1.0342   1.3268   1.4844
     1.7702   2.4088   2.6569

          k =-0.5640-0.0204 0.1026 ( 21362 PWs)   bands (ev):

   -27.8852 -13.6425 -13.3202 -13.2302 -11.5423 -10.3333  -9.8239  -8.1823
    -8.0932  -7.8377  -7.5504  -7.3727  -7.2756  -6.5664  -6.2456  -6.2094
    -5.9024  -5.5805  -5.4189  -5.2472  -4.7926  -4.6389  -4.3583  -4.3339
    -4.0276  -4.0074  -3.9903  -3.7386  -3.4397  -3.3068  -3.0136  -1.8578
    -1.4826  -1.3117   0.0716   0.2948   0.5606   1.0866   1.2505   1.3182
     1.5244   2.5708   2.7073

          k =-0.0290-0.3744 0.0399 ( 21362 PWs)   bands (ev):

   -27.8852 -13.6343 -13.3149 -13.2292 -11.5483 -10.3915  -9.8472  -8.1165
    -7.9910  -7.8923  -7.5138  -7.3867  -7.1746  -6.8286  -6.4109  -6.1522
    -5.7780  -5.5441  -5.3150  -5.0856  -4.9223  -4.5688  -4.3757  -4.2272
    -4.1235  -4.0297  -3.8496  -3.7064  -3.5866  -3.3900  -3.1199  -1.9080
    -1.5116  -1.3785   0.0451   0.1601   0.8138   1.0063   1.2546   1.3720
     1.8599   2.6169   2.7425

          k =-0.6512-0.0551 0.6051 ( 21216 PWs)   bands (ev):

   -27.8852 -13.6423 -13.3194 -13.2295 -11.5399 -10.3384  -9.8507  -8.2460
    -7.9949  -7.8212  -7.5494  -7.4496  -7.0687  -6.7344  -6.2861  -6.1118
    -5.8810  -5.5735  -5.3651  -5.3297  -4.9385  -4.6114  -4.3430  -4.2890
    -4.0536  -3.9877  -3.9255  -3.7034  -3.5101  -3.2788  -2.9891  -1.8336
    -1.5406  -1.4401  -0.0331   0.0357   0.8014   1.0508   1.2922   1.4650
     1.7500   2.6257   2.6718

          k =-0.5350 0.3540 0.0627 ( 21216 PWs)   bands (ev):

   -27.8852 -13.6425 -13.3202 -13.2302 -11.5418 -10.3331  -9.8240  -8.1226
    -8.0453  -8.0091  -7.5564  -7.3121  -7.2500  -6.5333  -6.3562  -6.1522
    -5.8745  -5.5835  -5.4626  -5.2152  -4.8010  -4.6990  -4.3632  -4.2096
    -4.0625  -4.0088  -3.9942  -3.7467  -3.4305  -3.3198  -3.0108  -1.8745
    -1.4518  -1.3389   0.0782   0.3049   0.5533   1.0727   1.2283   1.3077
     1.5382   2.5143   2.5842

     the Fermi energy is     0.2062 ev

!    total energy              =    -287.67740672 Ry
     Harris-Foulkes estimate   =    -287.67740710 Ry
     estimated scf accuracy    <       0.00000049 Ry

     The total energy is the sum of the following terms:

     one-electron contribution =    -101.29143085 Ry
     hartree contribution      =      66.33030388 Ry
     xc contribution           =     -96.96138910 Ry
     ewald contribution        =     -49.79558344 Ry
     one-center paw contrib.   =    -105.95665729 Ry
     smearing contrib. (-TS)   =      -0.00264993 Ry

     convergence has been achieved in  11 iterations

     negative rho (up, down):  3.080E-06 0.000E+00

     Forces acting on atoms (cartesian axes, Ry/au):

     atom    1 type  1   force =     0.00281860    0.01140287   -0.00798441
     atom    2 type  1   force =     0.00690585   -0.00438076    0.00841273
     atom    3 type  2   force =    -0.04653347   -0.02570253    0.00243567
     atom    4 type  3   force =     0.00170711    0.02525894   -0.00945328
     atom    5 type  3   force =    -0.01331496    0.00678442    0.01630094
     atom    6 type  4   force =     0.02074711    0.00352231    0.01586458
     atom    7 type  4   force =    -0.00292260    0.00034007   -0.03080016
     atom    8 type  4   force =    -0.01981181   -0.00409040   -0.01811936
     atom    9 type  4   force =    -0.02184848   -0.02939176   -0.03783165
     atom   10 type  4   force =     0.01421809    0.00298130   -0.01640609
     atom   11 type  4   force =     0.00117748   -0.00418027    0.03689655
     atom   12 type  4   force =     0.00014726    0.02314697   -0.04301111
     atom   13 type  5   force =    -0.00252018    0.00419010    0.00024541
     atom   14 type  5   force =    -0.00435580    0.00931991    0.01453479
     atom   15 type  5   force =     0.00113638    0.03230448   -0.00414259
     atom   16 type  5   force =     0.01248006    0.02138617    0.01926311
     atom   17 type  5   force =    -0.00002132    0.00585968   -0.00708039
     atom   18 type  5   force =    -0.02912374    0.01165514   -0.03042220
     atom   19 type  5   force =     0.01893829    0.03651478    0.01053700
     atom   20 type  5   force =     0.00553181   -0.01017374   -0.00019708
     atom   21 type  5   force =    -0.01440031    0.01016566    0.00437061
     atom   22 type  5   force =     0.00661061   -0.01972513   -0.00462438
     atom   23 type  5   force =     0.00705592    0.00291256    0.00903061
     atom   24 type  5   force =     0.00345884    0.00305329    0.00100804
     atom   25 type  5   force =     0.00456614    0.00309542    0.00326441
     atom   26 type  5   force =     0.01713224    0.00331064   -0.00472497
     atom   27 type  5   force =    -0.00215443   -0.02549021    0.03639016
     atom   28 type  5   force =     0.00600779   -0.00372259    0.00267489
     atom   29 type  5   force =     0.01679433    0.02046029    0.01130393
     atom   30 type  5   force =    -0.02423765   -0.04503417   -0.03545675
     atom   31 type  5   force =    -0.00272292   -0.00050913    0.00225348
     atom   32 type  5   force =    -0.00631688   -0.01136380    0.00136707
     atom   33 type  5   force =     0.01163406   -0.00460840    0.02044281
     atom   34 type  5   force =     0.00282371    0.00425106   -0.00271582
     atom   35 type  5   force =    -0.00051027   -0.00245447   -0.00241280
     atom   36 type  5   force =     0.00205340    0.00271726    0.00221006
     atom   37 type  5   force =     0.01337554   -0.02072879   -0.00390482
     atom   38 type  5   force =     0.01692050   -0.00807705    0.00029486
     atom   39 type  5   force =     0.00159176   -0.01231289    0.00424923
     atom   40 type  5   force =     0.00623189   -0.00229379    0.02005252
     atom   41 type  5   force =    -0.00562239   -0.01337358   -0.00040798
     atom   42 type  5   force =    -0.01006426   -0.00651122    0.00270139
     atom   43 type  5   force =     0.00045820    0.01044243    0.00418880
     atom   44 type  5   force =     0.00395851   -0.00095106    0.00940220

     Total force =     0.176566     Total SCF correction =     0.000880


     Computing stress (Cartesian axis) and pressure


     negative rho (up, down):  3.080E-06 0.000E+00
          total   stress  (Ry/bohr**3)                   (kbar)     P=   -3.53
   0.00004274   0.00000462   0.00001343          6.29      0.68      1.98
   0.00000462  -0.00007034  -0.00000165          0.68    -10.35     -0.24
   0.00001343  -0.00000165  -0.00004435          1.98     -0.24     -6.52


     number of scf cycles    =  26
     number of bfgs steps    =  24

     enthalpy old            =    -287.6269087954 Ry
     enthalpy new            =    -287.6774067199 Ry

     CASE: enthalpy_new < enthalpy_old

     new trust radius        =       0.1442808487 bohr
     new conv_thr            =       0.0000004653 Ry

     new unit-cell volume =   4388.23347 a.u.^3 (   650.26910 Ang^3 )
     density =      0.96378 g/cm^3

CELL_PARAMETERS (angstrom)
   7.448870341  -0.415339428   1.266584493
  -0.245877232  10.880212041   0.703512161
   1.493376888   0.768897242   8.346028992

ATOMIC_POSITIONS (angstrom)
K        5.632466490   6.004843046   3.016435378
K        4.559166793   1.210147505   7.393493747
Ba       6.620882872   7.977644737   7.274524730
Al       3.580877972   3.685505555   5.333698623
Al       1.754058243   9.640374295   6.682811435
B        1.334616330   8.954212908   2.879782434
B        4.848821257   5.683558572   7.945677736
B        7.506232683  10.574635424   8.089570233
B        3.888919343   7.139780678   6.340958990
B        5.935074499   1.993684924   3.890706372
B        4.716094438   3.166969595   3.175336936
B        3.575617551   8.047523611   1.663977030
H        6.854517900   4.489851436   5.881796164
H        2.247644480   8.400042016   2.152992598
H        1.351962935   8.122511365   7.417963672
H        6.557252176  10.441417752   7.241987411
H        1.414840842   3.892801273   3.354926079
H        5.065058297   2.922950679   4.426516317
H        7.820322975   7.757218224   4.107920040
H        3.785323336   8.081771568   7.092550963
H        6.065147199   5.533776339   7.909554894
H        7.687418814   0.759452121   7.863886584
H        4.467751772   7.410519439   5.306569911
H        6.664228643   2.652463334   8.108808848
H        7.597908592   4.572194660   5.996685729
H        1.413220033   8.927598909   5.108066485
H        4.991203425   9.509782260   8.936712213
H        1.201586688   4.368442705   2.793935666
H        2.857985411   6.491521264   6.095947542
H        1.516653463  10.025917714   3.310078413
H        5.486325405   0.901247722   3.562465267
H        2.893663692   2.725438051   1.548967063
H        4.693228935   6.152851787   6.645836426
H        2.301171849   2.267370769   1.675405628
H        4.336132273   0.276815108   1.922766441
H        6.332823714   3.170061107   7.679126851
H        2.969368577  10.608998087   6.809396212
H        6.893540888   2.447842667   3.316055268
H        6.193993601   2.043025954   5.122794278
H        4.449976063   6.493989367   8.697728838
H        3.833236082   3.983042996   3.301954197
H        4.944711537   4.629484360   5.139645366
H        4.221071226   4.647936334   7.872769120
H        4.099325668   0.542430908   1.264899177



     Writing output data file 00_K2BaAl2B7H32_Monster.save
     NEW-OLD atomic charge density approx. for the potential

     negative rho (up, down):  4.085E-06 0.000E+00
     extrapolated charge   71.25511, renormalised to   71.00000

     total cpu time spent up to now is    33512.2 secs

     Self-consistent Calculation

     iteration #  1     ecut=    50.00 Ry     beta=0.70
     Davidson diagonalization with overlap
     ethr =  1.00E-06,  avg # of iterations = 10.8

     negative rho (up, down):  1.767E-05 0.000E+00

     total cpu time spent up to now is    33566.2 secs

     total energy              =    -287.70127674 Ry
     Harris-Foulkes estimate   =    -287.48271311 Ry
     estimated scf accuracy    <       0.02627036 Ry

     iteration #  2     ecut=    50.00 Ry     beta=0.70
     Davidson diagonalization with overlap
     ethr =  3.70E-05,  avg # of iterations =  5.5

     total cpu time spent up to now is    33597.4 secs

     total energy              =    -287.69051337 Ry
     Harris-Foulkes estimate   =    -287.72842628 Ry
     estimated scf accuracy    <       0.13033219 Ry

     iteration #  3     ecut=    50.00 Ry     beta=0.70
     Davidson diagonalization with overlap
     ethr =  3.70E-05,  avg # of iterations =  4.9

     total cpu time spent up to now is    33625.4 secs

     total energy              =    -287.71010336 Ry
     Harris-Foulkes estimate   =    -287.71989026 Ry
     estimated scf accuracy    <       0.03085942 Ry

     iteration #  4     ecut=    50.00 Ry     beta=0.70
     Davidson diagonalization with overlap
     ethr =  3.70E-05,  avg # of iterations =  2.0

     negative rho (up, down):  2.178E-06 0.000E+00

     total cpu time spent up to now is    33647.7 secs

     total energy              =    -287.71180844 Ry
     Harris-Foulkes estimate   =    -287.71270958 Ry
     estimated scf accuracy    <       0.00221237 Ry

     iteration #  5     ecut=    50.00 Ry     beta=0.70
     Davidson diagonalization with overlap
     ethr =  3.12E-06,  avg # of iterations =  5.1

     negative rho (up, down):  3.107E-06 0.000E+00

     total cpu time spent up to now is    33676.9 secs

     total energy              =    -287.71190101 Ry
     Harris-Foulkes estimate   =    -287.71339624 Ry
     estimated scf accuracy    <       0.00847585 Ry

     iteration #  6     ecut=    50.00 Ry     beta=0.70
     Davidson diagonalization with overlap
     ethr =  3.12E-06,  avg # of iterations =  3.6

     negative rho (up, down):  3.980E-06 0.000E+00

     total cpu time spent up to now is    33700.2 secs

     total energy              =    -287.71255034 Ry
     Harris-Foulkes estimate   =    -287.71263215 Ry
     estimated scf accuracy    <       0.00029071 Ry

     iteration #  7     ecut=    50.00 Ry     beta=0.70
     Davidson diagonalization with overlap
     ethr =  4.09E-07,  avg # of iterations =  3.0

     negative rho (up, down):  4.011E-06 0.000E+00

     total cpu time spent up to now is    33724.5 secs

     total energy              =    -287.71259195 Ry
     Harris-Foulkes estimate   =    -287.71262972 Ry
     estimated scf accuracy    <       0.00013203 Ry

     iteration #  8     ecut=    50.00 Ry     beta=0.70
     Davidson diagonalization with overlap
     ethr =  1.86E-07,  avg # of iterations =  2.4

     negative rho (up, down):  4.999E-06 0.000E+00

     total cpu time spent up to now is    33746.9 secs

     total energy              =    -287.71260883 Ry
     Harris-Foulkes estimate   =    -287.71261964 Ry
     estimated scf accuracy    <       0.00004884 Ry

     iteration #  9     ecut=    50.00 Ry     beta=0.70
     Davidson diagonalization with overlap
     ethr =  6.88E-08,  avg # of iterations =  2.0

     negative rho (up, down):  5.332E-06 0.000E+00

     total cpu time spent up to now is    33768.9 secs

     total energy              =    -287.71261372 Ry
     Harris-Foulkes estimate   =    -287.71261443 Ry
     estimated scf accuracy    <       0.00000491 Ry

     iteration # 10     ecut=    50.00 Ry     beta=0.70
     Davidson diagonalization with overlap
     ethr =  6.92E-09,  avg # of iterations =  2.8

     negative rho (up, down):  5.282E-06 0.000E+00

     total cpu time spent up to now is    33792.3 secs

     End of self-consistent calculation

          k = 0.0000 0.0000 0.0000 ( 21247 PWs)   bands (ev):

   -28.0921 -13.7621 -13.4657 -13.4237 -11.4804 -10.4966 -10.0486  -8.2266
    -8.1119  -7.9015  -7.7459  -7.4142  -7.1883  -6.8185  -6.3888  -6.2748
    -5.7789  -5.6320  -5.3239  -5.2130  -5.0937  -4.6890  -4.4301  -4.2252
    -4.1306  -3.9762  -3.9056  -3.8011  -3.6591  -3.4716  -3.1117  -1.9639
    -1.4893  -1.3167   0.0101   0.2279   0.8321   1.0021   1.2601   1.4031
     1.8830   2.5372   2.7681

          k = 0.0875 0.0345-0.5030 ( 21362 PWs)   bands (ev):

   -28.0921 -13.7621 -13.4663 -13.4251 -11.4774 -10.4851 -10.0347  -8.2559
    -8.1527  -7.9371  -7.7390  -7.4045  -7.3147  -6.5696  -6.3941  -6.3194
    -5.8157  -5.6591  -5.3200  -5.1574  -5.0243  -4.7105  -4.4272  -4.2350
    -4.1312  -3.9838  -3.8575  -3.8015  -3.6427  -3.5067  -3.0631  -2.0110
    -1.4580  -1.2990  -0.0255   0.2194   0.4546   1.0580   1.2755   1.3917
     1.4283   2.5123   2.7389

          k = 0.0599-0.3401-0.4636 ( 21216 PWs)   bands (ev):

   -28.0921 -13.7622 -13.4664 -13.4251 -11.4769 -10.4846 -10.0344  -8.2597
    -8.1476  -7.9400  -7.7460  -7.3993  -7.3196  -6.5595  -6.4550  -6.2508
    -5.8265  -5.6465  -5.3244  -5.1501  -5.0177  -4.7122  -4.4130  -4.2067
    -4.1587  -3.9906  -3.8604  -3.8303  -3.6545  -3.5038  -3.0655  -2.0054
    -1.4461  -1.2962  -0.0542   0.2364   0.4488   1.0658   1.2900   1.3537
     1.4618   2.5537   2.7670

          k =-0.5011-0.3594-0.3614 ( 21368 PWs)   bands (ev):

   -28.0920 -13.7698 -13.4693 -13.4240 -11.4709 -10.4448 -10.0556  -8.2506
    -8.1526  -7.9888  -7.7614  -7.4134  -7.0770  -6.7146  -6.2966  -6.2341
    -5.8824  -5.6680  -5.4509  -5.2424  -5.1452  -4.7964  -4.4075  -4.1887
    -4.0770  -4.0242  -3.9488  -3.8292  -3.5301  -3.4037  -2.9882  -1.9296
    -1.5056  -1.3643  -0.0512   0.0922   0.8146   1.0247   1.3503   1.5097
     1.8157   2.3969   2.5833

          k =-0.5610-0.0193 0.1022 ( 21362 PWs)   bands (ev):

   -28.0920 -13.7699 -13.4700 -13.4246 -11.4737 -10.4387 -10.0327  -8.3134
    -8.1099  -7.9792  -7.7383  -7.3914  -7.2945  -6.5617  -6.3212  -6.2377
    -5.8810  -5.6405  -5.4676  -5.2163  -5.0927  -4.7604  -4.4161  -4.3498
    -4.0960  -3.9767  -3.9562  -3.8403  -3.4985  -3.3820  -3.0462  -1.9318
    -1.4408  -1.2469   0.0752   0.3104   0.5892   1.0836   1.2802   1.3677
     1.5489   2.4989   2.7082

          k =-0.0276-0.3746 0.0394 ( 21362 PWs)   bands (ev):

   -28.0921 -13.7622 -13.4657 -13.4237 -11.4797 -10.4968 -10.0492  -8.2104
    -8.1205  -7.9225  -7.7381  -7.4217  -7.1834  -6.8129  -6.4517  -6.2045
    -5.7659  -5.6334  -5.3188  -5.2127  -5.0960  -4.7027  -4.4135  -4.1837
    -4.1669  -3.9938  -3.9089  -3.8266  -3.6691  -3.4580  -3.1165  -1.9613
    -1.4662  -1.3310   0.0502   0.1777   0.8385   1.0129   1.2758   1.3999
     1.8969   2.5295   2.7276

          k =-0.6484-0.0538 0.6052 ( 21216 PWs)   bands (ev):

   -28.0920 -13.7697 -13.4692 -13.4240 -11.4710 -10.4456 -10.0546  -8.3261
    -8.0404  -7.9701  -7.7622  -7.4759  -7.0844  -6.7274  -6.3270  -6.1667
    -5.8573  -5.6787  -5.4516  -5.2395  -5.1780  -4.7469  -4.3969  -4.2997
    -4.0926  -3.9730  -3.9420  -3.8190  -3.5458  -3.3790  -2.9928  -1.9129
    -1.4783  -1.3911  -0.0057   0.0500   0.8121   1.0382   1.3170   1.4844
     1.7996   2.5795   2.6155

          k =-0.5334 0.3553 0.0627 ( 21216 PWs)   bands (ev):

   -28.0920 -13.7699 -13.4700 -13.4246 -11.4731 -10.4387 -10.0327  -8.2501
    -8.1250  -8.0682  -7.7497  -7.3273  -7.2902  -6.5211  -6.4230  -6.1924
    -5.8536  -5.6592  -5.4856  -5.1920  -5.1049  -4.8124  -4.4252  -4.2152
    -4.0872  -4.0364  -3.9662  -3.8526  -3.4760  -3.3993  -3.0436  -1.9450
    -1.4239  -1.2645   0.0831   0.3199   0.5817   1.0710   1.2639   1.3512
     1.5601   2.5000   2.5388

     the Fermi energy is     0.2222 ev

!    total energy              =    -287.71261425 Ry
     Harris-Foulkes estimate   =    -287.71261440 Ry
     estimated scf accuracy    <       0.00000022 Ry

     The total energy is the sum of the following terms:

     one-electron contribution =    -102.63225962 Ry
     hartree contribution      =      66.93768054 Ry
     xc contribution           =     -97.12668773 Ry
     ewald contribution        =     -48.93049115 Ry
     one-center paw contrib.   =    -105.95821854 Ry
     smearing contrib. (-TS)   =      -0.00263774 Ry

     convergence has been achieved in  10 iterations

     negative rho (up, down):  5.282E-06 0.000E+00

     Forces acting on atoms (cartesian axes, Ry/au):

     atom    1 type  1   force =     0.00188710    0.01085230   -0.00762605
     atom    2 type  1   force =     0.00541784   -0.00148518    0.00367740
     atom    3 type  2   force =    -0.02583629   -0.00192594    0.00624413
     atom    4 type  3   force =    -0.00904122    0.00723949   -0.00506259
     atom    5 type  3   force =    -0.03325951   -0.01298990    0.00152509
     atom    6 type  4   force =    -0.00616102   -0.04305082    0.00296782
     atom    7 type  4   force =    -0.00394245   -0.01246049   -0.03648349
     atom    8 type  4   force =    -0.02941102   -0.04448781   -0.03956670
     atom    9 type  4   force =    -0.02605262   -0.03186897   -0.01740955
     atom   10 type  4   force =     0.01403164    0.00415779   -0.01008964
     atom   11 type  4   force =     0.00663022   -0.01325813    0.02797749
     atom   12 type  4   force =     0.01034834    0.00003807   -0.01862663
     atom   13 type  5   force =     0.00354642    0.00484726    0.00131031
     atom   14 type  5   force =     0.00421032    0.00165213    0.00448600
     atom   15 type  5   force =    -0.00024475    0.02643071   -0.00186675
     atom   16 type  5   force =     0.01474105    0.00702777    0.01839238
     atom   17 type  5   force =    -0.00312441    0.01291488   -0.01498537
     atom   18 type  5   force =    -0.02588358    0.00216622   -0.01419982
     atom   19 type  5   force =     0.01687271    0.02482119    0.00661376
     atom   20 type  5   force =     0.00536068   -0.00337010    0.00305673
     atom   21 type  5   force =    -0.00458124    0.00129367    0.00075274
     atom   22 type  5   force =     0.00759221    0.02877875    0.01857521
     atom   23 type  5   force =     0.01256163    0.00609515   -0.00753071
     atom   24 type  5   force =     0.00480310   -0.00007543    0.00332739
     atom   25 type  5   force =    -0.00211696    0.00267352    0.00211908
     atom   26 type  5   force =     0.01442626    0.00380512   -0.00122772
     atom   27 type  5   force =    -0.01040374   -0.00540115    0.01437258
     atom   28 type  5   force =     0.00890058   -0.01067208    0.01063870
     atom   29 type  5   force =     0.01553976    0.01707745    0.00636319
     atom   30 type  5   force =    -0.00664691    0.02329238   -0.00954760
     atom   31 type  5   force =     0.00353234    0.01251501    0.00260850
     atom   32 type  5   force =    -0.00218043   -0.00753738    0.00028338
     atom   33 type  5   force =     0.01168572   -0.00770596    0.02035899
     atom   34 type  5   force =    -0.00141627    0.00065662   -0.00203994
     atom   35 type  5   force =     0.00028407   -0.00331918   -0.00041093
     atom   36 type  5   force =    -0.00026471    0.00418355   -0.00020170
     atom   37 type  5   force =     0.02633247   -0.00727618    0.00038346
     atom   38 type  5   force =     0.01125315   -0.01462521   -0.00071100
     atom   39 type  5   force =    -0.00436870   -0.01070762   -0.00411425
     atom   40 type  5   force =    -0.00467733    0.01816928    0.03016583
     atom   41 type  5   force =    -0.01080495   -0.00265606   -0.00273604
     atom   42 type  5   force =     0.00464685    0.00810505   -0.00081566
     atom   43 type  5   force =     0.00272435    0.00595485    0.00165939
     atom   44 type  5   force =     0.00308929    0.00012539    0.00739262

     Total force =     0.158129     Total SCF correction =     0.000520


     Computing stress (Cartesian axis) and pressure


     negative rho (up, down):  5.282E-06 0.000E+00
          total   stress  (Ry/bohr**3)                   (kbar)     P=    1.89
   0.00004531   0.00000030   0.00000538          6.67      0.04      0.79
   0.00000030   0.00000929   0.00002000          0.04      1.37      2.94
   0.00000538   0.00002000  -0.00001598          0.79      2.94     -2.35


     number of scf cycles    =  27
     number of bfgs steps    =  25

     enthalpy old            =    -287.6774067199 Ry
     enthalpy new            =    -287.7126142543 Ry

     CASE: enthalpy_new < enthalpy_old

     new trust radius        =       0.1287000351 bohr
     new conv_thr            =       0.0000004449 Ry

     new unit-cell volume =   4390.53611 a.u.^3 (   650.61032 Ang^3 )
     density =      0.96327 g/cm^3

CELL_PARAMETERS (angstrom)
   7.456366586  -0.420290349   1.291781506
  -0.249278463  10.894015742   0.704557266
   1.514444714   0.769021718   8.340939009

ATOMIC_POSITIONS (angstrom)
K        5.642692886   6.035877013   3.023816801
K        4.590153873   1.204282420   7.417293932
Ba       6.619148034   7.958452691   7.293833897
Al       3.592509650   3.709275262   5.331986664
Al       1.745429731   9.657324330   6.692283290
B        1.370919052   8.911177820   2.892079540
B        4.862957846   5.688480966   7.932440379
B        7.512971623  10.557414674   8.089052681
B        3.897779934   7.138725814   6.320195976
B        5.965039761   1.979135921   3.909748461
B        4.738744760   3.164622463   3.230863230
B        3.564299757   8.067610042   1.647720996
H        6.871431894   4.504151928   5.903633679
H        2.236400085   8.411367780   2.168258830
H        1.350753712   8.187307739   7.419682065
H        6.567754098  10.493346606   7.272072364
H        1.420971440   3.902097749   3.352620251
H        5.027265130   2.943624584   4.398160452
H        7.849500376   7.808049560   4.145379302
H        3.797633138   8.075034372   7.088674733
H        6.082157841   5.564347447   7.932826958
H        7.722186766   0.742634970   7.882611040
H        4.498477788   7.415759571   5.321463781
H        6.700762430   2.647686957   8.133687837
H        7.620453385   4.583119529   6.023754472
H        1.425894043   8.933962062   5.112846412
H        5.013373106   9.497405016   8.955924174
H        1.208934740   4.374933733   2.793311999
H        2.867922036   6.496549863   6.113768266
H        1.494576393  10.049939837   3.275370817
H        5.491260113   0.895576740   3.575871110
H        2.896649517   2.706665564   1.554080103
H        4.730372471   6.162875670   6.681007896
H        2.297799013   2.266799423   1.676784321
H        4.342197024   0.256855431   1.930493832
H        6.355216614   3.163901826   7.690280178
H        3.003467582  10.605312583   6.823283693
H        6.928493861   2.433854066   3.340559894
H        6.215856884   2.013501873   5.140162308
H        4.480533555   6.499676387   8.719772473
H        3.832887518   3.973066191   3.304318036
H        4.950920447   4.635324060   5.147020607
H        4.238643161   4.662118069   7.889337587
H        4.109331408   0.534663969   1.284141383



     Writing output data file 00_K2BaAl2B7H32_Monster.save
     NEW-OLD atomic charge density approx. for the potential

     negative rho (up, down):  2.561E-05 0.000E+00
     extrapolated charge   71.03721, renormalised to   71.00000

     total cpu time spent up to now is    34617.6 secs

     Self-consistent Calculation

     iteration #  1     ecut=    50.00 Ry     beta=0.70
     Davidson diagonalization with overlap
     ethr =  1.00E-06,  avg # of iterations = 10.9

     negative rho (up, down):  2.192E-05 0.000E+00

     total cpu time spent up to now is    34668.5 secs

     total energy              =    -287.72785692 Ry
     Harris-Foulkes estimate   =    -287.70984562 Ry
     estimated scf accuracy    <       0.01593498 Ry

     iteration #  2     ecut=    50.00 Ry     beta=0.70
     Davidson diagonalization with overlap
     ethr =  2.24E-05,  avg # of iterations =  4.2

     negative rho (up, down):  1.482E-05 0.000E+00

     total cpu time spent up to now is    34697.6 secs

     total energy              =    -287.70182834 Ry
     Harris-Foulkes estimate   =    -287.75222107 Ry
     estimated scf accuracy    <       0.36054101 Ry

     iteration #  3     ecut=    50.00 Ry     beta=0.70
     Davidson diagonalization with overlap
     ethr =  2.24E-05,  avg # of iterations =  4.1

     negative rho (up, down):  1.705E-05 0.000E+00

     total cpu time spent up to now is    34724.1 secs

     total energy              =    -287.73126046 Ry
     Harris-Foulkes estimate   =    -287.73592774 Ry
     estimated scf accuracy    <       0.01838649 Ry

     iteration #  4     ecut=    50.00 Ry     beta=0.70
     Davidson diagonalization with overlap
     ethr =  2.24E-05,  avg # of iterations =  2.5

     negative rho (up, down):  2.677E-05 0.000E+00

     total cpu time spent up to now is    34747.7 secs

     total energy              =    -287.73183792 Ry
     Harris-Foulkes estimate   =    -287.73441033 Ry
     estimated scf accuracy    <       0.01131315 Ry

     iteration #  5     ecut=    50.00 Ry     beta=0.70
     Davidson diagonalization with overlap
     ethr =  1.59E-05,  avg # of iterations =  2.0

     negative rho (up, down):  3.226E-05 0.000E+00

     total cpu time spent up to now is    34769.7 secs

     total energy              =    -287.73312136 Ry
     Harris-Foulkes estimate   =    -287.73365383 Ry
     estimated scf accuracy    <       0.00456068 Ry

     iteration #  6     ecut=    50.00 Ry     beta=0.70
     Davidson diagonalization with overlap
     ethr =  6.42E-06,  avg # of iterations =  1.0

     negative rho (up, down):  3.578E-05 0.000E+00

     total cpu time spent up to now is    34790.9 secs

     total energy              =    -287.73325337 Ry
     Harris-Foulkes estimate   =    -287.73333831 Ry
     estimated scf accuracy    <       0.00077320 Ry

     iteration #  7     ecut=    50.00 Ry     beta=0.70
     Davidson diagonalization with overlap
     ethr =  1.09E-06,  avg # of iterations =  2.0

     negative rho (up, down):  4.023E-05 0.000E+00

     total cpu time spent up to now is    34813.5 secs

     total energy              =    -287.73328076 Ry
     Harris-Foulkes estimate   =    -287.73331428 Ry
     estimated scf accuracy    <       0.00020357 Ry

     iteration #  8     ecut=    50.00 Ry     beta=0.70
     Davidson diagonalization with overlap
     ethr =  2.87E-07,  avg # of iterations =  2.0

     negative rho (up, down):  4.171E-05 0.000E+00

     total cpu time spent up to now is    34835.5 secs

     total energy              =    -287.73330079 Ry
     Harris-Foulkes estimate   =    -287.73330102 Ry
     estimated scf accuracy    <       0.00000300 Ry

     iteration #  9     ecut=    50.00 Ry     beta=0.70
     Davidson diagonalization with overlap
     ethr =  4.22E-09,  avg # of iterations =  3.9

     negative rho (up, down):  4.248E-05 0.000E+00

     total cpu time spent up to now is    34862.8 secs

     total energy              =    -287.73330202 Ry
     Harris-Foulkes estimate   =    -287.73330226 Ry
     estimated scf accuracy    <       0.00000249 Ry

     iteration # 10     ecut=    50.00 Ry     beta=0.70
     Davidson diagonalization with overlap
     ethr =  3.50E-09,  avg # of iterations =  2.0

     negative rho (up, down):  4.230E-05 0.000E+00

     total cpu time spent up to now is    34884.7 secs

     End of self-consistent calculation

          k = 0.0000 0.0000 0.0000 ( 21247 PWs)   bands (ev):

   -28.1683 -13.8493 -13.5363 -13.5034 -11.5149 -10.5774 -10.2313  -8.2819
    -8.1562  -7.8837  -7.8361  -7.4304  -7.1735  -6.7945  -6.3959  -6.2918
    -5.7786  -5.5483  -5.4536  -5.2450  -5.0704  -4.7899  -4.5176  -4.2102
    -4.1701  -3.9444  -3.8901  -3.8256  -3.6905  -3.4024  -3.1578  -2.0359
    -1.4715  -1.2960  -0.0264   0.1786   0.8261   1.0244   1.2972   1.4306
     1.9132   2.4884   2.7253

          k = 0.0893 0.0346-0.5039 ( 21362 PWs)   bands (ev):

   -28.1683 -13.8494 -13.5370 -13.5049 -11.5120 -10.5618 -10.2220  -8.3103
    -8.2246  -7.8790  -7.8357  -7.4074  -7.3186  -6.5555  -6.3766  -6.3533
    -5.8247  -5.5813  -5.3900  -5.1840  -5.0429  -4.8161  -4.5115  -4.2337
    -4.1633  -3.9414  -3.8825  -3.7957  -3.6971  -3.4184  -3.1103  -2.0762
    -1.4421  -1.2750  -0.0552   0.2174   0.4185   1.0281   1.2882   1.4416
     1.4642   2.4864   2.7298

          k = 0.0613-0.3395-0.4643 ( 21216 PWs)   bands (ev):

   -28.1683 -13.8494 -13.5371 -13.5049 -11.5115 -10.5613 -10.2218  -8.3074
    -8.2251  -7.8897  -7.8370  -7.3977  -7.3257  -6.5470  -6.4495  -6.2737
    -5.8286  -5.5749  -5.3849  -5.1895  -5.0395  -4.8176  -4.5025  -4.2289
    -4.1236  -3.9668  -3.8899  -3.8254  -3.7112  -3.4189  -3.1150  -2.0681
    -1.4335  -1.2714  -0.0813   0.2314   0.4157   1.0318   1.2994   1.3942
     1.5142   2.5253   2.7674

          k =-0.4997-0.3591-0.3607 ( 21368 PWs)   bands (ev):

   -28.1683 -13.8569 -13.5398 -13.5037 -11.5060 -10.5241 -10.2403  -8.2885
    -8.1897  -7.9890  -7.8597  -7.4208  -7.0726  -6.6843  -6.3444  -6.2509
    -5.8499  -5.6696  -5.4130  -5.3143  -5.1550  -4.8847  -4.5091  -4.2211
    -4.0934  -4.0071  -3.8844  -3.8015  -3.5039  -3.4409  -3.0496  -2.0131
    -1.4823  -1.3519  -0.0852   0.0724   0.8200   1.0156   1.3948   1.5304
     1.8677   2.4055   2.5494

          k =-0.5610-0.0195 0.1037 ( 21362 PWs)   bands (ev):

   -28.1683 -13.8569 -13.5405 -13.5044 -11.5086 -10.5159 -10.2197  -8.3779
    -8.1269  -8.0001  -7.8212  -7.4029  -7.2735  -6.5432  -6.3507  -6.2559
    -5.8481  -5.5446  -5.4189  -5.3605  -5.1707  -4.8391  -4.5222  -4.3537
    -4.1284  -3.9500  -3.8769  -3.8179  -3.5085  -3.3921  -3.1138  -2.0103
    -1.4252  -1.2243   0.0403   0.2865   0.5699   1.0725   1.3218   1.4137
     1.5751   2.4859   2.7135

          k =-0.0279-0.3742 0.0396 ( 21362 PWs)   bands (ev):

   -28.1683 -13.8494 -13.5364 -13.5034 -11.5142 -10.5777 -10.2318  -8.2559
    -8.1832  -7.8811  -7.8468  -7.4331  -7.1694  -6.7875  -6.4594  -6.2228
    -5.7652  -5.5484  -5.4544  -5.2438  -5.0745  -4.8020  -4.5079  -4.2136
    -4.1269  -3.9696  -3.8955  -3.8483  -3.7119  -3.3932  -3.1648  -2.0308
    -1.4498  -1.3110   0.0106   0.1332   0.8352   1.0265   1.3106   1.4356
     1.9293   2.4763   2.6854

          k =-0.6503-0.0542 0.6076 ( 21216 PWs)   bands (ev):

   -28.1683 -13.8568 -13.5397 -13.5037 -11.5060 -10.5250 -10.2393  -8.3617
    -8.0766  -7.9756  -7.8665  -7.4760  -7.0774  -6.6966  -6.3649  -6.1945
    -5.8218  -5.6915  -5.4168  -5.3033  -5.1883  -4.8382  -4.4976  -4.3055
    -4.1358  -3.9440  -3.8824  -3.7954  -3.5234  -3.4112  -3.0539  -1.9955
    -1.4627  -1.3715  -0.0251   0.0144   0.8183   1.0263   1.3667   1.5039
     1.8518   2.5434   2.6114

          k =-0.5331 0.3546 0.0641 ( 21216 PWs)   bands (ev):

   -28.1683 -13.8570 -13.5405 -13.5044 -11.5080 -10.5159 -10.2197  -8.3268
    -8.1785  -8.0182  -7.8505  -7.3425  -7.2700  -6.4935  -6.4530  -6.2191
    -5.8327  -5.5359  -5.4206  -5.4051  -5.1372  -4.8906  -4.5318  -4.2508
    -4.0750  -4.0258  -3.9045  -3.8182  -3.4958  -3.4002  -3.1097  -2.0239
    -1.4100  -1.2403   0.0454   0.2971   0.5630   1.0626   1.3115   1.3884
     1.5855   2.4905   2.5527

     the Fermi energy is     0.1941 ev

!    total energy              =    -287.73330185 Ry
     Harris-Foulkes estimate   =    -287.73330218 Ry
     estimated scf accuracy    <       0.00000037 Ry

     The total energy is the sum of the following terms:

     one-electron contribution =    -103.92494966 Ry
     hartree contribution      =      67.56906957 Ry
     xc contribution           =     -97.23540552 Ry
     ewald contribution        =     -48.18310682 Ry
     one-center paw contrib.   =    -105.95643865 Ry
     smearing contrib. (-TS)   =      -0.00247077 Ry

     convergence has been achieved in  10 iterations

     negative rho (up, down):  4.230E-05 0.000E+00

     Forces acting on atoms (cartesian axes, Ry/au):

     atom    1 type  1   force =     0.00079644    0.00930640   -0.00731784
     atom    2 type  1   force =     0.00436675   -0.00020699    0.00173971
     atom    3 type  2   force =    -0.02122801    0.00557315    0.00617047
     atom    4 type  3   force =    -0.01238855    0.00186745   -0.00276217
     atom    5 type  3   force =    -0.01909026   -0.00141287   -0.00544478
     atom    6 type  4   force =    -0.00175496    0.03954398    0.03305437
     atom    7 type  4   force =    -0.00383850    0.00353070   -0.00937491
     atom    8 type  4   force =    -0.02491830   -0.01274845   -0.01952939
     atom    9 type  4   force =    -0.02405886   -0.02701900    0.00929591
     atom   10 type  4   force =     0.01624562    0.00381537   -0.01206255
     atom   11 type  4   force =    -0.01044037    0.00180617   -0.00297447
     atom   12 type  4   force =     0.01779041   -0.02201613    0.00985709
     atom   13 type  5   force =     0.01084319    0.00548996    0.00238526
     atom   14 type  5   force =     0.02494875   -0.01276349   -0.01307792
     atom   15 type  5   force =    -0.00150235    0.01309770    0.00364117
     atom   16 type  5   force =     0.00452939   -0.00313216    0.00680128
     atom   17 type  5   force =    -0.00202594    0.01035632   -0.01198411
     atom   18 type  5   force =    -0.01555616   -0.01010325    0.03210897
     atom   19 type  5   force =    -0.01011389   -0.00574429    0.00487909
     atom   20 type  5   force =     0.00530559   -0.00515404   -0.00045326
     atom   21 type  5   force =    -0.00338787   -0.00436098   -0.00170312
     atom   22 type  5   force =     0.00996272    0.01130308    0.01223569
     atom   23 type  5   force =     0.01693214    0.00579333   -0.01968961
     atom   24 type  5   force =    -0.00295757    0.01130305   -0.00664367
     atom   25 type  5   force =    -0.00963134    0.00198964    0.00080708
     atom   26 type  5   force =     0.01373376    0.00158360   -0.00446819
     atom   27 type  5   force =    -0.01670191    0.01430216   -0.01133673
     atom   28 type  5   force =     0.00782304   -0.00820618    0.00760592
     atom   29 type  5   force =     0.01277883    0.01240720    0.00113031
     atom   30 type  5   force =    -0.00601013   -0.01195376   -0.02003716
     atom   31 type  5   force =     0.00588353    0.01296781    0.00057325
     atom   32 type  5   force =     0.00299706   -0.00293321   -0.00108557
     atom   33 type  5   force =     0.00463476   -0.00186122    0.00529982
     atom   34 type  5   force =    -0.00672868   -0.00360311   -0.00094067
     atom   35 type  5   force =     0.00326612   -0.00692139    0.00798877
     atom   36 type  5   force =     0.00765485   -0.00697967    0.00972339
     atom   37 type  5   force =     0.01598009   -0.01274598    0.00031753
     atom   38 type  5   force =     0.01079463   -0.01784323   -0.00256087
     atom   39 type  5   force =    -0.00829833   -0.00638819   -0.00532144
     atom   40 type  5   force =    -0.00186779    0.00944928    0.01787419
     atom   41 type  5   force =    -0.00360678   -0.00595498   -0.01022259
     atom   42 type  5   force =     0.00882587    0.01219717   -0.00316541
     atom   43 type  5   force =    -0.00025176   -0.00163803   -0.00064092
     atom   44 type  5   force =     0.00026481    0.00400709   -0.00069191

     Total force =     0.130464     Total SCF correction =     0.000663


     Computing stress (Cartesian axis) and pressure


     negative rho (up, down):  4.230E-05 0.000E+00
          total   stress  (Ry/bohr**3)                   (kbar)     P=    4.93
   0.00006099   0.00000782   0.00000848          8.97      1.15      1.25
   0.00000782   0.00001171   0.00000054          1.15      1.72      0.08
   0.00000848   0.00000054   0.00002786          1.25      0.08      4.10


     number of scf cycles    =  28
     number of bfgs steps    =  26

     enthalpy old            =    -287.7126142543 Ry
     enthalpy new            =    -287.7333018548 Ry

     CASE: enthalpy_new < enthalpy_old

     new trust radius        =       0.1426495472 bohr
     new conv_thr            =       0.0000003954 Ry

     new unit-cell volume =   4423.39613 a.u.^3 (   655.47967 Ang^3 )
     density =      0.95612 g/cm^3

CELL_PARAMETERS (angstrom)
   7.520238544  -0.395762799   1.281377586
  -0.228769221  10.869053343   0.700740353
   1.493091269   0.763317017   8.339951317

ATOMIC_POSITIONS (angstrom)
K        5.688768284   6.054434689   3.017823502
K        4.606589361   1.200236582   7.406608162
Ba       6.632699873   7.939379907   7.262448899
Al       3.597350774   3.740753677   5.313845463
Al       1.732810302   9.630748614   6.677037795
B        1.391414572   8.908747335   2.893074406
B        4.871583281   5.688559452   7.903119999
B        7.554235178  10.528694665   8.045408043
B        3.917148917   7.110234093   6.292965845
B        6.012986746   1.999399674   3.885712330
B        4.770084184   3.170704209   3.219026940
B        3.620047778   8.049107267   1.637415429
H        6.923288356   4.517908615   5.894035663
H        2.295895961   8.401499118   2.169685290
H        1.365235930   8.210058416   7.415225092
H        6.621677731  10.488209144   7.271153194
H        1.428435215   3.890297807   3.344908307
H        5.058560140   2.960175601   4.402355219
H        7.922218643   7.841621278   4.150573322
H        3.837728751   8.031371258   7.085319673
H        6.097992104   5.564234002   7.915798241
H        7.770979874   0.759179860   7.883747527
H        4.532316552   7.416746382   5.306178963
H        6.724481193   2.679289303   8.121685811
H        7.669769631   4.592825485   6.011899220
H        1.458862933   8.918888727   5.098927923
H        5.038586282   9.486115387   8.953822080
H        1.229724524   4.368589270   2.799719456
H        2.877012208   6.487188592   6.116752778
H        1.510433149  10.003174636   3.278049650
H        5.535241786   0.923989104   3.575315626
H        2.926617301   2.702382422   1.547085613
H        4.768107645   6.140831712   6.685646396
H        2.323265098   2.271192953   1.679642104
H        4.382043527   0.282540614   1.939226839
H        6.384037464   3.188584892   7.681406630
H        3.060302299  10.524711479   6.811286921
H        6.994633310   2.415866013   3.330489349
H        6.241859095   2.006961579   5.117181761
H        4.514134489   6.498310267   8.738641852
H        3.855072549   3.951677983   3.290455411
H        4.989026170   4.647312641   5.150638986
H        4.254670125   4.657502506   7.882545841
H        4.148378718   0.560201907   1.289404593



     Writing output data file 00_K2BaAl2B7H32_Monster.save
     NEW-OLD atomic charge density approx. for the potential

     negative rho (up, down):  3.741E-05 0.000E+00
     extrapolated charge   71.52699, renormalised to   71.00000

     total cpu time spent up to now is    35709.9 secs

     Self-consistent Calculation

     iteration #  1     ecut=    50.00 Ry     beta=0.70
     Davidson diagonalization with overlap
     ethr =  1.00E-06,  avg # of iterations = 13.0

     negative rho (up, down):  8.826E-05 0.000E+00

     total cpu time spent up to now is    35761.9 secs

     total energy              =    -287.73696306 Ry
     Harris-Foulkes estimate   =    -287.23647627 Ry
     estimated scf accuracy    <       0.01438419 Ry

     iteration #  2     ecut=    50.00 Ry     beta=0.70
     Davidson diagonalization with overlap
     ethr =  2.03E-05,  avg # of iterations =  6.8

     negative rho (up, down):  7.497E-05 0.000E+00

     total cpu time spent up to now is    35796.6 secs

     total energy              =    -287.71288976 Ry
     Harris-Foulkes estimate   =    -287.77736847 Ry
     estimated scf accuracy    <       0.50196280 Ry

     iteration #  3     ecut=    50.00 Ry     beta=0.70
     Davidson diagonalization with overlap
     ethr =  2.03E-05,  avg # of iterations =  4.2

     negative rho (up, down):  4.691E-05 0.000E+00

     total cpu time spent up to now is    35824.3 secs

     total energy              =    -287.74587778 Ry
     Harris-Foulkes estimate   =    -287.75314281 Ry
     estimated scf accuracy    <       0.02840391 Ry

     iteration #  4     ecut=    50.00 Ry     beta=0.70
     Davidson diagonalization with overlap
     ethr =  2.03E-05,  avg # of iterations =  2.8

     negative rho (up, down):  5.108E-05 0.000E+00

     total cpu time spent up to now is    35848.2 secs

     total energy              =    -287.74751151 Ry
     Harris-Foulkes estimate   =    -287.74824884 Ry
     estimated scf accuracy    <       0.00234590 Ry

     iteration #  5     ecut=    50.00 Ry     beta=0.70
     Davidson diagonalization with overlap
     ethr =  3.30E-06,  avg # of iterations =  6.0

     negative rho (up, down):  5.760E-05 0.000E+00

     total cpu time spent up to now is    35876.5 secs

     total energy              =    -287.74750590 Ry
     Harris-Foulkes estimate   =    -287.74834410 Ry
     estimated scf accuracy    <       0.00290031 Ry

     iteration #  6     ecut=    50.00 Ry     beta=0.70
     Davidson diagonalization with overlap
     ethr =  3.30E-06,  avg # of iterations =  2.0

     negative rho (up, down):  5.637E-05 0.000E+00

     total cpu time spent up to now is    35899.4 secs

     total energy              =    -287.74790290 Ry
     Harris-Foulkes estimate   =    -287.74797538 Ry
     estimated scf accuracy    <       0.00030179 Ry

     iteration #  7     ecut=    50.00 Ry     beta=0.70
     Davidson diagonalization with overlap
     ethr =  4.25E-07,  avg # of iterations =  3.0

     negative rho (up, down):  5.771E-05 0.000E+00

     total cpu time spent up to now is    35922.4 secs

     total energy              =    -287.74793531 Ry
     Harris-Foulkes estimate   =    -287.74795403 Ry
     estimated scf accuracy    <       0.00009237 Ry

     iteration #  8     ecut=    50.00 Ry     beta=0.70
     Davidson diagonalization with overlap
     ethr =  1.30E-07,  avg # of iterations =  2.0

     negative rho (up, down):  5.770E-05 0.000E+00

     total cpu time spent up to now is    35945.0 secs

     total energy              =    -287.74794016 Ry
     Harris-Foulkes estimate   =    -287.74794926 Ry
     estimated scf accuracy    <       0.00003882 Ry

     iteration #  9     ecut=    50.00 Ry     beta=0.70
     Davidson diagonalization with overlap
     ethr =  5.47E-08,  avg # of iterations =  2.0

     negative rho (up, down):  5.769E-05 0.000E+00

     total cpu time spent up to now is    35967.1 secs

     total energy              =    -287.74794437 Ry
     Harris-Foulkes estimate   =    -287.74794538 Ry
     estimated scf accuracy    <       0.00000292 Ry

     iteration # 10     ecut=    50.00 Ry     beta=0.70
     Davidson diagonalization with overlap
     ethr =  4.12E-09,  avg # of iterations =  3.0

     negative rho (up, down):  5.777E-05 0.000E+00

     total cpu time spent up to now is    35990.7 secs

     total energy              =    -287.74794496 Ry
     Harris-Foulkes estimate   =    -287.74794505 Ry
     estimated scf accuracy    <       0.00000081 Ry

     iteration # 11     ecut=    50.00 Ry     beta=0.70
     Davidson diagonalization with overlap
     ethr =  1.14E-09,  avg # of iterations =  1.1

     negative rho (up, down):  5.799E-05 0.000E+00

     total cpu time spent up to now is    36012.6 secs

     End of self-consistent calculation

          k = 0.0000 0.0000 0.0000 ( 21247 PWs)   bands (ev):

   -28.3104 -13.9677 -13.6616 -13.6363 -11.3859 -10.6762 -10.1800  -8.3105
    -8.1844  -7.9712  -7.8640  -7.4541  -7.1976  -6.8279  -6.4208  -6.3051
    -5.8316  -5.5830  -5.5180  -5.3106  -5.0966  -4.8643  -4.6167  -4.2615
    -4.1462  -3.9188  -3.8880  -3.8305  -3.6501  -3.3610  -3.1871  -2.0593
    -1.4879  -1.3327  -0.0559   0.1581   0.7794   1.0217   1.2741   1.4381
     1.7990   2.4060   2.6953

          k = 0.0876 0.0343-0.5034 ( 21362 PWs)   bands (ev):

   -28.3104 -13.9678 -13.6620 -13.6378 -11.3819 -10.6689 -10.1638  -8.3506
    -8.2676  -7.9069  -7.8867  -7.4249  -7.3491  -6.5775  -6.4089  -6.3797
    -5.8823  -5.6235  -5.4646  -5.2402  -5.0549  -4.9017  -4.6040  -4.2766
    -4.1447  -3.9164  -3.9007  -3.7843  -3.6601  -3.3704  -3.1368  -2.0992
    -1.4528  -1.3219  -0.0812   0.2018   0.4096   0.9645   1.2444   1.3667
     1.4729   2.4452   2.6703

          k = 0.0612-0.3406-0.4643 ( 21216 PWs)   bands (ev):

   -28.3104 -13.9678 -13.6620 -13.6378 -11.3812 -10.6689 -10.1636  -8.3483
    -8.2655  -7.9296  -7.8776  -7.4175  -7.3546  -6.5670  -6.4767  -6.3063
    -5.8876  -5.6156  -5.4620  -5.2452  -5.0552  -4.9025  -4.5985  -4.2718
    -4.0763  -3.9777  -3.8897  -3.8035  -3.6836  -3.3760  -3.1432  -2.0885
    -1.4494  -1.3144  -0.1063   0.2135   0.4085   0.9668   1.2505   1.3415
     1.5091   2.4858   2.7044

          k =-0.4944-0.3588-0.3632 ( 21368 PWs)   bands (ev):

   -28.3104 -13.9740 -13.6650 -13.6365 -11.3754 -10.6334 -10.1854  -8.3191
    -8.2159  -8.0419  -7.9186  -7.4439  -7.0956  -6.7224  -6.3819  -6.2667
    -5.9058  -5.6949  -5.4942  -5.3632  -5.1581  -4.9523  -4.6126  -4.2286
    -4.0755  -4.0351  -3.8497  -3.7638  -3.5238  -3.4024  -3.0779  -2.0464
    -1.5111  -1.3671  -0.1085   0.0524   0.7839   0.9720   1.3685   1.5222
     1.7597   2.3618   2.4872

          k =-0.5556-0.0182 0.1011 ( 21362 PWs)   bands (ev):

   -28.3104 -13.9740 -13.6654 -13.6371 -11.3791 -10.6271 -10.1624  -8.4187
    -8.1675  -8.0329  -7.8720  -7.4097  -7.3059  -6.5690  -6.3912  -6.2841
    -5.9176  -5.5928  -5.4549  -5.4394  -5.1672  -4.9078  -4.6323  -4.3293
    -4.1560  -3.9379  -3.8405  -3.7876  -3.5258  -3.3644  -3.1452  -2.0404
    -1.4342  -1.2669   0.0101   0.2621   0.5592   1.0247   1.2593   1.3769
     1.5597   2.4227   2.6815

          k =-0.0264-0.3749 0.0390 ( 21362 PWs)   bands (ev):

   -28.3105 -13.9678 -13.6617 -13.6363 -11.3848 -10.6772 -10.1803  -8.2810
    -8.2160  -7.9617  -7.8804  -7.4582  -7.1925  -6.8231  -6.4748  -6.2401
    -5.8240  -5.5785  -5.5230  -5.3086  -5.1037  -4.8748  -4.6098  -4.2613
    -4.0837  -3.9721  -3.8717  -3.8529  -3.6785  -3.3555  -3.1962  -2.0522
    -1.4638  -1.3510  -0.0176   0.1132   0.7897   1.0182   1.2815   1.4508
     1.8137   2.3914   2.6610

          k =-0.6431-0.0525 0.6045 ( 21216 PWs)   bands (ev):

   -28.3104 -13.9739 -13.6649 -13.6365 -11.3756 -10.6337 -10.1848  -8.3876
    -8.1252  -7.9970  -7.9436  -7.4918  -7.1025  -6.7349  -6.3952  -6.2178
    -5.8863  -5.7115  -5.4951  -5.3593  -5.1829  -4.9149  -4.6024  -4.2865
    -4.1587  -3.9436  -3.8495  -3.7604  -3.5334  -3.3842  -3.0823  -2.0267
    -1.4945  -1.3849  -0.0497  -0.0026   0.7841   0.9830   1.3342   1.4886
     1.7535   2.4783   2.5371

          k =-0.5292 0.3567 0.0621 ( 21216 PWs)   bands (ev):

   -28.3104 -13.9741 -13.6654 -13.6371 -11.3783 -10.6275 -10.1623  -8.3751
    -8.2110  -8.0376  -7.9117  -7.3553  -7.3018  -6.5238  -6.4817  -6.2521
    -5.9018  -5.5883  -5.4851  -5.4395  -5.1476  -4.9490  -4.6396  -4.2494
    -4.0906  -4.0217  -3.8624  -3.7896  -3.5166  -3.3682  -3.1377  -2.0555
    -1.4155  -1.2864   0.0158   0.2725   0.5518   1.0192   1.2467   1.3574
     1.5647   2.4290   2.5260

     the Fermi energy is     0.1727 ev

!    total energy              =    -287.74794483 Ry
     Harris-Foulkes estimate   =    -287.74794501 Ry
     estimated scf accuracy    <       0.00000021 Ry

     The total energy is the sum of the following terms:

     one-electron contribution =    -105.11194359 Ry
     hartree contribution      =      68.07790519 Ry
     xc contribution           =     -97.24335623 Ry
     ewald contribution        =     -47.51123178 Ry
     one-center paw contrib.   =    -105.95709167 Ry
     smearing contrib. (-TS)   =      -0.00222676 Ry

     convergence has been achieved in  11 iterations

     negative rho (up, down):  5.799E-05 0.000E+00

     Forces acting on atoms (cartesian axes, Ry/au):

     atom    1 type  1   force =     0.00090907    0.00686804   -0.00691075
     atom    2 type  1   force =     0.00441339    0.00125929    0.00048474
     atom    3 type  2   force =    -0.01145407    0.00931013    0.00813605
     atom    4 type  3   force =    -0.00697376    0.00056556   -0.00257347
     atom    5 type  3   force =    -0.00617524    0.01341721   -0.00929734
     atom    6 type  4   force =     0.00326766   -0.00455080    0.01650871
     atom    7 type  4   force =     0.00051467    0.00829614    0.01926463
     atom    8 type  4   force =    -0.00405988    0.02013807    0.01253276
     atom    9 type  4   force =    -0.01711825   -0.01829527    0.02045037
     atom   10 type  4   force =     0.01193988    0.00796136   -0.00627783
     atom   11 type  4   force =     0.00206644   -0.00516761    0.00942492
     atom   12 type  4   force =     0.01718634   -0.02034731    0.00788685
     atom   13 type  5   force =     0.00658172    0.00485513    0.00139351
     atom   14 type  5   force =     0.01041238   -0.00747262   -0.00035722
     atom   15 type  5   force =    -0.00576391   -0.00200944    0.00862623
     atom   16 type  5   force =    -0.01501164   -0.00491865   -0.00970385
     atom   17 type  5   force =     0.00135543    0.00200118   -0.00172191
     atom   18 type  5   force =    -0.01709526   -0.00979348    0.02340008
     atom   19 type  5   force =    -0.00654627   -0.00629339    0.00124002
     atom   20 type  5   force =     0.00336782   -0.00412591   -0.00358143
     atom   21 type  5   force =    -0.00676545   -0.00569853   -0.00214488
     atom   22 type  5   force =     0.00847062   -0.01496024   -0.00190380
     atom   23 type  5   force =     0.01387474    0.00076660   -0.01667471
     atom   24 type  5   force =     0.00187937    0.00293147   -0.00022607
     atom   25 type  5   force =    -0.00513686    0.00239944    0.00125024
     atom   26 type  5   force =     0.00803162   -0.00260356   -0.00864287
     atom   27 type  5   force =    -0.01595414    0.01335883   -0.01272748
     atom   28 type  5   force =     0.00372907    0.00022152   -0.00239958
     atom   29 type  5   force =     0.01264073    0.00888352   -0.00302521
     atom   30 type  5   force =    -0.00063806    0.02699641   -0.00904381
     atom   31 type  5   force =     0.00131847    0.00361375   -0.00496006
     atom   32 type  5   force =     0.00247092   -0.00282839   -0.00112993
     atom   33 type  5   force =    -0.00131882    0.00532249   -0.01184348
     atom   34 type  5   force =    -0.00627127   -0.00330593   -0.00110085
     atom   35 type  5   force =     0.00199706   -0.00537431    0.00415312
     atom   36 type  5   force =     0.00200294    0.00005945    0.00311992
     atom   37 type  5   force =     0.00370120   -0.01562114    0.00030378
     atom   38 type  5   force =     0.01266294   -0.01432534   -0.00516892
     atom   39 type  5   force =    -0.00548508   -0.00351664   -0.00264212
     atom   40 type  5   force =     0.00192608   -0.00097190    0.00172092
     atom   41 type  5   force =    -0.00959602    0.00213249   -0.01141883
     atom   42 type  5   force =     0.00422955    0.01023952   -0.00541465
     atom   43 type  5   force =    -0.00086863   -0.00159773   -0.00132772
     atom   44 type  5   force =     0.00128249    0.00218059    0.00232193

     Total force =     0.100934     Total SCF correction =     0.000421


     Computing stress (Cartesian axis) and pressure


     negative rho (up, down):  5.799E-05 0.000E+00
          total   stress  (Ry/bohr**3)                   (kbar)     P=    4.87
   0.00003870   0.00000242   0.00002282          5.69      0.36      3.36
   0.00000242   0.00003330  -0.00000871          0.36      4.90     -1.28
   0.00002282  -0.00000871   0.00002740          3.36     -1.28      4.03


     number of scf cycles    =  29
     number of bfgs steps    =  27

     enthalpy old            =    -287.7333018548 Ry
     enthalpy new            =    -287.7479448300 Ry

     CASE: enthalpy_new < enthalpy_old

     new trust radius        =       0.1020269362 bohr
     new conv_thr            =       0.0000002700 Ry

     new unit-cell volume =   4456.89618 a.u.^3 (   660.44387 Ang^3 )
     density =      0.94893 g/cm^3

CELL_PARAMETERS (angstrom)
   7.553868465  -0.395475768   1.305888840
  -0.229388337  10.886747612   0.696153069
   1.513208023   0.756873435   8.358015833

ATOMIC_POSITIONS (angstrom)
K        5.717050651   6.096439915   3.025187171
K        4.649604261   1.195668945   7.445389309
Ba       6.647296436   7.943184801   7.298393426
Al       3.610982523   3.758735706   5.319476004
Al       1.734119024   9.659727958   6.684705550
B        1.431784439   8.920315441   2.928825830
B        4.895805088   5.699664438   7.923910402
B        7.568269466  10.539902469   8.057227466
B        3.940946562   7.105325190   6.302188528
B        6.067559812   2.004540590   3.907063593
B        4.802447986   3.170658973   3.270012422
B        3.650831185   8.029725884   1.634582677
H        6.967449544   4.544469277   5.929859648
H        2.310395832   8.390939705   2.179965385
H        1.367301578   8.256966173   7.435470229
H        6.640511106  10.520004541   7.294386969
H        1.437387736   3.903336650   3.346838103
H        5.047910916   2.960844801   4.419810427
H        7.964198418   7.862564982   4.174024863
H        3.866908735   8.023431294   7.098446798
H        6.131876199   5.579338956   7.950755336
H        7.838518070   0.741330826   7.930901022
H        4.579436761   7.417678332   5.311700831
H        6.769748988   2.688738455   8.156017827
H        7.710594103   4.607904282   6.046617448
H        1.479756269   8.920330905   5.110640405
H        5.052185732   9.506628214   8.969469484
H        1.246440916   4.372703329   2.805525825
H        2.892350845   6.489883344   6.140726897
H        1.501818632  10.055206504   3.254061183
H        5.557678338   0.939644093   3.594020880
H        2.944222075   2.684457510   1.553637961
H        4.811635669   6.155035922   6.714820857
H        2.325955299   2.267728939   1.682098531
H        4.408929094   0.262601524   1.959245206
H        6.428464822   3.180918214   7.717081500
H        3.113531459  10.492378052   6.835041914
H        7.055748240   2.377604631   3.354205141
H        6.269040714   1.979000374   5.132016046
H        4.562869796   6.509118835   8.784717082
H        3.861781663   3.938329580   3.282673413
H        5.018048748   4.675753574   5.171627815
H        4.284875848   4.655940760   7.911666851
H        4.173384495   0.563743412   1.312389330



     Writing output data file 00_K2BaAl2B7H32_Monster.save
     NEW-OLD atomic charge density approx. for the potential

     negative rho (up, down):  8.440E-05 0.000E+00
     extrapolated charge   71.53322, renormalised to   71.00000

     total cpu time spent up to now is    36865.6 secs

     Self-consistent Calculation

     iteration #  1     ecut=    50.00 Ry     beta=0.70
     Davidson diagonalization with overlap
     ethr =  1.00E-06,  avg # of iterations = 11.4

     negative rho (up, down):  9.538E-05 0.000E+00

     total cpu time spent up to now is    36921.5 secs

     total energy              =    -287.74847404 Ry
     Harris-Foulkes estimate   =    -287.24365748 Ry
     estimated scf accuracy    <       0.01826373 Ry

     iteration #  2     ecut=    50.00 Ry     beta=0.70
     Davidson diagonalization with overlap
     ethr =  2.57E-05,  avg # of iterations =  6.8

     negative rho (up, down):  8.681E-05 0.000E+00

     total cpu time spent up to now is    36960.9 secs

     total energy              =    -287.71395804 Ry
     Harris-Foulkes estimate   =    -287.80821102 Ry
     estimated scf accuracy    <       0.73581653 Ry

     iteration #  3     ecut=    50.00 Ry     beta=0.70
     Davidson diagonalization with overlap
     ethr =  2.57E-05,  avg # of iterations =  4.4

     negative rho (up, down):  5.661E-05 0.000E+00

     total cpu time spent up to now is    36991.5 secs

     total energy              =    -287.76166840 Ry
     Harris-Foulkes estimate   =    -287.76817793 Ry
     estimated scf accuracy    <       0.02487316 Ry

     iteration #  4     ecut=    50.00 Ry     beta=0.70
     Davidson diagonalization with overlap
     ethr =  2.57E-05,  avg # of iterations =  2.4

     negative rho (up, down):  6.849E-05 0.000E+00

     total cpu time spent up to now is    37016.1 secs

     total energy              =    -287.76320372 Ry
     Harris-Foulkes estimate   =    -287.76377628 Ry
     estimated scf accuracy    <       0.00235122 Ry

     iteration #  5     ecut=    50.00 Ry     beta=0.70
     Davidson diagonalization with overlap
     ethr =  3.31E-06,  avg # of iterations =  6.1

     negative rho (up, down):  7.335E-05 0.000E+00

     total cpu time spent up to now is    37047.9 secs

     total energy              =    -287.76327061 Ry
     Harris-Foulkes estimate   =    -287.76384034 Ry
     estimated scf accuracy    <       0.00179372 Ry

     iteration #  6     ecut=    50.00 Ry     beta=0.70
     Davidson diagonalization with overlap
     ethr =  2.53E-06,  avg # of iterations =  2.0

     negative rho (up, down):  7.414E-05 0.000E+00

     total cpu time spent up to now is    37072.0 secs

     total energy              =    -287.76354814 Ry
     Harris-Foulkes estimate   =    -287.76361777 Ry
     estimated scf accuracy    <       0.00021050 Ry

     iteration #  7     ecut=    50.00 Ry     beta=0.70
     Davidson diagonalization with overlap
     ethr =  2.96E-07,  avg # of iterations =  3.0

     negative rho (up, down):  7.561E-05 0.000E+00

     total cpu time spent up to now is    37099.0 secs

     total energy              =    -287.76358892 Ry
     Harris-Foulkes estimate   =    -287.76360296 Ry
     estimated scf accuracy    <       0.00005735 Ry

     iteration #  8     ecut=    50.00 Ry     beta=0.70
     Davidson diagonalization with overlap
     ethr =  8.08E-08,  avg # of iterations =  2.0

     negative rho (up, down):  7.646E-05 0.000E+00

     total cpu time spent up to now is    37123.1 secs

     total energy              =    -287.76359276 Ry
     Harris-Foulkes estimate   =    -287.76360033 Ry
     estimated scf accuracy    <       0.00002621 Ry

     iteration #  9     ecut=    50.00 Ry     beta=0.70
     Davidson diagonalization with overlap
     ethr =  3.69E-08,  avg # of iterations =  2.0

     negative rho (up, down):  7.641E-05 0.000E+00

     total cpu time spent up to now is    37147.8 secs

     total energy              =    -287.76359618 Ry
     Harris-Foulkes estimate   =    -287.76359740 Ry
     estimated scf accuracy    <       0.00000342 Ry

     iteration # 10     ecut=    50.00 Ry     beta=0.70
     Davidson diagonalization with overlap
     ethr =  4.81E-09,  avg # of iterations =  2.8

     negative rho (up, down):  7.659E-05 0.000E+00

     total cpu time spent up to now is    37173.7 secs

     total energy              =    -287.76359686 Ry
     Harris-Foulkes estimate   =    -287.76359698 Ry
     estimated scf accuracy    <       0.00000094 Ry

     iteration # 11     ecut=    50.00 Ry     beta=0.70
     Davidson diagonalization with overlap
     ethr =  1.32E-09,  avg # of iterations =  1.9

     negative rho (up, down):  7.683E-05 0.000E+00

     total cpu time spent up to now is    37197.1 secs

     End of self-consistent calculation

          k = 0.0000 0.0000 0.0000 ( 21247 PWs)   bands (ev):

   -28.3667 -14.0249 -13.7141 -13.6926 -11.3225 -10.6971 -10.1202  -8.3297
    -8.1993  -7.9261  -7.8319  -7.4826  -7.1980  -6.8816  -6.4601  -6.3426
    -5.8866  -5.4917  -5.4803  -5.2889  -5.1296  -4.9097  -4.6649  -4.3271
    -4.1469  -3.9454  -3.8892  -3.8087  -3.6533  -3.2916  -3.2683  -2.1005
    -1.5395  -1.4048  -0.1280   0.0693   0.7559   1.0192   1.2869   1.4592
     1.7147   2.3630   2.6547

          k = 0.0887 0.0340-0.5027 ( 21362 PWs)   bands (ev):

   -28.3667 -14.0249 -13.7144 -13.6940 -11.3181 -10.6922 -10.1018  -8.3675
    -8.2637  -7.8825  -7.8549  -7.4450  -7.3706  -6.6181  -6.4572  -6.4114
    -5.9328  -5.6112  -5.3242  -5.2525  -5.0776  -4.9488  -4.6522  -4.3460
    -4.1402  -3.9444  -3.8821  -3.7803  -3.6664  -3.2956  -3.2215  -2.1414
    -1.4933  -1.4067  -0.1472   0.1704   0.3696   0.9065   1.2350   1.2910
     1.5147   2.3933   2.6336

          k = 0.0624-0.3402-0.4640 ( 21216 PWs)   bands (ev):

   -28.3667 -14.0250 -13.7144 -13.6940 -11.3173 -10.6923 -10.1016  -8.3528
    -8.2783  -7.9052  -7.8430  -7.4367  -7.3748  -6.6068  -6.5119  -6.3509
    -5.9388  -5.6046  -5.3272  -5.2514  -5.0817  -4.9504  -4.6459  -4.3398
    -4.0536  -4.0156  -3.8732  -3.8069  -3.6803  -3.3099  -3.2244  -2.1295
    -1.5024  -1.3890  -0.1677   0.1769   0.3700   0.9062   1.2113   1.3074
     1.5414   2.4405   2.6647

          k =-0.4911-0.3584-0.3621 ( 21368 PWs)   bands (ev):

   -28.3667 -14.0305 -13.7173 -13.6928 -11.3117 -10.6583 -10.1245  -8.3350
    -8.2364  -7.9965  -7.8940  -7.4587  -7.1044  -6.7824  -6.4240  -6.2957
    -5.9464  -5.6795  -5.3985  -5.3395  -5.1883  -4.9967  -4.6628  -4.2464
    -4.1393  -4.0362  -3.7865  -3.7628  -3.5582  -3.3467  -3.1529  -2.0938
    -1.5997  -1.4005  -0.1856  -0.0138   0.7607   0.9454   1.3749   1.5322
     1.6852   2.3370   2.4329

          k =-0.5536-0.0182 0.1019 ( 21362 PWs)   bands (ev):

   -28.3667 -14.0305 -13.7176 -13.6934 -11.3157 -10.6524 -10.1005  -8.4378
    -8.1573  -7.9966  -7.8685  -7.4289  -7.3154  -6.6126  -6.4441  -6.3173
    -5.9623  -5.5804  -5.4418  -5.3123  -5.1937  -4.9597  -4.6845  -4.3316
    -4.2254  -3.9392  -3.8137  -3.7498  -3.5655  -3.3132  -3.2240  -2.0862
    -1.4720  -1.3572  -0.0589   0.1991   0.5303   0.9736   1.2079   1.3862
     1.5710   2.3797   2.6434

          k =-0.0263-0.3742 0.0386 ( 21362 PWs)   bands (ev):

   -28.3667 -14.0250 -13.7141 -13.6926 -11.3213 -10.6983 -10.1205  -8.2892
    -8.2441  -7.9201  -7.8442  -7.4847  -7.1922  -6.8787  -6.5032  -6.2864
    -5.8828  -5.4946  -5.4733  -5.2936  -5.1355  -4.9197  -4.6579  -4.3279
    -4.0684  -4.0111  -3.8728  -3.8277  -3.6794  -3.3015  -3.2669  -2.0926
    -1.5195  -1.4210  -0.0895   0.0248   0.7671   1.0122   1.2891   1.4840
     1.7276   2.3446   2.6302

          k =-0.6422-0.0522 0.6045 ( 21216 PWs)   bands (ev):

   -28.3667 -14.0304 -13.7172 -13.6928 -11.3119 -10.6584 -10.1239  -8.4087
    -8.1177  -7.9673  -7.9286  -7.5060  -7.1119  -6.7934  -6.4264  -6.2575
    -5.9339  -5.6933  -5.3843  -5.3472  -5.2098  -4.9620  -4.6567  -4.2817
    -4.2201  -3.9645  -3.7842  -3.7615  -3.5657  -3.3285  -3.1602  -2.0740
    -1.5880  -1.4144  -0.1136  -0.0819   0.7652   0.9556   1.3355   1.4938
     1.6895   2.4220   2.4855

          k =-0.5273 0.3561 0.0632 ( 21216 PWs)   bands (ev):

   -28.3667 -14.0305 -13.7176 -13.6934 -11.3148 -10.6530 -10.1004  -8.3918
    -8.2141  -8.0055  -7.8925  -7.3650  -7.3201  -6.5750  -6.5229  -6.2915
    -5.9489  -5.5689  -5.4768  -5.3123  -5.1716  -5.0008  -4.6876  -4.2573
    -4.1892  -3.9956  -3.8379  -3.7521  -3.5546  -3.3252  -3.2059  -2.1008
    -1.4431  -1.3862  -0.0594   0.2124   0.5246   0.9718   1.1877   1.3750
     1.5740   2.3841   2.5029

     the Fermi energy is     0.1081 ev

!    total energy              =    -287.76359674 Ry
     Harris-Foulkes estimate   =    -287.76359692 Ry
     estimated scf accuracy    <       0.00000021 Ry

     The total energy is the sum of the following terms:

     one-electron contribution =    -105.68672482 Ry
     hartree contribution      =      68.28609381 Ry
     xc contribution           =     -97.19327204 Ry
     ewald contribution        =     -47.21349859 Ry
     one-center paw contrib.   =    -105.95448116 Ry
     smearing contrib. (-TS)   =      -0.00171393 Ry

     convergence has been achieved in  11 iterations

     negative rho (up, down):  7.683E-05 0.000E+00

     Forces acting on atoms (cartesian axes, Ry/au):

     atom    1 type  1   force =     0.00134492    0.00372287   -0.00552203
     atom    2 type  1   force =     0.00317471    0.00187183   -0.00144042
     atom    3 type  2   force =    -0.00898396    0.01188757    0.00830449
     atom    4 type  3   force =    -0.00334052    0.00146963   -0.00124625
     atom    5 type  3   force =    -0.00419514    0.01595171   -0.01103185
     atom    6 type  4   force =    -0.01378353   -0.00072367    0.01942296
     atom    7 type  4   force =     0.00422364    0.00337031    0.02913987
     atom    8 type  4   force =     0.01046310    0.02330054    0.02145981
     atom    9 type  4   force =    -0.01064516   -0.01224251    0.01607528
     atom   10 type  4   force =     0.00184641   -0.00016296   -0.01265196
     atom   11 type  4   force =    -0.00409376    0.00610752   -0.00370193
     atom   12 type  4   force =     0.01136527   -0.00548982   -0.00822409
     atom   13 type  5   force =     0.00090239    0.00395805    0.00027293
     atom   14 type  5   force =     0.01281105   -0.00627621    0.00546672
     atom   15 type  5   force =    -0.00618816   -0.00670827    0.00985542
     atom   16 type  5   force =    -0.01999864   -0.00450522   -0.01383368
     atom   17 type  5   force =     0.00483238   -0.00718514    0.00896723
     atom   18 type  5   force =    -0.01463642   -0.01413308    0.04979892
     atom   19 type  5   force =     0.00775700    0.00277852    0.00429336
     atom   20 type  5   force =     0.00303275   -0.00272077   -0.00456012
     atom   21 type  5   force =    -0.01203940   -0.00688538   -0.00394567
     atom   22 type  5   force =     0.00359017   -0.01714261   -0.00556626
     atom   23 type  5   force =     0.00549165   -0.00334078   -0.00592212
     atom   24 type  5   force =     0.00897842   -0.00798793    0.00910150
     atom   25 type  5   force =     0.00049706    0.00285774    0.00203212
     atom   26 type  5   force =     0.00740931   -0.00315602   -0.01528583
     atom   27 type  5   force =    -0.01187542    0.00155370    0.00121809
     atom   28 type  5   force =    -0.00016184    0.00932689   -0.01292488
     atom   29 type  5   force =     0.01590719    0.00830699   -0.00471545
     atom   30 type  5   force =     0.00114423    0.01072300   -0.01294801
     atom   31 type  5   force =     0.00217260    0.00382302   -0.00628226
     atom   32 type  5   force =    -0.00190074   -0.00521988   -0.00056064
     atom   33 type  5   force =    -0.00359938    0.00510530   -0.01506272
     atom   34 type  5   force =    -0.00189288   -0.00047833   -0.00182655
     atom   35 type  5   force =    -0.00084728   -0.00156687   -0.00414238
     atom   36 type  5   force =    -0.00521296    0.01095374   -0.00642048
     atom   37 type  5   force =    -0.00310039   -0.01469827    0.00023917
     atom   38 type  5   force =     0.01891332   -0.01122213   -0.00943884
     atom   39 type  5   force =    -0.00434617    0.00127383    0.00187381
     atom   40 type  5   force =     0.00069440   -0.00453290   -0.00584516
     atom   41 type  5   force =    -0.00101354   -0.00248922   -0.01467298
     atom   42 type  5   force =    -0.00084460    0.00674530   -0.00864783
     atom   43 type  5   force =     0.00188893    0.00506940   -0.00168981
     atom   44 type  5   force =     0.00425901   -0.00128948    0.01058851

     Total force =     0.112516     Total SCF correction =     0.000381


     Computing stress (Cartesian axis) and pressure


     negative rho (up, down):  7.683E-05 0.000E+00
          total   stress  (Ry/bohr**3)                   (kbar)     P=    2.25
   0.00001017  -0.00000832   0.00002518          1.50     -1.22      3.70
  -0.00000832   0.00001754  -0.00001382         -1.22      2.58     -2.03
   0.00002518  -0.00001382   0.00001823          3.70     -2.03      2.68


     number of scf cycles    =  30
     number of bfgs steps    =  28

     enthalpy old            =    -287.7479448300 Ry
     enthalpy new            =    -287.7635967353 Ry

     CASE: enthalpy_new < enthalpy_old

     new trust radius        =       0.2148417790 bohr
     new conv_thr            =       0.0000004980 Ry

     new unit-cell volume =   4517.42127 a.u.^3 (   669.41276 Ang^3 )
     density =      0.93621 g/cm^3

CELL_PARAMETERS (angstrom)
   7.615502900  -0.399122696   1.355108687
  -0.234122077  10.918083010   0.686405736
   1.554212965   0.743636072   8.391683459

ATOMIC_POSITIONS (angstrom)
K        5.767747872   6.170787273   3.039032972
K        4.732529330   1.189163699   7.516893519
Ba       6.666248938   7.968297996   7.370232313
Al       3.631368232   3.788932144   5.330046136
Al       1.723658670   9.727417006   6.689201446
B        1.488188915   8.942297380   3.002006023
B        4.942737593   5.722293367   7.982696255
B        7.605044916  10.560462194   8.091644060
B        3.987628302   7.089400281   6.324004689
B        6.165113358   2.005562163   3.936811481
B        4.853872632   3.177450744   3.353067124
B        3.707273826   7.987429887   1.617081822
H        7.046397852   4.592381535   5.998138021
H        2.352222925   8.364269719   2.208792427
H        1.372234166   8.339427967   7.477219831
H        6.664237043  10.561581072   7.326604979
H        1.459504913   3.923453589   3.355874530
H        5.034511530   2.947021492   4.501449440
H        8.050435696   7.910804710   4.234563657
H        3.925629184   7.997014315   7.121660913
H        6.188515790   5.587114722   8.005659216
H        7.967396121   0.700976294   8.025452338
H        4.665925180   7.417331763   5.322109310
H        6.865232011   2.693426740   8.231257987
H        7.789406288   4.635776149   6.117601833
H        1.520523024   8.916043843   5.114862888
H        5.073829420   9.536827957   9.007651029
H        1.273476403   4.382639933   2.809613806
H        2.925236741   6.488894134   6.187621444
H        1.481174227  10.145668640   3.202428151
H        5.600982894   0.973054086   3.627683114
H        2.973889430   2.641527432   1.564056165
H        4.890247418   6.175599064   6.765924776
H        2.330302296   2.260337029   1.686697531
H        4.455964726   0.224160404   1.992901570
H        6.504270472   3.175019423   7.778105337
H        3.207889970  10.411202394   6.875935850
H        7.178992240   2.281707441   3.392654028
H        6.316809014   1.929045755   5.163695311
H        4.652325120   6.523411492   8.867884488
H        3.874374842   3.903550736   3.261548644
H        5.069513709   4.736070500   5.205770064
H        4.345732896   4.662817009   7.968248250
H        4.227254080   0.567055124   1.370237853



     Writing output data file 00_K2BaAl2B7H32_Monster.save
     NEW-OLD atomic charge density approx. for the potential

     negative rho (up, down):  7.297E-05 0.000E+00
     extrapolated charge   71.95047, renormalised to   71.00000

     total cpu time spent up to now is    38160.8 secs

     Self-consistent Calculation

     iteration #  1     ecut=    50.00 Ry     beta=0.70
     Davidson diagonalization with overlap
     ethr =  1.00E-06,  avg # of iterations = 11.6

     negative rho (up, down):  9.458E-05 0.000E+00

     total cpu time spent up to now is    38222.3 secs

     total energy              =    -287.75223269 Ry
     Harris-Foulkes estimate   =    -286.84936534 Ry
     estimated scf accuracy    <       0.04725076 Ry

     iteration #  2     ecut=    50.00 Ry     beta=0.70
     Davidson diagonalization with overlap
     ethr =  6.66E-05,  avg # of iterations =  7.2

     negative rho (up, down):  7.995E-05 0.000E+00

     total cpu time spent up to now is    38257.9 secs

     total energy              =    -287.73201847 Ry
     Harris-Foulkes estimate   =    -287.83906621 Ry
     estimated scf accuracy    <       0.50290199 Ry

     iteration #  3     ecut=    50.00 Ry     beta=0.70
     Davidson diagonalization with overlap
     ethr =  6.66E-05,  avg # of iterations =  3.8

     negative rho (up, down):  4.779E-05 0.000E+00

     total cpu time spent up to now is    38284.9 secs

     total energy              =    -287.78361572 Ry
     Harris-Foulkes estimate   =    -287.80100697 Ry
     estimated scf accuracy    <       0.04668203 Ry

     iteration #  4     ecut=    50.00 Ry     beta=0.70
     Davidson diagonalization with overlap
     ethr =  6.57E-05,  avg # of iterations =  2.1

     negative rho (up, down):  6.511E-05 0.000E+00

     total cpu time spent up to now is    38307.8 secs

     total energy              =    -287.78624348 Ry
     Harris-Foulkes estimate   =    -287.78802229 Ry
     estimated scf accuracy    <       0.00616236 Ry

     iteration #  5     ecut=    50.00 Ry     beta=0.70
     Davidson diagonalization with overlap
     ethr =  8.68E-06,  avg # of iterations =  5.8

     negative rho (up, down):  6.151E-05 0.000E+00

     total cpu time spent up to now is    38336.8 secs

     total energy              =    -287.78715765 Ry
     Harris-Foulkes estimate   =    -287.78770921 Ry
     estimated scf accuracy    <       0.00202259 Ry

     iteration #  6     ecut=    50.00 Ry     beta=0.70
     Davidson diagonalization with overlap
     ethr =  2.85E-06,  avg # of iterations =  2.6

     negative rho (up, down):  6.029E-05 0.000E+00

     total cpu time spent up to now is    38362.1 secs

     total energy              =    -287.78735842 Ry
     Harris-Foulkes estimate   =    -287.78756377 Ry
     estimated scf accuracy    <       0.00094987 Ry

     iteration #  7     ecut=    50.00 Ry     beta=0.70
     Davidson diagonalization with overlap
     ethr =  1.34E-06,  avg # of iterations =  2.0

     negative rho (up, down):  6.044E-05 0.000E+00

     total cpu time spent up to now is    38387.7 secs

     total energy              =    -287.78743966 Ry
     Harris-Foulkes estimate   =    -287.78748895 Ry
     estimated scf accuracy    <       0.00018124 Ry

     iteration #  8     ecut=    50.00 Ry     beta=0.70
     Davidson diagonalization with overlap
     ethr =  2.55E-07,  avg # of iterations =  2.0

     negative rho (up, down):  6.044E-05 0.000E+00

     total cpu time spent up to now is    38410.8 secs

     total energy              =    -287.78746460 Ry
     Harris-Foulkes estimate   =    -287.78747460 Ry
     estimated scf accuracy    <       0.00003923 Ry

     iteration #  9     ecut=    50.00 Ry     beta=0.70
     Davidson diagonalization with overlap
     ethr =  5.52E-08,  avg # of iterations =  2.2

     negative rho (up, down):  6.059E-05 0.000E+00

     total cpu time spent up to now is    38433.3 secs

     total energy              =    -287.78746808 Ry
     Harris-Foulkes estimate   =    -287.78747211 Ry
     estimated scf accuracy    <       0.00002764 Ry

     iteration # 10     ecut=    50.00 Ry     beta=0.70
     Davidson diagonalization with overlap
     ethr =  3.89E-08,  avg # of iterations =  1.0

     negative rho (up, down):  6.095E-05 0.000E+00

     total cpu time spent up to now is    38455.4 secs

     total energy              =    -287.78746897 Ry
     Harris-Foulkes estimate   =    -287.78746968 Ry
     estimated scf accuracy    <       0.00000501 Ry

     iteration # 11     ecut=    50.00 Ry     beta=0.70
     Davidson diagonalization with overlap
     ethr =  7.06E-09,  avg # of iterations =  1.1

     negative rho (up, down):  6.115E-05 0.000E+00

     total cpu time spent up to now is    38477.6 secs

     End of self-consistent calculation

          k = 0.0000 0.0000 0.0000 ( 21247 PWs)   bands (ev):

   -28.4196 -14.0873 -13.7676 -13.7498 -11.0799 -10.6859  -9.9435  -8.3564
    -8.2292  -7.8628  -7.8042  -7.5158  -7.2142  -6.9134  -6.4941  -6.3918
    -5.9701  -5.4718  -5.3553  -5.2226  -5.1025  -4.9546  -4.6909  -4.4874
    -4.1650  -4.0013  -3.8749  -3.7160  -3.5638  -3.4039  -3.1590  -2.2154
    -1.6905  -1.5231  -0.2880  -0.1153   0.7058   1.0185   1.2901   1.4633
     1.5653   2.3142   2.6154

          k = 0.0910 0.0335-0.5014 ( 21362 PWs)   bands (ev):

   -28.4196 -14.0873 -13.7682 -13.7508 -11.0723 -10.6866  -9.9185  -8.3993
    -8.2656  -7.8550  -7.8210  -7.4877  -7.3773  -6.6581  -6.5127  -6.4342
    -6.0096  -5.5559  -5.2476  -5.1858  -5.0392  -4.9924  -4.6798  -4.5125
    -4.1509  -3.9755  -3.8722  -3.7016  -3.5785  -3.3641  -3.1582  -2.2497
    -1.6567  -1.5225  -0.2984   0.0576   0.3455   0.7754   1.1486   1.2109
     1.5494   2.3355   2.5744

          k = 0.0647-0.3396-0.4635 ( 21216 PWs)   bands (ev):

   -28.4196 -14.0874 -13.7683 -13.7508 -11.0707 -10.6875  -9.9183  -8.3792
    -8.2923  -7.8724  -7.8079  -7.4713  -7.3863  -6.6501  -6.5573  -6.3840
    -6.0117  -5.5536  -5.2583  -5.1746  -5.0447  -4.9989  -4.6714  -4.5043
    -4.1204  -3.9904  -3.8646  -3.7336  -3.5784  -3.3795  -3.1670  -2.2344
    -1.6716  -1.5030  -0.3097   0.0525   0.3498   0.7732   1.0877   1.2735
     1.5693   2.3932   2.5957

          k =-0.4854-0.3579-0.3600 ( 21368 PWs)   bands (ev):

   -28.4196 -14.0916 -13.7700 -13.7505 -11.0645 -10.6582  -9.9465  -8.3611
    -8.2676  -7.9417  -7.8630  -7.4844  -7.1298  -6.8121  -6.4491  -6.3703
    -5.9988  -5.6322  -5.3770  -5.2583  -5.1405  -5.0213  -4.6889  -4.3739
    -4.1937  -3.9692  -3.8683  -3.5971  -3.5217  -3.3607  -3.1521  -2.2161
    -1.7734  -1.4964  -0.3544  -0.1649   0.7162   0.8986   1.3545   1.4692
     1.5967   2.3050   2.3453

          k =-0.5500-0.0183 0.1035 ( 21362 PWs)   bands (ev):

   -28.4196 -14.0916 -13.7706 -13.7506 -11.0715 -10.6499  -9.9173  -8.4665
    -8.1621  -7.9610  -7.8541  -7.4738  -7.3062  -6.6495  -6.4680  -6.3956
    -6.0163  -5.6089  -5.3202  -5.2900  -5.0590  -5.0218  -4.7060  -4.4420
    -4.2496  -3.9602  -3.8514  -3.6047  -3.5220  -3.3933  -3.1643  -2.1986
    -1.6232  -1.4931  -0.2175   0.0476   0.5128   0.8223   1.1264   1.3908
     1.5771   2.2988   2.5644

          k =-0.0263-0.3731 0.0379 ( 21362 PWs)   bands (ev):

   -28.4196 -14.0874 -13.7676 -13.7498 -11.0775 -10.6885  -9.9438  -8.3016
    -8.2898  -7.8602  -7.8135  -7.5118  -7.2115  -6.9088  -6.5320  -6.3475
    -5.9630  -5.4618  -5.3605  -5.2329  -5.1056  -4.9643  -4.6852  -4.4830
    -4.1301  -4.0323  -3.8516  -3.7307  -3.5845  -3.4189  -3.1612  -2.2041
    -1.6841  -1.5290  -0.2473  -0.1628   0.7197   1.0083   1.2886   1.4929
     1.5832   2.2882   2.6064

          k =-0.6410-0.0518 0.6049 ( 21216 PWs)   bands (ev):

   -28.4195 -14.0915 -13.7699 -13.7505 -11.0652 -10.6577  -9.9460  -8.4343
    -8.1404  -7.9337  -7.8895  -7.5312  -7.1328  -6.8215  -6.4575  -6.3306
    -5.9919  -5.6475  -5.3201  -5.3124  -5.1396  -4.9960  -4.6849  -4.4023
    -4.2302  -3.9670  -3.8384  -3.6247  -3.5090  -3.3503  -3.1513  -2.1956
    -1.7650  -1.5095  -0.2670  -0.2477   0.7286   0.9066   1.3068   1.4479
     1.5972   2.3304   2.4201

          k =-0.5237 0.3548 0.0656 ( 21216 PWs)   bands (ev):

   -28.4195 -14.0916 -13.7706 -13.7506 -11.0698 -10.6513  -9.9173  -8.4235
    -8.2253  -7.9740  -7.8604  -7.4180  -7.3096  -6.6121  -6.5456  -6.3683
    -6.0070  -5.6006  -5.3787  -5.2361  -5.0772  -5.0445  -4.7061  -4.3958
    -4.2271  -3.9537  -3.8934  -3.6033  -3.5202  -3.4009  -3.1522  -2.2129
    -1.6074  -1.5066  -0.2303   0.0662   0.5110   0.8250   1.0996   1.3849
     1.5787   2.2991   2.4529

     the Fermi energy is    -0.0471 ev

!    total energy              =    -287.78746927 Ry
     Harris-Foulkes estimate   =    -287.78746935 Ry
     estimated scf accuracy    <       0.00000012 Ry

     The total energy is the sum of the following terms:

     one-electron contribution =    -106.46898419 Ry
     hartree contribution      =      68.54937905 Ry
     xc contribution           =     -97.05399187 Ry
     ewald contribution        =     -46.86205695 Ry
     one-center paw contrib.   =    -105.95045729 Ry
     smearing contrib. (-TS)   =      -0.00135802 Ry

     convergence has been achieved in  11 iterations

     negative rho (up, down):  6.115E-05 0.000E+00

     Forces acting on atoms (cartesian axes, Ry/au):

     atom    1 type  1   force =     0.00323523   -0.00080685   -0.00303365
     atom    2 type  1   force =     0.00066241    0.00172282   -0.00384060
     atom    3 type  2   force =    -0.00639201    0.01024163    0.00711013
     atom    4 type  3   force =     0.00105631    0.00566785    0.00214055
     atom    5 type  3   force =     0.00861724    0.00724295   -0.01042553
     atom    6 type  4   force =    -0.02255590    0.01840019    0.01592063
     atom    7 type  4   force =     0.01364479   -0.00917398    0.02500498
     atom    8 type  4   force =     0.01200699    0.02834864    0.01925621
     atom    9 type  4   force =     0.00340503   -0.00494195    0.00482858
     atom   10 type  4   force =    -0.01208972    0.00184862   -0.01487110
     atom   11 type  4   force =     0.00840852    0.00662637    0.01182625
     atom   12 type  4   force =    -0.00159258    0.02060542   -0.02491855
     atom   13 type  5   force =    -0.00057019    0.00332283   -0.00039895
     atom   14 type  5   force =     0.01048383   -0.00025937    0.02129402
     atom   15 type  5   force =    -0.00682180   -0.00875167    0.00763388
     atom   16 type  5   force =    -0.00919617   -0.00077572   -0.00420165
     atom   17 type  5   force =     0.00597974   -0.01087228    0.01396666
     atom   18 type  5   force =    -0.01807476   -0.01521920    0.04939778
     atom   19 type  5   force =     0.01546128    0.00486594    0.00903520
     atom   20 type  5   force =     0.00148136    0.00475190   -0.00220828
     atom   21 type  5   force =    -0.01701132   -0.00558713   -0.00466231
     atom   22 type  5   force =    -0.00627990   -0.01727773   -0.01094330
     atom   23 type  5   force =    -0.00995535   -0.01033096    0.01291974
     atom   24 type  5   force =     0.00191345    0.00110949    0.00025739
     atom   25 type  5   force =     0.00187837    0.00272089    0.00197638
     atom   26 type  5   force =     0.00633966   -0.00248466   -0.02670981
     atom   27 type  5   force =    -0.00404585   -0.01592358    0.01600919
     atom   28 type  5   force =    -0.00204154    0.01282704   -0.01763034
     atom   29 type  5   force =     0.02035726    0.00710107   -0.00790319
     atom   30 type  5   force =     0.00736307   -0.02140054   -0.01498993
     atom   31 type  5   force =    -0.00165440   -0.00395286   -0.00998340
     atom   32 type  5   force =    -0.00515156   -0.00597617   -0.00067382
     atom   33 type  5   force =    -0.00714095    0.00273159   -0.01319447
     atom   34 type  5   force =     0.00132551    0.00086919   -0.00203122
     atom   35 type  5   force =     0.00117280   -0.00414844    0.00128390
     atom   36 type  5   force =     0.00185507    0.00186897    0.00220064
     atom   37 type  5   force =    -0.01577007   -0.00991078   -0.00071220
     atom   38 type  5   force =     0.02333720   -0.00628564   -0.01364907
     atom   39 type  5   force =    -0.00136259    0.00798719    0.00158672
     atom   40 type  5   force =    -0.00395284   -0.00264904   -0.00987449
     atom   41 type  5   force =     0.00833803   -0.00489439   -0.01520356
     atom   42 type  5   force =    -0.01079988   -0.00208175   -0.01478328
     atom   43 type  5   force =     0.00217708    0.01115609   -0.00100424
     atom   44 type  5   force =     0.00195917    0.00168803    0.00419810

     Total force =     0.130136     Total SCF correction =     0.000380


     Computing stress (Cartesian axis) and pressure


     negative rho (up, down):  6.115E-05 0.000E+00
          total   stress  (Ry/bohr**3)                   (kbar)     P=   -3.84
  -0.00004129  -0.00001291   0.00001429         -6.07     -1.90      2.10
  -0.00001291  -0.00000524  -0.00000495         -1.90     -0.77     -0.73
   0.00001429  -0.00000495  -0.00003169          2.10     -0.73     -4.66


     number of scf cycles    =  31
     number of bfgs steps    =  29

     enthalpy old            =    -287.7635967353 Ry
     enthalpy new            =    -287.7874692707 Ry

     CASE: enthalpy_new < enthalpy_old

     new trust radius        =       0.1947693551 bohr
     new conv_thr            =       0.0000004940 Ry

     new unit-cell volume =   4549.21437 a.u.^3 (   674.12401 Ang^3 )
     density =      0.92967 g/cm^3

CELL_PARAMETERS (angstrom)
   7.642269399  -0.409352543   1.406772632
  -0.243252800  10.961660156   0.685329701
   1.600794390   0.740006531   8.406444454

ATOMIC_POSITIONS (angstrom)
K        5.791730748   6.237357989   3.052517329
K        4.800646248   1.184222977   7.572964709
Ba       6.672529253   8.020918000   7.442975216
Al       3.643570585   3.821538899   5.337939038
Al       1.712369246   9.803959271   6.686421734
B        1.519224690   8.990688122   3.066354919
B        4.994867263   5.743933594   8.043769268
B        7.629968953  10.615333519   8.136054995
B        4.028890675   7.089915641   6.352734607
B        6.224575863   2.002832655   3.961276347
B        4.896718018   3.189354068   3.445093400
B        3.730147626   7.981248112   1.609855755
H        7.099828468   4.635464750   6.061123137
H        2.382172285   8.357080289   2.251042709
H        1.377077299   8.418839510   7.511611672
H        6.678251565  10.618570699   7.364862816
H        1.480608500   3.948261061   3.366401086
H        5.011212349   2.926333253   4.584409755
H        8.112878072   7.969069940   4.311691860
H        3.962479857   8.004749721   7.136937128
H        6.223317618   5.595537553   8.043508374
H        8.051851268   0.663793044   8.095857729
H        4.728099168   7.419963821   5.341376311
H        6.940933263   2.702791936   8.293533493
H        7.838721855   4.666919586   6.183448892
H        1.550252623   8.923984138   5.102984808
H        5.087377987   9.565651266   9.036653962
H        1.289048445   4.400790765   2.806116369
H        2.958889327   6.497200328   6.223410059
H        1.460881983  10.215438158   3.154009491
H        5.624142086   0.985062310   3.652491154
H        2.984850849   2.605853125   1.574142718
H        4.941251637   6.207214507   6.800319913
H        2.321722743   2.253626174   1.688315587
H        4.482926393   0.172001222   2.022706782
H        6.573671911   3.165512679   7.835605958
H        3.263027909  10.368679886   6.906296814
H        7.270368991   2.196489089   3.432232176
H        6.351238482   1.900598687   5.201249901
H        4.714372659   6.554039979   8.930067720
H        3.870523675   3.884733557   3.236750996
H        5.091797107   4.781506839   5.215433017
H        4.390780072   4.693853374   8.013325462
H        4.255928125   0.567342436   1.416627809



     Writing output data file 00_K2BaAl2B7H32_Monster.save
     NEW-OLD atomic charge density approx. for the potential

     negative rho (up, down):  9.094E-05 0.000E+00
     extrapolated charge   71.49578, renormalised to   71.00000

     total cpu time spent up to now is    39304.7 secs

     Self-consistent Calculation

     iteration #  1     ecut=    50.00 Ry     beta=0.70
     Davidson diagonalization with overlap
     ethr =  1.00E-06,  avg # of iterations = 10.6

     negative rho (up, down):  5.652E-05 0.000E+00

     total cpu time spent up to now is    39358.1 secs

     total energy              =    -287.79568956 Ry
     Harris-Foulkes estimate   =    -287.31572754 Ry
     estimated scf accuracy    <       0.02525816 Ry

     iteration #  2     ecut=    50.00 Ry     beta=0.70
     Davidson diagonalization with overlap
     ethr =  3.56E-05,  avg # of iterations =  5.4

     negative rho (up, down):  5.175E-05 0.000E+00

     total cpu time spent up to now is    39390.2 secs

     total energy              =    -287.77667091 Ry
     Harris-Foulkes estimate   =    -287.82780748 Ry
     estimated scf accuracy    <       0.26207348 Ry

     iteration #  3     ecut=    50.00 Ry     beta=0.70
     Davidson diagonalization with overlap
     ethr =  3.56E-05,  avg # of iterations =  3.4

     negative rho (up, down):  2.626E-05 0.000E+00

     total cpu time spent up to now is    39415.8 secs

     total energy              =    -287.80483073 Ry
     Harris-Foulkes estimate   =    -287.81300642 Ry
     estimated scf accuracy    <       0.02319978 Ry

     iteration #  4     ecut=    50.00 Ry     beta=0.70
     Davidson diagonalization with overlap
     ethr =  3.27E-05,  avg # of iterations =  2.1

     negative rho (up, down):  4.183E-05 0.000E+00

     total cpu time spent up to now is    39439.4 secs

     total energy              =    -287.80710428 Ry
     Harris-Foulkes estimate   =    -287.80744799 Ry
     estimated scf accuracy    <       0.00215179 Ry

     iteration #  5     ecut=    50.00 Ry     beta=0.70
     Davidson diagonalization with overlap
     ethr =  3.03E-06,  avg # of iterations =  5.9

     negative rho (up, down):  4.313E-05 0.000E+00

     total cpu time spent up to now is    39466.9 secs

     total energy              =    -287.80730390 Ry
     Harris-Foulkes estimate   =    -287.80750922 Ry
     estimated scf accuracy    <       0.00063254 Ry

     iteration #  6     ecut=    50.00 Ry     beta=0.70
     Davidson diagonalization with overlap
     ethr =  8.91E-07,  avg # of iterations =  2.5

     negative rho (up, down):  4.427E-05 0.000E+00

     total cpu time spent up to now is    39490.6 secs

     total energy              =    -287.80738850 Ry
     Harris-Foulkes estimate   =    -287.80747257 Ry
     estimated scf accuracy    <       0.00025031 Ry

     iteration #  7     ecut=    50.00 Ry     beta=0.70
     Davidson diagonalization with overlap
     ethr =  3.53E-07,  avg # of iterations =  2.5

     negative rho (up, down):  4.576E-05 0.000E+00

     total cpu time spent up to now is    39513.3 secs

     total energy              =    -287.80743087 Ry
     Harris-Foulkes estimate   =    -287.80744433 Ry
     estimated scf accuracy    <       0.00004358 Ry

     iteration #  8     ecut=    50.00 Ry     beta=0.70
     Davidson diagonalization with overlap
     ethr =  6.14E-08,  avg # of iterations =  2.0

     negative rho (up, down):  4.617E-05 0.000E+00

     total cpu time spent up to now is    39535.6 secs

     total energy              =    -287.80743697 Ry
     Harris-Foulkes estimate   =    -287.80743946 Ry
     estimated scf accuracy    <       0.00001399 Ry

     iteration #  9     ecut=    50.00 Ry     beta=0.70
     Davidson diagonalization with overlap
     ethr =  1.97E-08,  avg # of iterations =  2.0

     negative rho (up, down):  4.638E-05 0.000E+00

     total cpu time spent up to now is    39558.3 secs

     total energy              =    -287.80743794 Ry
     Harris-Foulkes estimate   =    -287.80743858 Ry
     estimated scf accuracy    <       0.00000303 Ry

     iteration # 10     ecut=    50.00 Ry     beta=0.70
     Davidson diagonalization with overlap
     ethr =  4.27E-09,  avg # of iterations =  2.0

     negative rho (up, down):  4.659E-05 0.000E+00

     total cpu time spent up to now is    39580.9 secs

     End of self-consistent calculation

          k = 0.0000 0.0000 0.0000 ( 21247 PWs)   bands (ev):

   -28.4217 -14.0978 -13.7860 -13.7545 -10.9324 -10.6408  -9.8349  -8.4151
    -8.2738  -7.8522  -7.7235  -7.5365  -7.1973  -6.9503  -6.5141  -6.4112
    -6.0035  -5.4740  -5.2861  -5.2649  -4.9870  -4.9331  -4.6881  -4.6305
    -4.1878  -4.0875  -3.8784  -3.6556  -3.5155  -3.3745  -3.0345  -2.3146
    -1.7846  -1.6350  -0.4071  -0.2436   0.6961   1.0079   1.3176   1.4836
     1.5349   2.3162   2.5971

          k = 0.0941 0.0334-0.5016 ( 21362 PWs)   bands (ev):

   -28.4217 -14.0978 -13.7873 -13.7551 -10.9208 -10.6460  -9.8025  -8.4628
    -8.2905  -7.8781  -7.7380  -7.5152  -7.3647  -6.6794  -6.5623  -6.4322
    -6.0310  -5.5201  -5.2589  -5.1856  -5.0087  -4.8826  -4.7167  -4.6202
    -4.1721  -4.0549  -3.8673  -3.6503  -3.4895  -3.3814  -3.0315  -2.3378
    -1.7628  -1.6321  -0.4122  -0.0478   0.3778   0.7068   1.0849   1.2254
     1.5748   2.3178   2.5538

          k = 0.0673-0.3382-0.4638 ( 21216 PWs)   bands (ev):

   -28.4217 -14.0979 -13.7873 -13.7551 -10.9183 -10.6479  -9.8023  -8.4500
    -8.3139  -7.8821  -7.7338  -7.4966  -7.3739  -6.6710  -6.5962  -6.3955
    -6.0328  -5.5194  -5.2626  -5.1849  -5.0228  -4.8792  -4.6801  -4.6391
    -4.1605  -4.0663  -3.8548  -3.6601  -3.5037  -3.3876  -3.0440  -2.3196
    -1.7815  -1.6122  -0.4178  -0.0586   0.3834   0.7048   1.0249   1.2894
     1.5969   2.3808   2.5572

          k =-0.4821-0.3570-0.3575 ( 21368 PWs)   bands (ev):

   -28.4217 -14.1014 -13.7874 -13.7560 -10.9115 -10.6225  -9.8378  -8.4147
    -8.3105  -7.8986  -7.8295  -7.4967  -7.1263  -6.8520  -6.4576  -6.3966
    -6.0006  -5.6037  -5.4134  -5.2715  -5.0858  -4.9265  -4.6647  -4.5361
    -4.2066  -4.0096  -3.9153  -3.5148  -3.4648  -3.3343  -3.0435  -2.3151
    -1.8720  -1.6134  -0.4742  -0.2738   0.7058   0.8809   1.3454   1.4426
     1.5998   2.2949   2.3097

          k =-0.5494-0.0188 0.1063 ( 21362 PWs)   bands (ev):

   -28.4217 -14.1014 -13.7885 -13.7558 -10.9221 -10.6107  -9.8015  -8.5186
    -8.1991  -7.9029  -7.8666  -7.4977  -7.2895  -6.6748  -6.4727  -6.4318
    -6.0114  -5.6269  -5.3483  -5.2349  -5.0578  -4.8973  -4.6619  -4.6112
    -4.2405  -4.0507  -3.8813  -3.5338  -3.5086  -3.3263  -3.0467  -2.2876
    -1.7328  -1.6104  -0.3432  -0.0695   0.5418   0.7276   1.1156   1.4249
     1.5909   2.2491   2.5154

          k =-0.0269-0.3716 0.0378 ( 21362 PWs)   bands (ev):

   -28.4217 -14.0979 -13.7861 -13.7546 -10.9286 -10.6449  -9.8352  -8.3822
    -8.3148  -7.8510  -7.7300  -7.5291  -7.1961  -6.9453  -6.5392  -6.3827
    -5.9960  -5.4620  -5.3006  -5.2672  -5.0064  -4.9312  -4.6597  -4.6442
    -4.1805  -4.1024  -3.8523  -3.6580  -3.5324  -3.3921  -3.0419  -2.2991
    -1.7823  -1.6399  -0.3684  -0.2913   0.7119   1.0068   1.3102   1.4886
     1.5800   2.2787   2.5969

          k =-0.6435-0.0523 0.6079 ( 21216 PWs)   bands (ev):

   -28.4217 -14.1013 -13.7874 -13.7560 -10.9128 -10.6216  -9.8372  -8.4788
    -8.1980  -7.8844  -7.8609  -7.5431  -7.1277  -6.8583  -6.4568  -6.3664
    -5.9976  -5.6180  -5.3892  -5.2809  -5.0733  -4.9201  -4.6508  -4.5767
    -4.2249  -4.0319  -3.8743  -3.5451  -3.4659  -3.3160  -3.0381  -2.2945
    -1.8638  -1.6274  -0.3821  -0.3620   0.7228   0.8858   1.3133   1.4209
     1.5899   2.2758   2.4113

          k =-0.5225 0.3528 0.0684 ( 21216 PWs)   bands (ev):

   -28.4217 -14.1014 -13.7885 -13.7558 -10.9196 -10.6130  -9.8015  -8.4803
    -8.2648  -7.9041  -7.8735  -7.4422  -7.2968  -6.6471  -6.5425  -6.4026
    -6.0037  -5.6197  -5.3772  -5.2023  -5.1061  -4.8965  -4.6680  -4.5646
    -4.2273  -4.0407  -3.9102  -3.5317  -3.5019  -3.3357  -3.0382  -2.3016
    -1.7183  -1.6202  -0.3645  -0.0465   0.5418   0.7306   1.0851   1.4214
     1.5920   2.2472   2.4296

     the Fermi energy is    -0.1671 ev

!    total energy              =    -287.80743794 Ry
     Harris-Foulkes estimate   =    -287.80743834 Ry
     estimated scf accuracy    <       0.00000048 Ry

     The total energy is the sum of the following terms:

     one-electron contribution =    -106.87432899 Ry
     hartree contribution      =      68.69293704 Ry
     xc contribution           =     -96.98303357 Ry
     ewald contribution        =     -46.69466721 Ry
     one-center paw contrib.   =    -105.94664275 Ry
     smearing contrib. (-TS)   =      -0.00170246 Ry

     convergence has been achieved in  10 iterations

     negative rho (up, down):  4.659E-05 0.000E+00

     Forces acting on atoms (cartesian axes, Ry/au):

     atom    1 type  1   force =     0.00481811   -0.00290303   -0.00108001
     atom    2 type  1   force =    -0.00155478    0.00127548   -0.00579654
     atom    3 type  2   force =    -0.00758970    0.00600140    0.00422268
     atom    4 type  3   force =    -0.00176312    0.00823996    0.00521401
     atom    5 type  3   force =     0.02199309   -0.00314270   -0.00698846
     atom    6 type  4   force =    -0.01760067    0.02004933    0.01081324
     atom    7 type  4   force =     0.00481951   -0.00410404    0.01210378
     atom    8 type  4   force =     0.00591815    0.01301567    0.00511351
     atom    9 type  4   force =     0.00778931    0.00055899   -0.00320356
     atom   10 type  4   force =    -0.01253445    0.00171030   -0.01269977
     atom   11 type  4   force =     0.00352800    0.01467090    0.01179384
     atom   12 type  4   force =    -0.01111679    0.03468643   -0.02660310
     atom   13 type  5   force =    -0.00568699    0.00270256   -0.00149062
     atom   14 type  5   force =     0.00883735    0.00573594    0.03027734
     atom   15 type  5   force =    -0.00757982   -0.00638981    0.00287866
     atom   16 type  5   force =     0.00056835    0.00208043    0.00426041
     atom   17 type  5   force =     0.00325772   -0.00409253    0.00639389
     atom   18 type  5   force =    -0.02383378   -0.01598675    0.05139928
     atom   19 type  5   force =     0.00765717   -0.00182779    0.01049795
     atom   20 type  5   force =     0.00159759    0.00739668   -0.00030718
     atom   21 type  5   force =    -0.00667889   -0.00450418   -0.00377733
     atom   22 type  5   force =    -0.00997522   -0.00046069   -0.00444276
     atom   23 type  5   force =    -0.01785067   -0.01218575    0.02140697
     atom   24 type  5   force =     0.00543329   -0.00405759    0.00504195
     atom   25 type  5   force =     0.00679581    0.00275132    0.00256443
     atom   26 type  5   force =     0.00633462    0.00051077   -0.03501295
     atom   27 type  5   force =     0.00034947   -0.02323365    0.01978321
     atom   28 type  5   force =     0.00017260    0.00592071   -0.01003431
     atom   29 type  5   force =     0.02304579    0.00695468   -0.00895360
     atom   30 type  5   force =     0.01401510   -0.02736113   -0.00950479
     atom   31 type  5   force =    -0.00232305   -0.00300704   -0.00960207
     atom   32 type  5   force =    -0.00808533   -0.00679757   -0.00068782
     atom   33 type  5   force =    -0.00605699   -0.00353584   -0.00170044
     atom   34 type  5   force =     0.00413675    0.00194017   -0.00223618
     atom   35 type  5   force =    -0.00344297    0.00385460   -0.01116383
     atom   36 type  5   force =    -0.00177279    0.00711754   -0.00278526
     atom   37 type  5   force =    -0.02321864   -0.00466758   -0.00218790
     atom   38 type  5   force =     0.01868969   -0.00470399   -0.01360063
     atom   39 type  5   force =    -0.00058038    0.01117513   -0.00672560
     atom   40 type  5   force =    -0.00424190   -0.00405549   -0.01284050
     atom   41 type  5   force =     0.03104313   -0.01677261   -0.00808726
     atom   42 type  5   force =    -0.01353084   -0.00704809   -0.01933521
     atom   43 type  5   force =    -0.00020122    0.00828680    0.00076666
     atom   44 type  5   force =     0.00641838   -0.00579793    0.01631589

     Total force =     0.139418     Total SCF correction =     0.000800


     Computing stress (Cartesian axis) and pressure


     negative rho (up, down):  4.659E-05 0.000E+00
          total   stress  (Ry/bohr**3)                   (kbar)     P=   -7.30
  -0.00006213  -0.00000247   0.00000461         -9.14     -0.36      0.68
  -0.00000247  -0.00001391   0.00001017         -0.36     -2.05      1.50
   0.00000461   0.00001017  -0.00007290          0.68      1.50    -10.72


     number of scf cycles    =  32
     number of bfgs steps    =  30

     enthalpy old            =    -287.7874692707 Ry
     enthalpy new            =    -287.8074379408 Ry

     CASE: enthalpy_new < enthalpy_old

     new trust radius        =       0.3282149367 bohr
     new conv_thr            =       0.0000005140 Ry

     new unit-cell volume =   4555.12616 a.u.^3 (   675.00005 Ang^3 )
     density =      0.92847 g/cm^3

CELL_PARAMETERS (angstrom)
   7.648254173  -0.431311802   1.488013367
  -0.262479389  11.022397287   0.689977781
   1.673272317   0.740917607   8.399463082

ATOMIC_POSITIONS (angstrom)
K        5.806686374   6.322993973   3.076731826
K        4.884623408   1.190154132   7.628344399
Ba       6.651589787   8.119605660   7.540769273
Al       3.643946488   3.868391418   5.345513517
Al       1.699153300   9.910469426   6.665305317
B        1.536064308   9.071682113   3.164141861
B        5.052619094   5.785536116   8.125161433
B        7.639487942  10.699663046   8.195027280
B        4.082380146   7.091839114   6.388476879
B        6.281561928   2.004930515   3.988408780
B        4.947190623   3.217689285   3.585083428
B        3.730311825   7.993940630   1.594113427
H        7.145009830   4.701926171   6.143170176
H        2.432940628   8.353678555   2.345133830
H        1.375755477   8.530509977   7.541275246
H        6.672733797  10.685152433   7.411706692
H        1.507303782   3.987953497   3.375288082
H        4.951494355   2.877108871   4.740048159
H        8.171689473   8.038182870   4.433606708
H        4.007228157   8.020312607   7.145432368
H        6.255722838   5.589643848   8.073249155
H        8.147166798   0.616204697   8.181766329
H        4.794559661   7.419942079   5.368230700
H        7.037334237   2.708680061   8.372423408
H        7.885432103   4.714542838   6.276791786
H        1.580512448   8.930740740   5.041253645
H        5.091806464   9.591825519   9.063689087
H        1.305630181   4.426196762   2.792188077
H        3.011069651   6.505479446   6.262866410
H        1.433207982  10.300319733   3.082291866
H        5.629860482   0.999555102   3.670935704
H        2.983312673   2.541569676   1.584441804
H        4.999867966   6.243516781   6.844851900
H        2.299044298   2.240350307   1.687924440
H        4.499421092   0.097258472   2.056358867
H        6.646913329   3.153951320   7.896445838
H        3.308705031  10.309417748   6.930095984
H        7.381305413   2.045702163   3.473424458
H        6.371655664   1.870127008   5.238691838
H        4.780772347   6.597389301   8.982845432
H        3.877425763   3.832461974   3.206175402
H        5.093264052   4.850684605   5.201091465
H        4.447281578   4.749518456   8.061685536
H        4.291181890   0.556338909   1.503033812



     Writing output data file 00_K2BaAl2B7H32_Monster.save
     NEW-OLD atomic charge density approx. for the potential

     negative rho (up, down):  8.857E-05 0.000E+00
     extrapolated charge   71.09207, renormalised to   71.00000

     total cpu time spent up to now is    40407.4 secs

     Self-consistent Calculation

     iteration #  1     ecut=    50.00 Ry     beta=0.70
     Davidson diagonalization with overlap
     ethr =  1.00E-06,  avg # of iterations = 10.1

     total cpu time spent up to now is    40464.2 secs

     total energy              =    -287.82477447 Ry
     Harris-Foulkes estimate   =    -287.76025373 Ry
     estimated scf accuracy    <       0.05647857 Ry

     iteration #  2     ecut=    50.00 Ry     beta=0.70
     Davidson diagonalization with overlap
     ethr =  7.95E-05,  avg # of iterations =  3.1

     total cpu time spent up to now is    40492.1 secs

     total energy              =    -287.82833344 Ry
     Harris-Foulkes estimate   =    -287.85892969 Ry
     estimated scf accuracy    <       0.06286619 Ry

     iteration #  3     ecut=    50.00 Ry     beta=0.70
     Davidson diagonalization with overlap
     ethr =  7.95E-05,  avg # of iterations =  2.9

     total cpu time spent up to now is    40517.7 secs

     total energy              =    -287.83657320 Ry
     Harris-Foulkes estimate   =    -287.84254398 Ry
     estimated scf accuracy    <       0.01649111 Ry

     iteration #  4     ecut=    50.00 Ry     beta=0.70
     Davidson diagonalization with overlap
     ethr =  2.32E-05,  avg # of iterations =  2.0

     total cpu time spent up to now is    40540.7 secs

     total energy              =    -287.84005930 Ry
     Harris-Foulkes estimate   =    -287.84274343 Ry
     estimated scf accuracy    <       0.01142980 Ry

     iteration #  5     ecut=    50.00 Ry     beta=0.70
     Davidson diagonalization with overlap
     ethr =  1.61E-05,  avg # of iterations =  1.9

     total cpu time spent up to now is    40563.0 secs

     total energy              =    -287.84010370 Ry
     Harris-Foulkes estimate   =    -287.84173754 Ry
     estimated scf accuracy    <       0.00645291 Ry

     iteration #  6     ecut=    50.00 Ry     beta=0.70
     Davidson diagonalization with overlap
     ethr =  9.09E-06,  avg # of iterations =  2.0

     total cpu time spent up to now is    40585.1 secs

     total energy              =    -287.84099324 Ry
     Harris-Foulkes estimate   =    -287.84136966 Ry
     estimated scf accuracy    <       0.00238678 Ry

     iteration #  7     ecut=    50.00 Ry     beta=0.70
     Davidson diagonalization with overlap
     ethr =  3.36E-06,  avg # of iterations =  1.0

     total cpu time spent up to now is    40606.4 secs

     total energy              =    -287.84117707 Ry
     Harris-Foulkes estimate   =    -287.84118057 Ry
     estimated scf accuracy    <       0.00001535 Ry

     iteration #  8     ecut=    50.00 Ry     beta=0.70
     Davidson diagonalization with overlap
     ethr =  2.16E-08,  avg # of iterations =  4.1

     total cpu time spent up to now is    40634.5 secs

     total energy              =    -287.84118419 Ry
     Harris-Foulkes estimate   =    -287.84118681 Ry
     estimated scf accuracy    <       0.00001569 Ry

     iteration #  9     ecut=    50.00 Ry     beta=0.70
     Davidson diagonalization with overlap
     ethr =  2.16E-08,  avg # of iterations =  2.0

     total cpu time spent up to now is    40656.4 secs

     End of self-consistent calculation

          k = 0.0000 0.0000 0.0000 ( 21247 PWs)   bands (ev):

   -28.3109 -14.0223 -13.7478 -13.6530 -10.7563 -10.5503  -9.7039  -8.4780
    -8.3065  -7.8695  -7.6094  -7.5580  -7.1660  -6.9311  -6.5462  -6.4192
    -6.0131  -5.4944  -5.3285  -5.2281  -4.9562  -4.8320  -4.7656  -4.5737
    -4.2930  -4.1090  -3.9352  -3.6358  -3.5730  -3.0333  -2.8367  -2.4061
    -1.9330  -1.7805  -0.5292  -0.3784   0.7531   0.9972   1.3754   1.5677
     1.6514   2.3799   2.6160

          k = 0.1000 0.0339-0.5040 ( 21362 PWs)   bands (ev):

   -28.3109 -14.0224 -13.7496 -13.6534 -10.7341 -10.5665  -9.6528  -8.5311
    -8.3096  -7.9400  -7.6279  -7.5490  -7.3138  -6.6783  -6.5996  -6.4247
    -6.0199  -5.4945  -5.3415  -5.0956  -5.0653  -4.8965  -4.6574  -4.5626
    -4.2212  -4.1181  -3.8968  -3.6406  -3.5683  -3.0393  -2.8361  -2.4088
    -1.9137  -1.7811  -0.5276  -0.1863   0.4715   0.7168   1.1070   1.2659
     1.6209   2.3536   2.5766

          k = 0.0717-0.3358-0.4658 ( 21216 PWs)   bands (ev):

   -28.3109 -14.0224 -13.7496 -13.6534 -10.7286 -10.5714  -9.6525  -8.5298
    -8.3232  -7.9392  -7.6226  -7.5314  -7.3234  -6.6716  -6.6316  -6.3931
    -6.0183  -5.4941  -5.3424  -5.1130  -5.0751  -4.8630  -4.6579  -4.5682
    -4.2311  -4.1092  -3.8876  -3.6562  -3.5726  -3.0395  -2.8508  -2.3842
    -1.9349  -1.7643  -0.5287  -0.2013   0.4751   0.7184   1.0332   1.3436
     1.6547   2.4173   2.5482

          k =-0.4795-0.3559-0.3542 ( 21368 PWs)   bands (ev):

   -28.3109 -14.0255 -13.7487 -13.6549 -10.7192 -10.5525  -9.7069  -8.4797
    -8.3303  -7.9039  -7.7434  -7.5118  -7.1103  -6.8284  -6.4942  -6.4049
    -5.9670  -5.6034  -5.4708  -5.3033  -5.0219  -4.7782  -4.7290  -4.5562
    -4.2005  -4.1182  -3.9313  -3.6510  -3.4172  -2.9774  -2.8488  -2.3977
    -1.9636  -1.8275  -0.5973  -0.3921   0.7604   0.8929   1.3467   1.5484
     1.6342   2.2729   2.3766

          k =-0.5512-0.0201 0.1116 ( 21362 PWs)   bands (ev):

   -28.3109 -14.0255 -13.7502 -13.6546 -10.7393 -10.5308  -9.6526  -8.5710
    -8.2384  -7.9424  -7.7842  -7.5297  -7.2390  -6.6688  -6.4962  -6.4383
    -5.9592  -5.6799  -5.4154  -5.1455  -5.0809  -4.8042  -4.6873  -4.5620
    -4.2360  -4.1626  -3.9249  -3.6726  -3.4315  -2.9951  -2.8361  -2.3528
    -1.9200  -1.7465  -0.4847  -0.2116   0.5829   0.7514   1.2266   1.4779
     1.6372   2.2255   2.4917

          k =-0.0283-0.3697 0.0382 ( 21362 PWs)   bands (ev):

   -28.3109 -14.0224 -13.7478 -13.6530 -10.7487 -10.5585  -9.7042  -8.4653
    -8.3267  -7.8701  -7.6137  -7.5483  -7.1671  -6.9237  -6.5604  -6.4103
    -5.9994  -5.4758  -5.3463  -5.2431  -4.9770  -4.8065  -4.7647  -4.5760
    -4.3064  -4.1035  -3.9177  -3.6464  -3.5747  -3.0453  -2.8494  -2.3800
    -1.9356  -1.7852  -0.5004  -0.4205   0.7717   1.0143   1.3554   1.6066
     1.6616   2.3355   2.6123

          k =-0.6512-0.0540 0.6156 ( 21216 PWs)   bands (ev):

   -28.3109 -14.0254 -13.7487 -13.6549 -10.7222 -10.5499  -9.7061  -8.5202
    -8.2501  -7.9006  -7.7628  -7.5543  -7.1091  -6.8313  -6.4845  -6.3852
    -5.9695  -5.6119  -5.4675  -5.2766  -5.0175  -4.7725  -4.7473  -4.5715
    -4.2160  -4.1313  -3.8966  -3.6494  -3.4466  -2.9839  -2.8291  -2.3736
    -1.9616  -1.8390  -0.5183  -0.4683   0.7827   0.8952   1.3406   1.5100
     1.6165   2.2535   2.4595

          k =-0.5229 0.3496 0.0733 ( 21216 PWs)   bands (ev):

   -28.3109 -14.0255 -13.7502 -13.6546 -10.7346 -10.5354  -9.6526  -8.5431
    -8.2940  -7.9353  -7.7933  -7.4825  -7.2462  -6.6421  -6.5428  -6.4288
    -5.9522  -5.6729  -5.4272  -5.1781  -5.0767  -4.7933  -4.6714  -4.5540
    -4.2359  -4.1500  -3.9417  -3.6798  -3.4170  -2.9883  -2.8401  -2.3681
    -1.9019  -1.7566  -0.5141  -0.1835   0.5834   0.7488   1.1907   1.4855
     1.6316   2.2222   2.4208

     the Fermi energy is    -0.3002 ev

!    total energy              =    -287.84118524 Ry
     Harris-Foulkes estimate   =    -287.84118554 Ry
     estimated scf accuracy    <       0.00000042 Ry

     The total energy is the sum of the following terms:

     one-electron contribution =    -107.38338854 Ry
     hartree contribution      =      68.96929738 Ry
     xc contribution           =     -96.95448914 Ry
     ewald contribution        =     -46.52910821 Ry
     one-center paw contrib.   =    -105.94121751 Ry
     smearing contrib. (-TS)   =      -0.00227922 Ry

     convergence has been achieved in   9 iterations

     Forces acting on atoms (cartesian axes, Ry/au):

     atom    1 type  1   force =     0.00601176   -0.00344214   -0.00015479
     atom    2 type  1   force =    -0.00400548   -0.00020961   -0.00632673
     atom    3 type  2   force =    -0.00833550   -0.00506163   -0.00368535
     atom    4 type  3   force =    -0.01290882    0.01577698    0.01104369
     atom    5 type  3   force =     0.03406563   -0.01591220   -0.00036878
     atom    6 type  4   force =     0.00184170    0.01836119    0.01556435
     atom    7 type  4   force =     0.00106200   -0.01113872   -0.01767434
     atom    8 type  4   force =    -0.00435975   -0.01389822   -0.01772114
     atom    9 type  4   force =     0.01171671    0.00355792   -0.01158135
     atom   10 type  4   force =    -0.00623301   -0.00289159   -0.01626060
     atom   11 type  4   force =     0.01403870    0.00102793    0.03091737
     atom   12 type  4   force =    -0.01957237    0.04314541   -0.01018777
     atom   13 type  5   force =    -0.00110558    0.00237820   -0.00111141
     atom   14 type  5   force =     0.00599835    0.01358264    0.03626087
     atom   15 type  5   force =    -0.00829899   -0.00296117   -0.00535952
     atom   16 type  5   force =     0.01449054    0.00890789    0.01619890
     atom   17 type  5   force =    -0.00058372    0.00482144   -0.00471739
     atom   18 type  5   force =    -0.02837997   -0.01098040    0.01760248
     atom   19 type  5   force =    -0.01271248   -0.01491481    0.00788325
     atom   20 type  5   force =     0.00074986    0.01207564    0.00421794
     atom   21 type  5   force =     0.00599858    0.00130059   -0.00016143
     atom   22 type  5   force =    -0.01239362    0.02430800    0.00730182
     atom   23 type  5   force =    -0.02315933   -0.01248639    0.02677747
     atom   24 type  5   force =    -0.00314136    0.00533486   -0.00514345
     atom   25 type  5   force =     0.00216690    0.00222501    0.00124479
     atom   26 type  5   force =     0.00780362    0.00697293   -0.05100863
     atom   27 type  5   force =     0.00108727   -0.02126783    0.01321351
     atom   28 type  5   force =     0.00344320   -0.00321101    0.00088417
     atom   29 type  5   force =     0.02218442    0.00612163   -0.00966882
     atom   30 type  5   force =     0.02035647   -0.02899753    0.00032259
     atom   31 type  5   force =    -0.00068903    0.00645972   -0.00542095
     atom   32 type  5   force =    -0.00340154   -0.00374039   -0.00165022
     atom   33 type  5   force =    -0.00424575   -0.00800044    0.00836002
     atom   34 type  5   force =    -0.00044951   -0.00078451   -0.00120478
     atom   35 type  5   force =    -0.00004972   -0.00277037   -0.00126516
     atom   36 type  5   force =     0.00700599   -0.00170131    0.00724636
     atom   37 type  5   force =    -0.02715949    0.00436620   -0.00463552
     atom   38 type  5   force =    -0.00253592    0.00092525   -0.00660305
     atom   39 type  5   force =     0.00435824    0.01212668   -0.01309344
     atom   40 type  5   force =    -0.00727141    0.00496186   -0.00206668
     atom   41 type  5   force =     0.04761554   -0.02026553    0.00858997
     atom   42 type  5   force =    -0.01513947   -0.01593749   -0.02568923
     atom   43 type  5   force =    -0.00788504    0.00065991    0.00431885
     atom   44 type  5   force =     0.00202138    0.00117544    0.00481213

     Total force =     0.158382     Total SCF correction =     0.000776


     Computing stress (Cartesian axis) and pressure

          total   stress  (Ry/bohr**3)                   (kbar)     P=  -10.01
  -0.00007158   0.00001705  -0.00000980        -10.53      2.51     -1.44
   0.00001705  -0.00001176   0.00003486          2.51     -1.73      5.13
  -0.00000980   0.00003486  -0.00012073         -1.44      5.13    -17.76


     number of scf cycles    =  33
     number of bfgs steps    =  31

     enthalpy old            =    -287.8074379408 Ry
     enthalpy new            =    -287.8411852352 Ry

     CASE: enthalpy_new < enthalpy_old

     new trust radius        =       0.2977804010 bohr
     new conv_thr            =       0.0000005101 Ry

     new unit-cell volume =   4511.05072 a.u.^3 (   668.46874 Ang^3 )
     density =      0.93754 g/cm^3

CELL_PARAMETERS (angstrom)
   7.611660186  -0.453898533   1.571379820
  -0.281711785  11.087579661   0.707585635
   1.746680915   0.754823491   8.352749890

ATOMIC_POSITIONS (angstrom)
K        5.793823051   6.398339333   3.105630364
K        4.942085169   1.206351497   7.645123274
Ba       6.609117186   8.234825614   7.617065373
Al       3.624714289   3.932202357   5.345957523
Al       1.705001309  10.007653430   6.633281871
B        1.537366704   9.170559064   3.261008277
B        5.100327626   5.825650528   8.177937241
B        7.625695651  10.801709984   8.245696349
B        4.128009352   7.114424085   6.417905010
B        6.293628468   2.001129048   3.998498088
B        4.991989412   3.247060398   3.736355330
B        3.690695616   8.062334152   1.597896889
H        7.156464236   4.771787222   6.209780854
H        2.479596668   8.380917539   2.468150678
H        1.370690013   8.632161480   7.538781568
H        6.651489572  10.766418712   7.457074519
H        1.528820661   4.032713540   3.376391170
H        4.870519019   2.823312051   4.880338057
H        8.184103193   8.093710921   4.555311107
H        4.031300534   8.073038854   7.138607655
H        6.268118691   5.591244515   8.077452165
H        8.190965364   0.599902374   8.232025753
H        4.827318716   7.420836777   5.398975515
H        7.100925185   2.723966422   8.419158424
H        7.892988731   4.770195203   6.354619930
H        1.590940048   8.950085961   4.933992321
H        5.084134829   9.614865554   9.062867440
H        1.313449392   4.457349093   2.770345029
H        3.063859112   6.523448584   6.278595677
H        1.420882571  10.362226893   3.030317553
H        5.607049709   1.017811373   3.676295314
H        2.963714284   2.484447058   1.592383627
H        5.030176317   6.283856235   6.868337005
H        2.262531708   2.226452170   1.683969233
H        4.493136902   0.015211143   2.086204663
H        6.700288891   3.149095871   7.936387621
H        3.308006410  10.295889128   6.926977111
H        7.438893417   1.912917142   3.506434124
H        6.367136159   1.868778332   5.262963498
H        4.813392709   6.662215778   8.993456439
H        3.896985655   3.777619647   3.193177999
H        5.054883187   4.898473139   5.145861779
H        4.480833087   4.817570460   8.081130818
H        4.298546460   0.549828375   1.580139770



     Writing output data file 00_K2BaAl2B7H32_Monster.save
     NEW-OLD atomic charge density approx. for the potential

     negative rho (up, down):  8.537E-05 0.000E+00
     extrapolated charge   70.30687, renormalised to   71.00000

     total cpu time spent up to now is    41482.3 secs

     Self-consistent Calculation

     iteration #  1     ecut=    50.00 Ry     beta=0.70
     Davidson diagonalization with overlap
     ethr =  1.00E-06,  avg # of iterations = 13.1

     total cpu time spent up to now is    41543.1 secs

     total energy              =    -287.70530920 Ry
     Harris-Foulkes estimate   =    -288.61228512 Ry
     estimated scf accuracy    <       0.24290659 Ry

     iteration #  2     ecut=    50.00 Ry     beta=0.70
     Davidson diagonalization with overlap
     ethr =  3.42E-04,  avg # of iterations =  6.5

     negative rho (up, down):  5.698E-07 0.000E+00

     total cpu time spent up to now is    41576.4 secs

     total energy              =    -287.34556673 Ry
     Harris-Foulkes estimate   =    -288.24790025 Ry
     estimated scf accuracy    <       4.19937634 Ry

     iteration #  3     ecut=    50.00 Ry     beta=0.70
     Davidson diagonalization with overlap
     ethr =  3.42E-04,  avg # of iterations =  5.5

     negative rho (up, down):  2.123E-07 0.000E+00

     total cpu time spent up to now is    41607.5 secs

     total energy              =    -287.88212786 Ry
     Harris-Foulkes estimate   =    -287.90198575 Ry
     estimated scf accuracy    <       0.06151327 Ry

     iteration #  4     ecut=    50.00 Ry     beta=0.70
     Davidson diagonalization with overlap
     ethr =  8.66E-05,  avg # of iterations =  3.1

     negative rho (up, down):  6.347E-08 0.000E+00

     total cpu time spent up to now is    41630.6 secs

     total energy              =    -287.88360802 Ry
     Harris-Foulkes estimate   =    -287.88793116 Ry
     estimated scf accuracy    <       0.02246164 Ry

     iteration #  5     ecut=    50.00 Ry     beta=0.70
     Davidson diagonalization with overlap
     ethr =  3.16E-05,  avg # of iterations =  2.9

     total cpu time spent up to now is    41653.8 secs

     total energy              =    -287.88134606 Ry
     Harris-Foulkes estimate   =    -287.88526977 Ry
     estimated scf accuracy    <       0.01482350 Ry

     iteration #  6     ecut=    50.00 Ry     beta=0.70
     Davidson diagonalization with overlap
     ethr =  2.09E-05,  avg # of iterations =  3.9

     total cpu time spent up to now is    41677.7 secs

     total energy              =    -287.88288152 Ry
     Harris-Foulkes estimate   =    -287.88465378 Ry
     estimated scf accuracy    <       0.01110011 Ry

     iteration #  7     ecut=    50.00 Ry     beta=0.70
     Davidson diagonalization with overlap
     ethr =  1.56E-05,  avg # of iterations =  1.9

     total cpu time spent up to now is    41699.6 secs

     total energy              =    -287.88360396 Ry
     Harris-Foulkes estimate   =    -287.88370496 Ry
     estimated scf accuracy    <       0.00043591 Ry

     iteration #  8     ecut=    50.00 Ry     beta=0.70
     Davidson diagonalization with overlap
     ethr =  6.14E-07,  avg # of iterations =  6.1

     total cpu time spent up to now is    41726.5 secs

     total energy              =    -287.88364095 Ry
     Harris-Foulkes estimate   =    -287.88367667 Ry
     estimated scf accuracy    <       0.00011826 Ry

     iteration #  9     ecut=    50.00 Ry     beta=0.70
     Davidson diagonalization with overlap
     ethr =  1.67E-07,  avg # of iterations =  2.1

     total cpu time spent up to now is    41749.1 secs

     total energy              =    -287.88364802 Ry
     Harris-Foulkes estimate   =    -287.88365577 Ry
     estimated scf accuracy    <       0.00002960 Ry

     iteration # 10     ecut=    50.00 Ry     beta=0.70
     Davidson diagonalization with overlap
     ethr =  4.17E-08,  avg # of iterations =  2.0

     total cpu time spent up to now is    41772.4 secs

     total energy              =    -287.88364946 Ry
     Harris-Foulkes estimate   =    -287.88365087 Ry
     estimated scf accuracy    <       0.00000622 Ry

     iteration # 11     ecut=    50.00 Ry     beta=0.70
     Davidson diagonalization with overlap
     ethr =  8.76E-09,  avg # of iterations =  2.9

     total cpu time spent up to now is    41795.0 secs

     total energy              =    -287.88364984 Ry
     Harris-Foulkes estimate   =    -287.88365036 Ry
     estimated scf accuracy    <       0.00000224 Ry

     iteration # 12     ecut=    50.00 Ry     beta=0.70
     Davidson diagonalization with overlap
     ethr =  3.16E-09,  avg # of iterations =  2.0

     total cpu time spent up to now is    41817.5 secs

     End of self-consistent calculation

          k = 0.0000 0.0000 0.0000 ( 21247 PWs)   bands (ev):

   -28.1305 -13.8858 -13.6861 -13.4899 -10.6695 -10.4446  -9.6500  -8.5077
    -8.3177  -7.9069  -7.5276  -7.4456  -7.0996  -6.8719  -6.5216  -6.4159
    -5.9536  -5.4557  -5.3098  -5.2623  -4.9172  -4.8316  -4.6463  -4.5142
    -4.4321  -4.1903  -4.0030  -3.6784  -3.5859  -2.7294  -2.6514  -2.4518
    -2.1054  -1.6936  -0.5843  -0.4412   0.8913   1.1033   1.4552   1.7276
     1.8967   2.4920   2.6806

          k = 0.1073 0.0352-0.5094 ( 21362 PWs)   bands (ev):

   -28.1305 -13.8859 -13.6887 -13.4904 -10.6440 -10.4637  -9.5707  -8.5694
    -8.3161  -8.0216  -7.5496  -7.4386  -7.2523  -6.6107  -6.5768  -6.4346
    -5.9287  -5.4498  -5.3121  -5.1772  -5.0318  -4.8659  -4.5564  -4.5009
    -4.3197  -4.1551  -4.0145  -3.6871  -3.5794  -2.7304  -2.6610  -2.4418
    -2.0825  -1.6823  -0.5805  -0.2745   0.6087   0.8767   1.2541   1.3676
     1.7578   2.4423   2.6407

          k = 0.0772-0.3325-0.4699 ( 21216 PWs)   bands (ev):

   -28.1305 -13.8859 -13.6887 -13.4904 -10.6369 -10.4702  -9.5702  -8.5762
    -8.3189  -8.0228  -7.5220  -7.4427  -7.2622  -6.6200  -6.5932  -6.4029
    -5.9275  -5.4579  -5.3060  -5.1922  -5.0334  -4.8443  -4.5598  -4.5060
    -4.3235  -4.1434  -4.0192  -3.7065  -3.5688  -2.7402  -2.6689  -2.4050
    -2.1013  -1.6769  -0.5818  -0.2884   0.6116   0.8736   1.1653   1.4690
     1.8074   2.4959   2.5759

          k =-0.4795-0.3542-0.3515 ( 21368 PWs)   bands (ev):

   -28.1305 -13.8891 -13.6868 -13.4921 -10.6238 -10.4574  -9.6532  -8.5105
    -8.3298  -7.9374  -7.6046  -7.4672  -7.0581  -6.7840  -6.4604  -6.3995
    -5.8858  -5.5673  -5.4169  -5.3523  -4.9752  -4.7797  -4.6589  -4.5012
    -4.3189  -4.1160  -4.0447  -3.7731  -3.3952  -2.7293  -2.6084  -2.4308
    -2.1096  -1.7684  -0.6516  -0.4469   0.9184   0.9781   1.4385   1.7502
     1.7623   2.3126   2.5102

          k =-0.5567-0.0217 0.1184 ( 21362 PWs)   bands (ev):

   -28.1305 -13.8891 -13.6891 -13.4917 -10.6459 -10.4333  -9.5720  -8.5966
    -8.2574  -8.0242  -7.6327  -7.4974  -7.1820  -6.6212  -6.4607  -6.4283
    -5.8468  -5.6520  -5.3936  -5.2233  -5.0109  -4.8046  -4.5918  -4.4726
    -4.3710  -4.1629  -4.0480  -3.7640  -3.4067  -2.7588  -2.5901  -2.3710
    -2.1055  -1.6556  -0.5652  -0.2950   0.6864   0.9190   1.4661   1.5555
     1.7893   2.2697   2.5373

          k =-0.0301-0.3678 0.0395 ( 21362 PWs)   bands (ev):

   -28.1305 -13.8859 -13.6861 -13.4899 -10.6602 -10.4548  -9.6502  -8.5050
    -8.3254  -7.9076  -7.5208  -7.4498  -7.0999  -6.8636  -6.5212  -6.4208
    -5.9422  -5.4378  -5.3222  -5.2860  -4.9333  -4.8097  -4.6459  -4.5193
    -4.4364  -4.1821  -4.0018  -3.6911  -3.5747  -2.7576  -2.6597  -2.4011
    -2.1199  -1.6967  -0.5673  -0.4744   0.9187   1.1256   1.4452   1.7722
     1.8690   2.4664   2.6528

          k =-0.6639-0.0569 0.6278 ( 21216 PWs)   bands (ev):

   -28.1305 -13.8890 -13.6868 -13.4921 -10.6278 -10.4540  -9.6523  -8.5358
    -8.2712  -7.9360  -7.6308  -7.4984  -7.0578  -6.7828  -6.4321  -6.3948
    -5.8935  -5.5711  -5.4208  -5.3212  -4.9714  -4.7991  -4.6555  -4.5152
    -4.3333  -4.1017  -4.0417  -3.7617  -3.4247  -2.7465  -2.5831  -2.3961
    -2.1291  -1.7669  -0.5869  -0.5098   0.9510   0.9764   1.4284   1.7100
     1.7465   2.2912   2.5597

          k =-0.5266 0.3461 0.0788 ( 21216 PWs)   bands (ev):

   -28.1305 -13.8892 -13.6891 -13.4917 -10.6402 -10.4389  -9.5719  -8.5761
    -8.3037  -8.0175  -7.6395  -7.4517  -7.1902  -6.5988  -6.5084  -6.4143
    -5.8415  -5.6425  -5.4082  -5.2519  -4.9931  -4.7980  -4.5798  -4.4639
    -4.3787  -4.1699  -4.0431  -3.7775  -3.3873  -2.7401  -2.6031  -2.3889
    -2.0937  -1.6583  -0.5979  -0.2647   0.6856   0.9044   1.4112   1.5912
     1.7737   2.2789   2.4616

     the Fermi energy is    -0.3692 ev

!    total energy              =    -287.88365005 Ry
     Harris-Foulkes estimate   =    -287.88365010 Ry
     estimated scf accuracy    <       0.00000007 Ry

     The total energy is the sum of the following terms:

     one-electron contribution =    -107.50075338 Ry
     hartree contribution      =      69.18013564 Ry
     xc contribution           =     -97.04618990 Ry
     ewald contribution        =     -46.57678896 Ry
     one-center paw contrib.   =    -105.93709748 Ry
     smearing contrib. (-TS)   =      -0.00295597 Ry

     convergence has been achieved in  12 iterations

     Forces acting on atoms (cartesian axes, Ry/au):

     atom    1 type  1   force =     0.00523938   -0.00201048   -0.00098605
     atom    2 type  1   force =    -0.00556109   -0.00084429   -0.00592365
     atom    3 type  2   force =    -0.00633252   -0.01710533   -0.01677602
     atom    4 type  3   force =    -0.02763147    0.01740150    0.01258956
     atom    5 type  3   force =     0.02776269   -0.01904017    0.00669458
     atom    6 type  4   force =     0.01556808   -0.00483539    0.03250668
     atom    7 type  4   force =    -0.01272541   -0.00283064   -0.03478924
     atom    8 type  4   force =    -0.01020527   -0.04131407   -0.03592172
     atom    9 type  4   force =     0.00376651    0.00617955   -0.01366301
     atom   10 type  4   force =     0.01169073   -0.00194568   -0.00496386
     atom   11 type  4   force =     0.01223407   -0.00857219    0.02043279
     atom   12 type  4   force =    -0.01643125    0.03004035    0.02853947
     atom   13 type  5   force =    -0.00232999    0.00197354   -0.00165318
     atom   14 type  5   force =     0.00628369    0.01789374    0.03137751
     atom   15 type  5   force =    -0.00796677   -0.00059539   -0.01283458
     atom   16 type  5   force =     0.02188636    0.01428441    0.02187747
     atom   17 type  5   force =    -0.00512178    0.01386264   -0.01799664
     atom   18 type  5   force =    -0.02887425   -0.00389845    0.00058364
     atom   19 type  5   force =    -0.02761184   -0.02265516    0.00166869
     atom   20 type  5   force =     0.00100489    0.00797107    0.00504882
     atom   21 type  5   force =     0.02475454    0.00467991    0.00305448
     atom   22 type  5   force =    -0.00968886    0.04438277    0.01980569
     atom   23 type  5   force =    -0.01910702   -0.00797019    0.02050807
     atom   24 type  5   force =    -0.00240187    0.00372048   -0.00382003
     atom   25 type  5   force =     0.00368390    0.00185300    0.00082247
     atom   26 type  5   force =     0.01204168    0.01561583   -0.06660968
     atom   27 type  5   force =    -0.00971760    0.00055202   -0.00765876
     atom   28 type  5   force =     0.00753838   -0.01256153    0.01363001
     atom   29 type  5   force =     0.01898786    0.00662522   -0.00787223
     atom   30 type  5   force =     0.02133394   -0.01349762    0.00702859
     atom   31 type  5   force =    -0.00239790    0.00845974   -0.00293243
     atom   32 type  5   force =    -0.00031738   -0.00236829   -0.00161854
     atom   33 type  5   force =     0.00175016   -0.01151761    0.01637159
     atom   34 type  5   force =    -0.00324586   -0.00183001   -0.00071536
     atom   35 type  5   force =    -0.00483137    0.00878566   -0.01318217
     atom   36 type  5   force =     0.00635350    0.00047849    0.00572766
     atom   37 type  5   force =    -0.01767064    0.01146704   -0.00562314
     atom   38 type  5   force =    -0.02463219    0.00972456   -0.00105474
     atom   39 type  5   force =     0.00968620    0.00719049   -0.01939597
     atom   40 type  5   force =    -0.00574493    0.00641510    0.00535318
     atom   41 type  5   force =     0.05808594   -0.01993285    0.02898023
     atom   42 type  5   force =    -0.00805783   -0.02303838   -0.02997741
     atom   43 type  5   force =    -0.01701422   -0.01097322    0.00763902
     atom   44 type  5   force =     0.00596680   -0.01022015    0.01572818

     Total force =     0.193948     Total SCF correction =     0.000302


     Computing stress (Cartesian axis) and pressure

          total   stress  (Ry/bohr**3)                   (kbar)     P=   -8.76
  -0.00004212   0.00003655  -0.00001321         -6.20      5.38     -1.94
   0.00003655  -0.00000037   0.00004468          5.38     -0.05      6.57
  -0.00001321   0.00004468  -0.00013618         -1.94      6.57    -20.03


     number of scf cycles    =  34
     number of bfgs steps    =  32

     enthalpy old            =    -287.8411852352 Ry
     enthalpy new            =    -287.8836500463 Ry

     CASE: enthalpy_new < enthalpy_old

     new trust radius        =       0.4268783514 bohr
     new conv_thr            =       0.0000006661 Ry

     new unit-cell volume =   4386.12967 a.u.^3 (   649.95735 Ang^3 )
     density =      0.96424 g/cm^3

CELL_PARAMETERS (angstrom)
   7.525692937  -0.477631299   1.676880546
  -0.302753422  11.152932871   0.741519958
   1.830681911   0.781971530   8.230252213

ATOMIC_POSITIONS (angstrom)
K        5.755611692   6.470296109   3.147984013
K        4.977646349   1.250598773   7.598666310
Ba       6.518713139   8.370801673   7.653162196
Al       3.566501100   4.033832406   5.328773154
Al       1.728621090  10.101079451   6.564294434
B        1.524811780   9.279721936   3.397094061
B        5.128284368   5.878399762   8.187090250
B        7.580342200  10.908326507   8.274686744
B        4.171804498   7.152193381   6.421916715
B        6.271749200   2.007602065   3.993170599
B        5.042594722   3.275391654   3.916022713
B        3.617970323   8.192427531   1.632825541
H        7.128825651   4.868292254   6.260705814
H        2.555866128   8.447073786   2.667657578
H        1.354851139   8.731583661   7.472914077
H        6.603643117  10.858862816   7.494645404
H        1.545533863   4.086418241   3.356838778
H        4.740809076   2.751363161   5.052938363
H        8.144149973   8.125730414   4.692278675
H        4.051886400   8.145542117   7.100955555
H        6.262860309   5.584335738   8.035941340
H        8.196667616   0.621094128   8.245441987
H        4.828720506   7.417264166   5.427120336
H        7.139345847   2.750979506   8.423257039
H        7.863509444   4.845237456   6.424683826
H        1.576309905   8.974873149   4.704241517
H        5.043547737   9.642835873   9.006010484
H        1.319750135   4.493242732   2.731989758
H        3.130580699   6.539380618   6.261708337
H        1.429254730  10.397140255   2.987257674
H        5.539420248   1.049444343   3.651704511
H        2.923554883   2.407680379   1.594655012
H        5.044947010   6.316958616   6.871407119
H        2.207024258   2.205722625   1.674293694
H        4.455652378  -0.061961208   2.107970635
H        6.727870094   3.156469097   7.937733851
H        3.262160999  10.297881317   6.873659935
H        7.451499869   1.760757163   3.515939099
H        6.324549382   1.890353609   5.253965754
H        4.815724059   6.747190151   8.932979097
H        3.967207833   3.682118574   3.216685856
H        4.962194430   4.929255345   5.017574487
H        4.496361888   4.897765348   8.054025689
H        4.298833509   0.531929337   1.692052894



     Writing output data file 00_K2BaAl2B7H32_Monster.save
     NEW-OLD atomic charge density approx. for the potential

     negative rho (up, down):  1.373E-05 0.000E+00
     extrapolated charge   68.97955, renormalised to   71.00000

     total cpu time spent up to now is    42643.5 secs

     Self-consistent Calculation

     iteration #  1     ecut=    50.00 Ry     beta=0.70
     Davidson diagonalization with overlap
     c_bands:  1 eigenvalues not converged
     c_bands:  1 eigenvalues not converged
     ethr =  1.00E-06,  avg # of iterations = 17.1

     negative rho (up, down):  6.073E-07 0.000E+00

     total cpu time spent up to now is    42708.7 secs

     total energy              =    -287.48985633 Ry
     Harris-Foulkes estimate   =    -290.08396317 Ry
     estimated scf accuracy    <       0.55338750 Ry

     iteration #  2     ecut=    50.00 Ry     beta=0.70
     Davidson diagonalization with overlap
     ethr =  7.79E-04,  avg # of iterations =  6.2

     negative rho (up, down):  1.910E-06 0.000E+00

     total cpu time spent up to now is    42743.9 secs

     total energy              =    -287.23463553 Ry
     Harris-Foulkes estimate   =    -288.87074757 Ry
     estimated scf accuracy    <       6.59766111 Ry

     iteration #  3     ecut=    50.00 Ry     beta=0.70
     Davidson diagonalization with overlap
     ethr =  7.79E-04,  avg # of iterations =  5.5

     negative rho (up, down):  1.897E-06 0.000E+00

     total cpu time spent up to now is    42774.9 secs

     total energy              =    -287.93705856 Ry
     Harris-Foulkes estimate   =    -288.00873784 Ry
     estimated scf accuracy    <       0.22610882 Ry

     iteration #  4     ecut=    50.00 Ry     beta=0.70
     Davidson diagonalization with overlap
     ethr =  3.18E-04,  avg # of iterations =  2.1

     negative rho (up, down):  4.622E-07 0.000E+00

     total cpu time spent up to now is    42798.2 secs

     total energy              =    -287.94352280 Ry
     Harris-Foulkes estimate   =    -287.95605774 Ry
     estimated scf accuracy    <       0.05307755 Ry

     iteration #  5     ecut=    50.00 Ry     beta=0.70
     Davidson diagonalization with overlap
     ethr =  7.48E-05,  avg # of iterations =  5.8

     negative rho (up, down):  8.130E-08 0.000E+00

     total cpu time spent up to now is    42825.9 secs

     total energy              =    -287.93941572 Ry
     Harris-Foulkes estimate   =    -287.94765824 Ry
     estimated scf accuracy    <       0.03473716 Ry

     iteration #  6     ecut=    50.00 Ry     beta=0.70
     Davidson diagonalization with overlap
     ethr =  4.89E-05,  avg # of iterations =  2.5

     negative rho (up, down):  2.382E-08 0.000E+00

     total cpu time spent up to now is    42853.5 secs

     total energy              =    -287.93944066 Ry
     Harris-Foulkes estimate   =    -287.94283686 Ry
     estimated scf accuracy    <       0.01172434 Ry

     iteration #  7     ecut=    50.00 Ry     beta=0.70
     Davidson diagonalization with overlap
     ethr =  1.65E-05,  avg # of iterations =  5.1

     total cpu time spent up to now is    42883.7 secs

     total energy              =    -287.94063425 Ry
     Harris-Foulkes estimate   =    -287.94333762 Ry
     estimated scf accuracy    <       0.02644813 Ry

     iteration #  8     ecut=    50.00 Ry     beta=0.70
     Davidson diagonalization with overlap
     ethr =  1.65E-05,  avg # of iterations =  1.0

     total cpu time spent up to now is    42907.2 secs

     total energy              =    -287.94161156 Ry
     Harris-Foulkes estimate   =    -287.94179079 Ry
     estimated scf accuracy    <       0.00085982 Ry

     iteration #  9     ecut=    50.00 Ry     beta=0.70
     Davidson diagonalization with overlap
     ethr =  1.21E-06,  avg # of iterations =  3.8

     total cpu time spent up to now is    42930.9 secs

     total energy              =    -287.94161465 Ry
     Harris-Foulkes estimate   =    -287.94167039 Ry
     estimated scf accuracy    <       0.00020808 Ry

     iteration # 10     ecut=    50.00 Ry     beta=0.70
     Davidson diagonalization with overlap
     ethr =  2.93E-07,  avg # of iterations =  2.0

     total cpu time spent up to now is    42953.3 secs

     total energy              =    -287.94163638 Ry
     Harris-Foulkes estimate   =    -287.94164179 Ry
     estimated scf accuracy    <       0.00003864 Ry

     iteration # 11     ecut=    50.00 Ry     beta=0.70
     Davidson diagonalization with overlap
     ethr =  5.44E-08,  avg # of iterations =  2.1

     total cpu time spent up to now is    42976.3 secs

     total energy              =    -287.94163845 Ry
     Harris-Foulkes estimate   =    -287.94163990 Ry
     estimated scf accuracy    <       0.00000534 Ry

     iteration # 12     ecut=    50.00 Ry     beta=0.70
     Davidson diagonalization with overlap
     ethr =  7.52E-09,  avg # of iterations =  2.8

     total cpu time spent up to now is    43001.0 secs

     total energy              =    -287.94163946 Ry
     Harris-Foulkes estimate   =    -287.94163978 Ry
     estimated scf accuracy    <       0.00000177 Ry

     iteration # 13     ecut=    50.00 Ry     beta=0.70
     Davidson diagonalization with overlap
     ethr =  2.49E-09,  avg # of iterations =  1.0

     total cpu time spent up to now is    43022.6 secs

     End of self-consistent calculation

          k = 0.0000 0.0000 0.0000 ( 21247 PWs)   bands (ev):

   -27.8315 -13.6779 -13.5994 -13.2233 -10.6359 -10.2343  -9.6403  -8.4473
    -8.3120  -7.9076  -7.4743  -7.2945  -6.9784  -6.7488  -6.5186  -6.3963
    -5.8360  -5.3933  -5.2451  -5.1757  -4.9191  -4.7737  -4.7476  -4.5124
    -4.3738  -4.2322  -3.8406  -3.7273  -3.6889  -2.6232  -2.4902  -2.3733
    -1.9431  -1.4509  -0.5837  -0.4624   1.1104   1.4404   1.6430   2.0295
     2.1496   2.6358   2.8365

          k = 0.1185 0.0379-0.5210 ( 21362 PWs)   bands (ev):

   -27.8315 -13.6781 -13.6038 -13.2239 -10.6157 -10.2467  -9.5142  -8.5322
    -8.3104  -8.0735  -7.5175  -7.2527  -7.1593  -6.5506  -6.4925  -6.4528
    -5.7485  -5.4231  -5.1983  -5.1298  -4.8791  -4.8409  -4.7639  -4.4761
    -4.3531  -4.1184  -3.8664  -3.7305  -3.6774  -2.6158  -2.4569  -2.4022
    -1.9217  -1.4074  -0.5785  -0.3181   0.9261   1.1492   1.4917   1.6032
     2.0885   2.6234   2.7666

          k = 0.0859-0.3282-0.4789 ( 21216 PWs)   bands (ev):

   -27.8314 -13.6782 -13.6039 -13.2239 -10.6104 -10.2520  -9.5130  -8.5482
    -8.2983  -8.0805  -7.4829  -7.2662  -7.1676  -6.5689  -6.5081  -6.4112
    -5.7475  -5.4442  -5.1797  -5.1433  -4.8731  -4.8564  -4.7318  -4.4841
    -4.3621  -4.1180  -3.8663  -3.7522  -3.6561  -2.6166  -2.4643  -2.3858
    -1.9278  -1.4044  -0.5829  -0.3239   0.9336   1.1225   1.4152   1.7282
     2.1407   2.6444   2.6914

          k =-0.4812-0.3521-0.3505 ( 21368 PWs)   bands (ev):

   -27.8314 -13.6819 -13.6001 -13.2260 -10.5947 -10.2426  -9.6443  -8.4471
    -8.3163  -7.9378  -7.4624  -7.3972  -6.9685  -6.6788  -6.4393  -6.3887
    -5.7870  -5.4971  -5.3215  -5.2263  -4.9239  -4.7692  -4.7345  -4.4567
    -4.3881  -4.1467  -3.9469  -3.8316  -3.4367  -2.5939  -2.4739  -2.4053
    -1.8889  -1.5168  -0.6499  -0.4571   1.1470   1.2975   1.6518   1.9791
     2.0505   2.4652   2.6961

          k =-0.5671-0.0239 0.1284 ( 21362 PWs)   bands (ev):

   -27.8314 -13.6821 -13.6041 -13.2255 -10.6067 -10.2277  -9.5188  -8.5464
    -8.2577  -8.0823  -7.4719  -7.4277  -7.1117  -6.5451  -6.4309  -6.3968
    -5.6772  -5.5930  -5.2528  -5.2406  -4.8777  -4.8144  -4.6411  -4.5019
    -4.4097  -4.1266  -3.9690  -3.8117  -3.4434  -2.5819  -2.5124  -2.3131
    -1.8968  -1.3956  -0.5933  -0.3258   1.0144   1.1758   1.7109   1.7626
     2.1066   2.4482   2.7240

          k =-0.0326-0.3660 0.0420 ( 21362 PWs)   bands (ev):

   -27.8315 -13.6780 -13.5994 -13.2233 -10.6284 -10.2440  -9.6400  -8.4532
    -8.3051  -7.9098  -7.4796  -7.2921  -6.9768  -6.7362  -6.4945  -6.4263
    -5.8328  -5.3865  -5.2533  -5.1905  -4.9157  -4.7849  -4.7314  -4.5218
    -4.3654  -4.2351  -3.8431  -3.7419  -3.6699  -2.6363  -2.5014  -2.3426
    -1.9480  -1.4527  -0.5801  -0.4810   1.1457   1.4948   1.6143   2.0218
     2.1388   2.6449   2.7593

          k =-0.6856-0.0618 0.6494 ( 21216 PWs)   bands (ev):

   -27.8314 -13.6818 -13.6001 -13.2259 -10.5978 -10.2403  -9.6430  -8.4705
    -8.2634  -7.9384  -7.5079  -7.4076  -6.9693  -6.6715  -6.4090  -6.3815
    -5.7986  -5.5025  -5.2995  -5.2322  -4.9073  -4.7752  -4.7487  -4.4690
    -4.3903  -4.1449  -3.9374  -3.8214  -3.4667  -2.5932  -2.4897  -2.3603
    -1.8996  -1.5136  -0.6068  -0.4990   1.1757   1.3044   1.6321   1.9637
     2.0316   2.4263   2.7094

          k =-0.5345 0.3421 0.0864 ( 21216 PWs)   bands (ev):

   -27.8314 -13.6821 -13.6041 -13.2255 -10.6023 -10.2322  -9.5189  -8.5279
    -8.2951  -8.0806  -7.4673  -7.3944  -7.1185  -6.5208  -6.4800  -6.3863
    -5.6736  -5.5901  -5.2922  -5.2118  -4.8910  -4.7994  -4.6451  -4.4876
    -4.4071  -4.1348  -3.9737  -3.8191  -3.4175  -2.5815  -2.4826  -2.3523
    -1.8917  -1.3944  -0.6264  -0.2976   1.0062   1.1545   1.6329   1.8213
     2.0707   2.4943   2.6454

     the Fermi energy is    -0.3884 ev

!    total energy              =    -287.94163961 Ry
     Harris-Foulkes estimate   =    -287.94163963 Ry
     estimated scf accuracy    <       0.00000003 Ry

     The total energy is the sum of the following terms:

     one-electron contribution =    -107.23172048 Ry
     hartree contribution      =      69.42952984 Ry
     xc contribution           =     -97.33257808 Ry
     ewald contribution        =     -46.86824016 Ry
     one-center paw contrib.   =    -105.93494175 Ry
     smearing contrib. (-TS)   =      -0.00368899 Ry

     convergence has been achieved in  13 iterations

     Forces acting on atoms (cartesian axes, Ry/au):

     atom    1 type  1   force =     0.00399662    0.00100574   -0.00325206
     atom    2 type  1   force =    -0.00650188   -0.00102569   -0.00331835
     atom    3 type  2   force =     0.00707537   -0.03152208   -0.03981500
     atom    4 type  3   force =    -0.04370688    0.00597774    0.00850606
     atom    5 type  3   force =    -0.00854894   -0.01557257    0.01328135
     atom    6 type  4   force =     0.01051635   -0.04683402    0.00920130
     atom    7 type  4   force =    -0.01743775   -0.00181037   -0.04999848
     atom    8 type  4   force =    -0.00633436   -0.04815665   -0.03155502
     atom    9 type  4   force =    -0.01689110    0.00143530    0.00036572
     atom   10 type  4   force =     0.03229433   -0.01586169    0.00521191
     atom   11 type  4   force =    -0.00068127   -0.02269254    0.01397459
     atom   12 type  4   force =     0.00343681   -0.00398406    0.10602871
     atom   13 type  5   force =     0.00254779    0.00145159   -0.00144969
     atom   14 type  5   force =     0.00809155    0.01798906    0.01222358
     atom   15 type  5   force =    -0.00594291   -0.00025496   -0.02026092
     atom   16 type  5   force =     0.02338069    0.01871766    0.02132107
     atom   17 type  5   force =    -0.00749986    0.01791422   -0.02598971
     atom   18 type  5   force =    -0.02384284    0.02120322   -0.02326840
     atom   19 type  5   force =    -0.02467457   -0.01559663   -0.00520011
     atom   20 type  5   force =    -0.00116562   -0.00027545    0.00466427
     atom   21 type  5   force =     0.03610211    0.01068258    0.00915837
     atom   22 type  5   force =    -0.00981949    0.04239912    0.01620262
     atom   23 type  5   force =    -0.00005655    0.00220169   -0.00632679
     atom   24 type  5   force =    -0.00072690    0.00155340   -0.00156213
     atom   25 type  5   force =     0.00012180    0.00132073   -0.00131281
     atom   26 type  5   force =     0.02239205    0.02149511   -0.03506252
     atom   27 type  5   force =    -0.04117672    0.04324537   -0.05126356
     atom   28 type  5   force =     0.00967981   -0.01718697    0.02052431
     atom   29 type  5   force =     0.01033963    0.00842677   -0.00454100
     atom   30 type  5   force =     0.01650001    0.01135045    0.01012927
     atom   31 type  5   force =    -0.00022371    0.01736328    0.00283523
     atom   32 type  5   force =     0.00644150   -0.00015833   -0.00125131
     atom   33 type  5   force =     0.00800123   -0.00940759    0.01616307
     atom   34 type  5   force =    -0.00930324   -0.00334482    0.00004141
     atom   35 type  5   force =     0.00026202   -0.01093933    0.00182489
     atom   36 type  5   force =     0.00498953    0.00348145    0.00331029
     atom   37 type  5   force =     0.01691917    0.01861515   -0.00252089
     atom   38 type  5   force =    -0.04632380    0.02528384    0.00516449
     atom   39 type  5   force =     0.02073175   -0.00511467   -0.01561415
     atom   40 type  5   force =    -0.00422330    0.01081785    0.02050338
     atom   41 type  5   force =     0.04818780   -0.00976763    0.04208569
     atom   42 type  5   force =     0.01224864   -0.03113329   -0.02952661
     atom   43 type  5   force =    -0.02833715   -0.02230284    0.01174716
     atom   44 type  5   force =    -0.00083774    0.00901087   -0.00137923

     Total force =     0.245513     Total SCF correction =     0.000140


     Computing stress (Cartesian axis) and pressure

          total   stress  (Ry/bohr**3)                   (kbar)     P=   -0.95
   0.00003437   0.00004058   0.00000435          5.06      5.97      0.64
   0.00004058   0.00001596   0.00002346          5.97      2.35      3.45
   0.00000435   0.00002346  -0.00006971          0.64      3.45    -10.26


     number of scf cycles    =  35
     number of bfgs steps    =  33

     enthalpy old            =    -287.8836500463 Ry
     enthalpy new            =    -287.9416396106 Ry

     CASE: enthalpy_new < enthalpy_old

     new trust radius        =       0.1833061236 bohr
     new conv_thr            =       0.0000010000 Ry

     new unit-cell volume =   4322.80153 a.u.^3 (   640.57309 Ang^3 )
     density =      0.97836 g/cm^3

CELL_PARAMETERS (angstrom)
   7.491068725  -0.461325285   1.659249937
  -0.289706883  11.126606427   0.754761479
   1.805213782   0.793052043   8.164175291

ATOMIC_POSITIONS (angstrom)
K        5.736626635   6.429819876   3.144132348
K        4.922688425   1.268292000   7.512492541
Ba       6.496679979   8.339086980   7.565010646
Al       3.531671295   4.048693356   5.304651799
Al       1.746086763  10.046610563   6.533561643
B        1.492514244   9.241133208   3.361614633
B        5.097636561   5.864923770   8.107565718
B        7.571771038  10.891505566   8.235672280
B        4.152518640   7.169138254   6.387981769
B        6.223505743   2.005843858   3.957058469
B        5.025949733   3.268721686   3.877879576
B        3.617483366   8.254026425   1.695071743
H        7.087289456   4.859760523   6.207440520
H        2.570079312   8.495339896   2.693990405
H        1.352336110   8.668655424   7.403852757
H        6.607644014  10.852181454   7.475650638
H        1.532746105   4.074705006   3.333589286
H        4.733384165   2.770857347   5.022092245
H        8.092369750   8.090081040   4.660980851
H        4.033685311   8.164756393   7.070043413
H        6.238263773   5.584016338   7.979400491
H        8.114445142   0.680763506   8.161372559
H        4.776904296   7.415421838   5.409139910
H        7.080987133   2.768872803   8.346282934
H        7.820922484   4.845631984   6.372772641
H        1.562011062   8.986703387   4.634972539
H        5.004210454   9.651317102   8.935103097
H        1.315904783   4.487791420   2.723302878
H        3.126009760   6.541048590   6.211440827
H        1.473565264  10.324354004   3.031046974
H        5.513616307   1.062791839   3.621750633
H        2.909973099   2.427244328   1.586127203
H        5.004440133   6.296576781   6.821279025
H        2.204273417   2.209796617   1.669278908
H        4.431307977  -0.038998506   2.089855035
H        6.687859020   3.184758885   7.880121047
H        3.210491615  10.338256996   6.818558797
H        7.368987502   1.837060259   3.476851580
H        6.298006067   1.934207187   5.212701251
H        4.763814333   6.754865690   8.853507763
H        4.014875620   3.677040841   3.257425961
H        4.926193690   4.860772301   4.950007230
H        4.452145495   4.885153412   7.986277731
H        4.274033213   0.552581374   1.674213852



     Writing output data file 00_K2BaAl2B7H32_Monster.save
     NEW-OLD atomic charge density approx. for the potential

     negative rho (up, down):  3.368E-06 0.000E+00
     extrapolated charge   69.96074, renormalised to   71.00000

     total cpu time spent up to now is    43848.9 secs

     Self-consistent Calculation

     iteration #  1     ecut=    50.00 Ry     beta=0.70
     Davidson diagonalization with overlap
     ethr =  1.00E-06,  avg # of iterations = 12.0

     negative rho (up, down):  2.178E-07 0.000E+00

     total cpu time spent up to now is    43904.7 secs

     total energy              =    -287.92108493 Ry
     Harris-Foulkes estimate   =    -289.04419631 Ry
     estimated scf accuracy    <       0.07162869 Ry

     iteration #  2     ecut=    50.00 Ry     beta=0.70
     Davidson diagonalization with overlap
     ethr =  1.01E-04,  avg # of iterations =  6.6

     negative rho (up, down):  2.307E-07 0.000E+00

     total cpu time spent up to now is    43940.2 secs

     total energy              =    -287.98337295 Ry
     Harris-Foulkes estimate   =    -288.05974572 Ry
     estimated scf accuracy    <       0.19573614 Ry

     iteration #  3     ecut=    50.00 Ry     beta=0.70
     Davidson diagonalization with overlap
     ethr =  1.01E-04,  avg # of iterations =  6.6

     negative rho (up, down):  1.319E-07 0.000E+00

     total cpu time spent up to now is    43970.3 secs

     total energy              =    -287.98984557 Ry
     Harris-Foulkes estimate   =    -287.99924204 Ry
     estimated scf accuracy    <       0.03046690 Ry

     iteration #  4     ecut=    50.00 Ry     beta=0.70
     Davidson diagonalization with overlap
     ethr =  4.29E-05,  avg # of iterations =  3.4

     negative rho (up, down):  2.933E-08 0.000E+00

     total cpu time spent up to now is    43994.1 secs

     total energy              =    -287.98513395 Ry
     Harris-Foulkes estimate   =    -287.99123354 Ry
     estimated scf accuracy    <       0.01663751 Ry

     iteration #  5     ecut=    50.00 Ry     beta=0.70
     Davidson diagonalization with overlap
     ethr =  2.34E-05,  avg # of iterations =  4.5

     negative rho (up, down):  5.274E-08 0.000E+00

     total cpu time spent up to now is    44019.5 secs

     total energy              =    -287.98543877 Ry
     Harris-Foulkes estimate   =    -287.99000628 Ry
     estimated scf accuracy    <       0.03766160 Ry

     iteration #  6     ecut=    50.00 Ry     beta=0.70
     Davidson diagonalization with overlap
     ethr =  2.34E-05,  avg # of iterations =  1.0

     total cpu time spent up to now is    44041.2 secs

     total energy              =    -287.98766481 Ry
     Harris-Foulkes estimate   =    -287.98766619 Ry
     estimated scf accuracy    <       0.00014397 Ry

     iteration #  7     ecut=    50.00 Ry     beta=0.70
     Davidson diagonalization with overlap
     ethr =  2.03E-07,  avg # of iterations =  4.2

     total cpu time spent up to now is    44072.1 secs

     total energy              =    -287.98761096 Ry
     Harris-Foulkes estimate   =    -287.98790185 Ry
     estimated scf accuracy    <       0.00286289 Ry

     iteration #  8     ecut=    50.00 Ry     beta=0.70
     Davidson diagonalization with overlap
     ethr =  2.03E-07,  avg # of iterations =  2.1

     total cpu time spent up to now is    44095.4 secs

     total energy              =    -287.98769209 Ry
     Harris-Foulkes estimate   =    -287.98773559 Ry
     estimated scf accuracy    <       0.00019200 Ry

     iteration #  9     ecut=    50.00 Ry     beta=0.70
     Davidson diagonalization with overlap
     ethr =  2.03E-07,  avg # of iterations =  2.0

     total cpu time spent up to now is    44118.1 secs

     total energy              =    -287.98771998 Ry
     Harris-Foulkes estimate   =    -287.98772282 Ry
     estimated scf accuracy    <       0.00004693 Ry

     iteration # 10     ecut=    50.00 Ry     beta=0.70
     Davidson diagonalization with overlap
     ethr =  6.61E-08,  avg # of iterations =  1.0

     total cpu time spent up to now is    44139.4 secs

     total energy              =    -287.98771949 Ry
     Harris-Foulkes estimate   =    -287.98772119 Ry
     estimated scf accuracy    <       0.00002122 Ry

     iteration # 11     ecut=    50.00 Ry     beta=0.70
     Davidson diagonalization with overlap
     ethr =  2.99E-08,  avg # of iterations =  1.0

     total cpu time spent up to now is    44161.2 secs

     total energy              =    -287.98771922 Ry
     Harris-Foulkes estimate   =    -287.98772008 Ry
     estimated scf accuracy    <       0.00000479 Ry

     iteration # 12     ecut=    50.00 Ry     beta=0.70
     Davidson diagonalization with overlap
     ethr =  6.74E-09,  avg # of iterations =  1.6

     total cpu time spent up to now is    44183.0 secs

     End of self-consistent calculation

          k = 0.0000 0.0000 0.0000 ( 21247 PWs)   bands (ev):

   -27.9085 -13.7611 -13.5555 -13.2924 -10.7093 -10.2269  -9.8231  -8.4044
    -8.3343  -7.9366  -7.4577  -7.2953  -6.9664  -6.7269  -6.5472  -6.3693
    -5.7947  -5.3689  -5.2095  -5.1618  -4.9400  -4.8104  -4.7037  -4.5919
    -4.4979  -4.2699  -3.8751  -3.8135  -3.7667  -2.5249  -2.4178  -2.3251
    -1.8149  -1.3836  -0.4915  -0.3507   1.1457   1.5424   1.7593   2.0892
     2.3630   2.6693   2.8346

          k = 0.1187 0.0387-0.5250 ( 21362 PWs)   bands (ev):

   -27.9085 -13.7613 -13.5605 -13.2932 -10.6896 -10.2366  -9.7149  -8.5082
    -8.3483  -8.0433  -7.5009  -7.2539  -7.1513  -6.5731  -6.4726  -6.4265
    -5.7125  -5.4010  -5.1723  -5.0021  -4.9832  -4.8850  -4.7415  -4.5705
    -4.3671  -4.2533  -3.9013  -3.8022  -3.7717  -2.5097  -2.4170  -2.3221
    -1.7909  -1.3602  -0.4907  -0.1986   1.0775   1.1945   1.5801   1.6699
     2.2998   2.6568   2.8027

          k = 0.0866-0.3282-0.4823 ( 21216 PWs)   bands (ev):

   -27.9085 -13.7614 -13.5605 -13.2933 -10.6855 -10.2410  -9.7137  -8.5292
    -8.3285  -8.0517  -7.4699  -7.2696  -7.1594  -6.5695  -6.4815  -6.4101
    -5.7114  -5.4121  -5.1643  -5.0159  -4.9875  -4.8807  -4.7252  -4.5754
    -4.3607  -4.2630  -3.9022  -3.8178  -3.7557  -2.5122  -2.4234  -2.3065
    -1.7958  -1.3560  -0.4930  -0.2062   1.0887   1.1768   1.4628   1.8192
     2.3660   2.6777   2.7217

          k =-0.4827-0.3518-0.3541 ( 21368 PWs)   bands (ev):

   -27.9085 -13.7659 -13.5565 -13.2948 -10.6678 -10.2322  -9.8289  -8.3888
    -8.3478  -7.9715  -7.4472  -7.3979  -6.9469  -6.6652  -6.4624  -6.3556
    -5.7649  -5.5192  -5.2439  -5.2235  -4.9110  -4.8613  -4.7407  -4.5146
    -4.4246  -4.2161  -3.9985  -3.8632  -3.5387  -2.4745  -2.3896  -2.3726
    -1.7784  -1.4589  -0.5450  -0.3494   1.1656   1.4214   1.7394   2.0414
     2.1984   2.5774   2.7980

          k =-0.5693-0.0235 0.1282 ( 21362 PWs)   bands (ev):

   -27.9085 -13.7659 -13.5611 -13.2944 -10.6764 -10.2198  -9.7202  -8.5254
    -8.2851  -8.0545  -7.4777  -7.3978  -7.1088  -6.5533  -6.4528  -6.3511
    -5.6499  -5.6025  -5.2489  -5.1060  -4.9215  -4.8109  -4.6915  -4.5753
    -4.5048  -4.1881  -4.0322  -3.8433  -3.5443  -2.4947  -2.3890  -2.2919
    -1.7819  -1.3518  -0.4934  -0.2039   1.2075   1.2273   1.7520   1.8209
     2.3312   2.5187   2.7444

          k =-0.0321-0.3669 0.0427 ( 21362 PWs)   bands (ev):

   -27.9085 -13.7612 -13.5555 -13.2925 -10.7032 -10.2358  -9.8220  -8.4139
    -8.3232  -7.9374  -7.4706  -7.2914  -6.9629  -6.7079  -6.5338  -6.3950
    -5.7879  -5.3549  -5.2069  -5.1923  -4.9326  -4.8297  -4.6896  -4.5957
    -4.4976  -4.2694  -3.8784  -3.8114  -3.7642  -2.5101  -2.4726  -2.2778
    -1.8182  -1.3856  -0.4804  -0.3766   1.1692   1.6125   1.7212   2.0743
     2.3621   2.6682   2.7776

          k =-0.6880-0.0622 0.6532 ( 21216 PWs)   bands (ev):

   -27.9085 -13.7658 -13.5565 -13.2947 -10.6704 -10.2305  -9.8275  -8.4416
    -8.2642  -7.9726  -7.4906  -7.4114  -6.9489  -6.6571  -6.4416  -6.3380
    -5.7710  -5.5290  -5.2603  -5.1973  -4.8872  -4.8647  -4.7457  -4.5372
    -4.4315  -4.2143  -3.9854  -3.8555  -3.5674  -2.4734  -2.4141  -2.3224
    -1.7885  -1.4547  -0.4968  -0.3984   1.1959   1.4128   1.7393   2.0060
     2.2235   2.5194   2.8133

          k =-0.5372 0.3434 0.0854 ( 21216 PWs)   bands (ev):

   -27.9085 -13.7659 -13.5611 -13.2944 -10.6730 -10.2232  -9.7204  -8.5004
    -8.3250  -8.0581  -7.4703  -7.3643  -7.1167  -6.5527  -6.4715  -6.3477
    -5.6445  -5.5997  -5.2650  -5.0889  -4.9375  -4.8197  -4.6980  -4.5509
    -4.5006  -4.1928  -4.0375  -3.8514  -3.5170  -2.4704  -2.4014  -2.3118
    -1.7774  -1.3507  -0.5280  -0.1740   1.1862   1.2261   1.6694   1.8727
     2.2629   2.5748   2.7026

     the Fermi energy is    -0.2792 ev

!    total energy              =    -287.98771928 Ry
     Harris-Foulkes estimate   =    -287.98771983 Ry
     estimated scf accuracy    <       0.00000063 Ry

     The total energy is the sum of the following terms:

     one-electron contribution =    -106.63141211 Ry
     hartree contribution      =      69.26333477 Ry
     xc contribution           =     -97.56018980 Ry
     ewald contribution        =     -47.11722448 Ry
     one-center paw contrib.   =    -105.93913394 Ry
     smearing contrib. (-TS)   =      -0.00309373 Ry

     convergence has been achieved in  12 iterations

     Forces acting on atoms (cartesian axes, Ry/au):

     atom    1 type  1   force =     0.00420386    0.00182405   -0.00429429
     atom    2 type  1   force =    -0.00481662   -0.00059499   -0.00394487
     atom    3 type  2   force =     0.00531519   -0.01748763   -0.01954211
     atom    4 type  3   force =    -0.04588502   -0.00520595    0.00730506
     atom    5 type  3   force =    -0.04232013   -0.01221187    0.00929407
     atom    6 type  4   force =     0.02621291   -0.08077188    0.02757162
     atom    7 type  4   force =    -0.02740346    0.01071197   -0.02939227
     atom    8 type  4   force =     0.00069886   -0.04239780   -0.02022339
     atom    9 type  4   force =    -0.03332408   -0.00790923    0.01743560
     atom   10 type  4   force =     0.03494469    0.00493333    0.01211718
     atom   11 type  4   force =     0.01014841   -0.02064925    0.04380817
     atom   12 type  4   force =     0.00676522   -0.00254030    0.06993125
     atom   13 type  5   force =     0.00121869    0.00162482   -0.00207954
     atom   14 type  5   force =     0.00661996    0.01007902    0.01029286
     atom   15 type  5   force =    -0.00370736   -0.00149374   -0.01918104
     atom   16 type  5   force =     0.00877228    0.01280284    0.00926697
     atom   17 type  5   force =    -0.00365721    0.01175089   -0.01605375
     atom   18 type  5   force =    -0.02933086    0.01883236   -0.01883807
     atom   19 type  5   force =    -0.02989672   -0.01708476   -0.01283199
     atom   20 type  5   force =    -0.00119339   -0.00508068    0.00324859
     atom   21 type  5   force =     0.03460559    0.00979694    0.00892907
     atom   22 type  5   force =    -0.00532661    0.03401439    0.01336711
     atom   23 type  5   force =     0.01726821    0.00876604   -0.02874818
     atom   24 type  5   force =     0.01148564   -0.01092250    0.01284669
     atom   25 type  5   force =     0.00165580    0.00138647   -0.00101904
     atom   26 type  5   force =     0.02289369    0.01051623   -0.01447647
     atom   27 type  5   force =    -0.03558120    0.02920684   -0.03670743
     atom   28 type  5   force =     0.00609463   -0.01113965    0.01004398
     atom   29 type  5   force =     0.00616700    0.01062990   -0.00215243
     atom   30 type  5   force =     0.00573972    0.06977593   -0.01598134
     atom   31 type  5   force =    -0.00866342    0.00284018    0.00034496
     atom   32 type  5   force =     0.01309710    0.00193368   -0.00199937
     atom   33 type  5   force =     0.00884604   -0.00552183    0.00831694
     atom   34 type  5   force =    -0.01607556   -0.00561425    0.00105594
     atom   35 type  5   force =     0.00096977   -0.01341920    0.00334673
     atom   36 type  5   force =    -0.00764907    0.01521136   -0.01099723
     atom   37 type  5   force =     0.04778458    0.01977365    0.00347591
     atom   38 type  5   force =    -0.02421407    0.01493692   -0.00306520
     atom   39 type  5   force =     0.02252690   -0.01217647   -0.01129562
     atom   40 type  5   force =     0.00236926   -0.00393786    0.01188104
     atom   41 type  5   force =     0.01138047    0.00117809    0.01021963
     atom   42 type  5   force =     0.02646700   -0.01929073   -0.02968148
     atom   43 type  5   force =    -0.02323098   -0.01812898    0.01144299
     atom   44 type  5   force =    -0.00197572    0.01105364   -0.00303728

     Total force =     0.234240     Total SCF correction =     0.000883


     Computing stress (Cartesian axis) and pressure

          total   stress  (Ry/bohr**3)                   (kbar)     P=    7.01
   0.00011560   0.00004033   0.00003380         17.01      5.93      4.97
   0.00004033   0.00005392  -0.00000848          5.93      7.93     -1.25
   0.00003380  -0.00000848  -0.00002662          4.97     -1.25     -3.92


     number of scf cycles    =  36
     number of bfgs steps    =  34

     enthalpy old            =    -287.9416396106 Ry
     enthalpy new            =    -287.9877192824 Ry

     CASE: enthalpy_new < enthalpy_old

     new trust radius        =       0.3307792290 bohr
     new conv_thr            =       0.0000008077 Ry

     new unit-cell volume =   4234.29724 a.u.^3 (   627.45811 Ang^3 )
     density =      0.99881 g/cm^3

CELL_PARAMETERS (angstrom)
   7.466365558  -0.453441694   1.750749879
  -0.289012466  11.161313914   0.772621516
   1.863446704   0.796293299   8.046791551

ATOMIC_POSITIONS (angstrom)
K        5.753340834   6.480875178   3.186192088
K        4.953107578   1.298218645   7.455273048
Ba       6.478695611   8.306500401   7.519224946
Al       3.478887645   4.119559494   5.273612994
Al       1.772759686  10.051248725   6.474343450
B        1.554208156   9.181888066   3.451951430
B        5.105540852   5.885919482   8.013084767
B        7.581477118  10.884904172   8.228594431
B        4.186283847   7.222190246   6.351980152
B        6.270385558   1.984866355   3.986119058
B        5.096807139   3.270653158   4.030350842
B        3.639494139   8.407902245   1.818095659
H        7.099500464   4.935577428   6.233144454
H        2.629232531   8.583526096   2.837670861
H        1.333755132   8.703515097   7.282489112
H        6.632264794  10.976848085   7.522822896
H        1.539994700   4.107474514   3.294928514
H        4.625523778   2.807725888   5.055537350
H        8.070847641   8.077832185   4.711426225
H        4.070263968   8.207466850   7.032678955
H        6.307997054   5.637819982   7.988259163
H        8.140193485   0.742944500   8.147593148
H        4.804778267   7.414171775   5.414383468
H        7.133667172   2.785622083   8.331067226
H        7.841165463   4.902784029   6.414874538
H        1.576402748   9.028760361   4.485320951
H        4.947522565   9.717055872   8.831557962
H        1.340103211   4.503663785   2.698678987
H        3.179955792   6.553133990   6.178356918
H        1.498470510  10.374398788   2.984531607
H        5.478523364   1.116532692   3.614473330
H        2.911305394   2.382544523   1.598338538
H        5.063458332   6.308589559   6.834335404
H        2.171190631   2.196152064   1.658981941
H        4.432582274  -0.114518264   2.115928917
H        6.726612119   3.200073589   7.865158235
H        3.255201105  10.405131332   6.795859013
H        7.361207449   1.857021000   3.493246883
H        6.325896939   1.921020264   5.205084359
H        4.800036077   6.793787599   8.793343190
H        4.150406525   3.594801824   3.337078774
H        4.899430514   4.786115092   4.833638810
H        4.460919850   4.873026247   7.939953991
H        4.282983547   0.586707969   1.747385687



     Writing output data file 00_K2BaAl2B7H32_Monster.save
     NEW-OLD atomic charge density approx. for the potential

     negative rho (up, down):  5.484E-06 0.000E+00
     extrapolated charge   69.51722, renormalised to   71.00000

     total cpu time spent up to now is    45009.3 secs

     Self-consistent Calculation

     iteration #  1     ecut=    50.00 Ry     beta=0.70
     Davidson diagonalization with overlap
     c_bands:  1 eigenvalues not converged
     c_bands:  1 eigenvalues not converged
     ethr =  1.00E-06,  avg # of iterations = 17.1

     negative rho (up, down):  4.428E-07 0.000E+00

     total cpu time spent up to now is    45074.0 secs

     total energy              =    -287.85789053 Ry
     Harris-Foulkes estimate   =    -289.52365794 Ry
     estimated scf accuracy    <       0.18662685 Ry

     iteration #  2     ecut=    50.00 Ry     beta=0.70
     Davidson diagonalization with overlap
     ethr =  2.63E-04,  avg # of iterations =  6.1

     negative rho (up, down):  7.466E-07 0.000E+00

     total cpu time spent up to now is    45108.3 secs

     total energy              =    -287.96558014 Ry
     Harris-Foulkes estimate   =    -288.11714822 Ry
     estimated scf accuracy    <       0.35928389 Ry

     iteration #  3     ecut=    50.00 Ry     beta=0.70
     Davidson diagonalization with overlap
     ethr =  2.63E-04,  avg # of iterations =  5.8

     negative rho (up, down):  3.208E-07 0.000E+00

     total cpu time spent up to now is    45137.6 secs

     total energy              =    -287.99190940 Ry
     Harris-Foulkes estimate   =    -288.00624661 Ry
     estimated scf accuracy    <       0.03187977 Ry

     iteration #  4     ecut=    50.00 Ry     beta=0.70
     Davidson diagonalization with overlap
     ethr =  4.49E-05,  avg # of iterations =  4.9

     negative rho (up, down):  1.388E-07 0.000E+00

     total cpu time spent up to now is    45166.3 secs

     total energy              =    -287.99337843 Ry
     Harris-Foulkes estimate   =    -287.99611625 Ry
     estimated scf accuracy    <       0.00586583 Ry

     iteration #  5     ecut=    50.00 Ry     beta=0.70
     Davidson diagonalization with overlap
     ethr =  8.26E-06,  avg # of iterations =  4.5

     negative rho (up, down):  1.530E-07 0.000E+00

     total cpu time spent up to now is    45194.8 secs

     total energy              =    -287.99266389 Ry
     Harris-Foulkes estimate   =    -287.99639039 Ry
     estimated scf accuracy    <       0.01912093 Ry

     iteration #  6     ecut=    50.00 Ry     beta=0.70
     Davidson diagonalization with overlap
     ethr =  8.26E-06,  avg # of iterations =  2.9

     negative rho (up, down):  9.755E-08 0.000E+00

     total cpu time spent up to now is    45217.9 secs

     total energy              =    -287.99467546 Ry
     Harris-Foulkes estimate   =    -287.99543837 Ry
     estimated scf accuracy    <       0.00301216 Ry

     iteration #  7     ecut=    50.00 Ry     beta=0.70
     Davidson diagonalization with overlap
     ethr =  4.24E-06,  avg # of iterations =  2.0

     negative rho (up, down):  8.801E-08 0.000E+00

     total cpu time spent up to now is    45240.3 secs

     total energy              =    -287.99500935 Ry
     Harris-Foulkes estimate   =    -287.99522896 Ry
     estimated scf accuracy    <       0.00094493 Ry

     iteration #  8     ecut=    50.00 Ry     beta=0.70
     Davidson diagonalization with overlap
     ethr =  1.33E-06,  avg # of iterations =  2.0

     negative rho (up, down):  8.318E-08 0.000E+00

     total cpu time spent up to now is    45262.7 secs

     total energy              =    -287.99512781 Ry
     Harris-Foulkes estimate   =    -287.99513120 Ry
     estimated scf accuracy    <       0.00002886 Ry

     iteration #  9     ecut=    50.00 Ry     beta=0.70
     Davidson diagonalization with overlap
     ethr =  4.06E-08,  avg # of iterations =  3.0

     negative rho (up, down):  8.023E-08 0.000E+00

     total cpu time spent up to now is    45287.8 secs

     total energy              =    -287.99512785 Ry
     Harris-Foulkes estimate   =    -287.99513559 Ry
     estimated scf accuracy    <       0.00007871 Ry

     iteration # 10     ecut=    50.00 Ry     beta=0.70
     Davidson diagonalization with overlap
     ethr =  4.06E-08,  avg # of iterations =  1.0

     negative rho (up, down):  8.027E-08 0.000E+00

     total cpu time spent up to now is    45309.7 secs

     total energy              =    -287.99512819 Ry
     Harris-Foulkes estimate   =    -287.99513021 Ry
     estimated scf accuracy    <       0.00001404 Ry

     iteration # 11     ecut=    50.00 Ry     beta=0.70
     Davidson diagonalization with overlap
     ethr =  1.98E-08,  avg # of iterations =  1.0

     negative rho (up, down):  8.109E-08 0.000E+00

     total cpu time spent up to now is    45331.0 secs

     End of self-consistent calculation

          k = 0.0000 0.0000 0.0000 ( 21247 PWs)   bands (ev):

   -27.9636 -13.9454 -13.5279 -13.3613 -10.8590 -10.2453 -10.0667  -8.4849
    -8.2544  -7.8700  -7.3046  -7.1343  -6.7607  -6.5929  -6.4778  -6.0169
    -5.7096  -5.4132  -5.3720  -5.0896  -4.8239  -4.8118  -4.7281  -4.4024
    -4.2555  -4.0310  -3.9861  -3.8611  -3.7904  -2.4435  -2.3552  -2.1330
    -1.5538  -1.4491  -0.4320  -0.3208   1.1216   1.7544   2.0118   2.1456
     2.6079   2.6617   2.8640

          k = 0.1281 0.0404-0.5359 ( 21362 PWs)   bands (ev):

   -27.9636 -13.9457 -13.5342 -13.3626 -10.8383 -10.2484  -9.9853  -8.4731
    -8.4403  -7.8672  -7.3275  -7.1122  -7.0020  -6.5747  -6.2374  -6.0857
    -5.6091  -5.5335  -5.2316  -5.0398  -4.8231  -4.7789  -4.7282  -4.3593
    -4.2302  -4.0402  -3.9504  -3.9028  -3.8308  -2.4079  -2.3421  -2.1367
    -1.5662  -1.4641  -0.4199  -0.1237   1.1302   1.3767   1.8464   1.9319
     2.5847   2.6106   2.8326

          k = 0.0956-0.3255-0.4921 ( 21216 PWs)   bands (ev):

   -27.9636 -13.9458 -13.5342 -13.3626 -10.8355 -10.2524  -9.9835  -8.4967
    -8.4172  -7.8758  -7.3001  -7.1260  -7.0198  -6.5463  -6.2272  -6.0979
    -5.6118  -5.5479  -5.2330  -5.0335  -4.8245  -4.7951  -4.7251  -4.3237
    -4.2284  -4.0479  -3.9724  -3.8761  -3.8505  -2.3985  -2.3482  -2.1450
    -1.5608  -1.4615  -0.4209  -0.1248   1.1323   1.3624   1.7217   2.0959
     2.6076   2.6520   2.8166

          k =-0.4789-0.3498-0.3567 ( 21368 PWs)   bands (ev):

   -27.9636 -13.9511 -13.5291 -13.3633 -10.8148 -10.2468 -10.0813  -8.4707
    -8.2512  -7.9130  -7.2999  -7.2142  -6.7635  -6.5185  -6.3929  -5.9992
    -5.8043  -5.5716  -5.3552  -5.0359  -4.9252  -4.8017  -4.6203  -4.3746
    -4.2433  -4.1020  -3.9664  -3.8273  -3.6662  -2.3941  -2.3450  -2.1873
    -1.5485  -1.4744  -0.5156  -0.2992   1.1206   1.6692   1.9460   2.1493
     2.3945   2.7303   2.8758

          k =-0.5745-0.0243 0.1354 ( 21362 PWs)   bands (ev):

   -27.9636 -13.9508 -13.5350 -13.3631 -10.8164 -10.2375  -9.9960  -8.5189
    -8.3438  -7.8802  -7.3349  -7.1738  -6.9946  -6.5559  -6.2398  -6.0280
    -5.7046  -5.5804  -5.1839  -5.0599  -4.9349  -4.8549  -4.6482  -4.3812
    -4.2099  -4.1110  -3.9450  -3.8590  -3.6777  -2.3986  -2.3021  -2.1574
    -1.5196  -1.4680  -0.4642  -0.1252   1.1893   1.5843   1.8029   2.0984
     2.5338   2.6942   2.7564

          k =-0.0325-0.3659 0.0437 ( 21362 PWs)   bands (ev):

   -27.9636 -13.9455 -13.5280 -13.3613 -10.8548 -10.2550 -10.0629  -8.4799
    -8.2583  -7.8720  -7.3215  -7.1314  -6.7491  -6.5395  -6.5101  -6.0294
    -5.7072  -5.4201  -5.3751  -5.0838  -4.8184  -4.8150  -4.7439  -4.3925
    -4.2631  -4.0300  -3.9801  -3.8538  -3.8042  -2.4349  -2.3654  -2.1279
    -1.5516  -1.4486  -0.4312  -0.3334   1.1335   1.8157   1.9898   2.1094
     2.5701   2.6967   2.8392

          k =-0.7026-0.0647 0.6713 ( 21216 PWs)   bands (ev):

   -27.9636 -13.9510 -13.5291 -13.3633 -10.8165 -10.2462 -10.0794  -8.4908
    -8.2068  -7.9165  -7.3242  -7.2321  -6.7734  -6.4989  -6.3840  -5.9640
    -5.8147  -5.5998  -5.3456  -5.0224  -4.9186  -4.8032  -4.6251  -4.3891
    -4.2573  -4.0694  -3.9663  -3.8197  -3.7011  -2.3945  -2.3410  -2.1737
    -1.5533  -1.4676  -0.4820  -0.3331   1.1308   1.6771   1.9898   2.0705
     2.4724   2.6709   2.8650

          k =-0.5420 0.3417 0.0917 ( 21216 PWs)   bands (ev):

   -27.9636 -13.9508 -13.5350 -13.3631 -10.8143 -10.2390  -9.9969  -8.4808
    -8.3905  -7.8862  -7.3249  -7.1419  -7.0007  -6.5857  -6.2312  -6.0238
    -5.7019  -5.5835  -5.1730  -5.0884  -4.9011  -4.8661  -4.6672  -4.3752
    -4.1998  -4.1252  -3.9570  -3.8544  -3.6470  -2.3728  -2.3205  -2.1701
    -1.5111  -1.4745  -0.4995  -0.0951   1.1794   1.5853   1.7445   2.0953
     2.4656   2.6448   2.8492

     the Fermi energy is    -0.2197 ev

!    total energy              =    -287.99512915 Ry
     Harris-Foulkes estimate   =    -287.99512918 Ry
     estimated scf accuracy    <       0.00000007 Ry

     The total energy is the sum of the following terms:

     one-electron contribution =    -105.39674993 Ry
     hartree contribution      =      68.79915150 Ry
     xc contribution           =     -97.62436392 Ry
     ewald contribution        =     -47.83532491 Ry
     one-center paw contrib.   =    -105.93557751 Ry
     smearing contrib. (-TS)   =      -0.00226438 Ry

     convergence has been achieved in  11 iterations

     negative rho (up, down):  8.109E-08 0.000E+00

     Forces acting on atoms (cartesian axes, Ry/au):

     atom    1 type  1   force =     0.00478782   -0.00147333   -0.00361506
     atom    2 type  1   force =    -0.00481194    0.00023890   -0.00332763
     atom    3 type  2   force =     0.01911132    0.00825906   -0.00607603
     atom    4 type  3   force =    -0.05448646   -0.01213048    0.00222014
     atom    5 type  3   force =    -0.02409638    0.01178609    0.01282374
     atom    6 type  4   force =    -0.03764452    0.07382287   -0.28091176
     atom    7 type  4   force =    -0.00370273   -0.00577601    0.03059163
     atom    8 type  4   force =     0.02893741    0.02848348    0.03992030
     atom    9 type  4   force =    -0.05804676   -0.04306635    0.05264436
     atom   10 type  4   force =    -0.00884833    0.02016409    0.01314545
     atom   11 type  4   force =     0.02028519    0.00392956    0.00829507
     atom   12 type  4   force =    -0.01054522    0.01819314   -0.00481648
     atom   13 type  5   force =     0.01708601    0.00039216    0.00078180
     atom   14 type  5   force =     0.01261827   -0.00248909    0.00366315
     atom   15 type  5   force =    -0.00064607   -0.01601741   -0.01335617
     atom   16 type  5   force =    -0.01570497   -0.00162434   -0.01486066
     atom   17 type  5   force =     0.00523596   -0.00572121    0.00853407
     atom   18 type  5   force =    -0.02543811   -0.00543304    0.02523833
     atom   19 type  5   force =     0.01095436    0.00353272    0.00887524
     atom   20 type  5   force =    -0.00415561   -0.00140596    0.00534498
     atom   21 type  5   force =    -0.00495155    0.01245854    0.00594376
     atom   22 type  5   force =    -0.01106357   -0.03092997   -0.02408249
     atom   23 type  5   force =     0.04369812    0.01632164   -0.06435398
     atom   24 type  5   force =     0.00657872   -0.00583785    0.00688292
     atom   25 type  5   force =    -0.01235932    0.00179335   -0.00591277
     atom   26 type  5   force =     0.03243022   -0.03533699    0.23173320
     atom   27 type  5   force =    -0.00784298   -0.00697477    0.02386725
     atom   28 type  5   force =    -0.00318730    0.00561227   -0.01599763
     atom   29 type  5   force =     0.00764899    0.01661505   -0.00053788
     atom   30 type  5   force =     0.00671486   -0.04516698    0.02866259
     atom   31 type  5   force =     0.00000126    0.00358899    0.00196075
     atom   32 type  5   force =    -0.01475146   -0.00534682    0.00168821
     atom   33 type  5   force =    -0.00315301    0.01651449   -0.03941658
     atom   34 type  5   force =     0.01184476    0.00226407   -0.00127060
     atom   35 type  5   force =    -0.01344518    0.05090005   -0.03389750
     atom   36 type  5   force =    -0.00297569    0.01043288   -0.00536123
     atom   37 type  5   force =     0.02509805    0.01105044   -0.00130485
     atom   38 type  5   force =     0.00651636    0.00761747   -0.01429230
     atom   39 type  5   force =     0.02665893   -0.02008889    0.01372640
     atom   40 type  5   force =     0.00036975   -0.01877635    0.00105996
     atom   41 type  5   force =    -0.01924335    0.00929307   -0.01363101
     atom   42 type  5   force =     0.05107106   -0.01814871   -0.02366530
     atom   43 type  5   force =    -0.00851646    0.00190627    0.00946371
     atom   44 type  5   force =     0.01196956   -0.05342610    0.03362086

     Total force =     0.439818     Total SCF correction =     0.000244


     Computing stress (Cartesian axis) and pressure


     negative rho (up, down):  8.109E-08 0.000E+00
          total   stress  (Ry/bohr**3)                   (kbar)     P=    8.64
   0.00010693   0.00003159   0.00001793         15.73      4.65      2.64
   0.00003159  -0.00006505  -0.00003315          4.65     -9.57     -4.88
   0.00001793  -0.00003315   0.00013432          2.64     -4.88     19.76


     number of scf cycles    =  37
     number of bfgs steps    =  35

     enthalpy old            =    -287.9877192824 Ry
     enthalpy new            =    -287.9951291538 Ry

     CASE: enthalpy_new < enthalpy_old

     new trust radius        =       0.3529100373 bohr
     new conv_thr            =       0.0000007410 Ry

     new unit-cell volume =   4336.11847 a.u.^3 (   642.54646 Ang^3 )
     density =      0.97536 g/cm^3

CELL_PARAMETERS (angstrom)
   7.571171000  -0.398861853   1.676782655
  -0.245373136  11.107396254   0.753649502
   1.790982504   0.775759150   8.109549768

ATOMIC_POSITIONS (angstrom)
K        5.825922550   6.443972702   3.159223397
K        4.925852822   1.261468395   7.449925604
Ba       6.585949726   8.207396402   7.460600388
Al       3.499711509   4.078446718   5.264621245
Al       1.784078099   9.958356906   6.512231163
B        1.567452329   9.095785993   3.299579358
B        5.097299379   5.852273197   7.976093898
B        7.679897053  10.829480523   8.199113185
B        4.179080801   7.216565947   6.348828699
B        6.317108134   2.026591725   3.979750355
B        5.113816850   3.260088238   3.928573371
B        3.725582410   8.406526664   1.823203215
H        7.163008486   4.883096188   6.182437870
H        2.634200504   8.573305600   2.730580233
H        1.358092037   8.594919984   7.289986621
H        6.725950322  10.942515164   7.496963499
H        1.541323740   4.066711942   3.300991175
H        4.737410855   2.878728667   4.930434615
H        8.144218414   8.059562811   4.604860892
H        4.084359979   8.176405259   7.056199385
H        6.357662110   5.675848840   8.013874484
H        8.149188244   0.787368833   8.114604046
H        4.825995428   7.422429024   5.377403553
H        7.133854008   2.796210375   8.312113600
H        7.904499595   4.878555405   6.351699707
H        1.644480917   9.017720270   4.666003011
H        5.001312746   9.698283936   8.857482740
H        1.351395344   4.479644334   2.722856558
H        3.152615056   6.566268298   6.169723675
H        1.546759389  10.333837338   3.040033626
H        5.556164790   1.121256482   3.627116110
H        2.961091009   2.454818235   1.596259408
H        5.071897877   6.283758911   6.799565510
H        2.232038640   2.223388291   1.668981934
H        4.470760089  -0.003728277   2.087744031
H        6.733828962   3.248177565   7.848406602
H        3.333065404  10.418129188   6.823181683
H        7.370272497   2.025367229   3.478596194
H        6.401028654   1.931692315   5.197736042
H        4.824298080   6.730832045   8.822218389
H        4.151901935   3.665210795   3.327804121
H        5.002390977   4.712563057   4.883114619
H        4.452792334   4.808881174   7.938262987
H        4.316672744   0.601486206   1.679410752



     Writing output data file 00_K2BaAl2B7H32_Monster.save
     NEW-OLD atomic charge density approx. for the potential

     negative rho (up, down):  1.057E-05 0.000E+00
     extrapolated charge   72.66583, renormalised to   71.00000

     total cpu time spent up to now is    46158.1 secs

     Self-consistent Calculation

     iteration #  1     ecut=    50.00 Ry     beta=0.70
     Davidson diagonalization with overlap
     ethr =  1.00E-06,  avg # of iterations = 12.6

     total cpu time spent up to now is    46221.0 secs

     total energy              =    -287.90658102 Ry
     Harris-Foulkes estimate   =    -286.43494698 Ry
     estimated scf accuracy    <       0.17170468 Ry

     iteration #  2     ecut=    50.00 Ry     beta=0.70
     Davidson diagonalization with overlap
     ethr =  2.42E-04,  avg # of iterations =  6.8

     total cpu time spent up to now is    46256.3 secs

     total energy              =    -287.89738017 Ry
     Harris-Foulkes estimate   =    -288.12741839 Ry
     estimated scf accuracy    <       0.70535413 Ry

     iteration #  3     ecut=    50.00 Ry     beta=0.70
     Davidson diagonalization with overlap
     ethr =  2.42E-04,  avg # of iterations =  6.0

     total cpu time spent up to now is    46286.5 secs

     total energy              =    -288.01398983 Ry
     Harris-Foulkes estimate   =    -288.05704619 Ry
     estimated scf accuracy    <       0.10744057 Ry

     iteration #  4     ecut=    50.00 Ry     beta=0.70
     Davidson diagonalization with overlap
     ethr =  1.51E-04,  avg # of iterations =  2.6

     negative rho (up, down):  1.232E-08 0.000E+00

     total cpu time spent up to now is    46309.7 secs

     total energy              =    -288.02209490 Ry
     Harris-Foulkes estimate   =    -288.02797181 Ry
     estimated scf accuracy    <       0.01279836 Ry

     iteration #  5     ecut=    50.00 Ry     beta=0.70
     Davidson diagonalization with overlap
     ethr =  1.80E-05,  avg # of iterations =  6.1

     negative rho (up, down):  2.804E-08 0.000E+00

     total cpu time spent up to now is    46341.0 secs

     total energy              =    -288.02251196 Ry
     Harris-Foulkes estimate   =    -288.02642853 Ry
     estimated scf accuracy    <       0.01326680 Ry

     iteration #  6     ecut=    50.00 Ry     beta=0.70
     Davidson diagonalization with overlap
     ethr =  1.80E-05,  avg # of iterations =  2.0

     negative rho (up, down):  7.956E-07 0.000E+00

     total cpu time spent up to now is    46363.3 secs

     total energy              =    -288.02348414 Ry
     Harris-Foulkes estimate   =    -288.02452786 Ry
     estimated scf accuracy    <       0.00287100 Ry

     iteration #  7     ecut=    50.00 Ry     beta=0.70
     Davidson diagonalization with overlap
     ethr =  4.04E-06,  avg # of iterations =  6.4

     negative rho (up, down):  8.178E-07 0.000E+00

     total cpu time spent up to now is    46390.8 secs

     total energy              =    -288.02392982 Ry
     Harris-Foulkes estimate   =    -288.02399009 Ry
     estimated scf accuracy    <       0.00019788 Ry

     iteration #  8     ecut=    50.00 Ry     beta=0.70
     Davidson diagonalization with overlap
     ethr =  2.79E-07,  avg # of iterations =  2.6

     negative rho (up, down):  6.437E-07 0.000E+00

     total cpu time spent up to now is    46416.0 secs

     total energy              =    -288.02395093 Ry
     Harris-Foulkes estimate   =    -288.02398076 Ry
     estimated scf accuracy    <       0.00008155 Ry

     iteration #  9     ecut=    50.00 Ry     beta=0.70
     Davidson diagonalization with overlap
     ethr =  1.15E-07,  avg # of iterations =  2.0

     negative rho (up, down):  1.108E-06 0.000E+00

     total cpu time spent up to now is    46439.0 secs

     total energy              =    -288.02396731 Ry
     Harris-Foulkes estimate   =    -288.02397448 Ry
     estimated scf accuracy    <       0.00003470 Ry

     iteration # 10     ecut=    50.00 Ry     beta=0.70
     Davidson diagonalization with overlap
     ethr =  4.89E-08,  avg # of iterations =  1.0

     negative rho (up, down):  1.265E-06 0.000E+00

     total cpu time spent up to now is    46460.8 secs

     End of self-consistent calculation

          k = 0.0000 0.0000 0.0000 ( 21247 PWs)   bands (ev):

   -28.3379 -14.1889 -13.7591 -13.6929 -10.9310 -10.3717 -10.0832  -8.4911
    -8.3115  -7.8596  -7.3407  -7.1294  -6.8836  -6.6604  -6.5200  -6.2273
    -5.7677  -5.5627  -5.3439  -5.1541  -4.8972  -4.8633  -4.7878  -4.3850
    -4.2866  -4.1433  -3.9807  -3.8983  -3.7584  -2.5185  -2.1918  -2.1008
    -1.7884  -1.5867  -0.4720  -0.3006   0.7950   1.6293   1.9567   2.0838
     2.4507   2.5231   2.8438

          k = 0.1190 0.0385-0.5283 ( 21362 PWs)   bands (ev):

   -28.3379 -14.1892 -13.7620 -13.6945 -10.9148 -10.3763 -10.0227  -8.4851
    -8.4734  -7.8315  -7.3431  -7.1547  -7.0485  -6.6326  -6.3318  -6.2428
    -5.7375  -5.6739  -5.2229  -5.1022  -4.8754  -4.8082  -4.7834  -4.3816
    -4.2566  -4.1612  -3.9915  -3.9503  -3.7581  -2.5064  -2.1975  -2.0772
    -1.7800  -1.5885  -0.4766  -0.1229   0.8428   1.1706   1.7166   1.8389
     2.3680   2.4946   2.7915

          k = 0.0905-0.3288-0.4869 ( 21216 PWs)   bands (ev):

   -28.3379 -14.1892 -13.7620 -13.6945 -10.9125 -10.3789 -10.0218  -8.5147
    -8.4418  -7.8425  -7.3230  -7.1607  -7.0721  -6.5947  -6.3494  -6.2307
    -5.7380  -5.6865  -5.2238  -5.0957  -4.8791  -4.8119  -4.7860  -4.3743
    -4.2357  -4.1680  -3.9995  -3.9559  -3.7622  -2.5038  -2.2010  -2.0786
    -1.7814  -1.5812  -0.4775  -0.1279   0.8447   1.1607   1.5959   1.9730
     2.3969   2.5485   2.8098

          k =-0.4723-0.3498-0.3606 ( 21368 PWs)   bands (ev):

   -28.3379 -14.1938 -13.7604 -13.6942 -10.8903 -10.3731 -10.0919  -8.4876
    -8.3054  -7.9042  -7.3389  -7.2295  -6.8713  -6.5730  -6.4415  -6.1924
    -5.9148  -5.6387  -5.3894  -5.0879  -4.9718  -4.8742  -4.7174  -4.3308
    -4.2480  -4.1545  -3.9482  -3.9116  -3.6495  -2.4948  -2.1930  -2.1055
    -1.7416  -1.6863  -0.5315  -0.2995   0.7879   1.5017   1.8508   2.0968
     2.2893   2.5498   2.7569

          k =-0.5628-0.0210 0.1263 ( 21362 PWs)   bands (ev):

   -28.3379 -14.1937 -13.7632 -13.6943 -10.8940 -10.3656 -10.0288  -8.5676
    -8.3431  -7.8390  -7.3649  -7.2293  -7.0316  -6.6363  -6.3153  -6.1865
    -5.8118  -5.6857  -5.1918  -5.1256  -4.9998  -4.8909  -4.7566  -4.3559
    -4.2961  -4.1230  -4.0098  -3.8594  -3.6765  -2.4798  -2.1740  -2.0769
    -1.7586  -1.5983  -0.4969  -0.1262   0.8821   1.4066   1.7307   2.0233
     2.3525   2.4794   2.7216

          k =-0.0285-0.3673 0.0414 ( 21362 PWs)   bands (ev):

   -28.3380 -14.1890 -13.7591 -13.6929 -10.9277 -10.3776 -10.0817  -8.4840
    -8.3170  -7.8631  -7.3547  -7.1309  -6.8728  -6.6003  -6.5738  -6.2194
    -5.7550  -5.5755  -5.3558  -5.1465  -4.8862  -4.8751  -4.7903  -4.4060
    -4.2721  -4.1234  -3.9705  -3.9373  -3.7518  -2.5190  -2.1935  -2.0916
    -1.7869  -1.5874  -0.4709  -0.3161   0.8038   1.6584   1.9026   2.1182
     2.4416   2.5314   2.8366

          k =-0.6819-0.0595 0.6546 ( 21216 PWs)   bands (ev):

   -28.3379 -14.1937 -13.7603 -13.6942 -10.8916 -10.3719 -10.0910  -8.5161
    -8.2514  -7.9097  -7.3666  -7.2425  -6.8763  -6.5604  -6.4293  -6.1717
    -5.9106  -5.6753  -5.3699  -5.0812  -4.9578  -4.8788  -4.7367  -4.3168
    -4.2564  -4.1656  -3.9513  -3.8609  -3.7051  -2.4895  -2.1786  -2.1024
    -1.7543  -1.6729  -0.4964  -0.3348   0.7953   1.5144   1.9109   1.9930
     2.3747   2.4964   2.8034

          k =-0.5343 0.3463 0.0849 ( 21216 PWs)   bands (ev):

   -28.3379 -14.1937 -13.7632 -13.6943 -10.8921 -10.3674 -10.0291  -8.5324
    -8.3908  -7.8424  -7.3511  -7.2010  -7.0384  -6.6658  -6.3086  -6.1783
    -5.8088  -5.6881  -5.2044  -5.1258  -5.0018  -4.8773  -4.7485  -4.3799
    -4.3044  -4.1049  -3.9952  -3.9015  -3.6307  -2.4807  -2.1808  -2.0785
    -1.7570  -1.5974  -0.5300  -0.0986   0.8767   1.4081   1.6745   2.0200
     2.3113   2.4349   2.7454

     the Fermi energy is    -0.2245 ev

!    total energy              =    -288.02397007 Ry
     Harris-Foulkes estimate   =    -288.02397052 Ry
     estimated scf accuracy    <       0.00000064 Ry

     The total energy is the sum of the following terms:

     one-electron contribution =    -105.28701567 Ry
     hartree contribution      =      68.39212789 Ry
     xc contribution           =     -97.39815841 Ry
     ewald contribution        =     -47.80052880 Ry
     one-center paw contrib.   =    -105.92867175 Ry
     smearing contrib. (-TS)   =      -0.00172332 Ry

     convergence has been achieved in  10 iterations

     negative rho (up, down):  1.265E-06 0.000E+00

     Forces acting on atoms (cartesian axes, Ry/au):

     atom    1 type  1   force =     0.00361793   -0.00359365   -0.00401772
     atom    2 type  1   force =    -0.00187683    0.00398287   -0.00450573
     atom    3 type  2   force =     0.01017976    0.01978342    0.00868569
     atom    4 type  3   force =    -0.03256441   -0.00709256   -0.00362372
     atom    5 type  3   force =     0.01049138    0.01767670    0.00773134
     atom    6 type  4   force =    -0.02320256    0.06230690    0.02755305
     atom    7 type  4   force =     0.01497131   -0.01257530    0.04888730
     atom    8 type  4   force =     0.02500459    0.04637651    0.03932323
     atom    9 type  4   force =    -0.03476946   -0.04076354    0.01712646
     atom   10 type  4   force =    -0.03268428    0.01601925    0.01537521
     atom   11 type  4   force =     0.04017185    0.03600760   -0.01715350
     atom   12 type  4   force =    -0.00345577    0.00767799   -0.03556483
     atom   13 type  5   force =     0.01085848    0.00152518   -0.00006907
     atom   14 type  5   force =     0.01499458   -0.01157205    0.00968863
     atom   15 type  5   force =    -0.00167086   -0.01648278   -0.00575125
     atom   16 type  5   force =    -0.01572956   -0.00748226   -0.01474164
     atom   17 type  5   force =     0.00748167   -0.01194442    0.01692006
     atom   18 type  5   force =    -0.05331098   -0.04457915    0.08759129
     atom   19 type  5   force =     0.01295119    0.00173899    0.00548251
     atom   20 type  5   force =     0.00013622    0.00553692    0.00759502
     atom   21 type  5   force =    -0.03204317    0.00389502   -0.00318869
     atom   22 type  5   force =    -0.00797042   -0.04315047   -0.02488479
     atom   23 type  5   force =     0.01888193    0.00855897   -0.02593819
     atom   24 type  5   force =    -0.00480982    0.00600695   -0.00599389
     atom   25 type  5   force =    -0.00778265    0.00196183   -0.00350262
     atom   26 type  5   force =     0.01366244   -0.00677528   -0.03946695
     atom   27 type  5   force =    -0.00255670   -0.01105964    0.02891473
     atom   28 type  5   force =    -0.00568024    0.01247625   -0.02421777
     atom   29 type  5   force =     0.01585875    0.01713902   -0.00017856
     atom   30 type  5   force =    -0.00123212   -0.04338319    0.00490704
     atom   31 type  5   force =     0.00367191   -0.00040369   -0.00181692
     atom   32 type  5   force =    -0.01863837   -0.00807360    0.00167924
     atom   33 type  5   force =    -0.00526720    0.01389245   -0.03520175
     atom   34 type  5   force =     0.01536008    0.00407006   -0.00209474
     atom   35 type  5   force =    -0.00022849   -0.00739859   -0.00072456
     atom   36 type  5   force =     0.00702753   -0.00350976    0.00777018
     atom   37 type  5   force =    -0.01563041   -0.00225355   -0.00708988
     atom   38 type  5   force =     0.03805204   -0.00165199   -0.02926507
     atom   39 type  5   force =     0.02051722   -0.01154296    0.01251021
     atom   40 type  5   force =    -0.00276647   -0.01909529   -0.01261466
     atom   41 type  5   force =    -0.02066232    0.01059836   -0.02582999
     atom   42 type  5   force =     0.03430951   -0.00703243   -0.02631564
     atom   43 type  5   force =     0.00731632    0.01929809    0.00505396
     atom   44 type  5   force =    -0.00098358    0.00488681    0.00095696

     Total force =     0.243119     Total SCF correction =     0.001061


     Computing stress (Cartesian axis) and pressure


     negative rho (up, down):  1.265E-06 0.000E+00
          total   stress  (Ry/bohr**3)                   (kbar)     P=   -0.84
   0.00003589  -0.00000748   0.00000095          5.28     -1.10      0.14
  -0.00000748  -0.00005228  -0.00004547         -1.10     -7.69     -6.69
   0.00000095  -0.00004547  -0.00000069          0.14     -6.69     -0.10


     number of scf cycles    =  38
     number of bfgs steps    =  36

     enthalpy old            =    -287.9951291538 Ry
     enthalpy new            =    -288.0239700659 Ry

     CASE: enthalpy_new < enthalpy_old

     new trust radius        =       0.2608255845 bohr
     new conv_thr            =       0.0000008759 Ry

     new unit-cell volume =   4356.54880 a.u.^3 (   645.57392 Ang^3 )
     density =      0.97079 g/cm^3

CELL_PARAMETERS (angstrom)
   7.612893707  -0.386682693   1.701668137
  -0.235075371  11.126127189   0.759415857
   1.805477009   0.778373070   8.097027161

ATOMIC_POSITIONS (angstrom)
K        5.858018110   6.493838441   3.159928412
K        4.965295911   1.263063648   7.449264483
Ba       6.591235001   8.314748353   7.492263538
Al       3.481056064   4.130252689   5.242201313
Al       1.784001176  10.023309070   6.487657323
B        1.546509324   9.199410743   3.314158995
B        5.154869138   5.868882328   8.037261481
B        7.738526548  10.927698426   8.224401415
B        4.225636284   7.194873136   6.373925717
B        6.347301442   2.075414092   3.962032716
B        5.179471692   3.303099441   3.981489023
B        3.754713145   8.419377867   1.806523586
H        7.222950214   4.925042741   6.208794532
H        2.730424965   8.573909156   2.796106157
H        1.375306186   8.625889984   7.300760117
H        6.760587573  10.958899458   7.498938423
H        1.567536758   4.079006242   3.307912195
H        4.748174885   2.809835177   5.048413346
H        8.234442023   8.126593630   4.684347507
H        4.128785840   8.189430138   7.060920122
H        6.360361237   5.657403020   7.982954350
H        8.199080641   0.772393383   8.134365736
H        4.871632656   7.427625320   5.370006553
H        7.187643925   2.836821399   8.329132218
H        7.951260417   4.920555912   6.376137469
H        1.684575700   9.005059301   4.605707290
H        5.024076303   9.704909013   8.868506773
H        1.365679691   4.494344435   2.710950413
H        3.190192692   6.573174562   6.180521309
H        1.574180699  10.323742873   3.049044236
H        5.595934023   1.148758638   3.629027518
H        2.965869788   2.426909745   1.589601162
H        5.089804457   6.302186465   6.771564358
H        2.244025312   2.226057366   1.670326115
H        4.494047374  -0.008129790   2.095191479
H        6.799453759   3.279862756   7.873615794
H        3.350915826  10.325065070   6.796795685
H        7.467395163   1.928622085   3.480875338
H        6.431040232   1.943075815   5.202844380
H        4.862076148   6.759173290   8.844794401
H        4.148529081   3.652249580   3.280869845
H        5.026584801   4.743577812   4.850933805
H        4.485535351   4.870076233   7.948767320
H        4.362092123   0.607357315   1.723580917



     Writing output data file 00_K2BaAl2B7H32_Monster.save
     NEW-OLD atomic charge density approx. for the potential

     negative rho (up, down):  4.302E-05 0.000E+00
     extrapolated charge   71.33268, renormalised to   71.00000

     total cpu time spent up to now is    47287.0 secs

     Self-consistent Calculation

     iteration #  1     ecut=    50.00 Ry     beta=0.70
     Davidson diagonalization with overlap
     ethr =  1.00E-06,  avg # of iterations = 11.6

     total cpu time spent up to now is    47344.8 secs

     total energy              =    -288.04969408 Ry
     Harris-Foulkes estimate   =    -287.75403697 Ry
     estimated scf accuracy    <       0.05218329 Ry

     iteration #  2     ecut=    50.00 Ry     beta=0.70
     Davidson diagonalization with overlap
     ethr =  7.35E-05,  avg # of iterations =  4.2

     negative rho (up, down):  1.889E-07 0.000E+00

     total cpu time spent up to now is    47373.8 secs

     total energy              =    -288.05479924 Ry
     Harris-Foulkes estimate   =    -288.07774211 Ry
     estimated scf accuracy    <       0.04549904 Ry

     iteration #  3     ecut=    50.00 Ry     beta=0.70
     Davidson diagonalization with overlap
     ethr =  6.41E-05,  avg # of iterations =  3.5

     negative rho (up, down):  1.576E-07 0.000E+00

     total cpu time spent up to now is    47399.6 secs

     total energy              =    -288.06226820 Ry
     Harris-Foulkes estimate   =    -288.06769983 Ry
     estimated scf accuracy    <       0.01259369 Ry

     iteration #  4     ecut=    50.00 Ry     beta=0.70
     Davidson diagonalization with overlap
     ethr =  1.77E-05,  avg # of iterations =  4.9

     negative rho (up, down):  1.020E-07 0.000E+00

     total cpu time spent up to now is    47426.5 secs

     total energy              =    -288.06390046 Ry
     Harris-Foulkes estimate   =    -288.06703337 Ry
     estimated scf accuracy    <       0.00983482 Ry

     iteration #  5     ecut=    50.00 Ry     beta=0.70
     Davidson diagonalization with overlap
     ethr =  1.39E-05,  avg # of iterations =  3.4

     negative rho (up, down):  8.313E-08 0.000E+00

     total cpu time spent up to now is    47449.6 secs

     total energy              =    -288.06582815 Ry
     Harris-Foulkes estimate   =    -288.06642858 Ry
     estimated scf accuracy    <       0.00200057 Ry

     iteration #  6     ecut=    50.00 Ry     beta=0.70
     Davidson diagonalization with overlap
     ethr =  2.82E-06,  avg # of iterations =  3.4

     negative rho (up, down):  5.764E-08 0.000E+00

     total cpu time spent up to now is    47473.6 secs

     total energy              =    -288.06584897 Ry
     Harris-Foulkes estimate   =    -288.06597051 Ry
     estimated scf accuracy    <       0.00045699 Ry

     iteration #  7     ecut=    50.00 Ry     beta=0.70
     Davidson diagonalization with overlap
     ethr =  6.44E-07,  avg # of iterations =  2.0

     negative rho (up, down):  5.380E-08 0.000E+00

     total cpu time spent up to now is    47495.8 secs

     total energy              =    -288.06591204 Ry
     Harris-Foulkes estimate   =    -288.06592597 Ry
     estimated scf accuracy    <       0.00004026 Ry

     iteration #  8     ecut=    50.00 Ry     beta=0.70
     Davidson diagonalization with overlap
     ethr =  5.67E-08,  avg # of iterations =  3.0

     negative rho (up, down):  5.247E-08 0.000E+00

     total cpu time spent up to now is    47520.3 secs

     total energy              =    -288.06592111 Ry
     Harris-Foulkes estimate   =    -288.06592292 Ry
     estimated scf accuracy    <       0.00000499 Ry

     iteration #  9     ecut=    50.00 Ry     beta=0.70
     Davidson diagonalization with overlap
     ethr =  7.02E-09,  avg # of iterations =  2.1

     negative rho (up, down):  5.206E-08 0.000E+00

     total cpu time spent up to now is    47544.4 secs

     total energy              =    -288.06592197 Ry
     Harris-Foulkes estimate   =    -288.06592239 Ry
     estimated scf accuracy    <       0.00000141 Ry

     iteration # 10     ecut=    50.00 Ry     beta=0.70
     Davidson diagonalization with overlap
     ethr =  1.98E-09,  avg # of iterations =  2.0

     negative rho (up, down):  5.200E-08 0.000E+00

     total cpu time spent up to now is    47566.8 secs

     End of self-consistent calculation

          k = 0.0000 0.0000 0.0000 ( 21247 PWs)   bands (ev):

   -28.2840 -14.0596 -13.7634 -13.6368 -10.8461 -10.0131  -9.9667  -8.4544
    -8.3906  -7.9420  -7.3663  -7.1301  -6.8997  -6.6514  -6.5163  -6.3217
    -5.7630  -5.4683  -5.2288  -5.0430  -4.9548  -4.8391  -4.6519  -4.6047
    -4.5237  -4.1885  -4.0169  -3.8575  -3.7506  -2.5762  -2.3711  -2.0141
    -1.5935  -1.5632  -0.5534  -0.3755   0.8646   1.5662   1.9372   2.1336
     2.4754   2.6629   2.8354

          k = 0.1204 0.0387-0.5297 ( 21362 PWs)   bands (ev):

   -28.2840 -14.0598 -13.7671 -13.6378 -10.8312  -9.9736  -9.9363  -8.5693
    -8.3965  -7.9793  -7.3936  -7.1544  -7.0276  -6.5886  -6.4035  -6.3267
    -5.6979  -5.5424  -5.1055  -5.0156  -4.9190  -4.8171  -4.6572  -4.6013
    -4.5320  -4.1675  -4.0347  -3.8908  -3.7404  -2.5508  -2.3589  -2.0134
    -1.6180  -1.5420  -0.5553  -0.2078   0.9264   1.1609   1.6380   1.9038
     2.4204   2.5238   2.7870

          k = 0.0925-0.3279-0.4882 ( 21216 PWs)   bands (ev):

   -28.2840 -14.0599 -13.7671 -13.6378 -10.8291  -9.9787  -9.9330  -8.5821
    -8.3828  -7.9851  -7.3737  -7.1615  -7.0516  -6.5525  -6.4263  -6.3101
    -5.6969  -5.5561  -5.1027  -5.0206  -4.9173  -4.8195  -4.6695  -4.6007
    -4.5023  -4.1759  -4.0393  -3.9157  -3.7175  -2.5487  -2.3530  -2.0225
    -1.6049  -1.5507  -0.5583  -0.2099   0.9256   1.1579   1.5536   2.0086
     2.4324   2.5956   2.7843

          k =-0.4678-0.3484-0.3613 ( 21368 PWs)   bands (ev):

   -28.2840 -14.0637 -13.7643 -13.6383 -10.8117 -10.0220  -9.9644  -8.4490
    -8.3897  -7.9806  -7.3580  -7.2113  -6.9277  -6.5752  -6.4396  -6.2995
    -5.8072  -5.5886  -5.2889  -5.0106  -4.9365  -4.8089  -4.6629  -4.5672
    -4.4953  -4.2373  -4.0058  -3.8796  -3.5679  -2.5421  -2.3474  -2.0651
    -1.6789  -1.5237  -0.5989  -0.3803   0.8701   1.4540   1.8672   2.0925
     2.2673   2.5057   2.7377

          k =-0.5602-0.0205 0.1269 ( 21362 PWs)   bands (ev):

   -28.2840 -14.0636 -13.7678 -13.6381 -10.8145  -9.9682  -9.9369  -8.5872
    -8.3372  -7.9866  -7.3676  -7.2567  -7.0399  -6.5584  -6.3805  -6.2747
    -5.7046  -5.6553  -5.1444  -5.0359  -4.9245  -4.8422  -4.6642  -4.6264
    -4.4967  -4.2314  -4.0627  -3.8419  -3.5879  -2.5201  -2.3224  -2.0452
    -1.6218  -1.5231  -0.5801  -0.2049   0.9644   1.3278   1.7411   2.0580
     2.3221   2.6038   2.6889

          k =-0.0279-0.3666 0.0415 ( 21362 PWs)   bands (ev):

   -28.2841 -14.0597 -13.7634 -13.6368 -10.8430 -10.0285  -9.9565  -8.4586
    -8.3821  -7.9448  -7.3814  -7.1305  -6.8910  -6.6076  -6.5452  -6.3277
    -5.7496  -5.4757  -5.2412  -5.0455  -4.9446  -4.8395  -4.6669  -4.5994
    -4.5163  -4.1931  -4.0206  -3.8810  -3.7277  -2.5784  -2.3659  -2.0098
    -1.5896  -1.5679  -0.5512  -0.3934   0.8767   1.6216   1.9256   2.0805
     2.5120   2.6416   2.8186

          k =-0.6806-0.0592 0.6566 ( 21216 PWs)   bands (ev):

   -28.2840 -14.0636 -13.7643 -13.6383 -10.8132 -10.0233  -9.9608  -8.4951
    -8.3212  -7.9830  -7.3910  -7.2234  -6.9296  -6.5706  -6.4183  -6.2765
    -5.8100  -5.6192  -5.2691  -4.9867  -4.9418  -4.7964  -4.7026  -4.5772
    -4.4777  -4.2467  -4.0106  -3.8360  -3.6136  -2.5383  -2.3398  -2.0498
    -1.6893  -1.5157  -0.5730  -0.4092   0.8784   1.4588   1.9515   1.9780
     2.3441   2.4418   2.8023

          k =-0.5324 0.3461 0.0854 ( 21216 PWs)   bands (ev):

   -28.2840 -14.0636 -13.7678 -13.6381 -10.8127  -9.9648  -9.9429  -8.5637
    -8.3719  -7.9888  -7.3430  -7.2483  -7.0452  -6.5684  -6.3924  -6.2655
    -5.6991  -5.6549  -5.1554  -5.0438  -4.9283  -4.8216  -4.6777  -4.5939
    -4.5284  -4.2160  -4.0585  -3.8791  -3.5461  -2.5197  -2.3239  -2.0527
    -1.6211  -1.5197  -0.6090  -0.1818   0.9534   1.3268   1.6879   2.0615
     2.2799   2.5560   2.7260

     the Fermi energy is    -0.3039 ev

!    total energy              =    -288.06592205 Ry
     Harris-Foulkes estimate   =    -288.06592229 Ry
     estimated scf accuracy    <       0.00000028 Ry

     The total energy is the sum of the following terms:

     one-electron contribution =    -105.03210889 Ry
     hartree contribution      =      68.28500555 Ry
     xc contribution           =     -97.38074562 Ry
     ewald contribution        =     -48.01201411 Ry
     one-center paw contrib.   =    -105.92423766 Ry
     smearing contrib. (-TS)   =      -0.00182131 Ry

     convergence has been achieved in  10 iterations

     negative rho (up, down):  5.200E-08 0.000E+00

     Forces acting on atoms (cartesian axes, Ry/au):

     atom    1 type  1   force =     0.00390036   -0.00365613   -0.00384079
     atom    2 type  1   force =    -0.00211333    0.00518941   -0.00418276
     atom    3 type  2   force =     0.01094682    0.00517329    0.00002974
     atom    4 type  3   force =    -0.01813528   -0.01560632   -0.00939470
     atom    5 type  3   force =     0.00536497   -0.00574532    0.01248357
     atom    6 type  4   force =     0.02948226   -0.04041565    0.03890942
     atom    7 type  4   force =    -0.00712009    0.00856150   -0.00134391
     atom    8 type  4   force =     0.00041763   -0.00777690   -0.00060707
     atom    9 type  4   force =    -0.02451822   -0.00961141   -0.00145906
     atom   10 type  4   force =     0.02376215   -0.01258467    0.01770333
     atom   11 type  4   force =    -0.03897748    0.02882468    0.02463226
     atom   12 type  4   force =    -0.01338465    0.01199125   -0.00617607
     atom   13 type  5   force =    -0.00578608    0.00150860   -0.00408863
     atom   14 type  5   force =    -0.00052812    0.00265639    0.00487177
     atom   15 type  5   force =    -0.00282379   -0.00383564   -0.01507960
     atom   16 type  5   force =     0.00406687   -0.00042845    0.00155919
     atom   17 type  5   force =     0.00062135    0.00309509   -0.00367291
     atom   18 type  5   force =    -0.03556105    0.00677166    0.00435658
     atom   19 type  5   force =    -0.01172646   -0.00959562   -0.01132492
     atom   20 type  5   force =    -0.00039109   -0.00636894    0.00105000
     atom   21 type  5   force =    -0.00361301    0.00590867    0.00342605
     atom   22 type  5   force =    -0.00504679    0.00550287   -0.00049686
     atom   23 type  5   force =     0.00461797    0.00637184   -0.00747829
     atom   24 type  5   force =     0.00626123   -0.00697263    0.00741792
     atom   25 type  5   force =     0.00915124    0.00166132    0.00010592
     atom   26 type  5   force =     0.01223085    0.00349194   -0.01739866
     atom   27 type  5   force =    -0.00741893   -0.00439245    0.01653637
     atom   28 type  5   force =     0.00004757   -0.00239589   -0.00426359
     atom   29 type  5   force =     0.01280800    0.01498849    0.00037731
     atom   30 type  5   force =    -0.00165239    0.04385889   -0.01440357
     atom   31 type  5   force =     0.00160265    0.00584813   -0.00139152
     atom   32 type  5   force =    -0.00055361   -0.00206075    0.00022532
     atom   33 type  5   force =     0.00654597   -0.00417536    0.00512253
     atom   34 type  5   force =    -0.00265887   -0.00175377   -0.00087177
     atom   35 type  5   force =     0.00299088   -0.02625255    0.00990681
     atom   36 type  5   force =    -0.00474236    0.00848125   -0.00571672
     atom   37 type  5   force =    -0.00744967    0.00833331   -0.00585595
     atom   38 type  5   force =    -0.00841203    0.01098064   -0.01008767
     atom   39 type  5   force =     0.02262620   -0.00977027   -0.00245024
     atom   40 type  5   force =     0.00025364   -0.01509985   -0.00589111
     atom   41 type  5   force =     0.01948982   -0.00507961    0.01566089
     atom   42 type  5   force =     0.03242787   -0.02178429   -0.02624636
     atom   43 type  5   force =    -0.00195610    0.00271951    0.00986295
     atom   44 type  5   force =    -0.00504692    0.02344375   -0.01051518

     Total force =     0.149500     Total SCF correction =     0.000625


     Computing stress (Cartesian axis) and pressure


     negative rho (up, down):  5.200E-08 0.000E+00
          total   stress  (Ry/bohr**3)                   (kbar)     P=   -2.72
   0.00001009   0.00000744   0.00003153          1.48      1.09      4.64
   0.00000744  -0.00000233  -0.00002009          1.09     -0.34     -2.95
   0.00003153  -0.00002009  -0.00006316          4.64     -2.95     -9.29


     number of scf cycles    =  39
     number of bfgs steps    =  37

     enthalpy old            =    -288.0239700659 Ry
     enthalpy new            =    -288.0659220457 Ry

     CASE: enthalpy_new < enthalpy_old

     new trust radius        =       0.1480129273 bohr
     new conv_thr            =       0.0000004386 Ry

     new unit-cell volume =   4298.97193 a.u.^3 (   637.04191 Ang^3 )
     density =      0.98379 g/cm^3

CELL_PARAMETERS (angstrom)
   7.564507222  -0.402102412   1.751656195
  -0.250446295  11.153347155   0.765955804
   1.849497999   0.779893972   8.052864226

ATOMIC_POSITIONS (angstrom)
K        5.836401789   6.501057481   3.179751838
K        4.975653281   1.278909770   7.440616467
Ba       6.583687860   8.338525295   7.514016441
Al       3.450688989   4.118375314   5.229272904
Al       1.806337448  10.043726867   6.480655414
B        1.548569206   9.209854631   3.339849536
B        5.163594122   5.874897079   8.032257706
B        7.719239950  10.942206022   8.252335681
B        4.226535073   7.217457443   6.373998119
B        6.344476034   2.050126344   4.000627978
B        5.178139711   3.335621815   4.055320984
B        3.708630096   8.483803542   1.834774475
H        7.201568537   4.946075819   6.232733186
H        2.721379021   8.594123641   2.848122299
H        1.359368557   8.629944146   7.252726541
H        6.739380219  10.996031503   7.519339042
H        1.569057462   4.098624129   3.299012247
H        4.678347873   2.797480736   5.074650049
H        8.190204443   8.105856214   4.713042300
H        4.122501706   8.221101955   7.047998512
H        6.372005558   5.674289208   7.994340600
H        8.187050327   0.770131109   8.135556355
H        4.870759066   7.430297953   5.376863198
H        7.203743412   2.818336677   8.339738264
H        7.932488281   4.936271911   6.407416073
H        1.685816744   9.017646105   4.575457904
H        5.003746616   9.719993721   8.847899909
H        1.359743116   4.502455289   2.690778470
H        3.207710416   6.579496503   6.174480268
H        1.566606438  10.359084979   3.020044564
H        5.560800471   1.158893864   3.633660571
H        2.942664229   2.400962541   1.597453868
H        5.096557531   6.317849154   6.778706246
H        2.217199977   2.214626571   1.664377129
H        4.472025135  -0.067231576   2.104479679
H        6.805549495   3.261873238   7.880910941
H        3.326085062  10.384314385   6.786212079
H        7.434417737   1.925893581   3.493635093
H        6.438845863   1.922273965   5.225403591
H        4.859190656   6.760638676   8.811619453
H        4.183734609   3.629544967   3.318525516
H        5.008603824   4.699011246   4.804265099
H        4.492021168   4.883620042   7.946181864
H        4.342106869   0.603168840   1.753146888



     Writing output data file 00_K2BaAl2B7H32_Monster.save
     NEW-OLD atomic charge density approx. for the potential

     negative rho (up, down):  4.054E-07 0.000E+00
     extrapolated charge   70.04988, renormalised to   71.00000

     total cpu time spent up to now is    48393.8 secs

     Self-consistent Calculation

     iteration #  1     ecut=    50.00 Ry     beta=0.70
     Davidson diagonalization with overlap
     ethr =  1.00E-06,  avg # of iterations = 15.6

     negative rho (up, down):  2.853E-07 0.000E+00

     total cpu time spent up to now is    48451.2 secs

     total energy              =    -287.94744431 Ry
     Harris-Foulkes estimate   =    -289.03169708 Ry
     estimated scf accuracy    <       0.17084315 Ry

     iteration #  2     ecut=    50.00 Ry     beta=0.70
     Davidson diagonalization with overlap
     ethr =  2.41E-04,  avg # of iterations =  6.2

     negative rho (up, down):  4.937E-08 0.000E+00

     total cpu time spent up to now is    48486.3 secs

     total energy              =    -287.93397349 Ry
     Harris-Foulkes estimate   =    -288.29405819 Ry
     estimated scf accuracy    <       1.17095731 Ry

     iteration #  3     ecut=    50.00 Ry     beta=0.70
     Davidson diagonalization with overlap
     ethr =  2.41E-04,  avg # of iterations =  5.8

     negative rho (up, down):  9.067E-08 0.000E+00

     total cpu time spent up to now is    48517.2 secs

     total energy              =    -288.09890176 Ry
     Harris-Foulkes estimate   =    -288.10785979 Ry
     estimated scf accuracy    <       0.03620769 Ry

     iteration #  4     ecut=    50.00 Ry     beta=0.70
     Davidson diagonalization with overlap
     ethr =  5.10E-05,  avg # of iterations =  2.4

     negative rho (up, down):  1.093E-07 0.000E+00

     total cpu time spent up to now is    48540.1 secs

     total energy              =    -288.09821216 Ry
     Harris-Foulkes estimate   =    -288.10142976 Ry
     estimated scf accuracy    <       0.01533356 Ry

     iteration #  5     ecut=    50.00 Ry     beta=0.70
     Davidson diagonalization with overlap
     ethr =  2.16E-05,  avg # of iterations =  3.5

     negative rho (up, down):  1.972E-07 0.000E+00

     total cpu time spent up to now is    48563.8 secs

     total energy              =    -288.09623745 Ry
     Harris-Foulkes estimate   =    -288.09924332 Ry
     estimated scf accuracy    <       0.01103091 Ry

     iteration #  6     ecut=    50.00 Ry     beta=0.70
     Davidson diagonalization with overlap
     ethr =  1.55E-05,  avg # of iterations =  3.8

     negative rho (up, down):  2.142E-07 0.000E+00

     total cpu time spent up to now is    48587.6 secs

     total energy              =    -288.09606331 Ry
     Harris-Foulkes estimate   =    -288.09703919 Ry
     estimated scf accuracy    <       0.00357047 Ry

     iteration #  7     ecut=    50.00 Ry     beta=0.70
     Davidson diagonalization with overlap
     ethr =  5.03E-06,  avg # of iterations =  5.1

     negative rho (up, down):  1.964E-07 0.000E+00

     total cpu time spent up to now is    48613.4 secs

     total energy              =    -288.09540693 Ry
     Harris-Foulkes estimate   =    -288.09613778 Ry
     estimated scf accuracy    <       0.00255122 Ry

     iteration #  8     ecut=    50.00 Ry     beta=0.70
     Davidson diagonalization with overlap
     ethr =  3.59E-06,  avg # of iterations =  4.0

     negative rho (up, down):  1.515E-07 0.000E+00

     total cpu time spent up to now is    48637.1 secs

     total energy              =    -288.09447739 Ry
     Harris-Foulkes estimate   =    -288.09539035 Ry
     estimated scf accuracy    <       0.00174693 Ry

     iteration #  9     ecut=    50.00 Ry     beta=0.70
     Davidson diagonalization with overlap
     ethr =  2.46E-06,  avg # of iterations =  6.8

     negative rho (up, down):  1.564E-07 0.000E+00

     total cpu time spent up to now is    48666.9 secs

     total energy              =    -288.09449539 Ry
     Harris-Foulkes estimate   =    -288.09579596 Ry
     estimated scf accuracy    <       0.01046434 Ry

     iteration # 10     ecut=    50.00 Ry     beta=0.70
     Davidson diagonalization with overlap
     ethr =  2.46E-06,  avg # of iterations =  4.8

     negative rho (up, down):  1.150E-07 0.000E+00

     total cpu time spent up to now is    48690.6 secs

     total energy              =    -288.09505819 Ry
     Harris-Foulkes estimate   =    -288.09506253 Ry
     estimated scf accuracy    <       0.00022030 Ry

     iteration # 11     ecut=    50.00 Ry     beta=0.70
     Davidson diagonalization with overlap
     ethr =  3.10E-07,  avg # of iterations =  2.0

     negative rho (up, down):  1.086E-07 0.000E+00

     total cpu time spent up to now is    48712.5 secs

     total energy              =    -288.09505758 Ry
     Harris-Foulkes estimate   =    -288.09506622 Ry
     estimated scf accuracy    <       0.00015292 Ry

     iteration # 12     ecut=    50.00 Ry     beta=0.70
     Davidson diagonalization with overlap
     ethr =  2.15E-07,  avg # of iterations =  1.0

     negative rho (up, down):  1.079E-07 0.000E+00

     total cpu time spent up to now is    48735.2 secs

     total energy              =    -288.09504843 Ry
     Harris-Foulkes estimate   =    -288.09506007 Ry
     estimated scf accuracy    <       0.00006981 Ry

     iteration # 13     ecut=    50.00 Ry     beta=0.70
     Davidson diagonalization with overlap
     ethr =  9.83E-08,  avg # of iterations =  1.6

     negative rho (up, down):  1.083E-07 0.000E+00

     total cpu time spent up to now is    48757.0 secs

     total energy              =    -288.09505397 Ry
     Harris-Foulkes estimate   =    -288.09505400 Ry
     estimated scf accuracy    <       0.00000072 Ry

     iteration # 14     ecut=    50.00 Ry     beta=0.70
     Davidson diagonalization with overlap
     ethr =  1.02E-09,  avg # of iterations =  4.1

     negative rho (up, down):  1.088E-07 0.000E+00

     total cpu time spent up to now is    48784.5 secs

     End of self-consistent calculation

          k = 0.0000 0.0000 0.0000 ( 21247 PWs)   bands (ev):

   -28.1683 -13.9665 -13.6724 -13.5310 -10.8128 -10.0801 -10.0456  -8.4102
    -8.3502  -7.8683  -7.2866  -7.0521  -6.8179  -6.6189  -6.4707  -6.1661
    -5.7167  -5.4196  -5.2366  -4.9908  -4.9104  -4.7511  -4.6107  -4.5669
    -4.4353  -4.1693  -4.0049  -3.9361  -3.8192  -2.5466  -2.3573  -1.9047
    -1.5488  -1.5087  -0.4890  -0.3416   0.9554   1.6509   2.0336   2.2008
     2.5471   2.6836   2.9155

          k = 0.1259 0.0395-0.5346 ( 21362 PWs)   bands (ev):

   -28.1683 -13.9668 -13.6773 -13.5322 -10.7941 -10.0755  -9.9749  -8.5081
    -8.3881  -7.9088  -7.2965  -7.1066  -6.9578  -6.5899  -6.2559  -6.2333
    -5.6206  -5.5046  -5.1176  -4.9670  -4.8495  -4.6948  -4.6080  -4.5648
    -4.4848  -4.1547  -4.0265  -3.9502  -3.8295  -2.5192  -2.3286  -1.9072
    -1.5696  -1.5132  -0.4836  -0.1491   1.0139   1.2678   1.7574   1.9828
     2.4909   2.6034   2.8028

          k = 0.0967-0.3263-0.4924 ( 21216 PWs)   bands (ev):

   -28.1683 -13.9668 -13.6773 -13.5322 -10.7919 -10.0792  -9.9730  -8.5260
    -8.3680  -7.9163  -7.2765  -7.1125  -6.9876  -6.5526  -6.2602  -6.2313
    -5.6202  -5.5188  -5.1178  -4.9675  -4.8481  -4.6983  -4.6192  -4.5743
    -4.4479  -4.1618  -4.0336  -3.9564  -3.8208  -2.5147  -2.3275  -1.9174
    -1.5519  -1.5239  -0.4857  -0.1509   1.0156   1.2533   1.6764   2.0990
     2.5023   2.6431   2.8186

          k =-0.4693-0.3481-0.3603 ( 21368 PWs)   bands (ev):

   -28.1683 -13.9712 -13.6734 -13.5326 -10.7734 -10.0864 -10.0506  -8.4004
    -8.3498  -7.9102  -7.2767  -7.1309  -6.8471  -6.5361  -6.3969  -6.1508
    -5.7774  -5.5418  -5.2877  -4.9631  -4.8589  -4.7181  -4.6279  -4.5460
    -4.4313  -4.2192  -3.9776  -3.9349  -3.6553  -2.5082  -2.3488  -1.9548
    -1.6029  -1.4744  -0.5676  -0.3341   0.9527   1.5456   1.9698   2.1533
     2.3550   2.6103   2.8146

          k =-0.5660-0.0218 0.1321 ( 21362 PWs)   bands (ev):

   -28.1683 -13.9711 -13.6780 -13.5325 -10.7757 -10.0654  -9.9810  -8.5331
    -8.3174  -7.9176  -7.2946  -7.1743  -6.9757  -6.5498  -6.2579  -6.1805
    -5.6715  -5.5837  -5.1407  -4.9998  -4.8644  -4.7237  -4.6137  -4.5725
    -4.4539  -4.2223  -4.0495  -3.8830  -3.6786  -2.4880  -2.3127  -1.9350
    -1.5624  -1.4824  -0.5389  -0.1441   1.0709   1.4976   1.7766   2.1274
     2.4235   2.6603   2.7220

          k =-0.0292-0.3659 0.0421 ( 21362 PWs)   bands (ev):

   -28.1683 -13.9665 -13.6725 -13.5310 -10.8093 -10.0995 -10.0314  -8.4153
    -8.3412  -7.8710  -7.3062  -7.0525  -6.8050  -6.5589  -6.5104  -6.1801
    -5.7011  -5.4243  -5.2500  -4.9901  -4.9117  -4.7434  -4.6270  -4.5626
    -4.4275  -4.1731  -4.0080  -3.9456  -3.8116  -2.5463  -2.3533  -1.9015
    -1.5468  -1.5100  -0.4913  -0.3553   0.9679   1.7143   2.0031   2.1551
     2.5864   2.6498   2.8944

          k =-0.6919-0.0613 0.6667 ( 21216 PWs)   bands (ev):

   -28.1683 -13.9711 -13.6734 -13.5326 -10.7749 -10.0882 -10.0466  -8.4506
    -8.2767  -7.9137  -7.3087  -7.1438  -6.8527  -6.5189  -6.3837  -6.1240
    -5.7797  -5.5810  -5.2660  -4.9377  -4.8625  -4.7117  -4.6598  -4.5416
    -4.4360  -4.2251  -3.9695  -3.9022  -3.6992  -2.5048  -2.3425  -1.9398
    -1.6134  -1.4662  -0.5450  -0.3597   0.9588   1.5510   2.0317   2.0755
     2.4473   2.5408   2.8241

          k =-0.5368 0.3441 0.0900 ( 21216 PWs)   bands (ev):

   -28.1683 -13.9711 -13.6780 -13.5325 -10.7739 -10.0657  -9.9829  -8.5044
    -8.3570  -7.9211  -7.2752  -7.1524  -6.9815  -6.5794  -6.2525  -6.1761
    -5.6680  -5.5825  -5.1394  -5.0169  -4.8604  -4.6954  -4.6504  -4.5631
    -4.4528  -4.2134  -4.0502  -3.9132  -3.6373  -2.4866  -2.3170  -1.9398
    -1.5574  -1.4840  -0.5695  -0.1185   1.0586   1.4990   1.7223   2.1263
     2.3730   2.6011   2.7850

     the Fermi energy is    -0.2520 ev

!    total energy              =    -288.09505419 Ry
     Harris-Foulkes estimate   =    -288.09505437 Ry
     estimated scf accuracy    <       0.00000023 Ry

     The total energy is the sum of the following terms:

     one-electron contribution =    -103.87275609 Ry
     hartree contribution      =      67.85822316 Ry
     xc contribution           =     -97.43877229 Ry
     ewald contribution        =     -48.71692822 Ry
     one-center paw contrib.   =    -105.92322847 Ry
     smearing contrib. (-TS)   =      -0.00159229 Ry

     convergence has been achieved in  14 iterations

     negative rho (up, down):  1.088E-07 0.000E+00

     Forces acting on atoms (cartesian axes, Ry/au):

     atom    1 type  1   force =     0.00312066   -0.00321883   -0.00364938
     atom    2 type  1   force =    -0.00223088    0.00428825   -0.00383482
     atom    3 type  2   force =     0.01051249    0.00504918   -0.00340994
     atom    4 type  3   force =    -0.02504463   -0.01147707   -0.00801585
     atom    5 type  3   force =    -0.01346377   -0.00475878    0.01161458
     atom    6 type  4   force =     0.01217908   -0.00958167   -0.00347038
     atom    7 type  4   force =    -0.00326408    0.00608418   -0.00573009
     atom    8 type  4   force =    -0.00798849   -0.00994068   -0.00413260
     atom    9 type  4   force =    -0.02274829   -0.01552751    0.00205068
     atom   10 type  4   force =    -0.00719977    0.00321575    0.01360109
     atom   11 type  4   force =    -0.02246280    0.02049464    0.02259174
     atom   12 type  4   force =    -0.00756030    0.00788005   -0.00345886
     atom   13 type  5   force =     0.00059588    0.00130440   -0.00291413
     atom   14 type  5   force =     0.00370038    0.00086251    0.00143275
     atom   15 type  5   force =     0.00112601   -0.00154507   -0.01597584
     atom   16 type  5   force =     0.00875964   -0.00376973    0.00337477
     atom   17 type  5   force =    -0.00077084    0.00601688   -0.00864967
     atom   18 type  5   force =    -0.02611894    0.00382369    0.00466254
     atom   19 type  5   force =    -0.00016773    0.00003452   -0.00355444
     atom   20 type  5   force =    -0.00018522   -0.00818373    0.00158730
     atom   21 type  5   force =    -0.00511439    0.00545771    0.00299656
     atom   22 type  5   force =    -0.00151614    0.00780075    0.00208828
     atom   23 type  5   force =     0.00874772    0.00901639   -0.01390346
     atom   24 type  5   force =     0.00082666   -0.00061335    0.00106739
     atom   25 type  5   force =     0.00343644    0.00150307   -0.00165732
     atom   26 type  5   force =     0.01448541    0.00055313    0.00566508
     atom   27 type  5   force =    -0.01030368   -0.00165332    0.01621580
     atom   28 type  5   force =     0.00173907   -0.00577371    0.00033338
     atom   29 type  5   force =     0.00838468    0.01431368    0.00103802
     atom   30 type  5   force =    -0.00319262    0.00828896   -0.00209722
     atom   31 type  5   force =     0.00630681    0.00664028    0.00195924
     atom   32 type  5   force =     0.00191259   -0.00133538    0.00025587
     atom   33 type  5   force =     0.00492826   -0.00099254    0.00148242
     atom   34 type  5   force =    -0.00494260   -0.00215044   -0.00028885
     atom   35 type  5   force =    -0.00545856    0.01524330   -0.01436551
     atom   36 type  5   force =     0.00092962    0.00302520    0.00050758
     atom   37 type  5   force =     0.00898336    0.00815477   -0.00233132
     atom   38 type  5   force =     0.00544894    0.00924628   -0.01352780
     atom   39 type  5   force =     0.02144052   -0.01250571    0.00619629
     atom   40 type  5   force =    -0.00313423   -0.00645925    0.00565477
     atom   41 type  5   force =     0.00470298   -0.00389174    0.00680347
     atom   42 type  5   force =     0.04035192   -0.02578669   -0.02134203
     atom   43 type  5   force =    -0.00319335   -0.00132580    0.00897853
     atom   44 type  5   force =     0.00344218   -0.01780657    0.01415139

     Total force =     0.112047     Total SCF correction =     0.000534


     Computing stress (Cartesian axis) and pressure


     negative rho (up, down):  1.088E-07 0.000E+00
          total   stress  (Ry/bohr**3)                   (kbar)     P=   -1.78
   0.00003387   0.00001322   0.00002640          4.98      1.95      3.88
   0.00001322  -0.00004019  -0.00000449          1.95     -5.91     -0.66
   0.00002640  -0.00000449  -0.00002988          3.88     -0.66     -4.40


     number of scf cycles    =  40
     number of bfgs steps    =  38

     enthalpy old            =    -288.0659220457 Ry
     enthalpy new            =    -288.0950541885 Ry

     CASE: enthalpy_new < enthalpy_old

     new trust radius        =       0.3286562974 bohr
     new conv_thr            =       0.0000004035 Ry

     new unit-cell volume =   4231.05229 a.u.^3 (   626.97725 Ang^3 )
     density =      0.99958 g/cm^3

CELL_PARAMETERS (angstrom)
   7.554040031  -0.393188481   1.839781365
  -0.247819594  11.180828465   0.779991642
   1.911310587   0.781592274   7.963696080

ATOMIC_POSITIONS (angstrom)
K        5.858612581   6.535036386   3.216049397
K        5.013498281   1.301639334   7.404469636
Ba       6.613618745   8.377860916   7.523116132
Al       3.389113172   4.130674335   5.174451057
Al       1.843108368  10.063684289   6.451930469
B        1.575334418   9.214306150   3.360997585
B        5.206589482   5.895315599   8.003162747
B        7.761006967  10.976230124   8.281562160
B        4.262916476   7.246322975   6.363782176
B        6.382462820   2.052848551   4.050847783
B        5.230599900   3.413860845   4.195413204
B        3.695816907   8.618798593   1.902064304
H        7.234514825   4.999177171   6.268315832
H        2.782512415   8.640877214   2.955762676
H        1.354911161   8.632537639   7.149412136
H        6.784453849  11.069809226   7.561050719
H        1.586687112   4.124705795   3.275465640
H        4.594421308   2.794737063   5.119930145
H        8.208925210   8.115431839   4.783865298
H        4.159212423   8.253462983   7.024393031
H        6.428684108   5.720558669   8.001510753
H        8.216973266   0.802301618   8.132679014
H        4.913196241   7.443775260   5.375504181
H        7.273436793   2.830552985   8.347794962
H        7.967730189   4.988067604   6.455386774
H        1.741539451   9.034733310   4.518607406
H        5.001111098   9.749562132   8.807791121
H        1.374502381   4.514036927   2.660663619
H        3.259473970   6.601116224   6.159753966
H        1.592555306  10.381729673   2.992677857
H        5.560554904   1.209495938   3.650725615
H        2.937060578   2.363029897   1.610864303
H        5.148272975   6.337217115   6.775290999
H        2.197102106   2.203085630   1.657365397
H        4.462692142  -0.104124909   2.114204799
H        6.870454051   3.275859928   7.892501985
H        3.353373588  10.435775667   6.760351618
H        7.448952684   1.942260649   3.517162266
H        6.512414318   1.892042079   5.263218829
H        4.900718297   6.769549221   8.772325336
H        4.275527083   3.586406541   3.373508299
H        5.040586644   4.581858101   4.712719570
H        4.523818943   4.906414878   7.930991051
H        4.362884531   0.589423863   1.823118459



     Writing output data file 00_K2BaAl2B7H32_Monster.save
     NEW-OLD atomic charge density approx. for the potential

     negative rho (up, down):  6.829E-07 0.000E+00
     extrapolated charge   69.86122, renormalised to   71.00000

     total cpu time spent up to now is    49611.4 secs

     Self-consistent Calculation

     iteration #  1     ecut=    50.00 Ry     beta=0.70
     Davidson diagonalization with overlap
     ethr =  1.00E-06,  avg # of iterations = 14.4

     negative rho (up, down):  4.171E-07 0.000E+00

     total cpu time spent up to now is    49671.6 secs

     total energy              =    -287.98731452 Ry
     Harris-Foulkes estimate   =    -289.23892502 Ry
     estimated scf accuracy    <       0.16694468 Ry

     iteration #  2     ecut=    50.00 Ry     beta=0.70
     Davidson diagonalization with overlap
     ethr =  2.35E-04,  avg # of iterations =  6.2

     negative rho (up, down):  2.851E-07 0.000E+00

     total cpu time spent up to now is    49707.3 secs

     total energy              =    -287.99727376 Ry
     Harris-Foulkes estimate   =    -288.26509387 Ry
     estimated scf accuracy    <       0.78976499 Ry

     iteration #  3     ecut=    50.00 Ry     beta=0.70
     Davidson diagonalization with overlap
     ethr =  2.35E-04,  avg # of iterations =  5.6

     negative rho (up, down):  3.719E-07 0.000E+00

     total cpu time spent up to now is    49738.2 secs

     total energy              =    -288.12160173 Ry
     Harris-Foulkes estimate   =    -288.13194265 Ry
     estimated scf accuracy    <       0.02959955 Ry

     iteration #  4     ecut=    50.00 Ry     beta=0.70
     Davidson diagonalization with overlap
     ethr =  4.17E-05,  avg # of iterations =  3.1

     negative rho (up, down):  3.763E-07 0.000E+00

     total cpu time spent up to now is    49763.5 secs

     total energy              =    -288.12152176 Ry
     Harris-Foulkes estimate   =    -288.12662872 Ry
     estimated scf accuracy    <       0.01829048 Ry

     iteration #  5     ecut=    50.00 Ry     beta=0.70
     Davidson diagonalization with overlap
     ethr =  2.58E-05,  avg # of iterations =  2.6

     negative rho (up, down):  3.423E-07 0.000E+00

     total cpu time spent up to now is    49786.3 secs

     total energy              =    -288.12213128 Ry
     Harris-Foulkes estimate   =    -288.12424089 Ry
     estimated scf accuracy    <       0.00584745 Ry

     iteration #  6     ecut=    50.00 Ry     beta=0.70
     Davidson diagonalization with overlap
     ethr =  8.24E-06,  avg # of iterations =  4.9

     negative rho (up, down):  3.167E-07 0.000E+00

     total cpu time spent up to now is    49813.5 secs

     total energy              =    -288.12205030 Ry
     Harris-Foulkes estimate   =    -288.12266697 Ry
     estimated scf accuracy    <       0.00194638 Ry

     iteration #  7     ecut=    50.00 Ry     beta=0.70
     Davidson diagonalization with overlap
     ethr =  2.74E-06,  avg # of iterations =  5.4

     negative rho (up, down):  3.949E-06 0.000E+00

     total cpu time spent up to now is    49839.0 secs

     total energy              =    -288.12159290 Ry
     Harris-Foulkes estimate   =    -288.12209197 Ry
     estimated scf accuracy    <       0.00120306 Ry

     iteration #  8     ecut=    50.00 Ry     beta=0.70
     Davidson diagonalization with overlap
     ethr =  1.69E-06,  avg # of iterations =  5.2

     negative rho (up, down):  2.504E-06 0.000E+00

     total cpu time spent up to now is    49866.3 secs

     total energy              =    -288.12166211 Ry
     Harris-Foulkes estimate   =    -288.12192102 Ry
     estimated scf accuracy    <       0.00081853 Ry

     iteration #  9     ecut=    50.00 Ry     beta=0.70
     Davidson diagonalization with overlap
     ethr =  1.15E-06,  avg # of iterations =  2.0

     negative rho (up, down):  3.651E-06 0.000E+00

     total cpu time spent up to now is    49888.8 secs

     total energy              =    -288.12180606 Ry
     Harris-Foulkes estimate   =    -288.12186497 Ry
     estimated scf accuracy    <       0.00022260 Ry

     iteration # 10     ecut=    50.00 Ry     beta=0.70
     Davidson diagonalization with overlap
     ethr =  3.14E-07,  avg # of iterations =  1.0

     negative rho (up, down):  3.699E-06 0.000E+00

     total cpu time spent up to now is    49910.2 secs

     total energy              =    -288.12183200 Ry
     Harris-Foulkes estimate   =    -288.12183273 Ry
     estimated scf accuracy    <       0.00000342 Ry

     iteration # 11     ecut=    50.00 Ry     beta=0.70
     Davidson diagonalization with overlap
     ethr =  4.81E-09,  avg # of iterations =  3.5

     negative rho (up, down):  3.903E-06 0.000E+00

     total cpu time spent up to now is    49937.8 secs

     total energy              =    -288.12183205 Ry
     Harris-Foulkes estimate   =    -288.12183382 Ry
     estimated scf accuracy    <       0.00000561 Ry

     iteration # 12     ecut=    50.00 Ry     beta=0.70
     Davidson diagonalization with overlap
     ethr =  4.81E-09,  avg # of iterations =  2.0

     negative rho (up, down):  3.846E-06 0.000E+00

     total cpu time spent up to now is    49960.4 secs

     total energy              =    -288.12183291 Ry
     Harris-Foulkes estimate   =    -288.12183328 Ry
     estimated scf accuracy    <       0.00000108 Ry

     iteration # 13     ecut=    50.00 Ry     beta=0.70
     Davidson diagonalization with overlap
     ethr =  1.53E-09,  avg # of iterations =  2.0

     negative rho (up, down):  3.938E-06 0.000E+00

     total cpu time spent up to now is    49983.1 secs

     End of self-consistent calculation

          k = 0.0000 0.0000 0.0000 ( 21247 PWs)   bands (ev):

   -28.1040 -13.9090 -13.6108 -13.4743 -10.8311 -10.2484 -10.1909  -8.4010
    -8.2746  -7.8052  -7.2130  -6.9298  -6.7001  -6.5716  -6.3762  -6.0845
    -5.6851  -5.4448  -5.2706  -4.9999  -4.9544  -4.6330  -4.5325  -4.4988
    -4.2534  -4.1163  -4.0264  -3.9475  -3.7712  -2.5200  -2.3679  -1.6541
    -1.4325  -1.4125  -0.3969  -0.2627   1.0107   1.7561   2.1986   2.3359
     2.5719   2.6907   2.9159

          k = 0.1346 0.0409-0.5438 ( 21362 PWs)   bands (ev):

   -28.1040 -13.9094 -13.6174 -13.4760 -10.8059 -10.2416 -10.1254  -8.4489
    -8.3853  -7.8211  -7.1964  -7.0731  -6.7894  -6.5858  -6.1679  -6.1165
    -5.5636  -5.5025  -5.2004  -4.9567  -4.9058  -4.5724  -4.5080  -4.4950
    -4.3282  -4.1099  -3.9914  -3.9716  -3.8231  -2.4897  -2.3151  -1.6656
    -1.4957  -1.4190  -0.3778  -0.0349   1.0990   1.4063   1.9679   2.1643
     2.5193   2.6847   2.7709

          k = 0.1051-0.3242-0.5009 ( 21216 PWs)   bands (ev):

   -28.1040 -13.9094 -13.6174 -13.4760 -10.8037 -10.2448 -10.1238  -8.4743
    -8.3572  -7.8293  -7.1811  -7.0774  -6.8360  -6.5222  -6.1889  -6.1019
    -5.5648  -5.5181  -5.2009  -4.9566  -4.9017  -4.5940  -4.5119  -4.4935
    -4.2994  -4.1173  -3.9683  -3.9562  -3.8612  -2.4824  -2.3183  -1.6796
    -1.4685  -1.4349  -0.3765  -0.0356   1.1011   1.3804   1.9092   2.2786
     2.5179   2.6834   2.7806

          k =-0.4649-0.3465-0.3619 ( 21368 PWs)   bands (ev):

   -28.1040 -13.9143 -13.6118 -13.4759 -10.7852 -10.2532 -10.2056  -8.3915
    -8.2697  -7.8492  -7.1906  -6.9938  -6.7636  -6.4890  -6.3096  -6.0693
    -5.7730  -5.5109  -5.3206  -4.9905  -4.9153  -4.5665  -4.5455  -4.5071
    -4.2866  -4.1554  -3.9263  -3.8783  -3.7133  -2.4795  -2.3756  -1.7128
    -1.5226  -1.3037  -0.5175  -0.2475   0.9987   1.6868   2.1206   2.2405
     2.4355   2.6984   2.8921

          k =-0.5700-0.0223 0.1390 ( 21362 PWs)   bands (ev):

   -28.1040 -13.9141 -13.6182 -13.4760 -10.7860 -10.2308 -10.1350  -8.4862
    -8.3002  -7.8313  -7.2136  -7.0853  -6.8549  -6.5273  -6.1445  -6.1051
    -5.6701  -5.5358  -5.2656  -5.0001  -4.8353  -4.6084  -4.5077  -4.4826
    -4.2935  -4.2216  -3.9807  -3.8349  -3.7497  -2.4596  -2.3261  -1.6878
    -1.5264  -1.3374  -0.4800  -0.0269   1.1748   1.7082   1.9142   2.2641
     2.5075   2.6767   2.7383

          k =-0.0295-0.3651 0.0429 ( 21362 PWs)   bands (ev):

   -28.1040 -13.9090 -13.6109 -13.4743 -10.8274 -10.2630 -10.1814  -8.4011
    -8.2716  -7.8082  -7.2348  -6.9271  -6.6817  -6.5164  -6.4216  -6.0973
    -5.6684  -5.4334  -5.2959  -5.0027  -4.9559  -4.6330  -4.5373  -4.4852
    -4.2608  -4.1210  -4.0162  -3.9425  -3.7894  -2.5198  -2.3604  -1.6516
    -1.4337  -1.4084  -0.4143  -0.2630   1.0236   1.8281   2.1541   2.2844
     2.6354   2.6500   2.8715

          k =-0.7046-0.0632 0.6828 ( 21216 PWs)   bands (ev):

   -28.1039 -13.9142 -13.6118 -13.4759 -10.7866 -10.2538 -10.2030  -8.4233
    -8.2158  -7.8541  -7.2189  -7.0088  -6.7701  -6.4596  -6.3079  -6.0419
    -5.7717  -5.5615  -5.2944  -4.9720  -4.9164  -4.5745  -4.5428  -4.5192
    -4.2756  -4.1672  -3.8957  -3.8786  -3.7487  -2.4822  -2.3636  -1.6971
    -1.5343  -1.2968  -0.5089  -0.2594   0.9989   1.6940   2.1690   2.2034
     2.5286   2.6667   2.7918

          k =-0.5405 0.3428 0.0961 ( 21216 PWs)   bands (ev):

   -28.1040 -13.9141 -13.6182 -13.4760 -10.7844 -10.2305 -10.1369  -8.4520
    -8.3441  -7.8366  -7.1923  -7.0619  -6.8605  -6.5615  -6.1362  -6.1024
    -5.6671  -5.5335  -5.2605  -5.0161  -4.8336  -4.5942  -4.5380  -4.4785
    -4.2917  -4.2073  -3.9697  -3.8651  -3.7173  -2.4572  -2.3340  -1.6889
    -1.5221  -1.3388  -0.5085  -0.0024   1.1618   1.6979   1.8751   2.2448
     2.4448   2.6588   2.7928

     the Fermi energy is    -0.1509 ev

!    total energy              =    -288.12183292 Ry
     Harris-Foulkes estimate   =    -288.12183320 Ry
     estimated scf accuracy    <       0.00000032 Ry

     The total energy is the sum of the following terms:

     one-electron contribution =    -102.45638645 Ry
     hartree contribution      =      67.33269431 Ry
     xc contribution           =     -97.54362054 Ry
     ewald contribution        =     -49.53712372 Ry
     one-center paw contrib.   =    -105.91637531 Ry
     smearing contrib. (-TS)   =      -0.00102122 Ry

     convergence has been achieved in  13 iterations

     negative rho (up, down):  3.938E-06 0.000E+00

     Forces acting on atoms (cartesian axes, Ry/au):

     atom    1 type  1   force =     0.00196558   -0.00550180   -0.00240778
     atom    2 type  1   force =    -0.00137582    0.00479407   -0.00329020
     atom    3 type  2   force =     0.01086690    0.00873222   -0.00421825
     atom    4 type  3   force =    -0.01943197   -0.00925834   -0.01108028
     atom    5 type  3   force =    -0.01601152    0.00071801    0.00962173
     atom    6 type  4   force =     0.00014319    0.02288689   -0.06453895
     atom    7 type  4   force =     0.00221591   -0.00219044    0.00012354
     atom    8 type  4   force =    -0.01110791   -0.00026880    0.00647747
     atom    9 type  4   force =    -0.01465169   -0.02207585    0.00455384
     atom   10 type  4   force =    -0.03339828    0.01374424    0.01828402
     atom   11 type  4   force =    -0.02559604   -0.02483234   -0.00379658
     atom   12 type  4   force =    -0.00506111    0.00092541   -0.01048429
     atom   13 type  5   force =     0.00809241    0.00085199   -0.00171803
     atom   14 type  5   force =     0.00616553   -0.00299934   -0.00589655
     atom   15 type  5   force =     0.00502274   -0.00218369   -0.01436694
     atom   16 type  5   force =     0.00539693   -0.00885840   -0.00265297
     atom   17 type  5   force =    -0.00044674    0.00458425   -0.00778782
     atom   18 type  5   force =    -0.00953981    0.00524438    0.00104387
     atom   19 type  5   force =     0.00843407    0.00382319    0.00156148
     atom   20 type  5   force =    -0.00079004   -0.00608766    0.00408721
     atom   21 type  5   force =    -0.01300711    0.00312252    0.00107734
     atom   22 type  5   force =     0.00170223   -0.00047887   -0.00110223
     atom   23 type  5   force =     0.01094032    0.01084993   -0.01792001
     atom   24 type  5   force =    -0.00043952    0.00059860    0.00004202
     atom   25 type  5   force =    -0.00273243    0.00150593   -0.00408787
     atom   26 type  5   force =     0.01728277   -0.00716174    0.05535903
     atom   27 type  5   force =    -0.00833550   -0.00086590    0.02279063
     atom   28 type  5   force =     0.00073195   -0.00509555   -0.00196710
     atom   29 type  5   force =     0.00279683    0.01152307    0.00086474
     atom   30 type  5   force =    -0.00543156   -0.01481525    0.00826659
     atom   31 type  5   force =     0.01269525    0.00466488    0.00422016
     atom   32 type  5   force =    -0.00575787   -0.00283851    0.00135280
     atom   33 type  5   force =     0.00151836    0.00522461   -0.00862287
     atom   34 type  5   force =     0.00282005   -0.00021186   -0.00035652
     atom   35 type  5   force =    -0.00329796    0.00449094   -0.00822286
     atom   36 type  5   force =     0.00168447    0.00203446    0.00142919
     atom   37 type  5   force =     0.00920146    0.00484128   -0.00127004
     atom   38 type  5   force =     0.01451322    0.01050442   -0.01645457
     atom   39 type  5   force =     0.01808666   -0.01332583    0.00933598
     atom   40 type  5   force =    -0.00804482    0.00246570    0.01430601
     atom   41 type  5   force =    -0.00562769   -0.00609547   -0.00038533
     atom   42 type  5   force =     0.04517618    0.01294202    0.01144777
     atom   43 type  5   force =     0.00184204    0.00053798    0.00790235
     atom   44 type  5   force =     0.00079035   -0.00646535    0.00848024

     Total force =     0.143534     Total SCF correction =     0.000578


     Computing stress (Cartesian axis) and pressure


     negative rho (up, down):  3.938E-06 0.000E+00
          total   stress  (Ry/bohr**3)                   (kbar)     P=    0.41
   0.00002000   0.00000409   0.00002783          2.94      0.60      4.09
   0.00000409  -0.00003704   0.00001075          0.60     -5.45      1.58
   0.00002783   0.00001075   0.00002549          4.09      1.58      3.75


     number of scf cycles    =  41
     number of bfgs steps    =  39

     enthalpy old            =    -288.0950541885 Ry
     enthalpy new            =    -288.1218329221 Ry

     CASE: enthalpy_new < enthalpy_old

     new trust radius        =       0.0835364567 bohr
     new conv_thr            =       0.0000006454 Ry

     new unit-cell volume =   4228.23134 a.u.^3 (   626.55923 Ang^3 )
     density =      1.00025 g/cm^3

CELL_PARAMETERS (angstrom)
   7.561573104  -0.394055907   1.854746714
  -0.248944608  11.175344808   0.779460430
   1.923274105   0.780499712   7.961310395

ATOMIC_POSITIONS (angstrom)
K        5.870151932   6.523572734   3.224460442
K        5.022597414   1.308744167   7.407653142
Ba       6.638520621   8.383946144   7.536331397
Al       3.372544116   4.098240008   5.156692600
Al       1.846314467  10.058406496   6.461208164
B        1.577442773   9.208179649   3.347762714
B        5.214385974   5.895531274   8.005590546
B        7.771321108  10.961394791   8.292710665
B        4.267458267   7.235723020   6.361774705
B        6.387851312   2.066575870   4.076622385
B        5.223817238   3.405253322   4.201300732
B        3.689665637   8.617187249   1.901797384
H        7.247233606   4.997171526   6.278447973
H        2.786290668   8.627569215   2.954517416
H        1.355432947   8.620409942   7.130816059
H        6.801252323  11.049863883   7.569228619
H        1.588239846   4.123836500   3.272138416
H        4.582578093   2.799097720   5.118886038
H        8.219609601   8.108341602   4.791293243
H        4.169386215   8.239069182   7.028722111
H        6.442620305   5.727019942   8.011939816
H        8.234874282   0.802724957   8.143266623
H        4.926514126   7.456405896   5.371670987
H        7.292478806   2.824422399   8.359096270
H        7.982885755   4.986806211   6.466311572
H        1.768114830   9.029707680   4.549738522
H        5.013092864   9.751129474   8.824534339
H        1.376045009   4.508772322   2.656236035
H        3.261115063   6.603114295   6.165324432
H        1.591350694  10.381646005   2.990739546
H        5.575528957   1.221851871   3.667552065
H        2.937787621   2.356582521   1.615679876
H        5.166009043   6.335787422   6.783777404
H        2.200246362   2.199910642   1.658986624
H        4.466179522  -0.114573244   2.117037154
H        6.884979727   3.272051690   7.901432774
H        3.366729428  10.448907325   6.766699562
H        7.456314048   1.958726382   3.520535321
H        6.547331354   1.862791805   5.286461528
H        4.912372263   6.760778866   8.778961616
H        4.287420410   3.583113863   3.386181307
H        5.087179040   4.571424645   4.732134962
H        4.541358489   4.904807167   7.943687489
H        4.367128994   0.589142149   1.831020774



     Writing output data file 00_K2BaAl2B7H32_Monster.save
     NEW-OLD atomic charge density approx. for the potential

     negative rho (up, down):  3.415E-06 0.000E+00
     extrapolated charge   70.95267, renormalised to   71.00000

     total cpu time spent up to now is    50809.5 secs

     Self-consistent Calculation

     iteration #  1     ecut=    50.00 Ry     beta=0.70
     Davidson diagonalization with overlap
     ethr =  1.00E-06,  avg # of iterations =  6.5

     negative rho (up, down):  2.141E-06 0.000E+00

     total cpu time spent up to now is    50853.1 secs

     total energy              =    -288.13701819 Ry
     Harris-Foulkes estimate   =    -288.18536045 Ry
     estimated scf accuracy    <       0.00389913 Ry

     iteration #  2     ecut=    50.00 Ry     beta=0.70
     Davidson diagonalization with overlap
     ethr =  5.49E-06,  avg # of iterations =  3.4

     negative rho (up, down):  1.270E-06 0.000E+00

     total cpu time spent up to now is    50881.6 secs

     total energy              =    -288.13712205 Ry
     Harris-Foulkes estimate   =    -288.13916376 Ry
     estimated scf accuracy    <       0.00428903 Ry

     iteration #  3     ecut=    50.00 Ry     beta=0.70
     Davidson diagonalization with overlap
     ethr =  5.49E-06,  avg # of iterations =  3.0

     negative rho (up, down):  8.842E-07 0.000E+00

     total cpu time spent up to now is    50906.6 secs

     total energy              =    -288.13748959 Ry
     Harris-Foulkes estimate   =    -288.13859809 Ry
     estimated scf accuracy    <       0.00392785 Ry

     iteration #  4     ecut=    50.00 Ry     beta=0.70
     Davidson diagonalization with overlap
     ethr =  5.49E-06,  avg # of iterations =  2.0

     negative rho (up, down):  2.324E-06 0.000E+00

     total cpu time spent up to now is    50928.8 secs

     total energy              =    -288.13818022 Ry
     Harris-Foulkes estimate   =    -288.13839579 Ry
     estimated scf accuracy    <       0.00082290 Ry

     iteration #  5     ecut=    50.00 Ry     beta=0.70
     Davidson diagonalization with overlap
     ethr =  1.16E-06,  avg # of iterations =  2.0

     negative rho (up, down):  1.196E-06 0.000E+00

     total cpu time spent up to now is    50951.6 secs

     total energy              =    -288.13823876 Ry
     Harris-Foulkes estimate   =    -288.13827050 Ry
     estimated scf accuracy    <       0.00012601 Ry

     iteration #  6     ecut=    50.00 Ry     beta=0.70
     Davidson diagonalization with overlap
     ethr =  1.77E-07,  avg # of iterations =  2.2

     negative rho (up, down):  1.594E-06 0.000E+00

     total cpu time spent up to now is    50974.0 secs

     total energy              =    -288.13825087 Ry
     Harris-Foulkes estimate   =    -288.13826074 Ry
     estimated scf accuracy    <       0.00004532 Ry

     iteration #  7     ecut=    50.00 Ry     beta=0.70
     Davidson diagonalization with overlap
     ethr =  6.38E-08,  avg # of iterations =  2.0

     negative rho (up, down):  1.620E-06 0.000E+00

     total cpu time spent up to now is    50996.2 secs

     total energy              =    -288.13825513 Ry
     Harris-Foulkes estimate   =    -288.13825550 Ry
     estimated scf accuracy    <       0.00000210 Ry

     iteration #  8     ecut=    50.00 Ry     beta=0.70
     Davidson diagonalization with overlap
     ethr =  2.95E-09,  avg # of iterations =  3.1

     negative rho (up, down):  1.589E-06 0.000E+00

     total cpu time spent up to now is    51021.3 secs

     End of self-consistent calculation

          k = 0.0000 0.0000 0.0000 ( 21247 PWs)   bands (ev):

   -28.0848 -13.8727 -13.5992 -13.4548 -10.8111 -10.2562 -10.1913  -8.3691
    -8.2607  -7.8050  -7.1955  -6.8884  -6.6554  -6.5638  -6.3713  -6.0526
    -5.6846  -5.4640  -5.2809  -4.9704  -4.9500  -4.6455  -4.5410  -4.4998
    -4.2600  -4.1047  -4.0536  -3.9481  -3.7480  -2.5136  -2.3507  -1.6337
    -1.4393  -1.4071  -0.4009  -0.2756   1.0186   1.7671   2.2231   2.3401
     2.5768   2.7230   2.9187

          k = 0.1357 0.0410-0.5444 ( 21362 PWs)   bands (ev):

   -28.0848 -13.8731 -13.6062 -13.4565 -10.7850 -10.2533 -10.1176  -8.4431
    -8.3517  -7.8246  -7.1699  -7.0609  -6.7346  -6.5779  -6.1577  -6.0887
    -5.5645  -5.4694  -5.2593  -4.9518  -4.8721  -4.5658  -4.5203  -4.5127
    -4.3300  -4.0908  -4.0188  -3.9762  -3.7967  -2.4839  -2.2965  -1.6476
    -1.4833  -1.4210  -0.3874  -0.0399   1.0981   1.4091   1.9676   2.1735
     2.5168   2.6936   2.7915

          k = 0.1061-0.3243-0.5014 ( 21216 PWs)   bands (ev):

   -28.0848 -13.8731 -13.6063 -13.4565 -10.7828 -10.2563 -10.1162  -8.4637
    -8.3279  -7.8336  -7.1557  -7.0655  -6.7812  -6.5149  -6.1740  -6.0771
    -5.5650  -5.4849  -5.2596  -4.9507  -4.8698  -4.5802  -4.5427  -4.5027
    -4.2980  -4.0940  -4.0101  -3.9571  -3.8286  -2.4792  -2.2967  -1.6586
    -1.4755  -1.4204  -0.3872  -0.0406   1.1007   1.3820   1.9128   2.2829
     2.5175   2.7109   2.7792

          k =-0.4638-0.3467-0.3616 ( 21368 PWs)   bands (ev):

   -28.0848 -13.8779 -13.6002 -13.4565 -10.7647 -10.2600 -10.2069  -8.3610
    -8.2561  -7.8479  -7.1784  -6.9377  -6.7452  -6.4907  -6.2915  -6.0413
    -5.7434  -5.5037  -5.3490  -4.9982  -4.8959  -4.5910  -4.5280  -4.5164
    -4.2781  -4.1534  -3.9802  -3.8501  -3.7014  -2.4734  -2.3670  -1.6879
    -1.5226  -1.3007  -0.5189  -0.2635   1.0056   1.6908   2.1423   2.2397
     2.4480   2.7166   2.8959

          k =-0.5699-0.0225 0.1399 ( 21362 PWs)   bands (ev):

   -28.0848 -13.8777 -13.6071 -13.4566 -10.7655 -10.2423 -10.1266  -8.4750
    -8.2722  -7.8351  -7.1850  -7.0886  -6.7921  -6.5200  -6.1104  -6.0983
    -5.6282  -5.5327  -5.3238  -4.9988  -4.8088  -4.6199  -4.5130  -4.4882
    -4.2859  -4.2103  -3.9835  -3.8471  -3.7432  -2.4515  -2.3191  -1.6570
    -1.5252  -1.3339  -0.4889  -0.0310   1.1814   1.7211   1.9223   2.2625
     2.5218   2.6604   2.7429

          k =-0.0296-0.3653 0.0430 ( 21362 PWs)   bands (ev):

   -28.0848 -13.8728 -13.5992 -13.4548 -10.8072 -10.2698 -10.1828  -8.3685
    -8.2592  -7.8077  -7.2155  -6.8840  -6.6420  -6.5053  -6.4187  -6.0660
    -5.6669  -5.4481  -5.3103  -4.9754  -4.9500  -4.6369  -4.5564  -4.4850
    -4.2639  -4.1069  -4.0489  -3.9447  -3.7635  -2.5173  -2.3387  -1.6309
    -1.4405  -1.4027  -0.4167  -0.2788   1.0324   1.8374   2.1641   2.3064
     2.6289   2.6914   2.8703

          k =-0.7056-0.0634 0.6843 ( 21216 PWs)   bands (ev):

   -28.0847 -13.8778 -13.6002 -13.4565 -10.7662 -10.2604 -10.2046  -8.3970
    -8.1972  -7.8526  -7.2093  -6.9541  -6.7482  -6.4615  -6.2903  -6.0139
    -5.7419  -5.5573  -5.3210  -4.9721  -4.9026  -4.5919  -4.5469  -4.5181
    -4.2670  -4.1605  -3.9568  -3.8480  -3.7332  -2.4757  -2.3557  -1.6722
    -1.5321  -1.2959  -0.5128  -0.2718   1.0056   1.6968   2.1893   2.2121
     2.5448   2.6680   2.7985

          k =-0.5404 0.3428 0.0969 ( 21216 PWs)   bands (ev):

   -28.0848 -13.8777 -13.6071 -13.4566 -10.7638 -10.2425 -10.1279  -8.4459
    -8.3110  -7.8408  -7.1670  -7.0608  -6.8008  -6.5514  -6.1022  -6.0955
    -5.6250  -5.5308  -5.3190  -5.0173  -4.8068  -4.5932  -4.5609  -4.4681
    -4.2866  -4.2052  -3.9775  -3.8682  -3.7117  -2.4526  -2.3243  -1.6593
    -1.5192  -1.3352  -0.5163  -0.0083   1.1677   1.7120   1.8800   2.2466
     2.4527   2.6546   2.7882

     the Fermi energy is    -0.1605 ev

!    total energy              =    -288.13825553 Ry
     Harris-Foulkes estimate   =    -288.13825559 Ry
     estimated scf accuracy    <       0.00000011 Ry

     The total energy is the sum of the following terms:

     one-electron contribution =    -102.19081895 Ry
     hartree contribution      =      67.21493087 Ry
     xc contribution           =     -97.53138500 Ry
     ewald contribution        =     -49.71563994 Ry
     one-center paw contrib.   =    -105.91447985 Ry
     smearing contrib. (-TS)   =      -0.00086266 Ry

     convergence has been achieved in   8 iterations

     negative rho (up, down):  1.589E-06 0.000E+00

     Forces acting on atoms (cartesian axes, Ry/au):

     atom    1 type  1   force =     0.00144994   -0.00553623   -0.00256232
     atom    2 type  1   force =    -0.00069062    0.00454187   -0.00356083
     atom    3 type  2   force =     0.00639456    0.00442838   -0.00729622
     atom    4 type  3   force =    -0.01519871   -0.00080301   -0.01068497
     atom    5 type  3   force =    -0.00783407    0.00185987    0.00780724
     atom    6 type  4   force =     0.00822298    0.02075857   -0.02899875
     atom    7 type  4   force =     0.00984175   -0.00313580    0.00172463
     atom    8 type  4   force =    -0.00770345    0.00723678    0.01324229
     atom    9 type  4   force =    -0.00357206   -0.01549421    0.00269038
     atom   10 type  4   force =    -0.02397682    0.00764806    0.01473385
     atom   11 type  4   force =    -0.01053546   -0.01991477    0.00509692
     atom   12 type  4   force =     0.00015501   -0.00060779   -0.00223040
     atom   13 type  5   force =     0.01124546    0.00083329   -0.00088327
     atom   14 type  5   force =     0.00537753   -0.00275786   -0.00439743
     atom   15 type  5   force =     0.00533721   -0.00302717   -0.01195000
     atom   16 type  5   force =     0.00269955   -0.00726909   -0.00393166
     atom   17 type  5   force =     0.00001432    0.00361920   -0.00619039
     atom   18 type  5   force =    -0.00715846   -0.00176013    0.00433927
     atom   19 type  5   force =     0.00786402    0.00289012    0.00273547
     atom   20 type  5   force =    -0.00107614   -0.00475911    0.00436567
     atom   21 type  5   force =    -0.01600138    0.00266662    0.00054159
     atom   22 type  5   force =    -0.00040704   -0.00636812   -0.00512794
     atom   23 type  5   force =     0.00596042    0.00724255   -0.01113303
     atom   24 type  5   force =    -0.00408369    0.00451571   -0.00400575
     atom   25 type  5   force =    -0.00586238    0.00151375   -0.00488273
     atom   26 type  5   force =     0.00979284   -0.00184345    0.01869999
     atom   27 type  5   force =    -0.01251114    0.00158993    0.01379992
     atom   28 type  5   force =     0.00025498   -0.00409215   -0.00380917
     atom   29 type  5   force =     0.00084265    0.00765566   -0.00091978
     atom   30 type  5   force =    -0.00498500   -0.01716962    0.00831071
     atom   31 type  5   force =     0.01136580    0.00097524    0.00351477
     atom   32 type  5   force =    -0.00164718   -0.00195347    0.00106519
     atom   33 type  5   force =    -0.00046152    0.00661925   -0.01289460
     atom   34 type  5   force =    -0.00134448   -0.00098421    0.00006702
     atom   35 type  5   force =    -0.00426986    0.01248129   -0.01123723
     atom   36 type  5   force =     0.00529855   -0.00171123    0.00547968
     atom   37 type  5   force =     0.00275354    0.00268997   -0.00163432
     atom   38 type  5   force =     0.00670513    0.01196517   -0.01234121
     atom   39 type  5   force =     0.01421051   -0.00826451    0.00410367
     atom   40 type  5   force =    -0.00966227    0.00617122    0.01602679
     atom   41 type  5   force =    -0.01135370   -0.00444549   -0.00816819
     atom   42 type  5   force =     0.03276990    0.00879068    0.01187984
     atom   43 type  5   force =    -0.00018918   -0.00246183    0.00668963
     atom   44 type  5   force =     0.00196794   -0.01433393    0.01192568

     Total force =     0.101645     Total SCF correction =     0.000308


     Computing stress (Cartesian axis) and pressure


     negative rho (up, down):  1.589E-06 0.000E+00
          total   stress  (Ry/bohr**3)                   (kbar)     P=   -0.67
   0.00000754  -0.00000064   0.00002717          1.11     -0.09      4.00
  -0.00000064  -0.00003333   0.00001601         -0.09     -4.90      2.36
   0.00002717   0.00001601   0.00001220          4.00      2.36      1.80


     number of scf cycles    =  42
     number of bfgs steps    =  40

     enthalpy old            =    -288.1218329221 Ry
     enthalpy new            =    -288.1382555313 Ry

     CASE: enthalpy_new < enthalpy_old

     new trust radius        =       0.0919492772 bohr
     new conv_thr            =       0.0000003277 Ry

     new unit-cell volume =   4218.06069 a.u.^3 (   625.05210 Ang^3 )
     density =      1.00266 g/cm^3

CELL_PARAMETERS (angstrom)
   7.567265459  -0.394744189   1.883185013
  -0.249665260  11.177775324   0.784065651
   1.946528224   0.784470136   7.949800193

ATOMIC_POSITIONS (angstrom)
K        5.881947198   6.519947326   3.239249327
K        5.040513469   1.319234262   7.409979615
Ba       6.665453381   8.402818245   7.555457261
Al       3.351490081   4.081752031   5.133381217
Al       1.857193043  10.066206500   6.469417689
B        1.588442462   9.215262134   3.345952644
B        5.237382583   5.901791020   8.014637203
B        7.790120282  10.968235207   8.317486600
B        4.283179523   7.231566411   6.367014744
B        6.398310949   2.079300560   4.109194029
B        5.227561445   3.400706462   4.229739608
B        3.685192284   8.631476306   1.916079185
H        7.269101018   5.004720863   6.299564666
H        2.799643527   8.621914173   2.969555158
H        1.361298002   8.616439004   7.106997236
H        6.824888245  11.046549905   7.587477604
H        1.593860739   4.129273930   3.268446541
H        4.568476913   2.798238793   5.129128269
H        8.237869967   8.111326220   4.819615580
H        4.185177429   8.236558418   7.034637942
H        6.460374008   5.741633134   8.023923637
H        8.256639765   0.807178677   8.156727832
H        4.946002921   7.470974449   5.373675763
H        7.321703910   2.828095076   8.374968198
H        8.001797797   4.995959840   6.486687208
H        1.799231527   9.031848704   4.569893382
H        5.025075427   9.763478044   8.838763332
H        1.379870931   4.507699934   2.649177098
H        3.271934081   6.613135868   6.171206710
H        1.594583441  10.385934209   2.991823902
H        5.594615522   1.236383804   3.690379048
H        2.938167249   2.346714457   1.624017862
H        5.186693719   6.344702115   6.788490979
H        2.199436301   2.196010792   1.660584961
H        4.466352654  -0.125041885   2.120479974
H        6.915564378   3.274372365   7.919886267
H        3.382926278  10.465712359   6.771702095
H        7.466445028   1.976429823   3.533500426
H        6.590019245   1.837041713   5.316205805
H        4.932763584   6.768793950   8.791991380
H        4.299345576   3.574857919   3.395824989
H        5.137512517   4.558921819   4.749008526
H        4.564440258   4.910935192   7.957470940
H        4.375759780   0.581468288   1.851163843



     Writing output data file 00_K2BaAl2B7H32_Monster.save
     NEW-OLD atomic charge density approx. for the potential

     negative rho (up, down):  3.582E-06 0.000E+00
     extrapolated charge   70.82895, renormalised to   71.00000

     total cpu time spent up to now is    51847.9 secs

     Self-consistent Calculation

     iteration #  1     ecut=    50.00 Ry     beta=0.70
     Davidson diagonalization with overlap
     ethr =  1.00E-06,  avg # of iterations =  5.8

     negative rho (up, down):  3.818E-07 0.000E+00

     total cpu time spent up to now is    51891.1 secs

     total energy              =    -288.14807959 Ry
     Harris-Foulkes estimate   =    -288.31296198 Ry
     estimated scf accuracy    <       0.00385107 Ry

     iteration #  2     ecut=    50.00 Ry     beta=0.70
     Davidson diagonalization with overlap
     ethr =  5.42E-06,  avg # of iterations =  5.1

     negative rho (up, down):  4.345E-07 0.000E+00

     total cpu time spent up to now is    51924.7 secs

     total energy              =    -288.14950774 Ry
     Harris-Foulkes estimate   =    -288.15255521 Ry
     estimated scf accuracy    <       0.00737727 Ry

     iteration #  3     ecut=    50.00 Ry     beta=0.70
     Davidson diagonalization with overlap
     ethr =  5.42E-06,  avg # of iterations =  3.6

     negative rho (up, down):  2.667E-06 0.000E+00

     total cpu time spent up to now is    51951.5 secs

     total energy              =    -288.15003164 Ry
     Harris-Foulkes estimate   =    -288.15060844 Ry
     estimated scf accuracy    <       0.00147751 Ry

     iteration #  4     ecut=    50.00 Ry     beta=0.70
     Davidson diagonalization with overlap
     ethr =  2.08E-06,  avg # of iterations =  4.1

     negative rho (up, down):  2.716E-06 0.000E+00

     total cpu time spent up to now is    51977.1 secs

     total energy              =    -288.15024065 Ry
     Harris-Foulkes estimate   =    -288.15032327 Ry
     estimated scf accuracy    <       0.00023058 Ry

     iteration #  5     ecut=    50.00 Ry     beta=0.70
     Davidson diagonalization with overlap
     ethr =  3.25E-07,  avg # of iterations =  2.8

     negative rho (up, down):  3.226E-06 0.000E+00

     total cpu time spent up to now is    52002.3 secs

     total energy              =    -288.15027736 Ry
     Harris-Foulkes estimate   =    -288.15031338 Ry
     estimated scf accuracy    <       0.00008271 Ry

     iteration #  6     ecut=    50.00 Ry     beta=0.70
     Davidson diagonalization with overlap
     ethr =  1.16E-07,  avg # of iterations =  2.2

     negative rho (up, down):  3.310E-06 0.000E+00

     total cpu time spent up to now is    52026.1 secs

     total energy              =    -288.15028985 Ry
     Harris-Foulkes estimate   =    -288.15030035 Ry
     estimated scf accuracy    <       0.00002531 Ry

     iteration #  7     ecut=    50.00 Ry     beta=0.70
     Davidson diagonalization with overlap
     ethr =  3.57E-08,  avg # of iterations =  2.0

     negative rho (up, down):  3.201E-06 0.000E+00

     total cpu time spent up to now is    52049.3 secs

     total energy              =    -288.15029257 Ry
     Harris-Foulkes estimate   =    -288.15029978 Ry
     estimated scf accuracy    <       0.00002808 Ry

     iteration #  8     ecut=    50.00 Ry     beta=0.70
     Davidson diagonalization with overlap
     ethr =  3.57E-08,  avg # of iterations =  1.2

     negative rho (up, down):  3.262E-06 0.000E+00

     total cpu time spent up to now is    52070.9 secs

     total energy              =    -288.15029665 Ry
     Harris-Foulkes estimate   =    -288.15029681 Ry
     estimated scf accuracy    <       0.00000120 Ry

     iteration #  9     ecut=    50.00 Ry     beta=0.70
     Davidson diagonalization with overlap
     ethr =  1.69E-09,  avg # of iterations =  2.9

     negative rho (up, down):  3.306E-06 0.000E+00

     total cpu time spent up to now is    52095.2 secs

     total energy              =    -288.15029666 Ry
     Harris-Foulkes estimate   =    -288.15029677 Ry
     estimated scf accuracy    <       0.00000056 Ry

     iteration # 10     ecut=    50.00 Ry     beta=0.70
     Davidson diagonalization with overlap
     ethr =  7.94E-10,  avg # of iterations =  1.0

     negative rho (up, down):  3.328E-06 0.000E+00

     total cpu time spent up to now is    52116.0 secs

     End of self-consistent calculation

          k = 0.0000 0.0000 0.0000 ( 21247 PWs)   bands (ev):

   -28.0557 -13.8284 -13.5772 -13.4274 -10.7865 -10.2405 -10.1948  -8.3397
    -8.2489  -7.7849  -7.1875  -6.8685  -6.6112  -6.5507  -6.3680  -6.0588
    -5.6808  -5.4863  -5.2691  -4.9427  -4.9231  -4.6618  -4.5561  -4.4780
    -4.2622  -4.1023  -4.0447  -3.9281  -3.7229  -2.5035  -2.3432  -1.6208
    -1.4350  -1.3693  -0.3943  -0.2729   1.0472   1.7873   2.2602   2.3643
     2.5792   2.7565   2.9188

          k = 0.1381 0.0414-0.5462 ( 21362 PWs)   bands (ev):

   -28.0557 -13.8287 -13.5850 -13.4291 -10.7584 -10.2228 -10.1334  -8.4328
    -8.3188  -7.8143  -7.1594  -7.0617  -6.6792  -6.5682  -6.1629  -6.0852
    -5.5636  -5.4301  -5.3054  -4.9289  -4.8363  -4.5823  -4.5311  -4.4919
    -4.3362  -4.0748  -4.0112  -3.9630  -3.7667  -2.4725  -2.2890  -1.6331
    -1.4709  -1.3891  -0.3836  -0.0275   1.1178   1.4345   1.9937   2.2056
     2.5217   2.7093   2.8079

          k = 0.1083-0.3238-0.5029 ( 21216 PWs)   bands (ev):

   -28.0557 -13.8288 -13.5850 -13.4291 -10.7561 -10.2259 -10.1319  -8.4504
    -8.2977  -7.8242  -7.1463  -7.0666  -6.7279  -6.4993  -6.1827  -6.0728
    -5.5645  -5.4449  -5.3052  -4.9280  -4.8354  -4.5850  -4.5588  -4.4885
    -4.3036  -4.0643  -4.0179  -3.9459  -3.7936  -2.4705  -2.2862  -1.6410
    -1.4744  -1.3807  -0.3841  -0.0277   1.1205   1.4051   1.9491   2.3069
     2.5203   2.7264   2.7872

          k =-0.4623-0.3465-0.3610 ( 21368 PWs)   bands (ev):

   -28.0557 -13.8335 -13.5783 -13.4291 -10.7390 -10.2505 -10.2050  -8.3324
    -8.2460  -7.8269  -7.1731  -6.8992  -6.7332  -6.4862  -6.2765  -6.0462
    -5.7124  -5.4948  -5.3632  -4.9952  -4.8635  -4.6196  -4.5366  -4.4859
    -4.2703  -4.1427  -3.9899  -3.8337  -3.6749  -2.4614  -2.3684  -1.6678
    -1.5160  -1.2649  -0.5123  -0.2633   1.0327   1.7107   2.1772   2.2520
     2.4702   2.7409   2.9024

          k =-0.5705-0.0227 0.1419 ( 21362 PWs)   bands (ev):

   -28.0557 -13.8332 -13.5859 -13.4292 -10.7387 -10.2126 -10.1414  -8.4622
    -8.2426  -7.8246  -7.1740  -7.0953  -6.7402  -6.5046  -6.1094  -6.1000
    -5.5812  -5.5289  -5.3729  -4.9819  -4.7740  -4.6221  -4.5290  -4.4618
    -4.2848  -4.2010  -3.9765  -3.8364  -3.7236  -2.4373  -2.3227  -1.6317
    -1.5193  -1.2997  -0.4878  -0.0172   1.2125   1.7527   1.9554   2.2804
     2.5427   2.6421   2.7621

          k =-0.0298-0.3652 0.0433 ( 21362 PWs)   bands (ev):

   -28.0557 -13.8285 -13.5772 -13.4274 -10.7825 -10.2562 -10.1842  -8.3381
    -8.2489  -7.7877  -7.2059  -6.8609  -6.6011  -6.4906  -6.4181  -6.0724
    -5.6630  -5.4708  -5.2985  -4.9505  -4.9217  -4.6506  -4.5670  -4.4676
    -4.2667  -4.0928  -4.0541  -3.9253  -3.7361  -2.5104  -2.3276  -1.6178
    -1.4363  -1.3645  -0.4096  -0.2778   1.0624   1.8562   2.1927   2.3409
     2.6274   2.7331   2.8640

          k =-0.7086-0.0641 0.6882 ( 21216 PWs)   bands (ev):

   -28.0557 -13.8334 -13.5783 -13.4291 -10.7406 -10.2511 -10.2025  -8.3741
    -8.1801  -7.8318  -7.2066  -6.9173  -6.7324  -6.4572  -6.2761  -6.0198
    -5.7118  -5.5480  -5.3339  -4.9670  -4.8715  -4.6205  -4.5507  -4.4952
    -4.2582  -4.1460  -3.9727  -3.8307  -3.7029  -2.4631  -2.3586  -1.6533
    -1.5224  -1.2617  -0.5097  -0.2672   1.0319   1.7149   2.2188   2.2413
     2.5679   2.6768   2.8009

          k =-0.5407 0.3425 0.0986 ( 21216 PWs)   bands (ev):

   -28.0557 -13.8333 -13.5859 -13.4292 -10.7371 -10.2120 -10.1435  -8.4356
    -8.2795  -7.8304  -7.1582  -7.0639  -6.7532  -6.5319  -6.1011  -6.0976
    -5.5763  -5.5287  -5.3690  -5.0009  -4.7730  -4.5939  -4.5708  -4.4423
    -4.2857  -4.2003  -3.9722  -3.8545  -3.6938  -2.4418  -2.3244  -1.6353
    -1.5125  -1.3004  -0.5136   0.0035   1.1976   1.7412   1.9138   2.2657
     2.4669   2.6639   2.7900

     the Fermi energy is    -0.1537 ev

!    total energy              =    -288.15029669 Ry
     Harris-Foulkes estimate   =    -288.15029671 Ry
     estimated scf accuracy    <       0.00000002 Ry

     The total energy is the sum of the following terms:

     one-electron contribution =    -101.72244537 Ry
     hartree contribution      =      67.01822341 Ry
     xc contribution           =     -97.53719728 Ry
     ewald contribution        =     -49.99576737 Ry
     one-center paw contrib.   =    -105.91247541 Ry
     smearing contrib. (-TS)   =      -0.00063466 Ry

     convergence has been achieved in  10 iterations

     negative rho (up, down):  3.328E-06 0.000E+00

     Forces acting on atoms (cartesian axes, Ry/au):

     atom    1 type  1   force =     0.00095782   -0.00591634   -0.00226447
     atom    2 type  1   force =    -0.00013088    0.00448073   -0.00363493
     atom    3 type  2   force =     0.00318679    0.00157597   -0.01034756
     atom    4 type  3   force =    -0.01064611    0.00394183   -0.01019960
     atom    5 type  3   force =    -0.00396939    0.00212289    0.00605821
     atom    6 type  4   force =     0.01160268    0.01501681   -0.01264892
     atom    7 type  4   force =     0.00459349    0.00111305    0.00343069
     atom    8 type  4   force =    -0.00791229    0.00469224    0.01343268
     atom    9 type  4   force =     0.00245535   -0.00722858   -0.00004845
     atom   10 type  4   force =    -0.01642174    0.00283704    0.01398628
     atom   11 type  4   force =    -0.00606604   -0.02016999    0.00078302
     atom   12 type  4   force =     0.00247101   -0.00091387    0.00087601
     atom   13 type  5   force =     0.00753480    0.00088402   -0.00187306
     atom   14 type  5   force =     0.00448315   -0.00214168   -0.00317433
     atom   15 type  5   force =     0.00596302   -0.00256166   -0.01048189
     atom   16 type  5   force =     0.00223485   -0.00584752   -0.00385967
     atom   17 type  5   force =    -0.00003487    0.00343117   -0.00599291
     atom   18 type  5   force =    -0.00573487   -0.00441111    0.00720951
     atom   19 type  5   force =     0.00838255    0.00285113    0.00402274
     atom   20 type  5   force =    -0.00077854   -0.00515853    0.00409358
     atom   21 type  5   force =    -0.01194182    0.00127919   -0.00002100
     atom   22 type  5   force =    -0.00076821   -0.00417504   -0.00425389
     atom   23 type  5   force =     0.00224410    0.00493098   -0.00625989
     atom   24 type  5   force =    -0.00204112    0.00222749   -0.00159401
     atom   25 type  5   force =    -0.00206923    0.00139903   -0.00393810
     atom   26 type  5   force =     0.00515052    0.00117290    0.00204438
     atom   27 type  5   force =    -0.01369760    0.00264131    0.00973282
     atom   28 type  5   force =     0.00005337   -0.00395676   -0.00445790
     atom   29 type  5   force =    -0.00014920    0.00446207   -0.00172193
     atom   30 type  5   force =    -0.00388306   -0.01479458    0.00781285
     atom   31 type  5   force =     0.00989845   -0.00320341    0.00287336
     atom   32 type  5   force =    -0.00103676   -0.00185112    0.00107786
     atom   33 type  5   force =     0.00012558    0.00450252   -0.01097689
     atom   34 type  5   force =    -0.00201570   -0.00102394    0.00032624
     atom   35 type  5   force =    -0.00335080    0.00736706   -0.00855411
     atom   36 type  5   force =     0.00308804    0.00063127    0.00305430
     atom   37 type  5   force =    -0.00033347    0.00133455   -0.00138539
     atom   38 type  5   force =     0.00166674    0.01326599   -0.00951438
     atom   39 type  5   force =     0.01024203   -0.00397218   -0.00150563
     atom   40 type  5   force =    -0.00898913    0.00394105    0.01321635
     atom   41 type  5   force =    -0.00814357   -0.00362704   -0.00616561
     atom   42 type  5   force =     0.02229418    0.01013651    0.01476991
     atom   43 type  5   force =     0.00032403   -0.00244092    0.00628473
     atom   44 type  5   force =     0.00116185   -0.00884453    0.00978903

     Total force =     0.078012     Total SCF correction =     0.000162


     Computing stress (Cartesian axis) and pressure


     negative rho (up, down):  3.328E-06 0.000E+00
          total   stress  (Ry/bohr**3)                   (kbar)     P=   -1.00
  -0.00000101  -0.00000587   0.00002367         -0.15     -0.86      3.48
  -0.00000587  -0.00002419   0.00001825         -0.86     -3.56      2.68
   0.00002367   0.00001825   0.00000474          3.48      2.68      0.70


     number of scf cycles    =  43
     number of bfgs steps    =  41

     enthalpy old            =    -288.1382555313 Ry
     enthalpy new            =    -288.1502966927 Ry

     CASE: enthalpy_new < enthalpy_old

     new trust radius        =       0.1382499563 bohr
     new conv_thr            =       0.0000002229 Ry

     new unit-cell volume =   4196.52569 a.u.^3 (   621.86094 Ang^3 )
     density =      1.00780 g/cm^3

CELL_PARAMETERS (angstrom)
   7.574369522  -0.397236520   1.925892716
  -0.251115645  11.175778183   0.793577737
   1.980840507   0.794519895   7.927639221

ATOMIC_POSITIONS (angstrom)
K        5.898139041   6.505135626   3.263246096
K        5.064786852   1.340359490   7.406599720
Ba       6.698876387   8.425669123   7.574158895
Al       3.315891429   4.065582566   5.094902280
Al       1.872977427  10.075959166   6.480053947
B        1.606104506   9.222176587   3.347034141
B        5.266966698   5.917847653   8.025861982
B        7.816492433  10.973053026   8.355549433
B        4.307479344   7.224463000   6.373176781
B        6.412151445   2.097817620   4.158051664
B        5.232270455   3.376812182   4.265958518
B        3.680760266   8.649787176   1.942149031
H        7.298899594   5.014914624   6.327988326
H        2.823733656   8.612774590   2.996556398
H        1.372615842   8.607997825   7.067004053
H        6.859083506  11.032458771   7.613299859
H        1.601113590   4.136210957   3.260931898
H        4.549473457   2.794468512   5.148445909
H        8.265691632   8.113271965   4.867685065
H        4.210876362   8.225533631   7.043702562
H        6.483345931   5.759518065   8.036529410
H        8.286523980   0.818044037   8.173131410
H        4.970363191   7.492334187   5.376707402
H        7.363597635   2.835328683   8.395746989
H        8.029154643   5.007999816   6.515917086
H        1.842652891   9.035254250   4.590477025
H        5.038148051   9.782849100   8.858199480
H        1.384924038   4.503228294   2.636876894
H        3.288261201   6.628406734   6.177309397
H        1.601541876  10.381467819   3.000013377
H        5.624604758   1.251428513   3.723805657
H        2.938670727   2.330361932   1.636738254
H        5.215556443   6.353739300   6.792770327
H        2.198209660   2.189169179   1.663827064
H        4.465719434  -0.139539233   2.125548752
H        6.957023933   3.284263931   7.942958317
H        3.405099476  10.485653107   6.776255125
H        7.475857579   2.008759533   3.549752310
H        6.649493789   1.801404744   5.354356155
H        4.960967585   6.781224086   8.809022141
H        4.318409601   3.558166608   3.411457654
H        5.214760331   4.549280032   4.782302295
H        4.599830749   4.920099427   7.976197627
H        4.389007922   0.572853036   1.884162262



     Writing output data file 00_K2BaAl2B7H32_Monster.save
     NEW-OLD atomic charge density approx. for the potential

     negative rho (up, down):  4.444E-06 0.000E+00
     extrapolated charge   70.63596, renormalised to   71.00000

     total cpu time spent up to now is    52941.3 secs

     Self-consistent Calculation

     iteration #  1     ecut=    50.00 Ry     beta=0.70
     Davidson diagonalization with overlap
     ethr =  1.00E-06,  avg # of iterations = 10.2

     negative rho (up, down):  5.763E-07 0.000E+00

     total cpu time spent up to now is    52990.4 secs

     total energy              =    -288.15607533 Ry
     Harris-Foulkes estimate   =    -288.50564346 Ry
     estimated scf accuracy    <       0.01030716 Ry

     iteration #  2     ecut=    50.00 Ry     beta=0.70
     Davidson diagonalization with overlap
     ethr =  1.45E-05,  avg # of iterations =  5.6

     negative rho (up, down):  6.032E-07 0.000E+00

     total cpu time spent up to now is    53024.5 secs

     total energy              =    -288.16146820 Ry
     Harris-Foulkes estimate   =    -288.17047178 Ry
     estimated scf accuracy    <       0.02245159 Ry

     iteration #  3     ecut=    50.00 Ry     beta=0.70
     Davidson diagonalization with overlap
     ethr =  1.45E-05,  avg # of iterations =  3.8

     negative rho (up, down):  5.757E-07 0.000E+00

     total cpu time spent up to now is    53052.4 secs

     total energy              =    -288.16369527 Ry
     Harris-Foulkes estimate   =    -288.16505902 Ry
     estimated scf accuracy    <       0.00342197 Ry

     iteration #  4     ecut=    50.00 Ry     beta=0.70
     Davidson diagonalization with overlap
     ethr =  4.82E-06,  avg # of iterations =  3.1

     negative rho (up, down):  5.376E-07 0.000E+00

     total cpu time spent up to now is    53077.0 secs

     total energy              =    -288.16369270 Ry
     Harris-Foulkes estimate   =    -288.16433698 Ry
     estimated scf accuracy    <       0.00178404 Ry

     iteration #  5     ecut=    50.00 Ry     beta=0.70
     Davidson diagonalization with overlap
     ethr =  2.51E-06,  avg # of iterations =  5.1

     negative rho (up, down):  4.876E-07 0.000E+00

     total cpu time spent up to now is    53103.6 secs

     total energy              =    -288.16378407 Ry
     Harris-Foulkes estimate   =    -288.16388168 Ry
     estimated scf accuracy    <       0.00023036 Ry

     iteration #  6     ecut=    50.00 Ry     beta=0.70
     Davidson diagonalization with overlap
     ethr =  3.24E-07,  avg # of iterations =  2.6

     negative rho (up, down):  4.725E-07 0.000E+00

     total cpu time spent up to now is    53128.9 secs

     total energy              =    -288.16383320 Ry
     Harris-Foulkes estimate   =    -288.16384305 Ry
     estimated scf accuracy    <       0.00002844 Ry

     iteration #  7     ecut=    50.00 Ry     beta=0.70
     Davidson diagonalization with overlap
     ethr =  4.01E-08,  avg # of iterations =  2.4

     negative rho (up, down):  4.706E-07 0.000E+00

     total cpu time spent up to now is    53152.7 secs

     total energy              =    -288.16383780 Ry
     Harris-Foulkes estimate   =    -288.16384134 Ry
     estimated scf accuracy    <       0.00000886 Ry

     iteration #  8     ecut=    50.00 Ry     beta=0.70
     Davidson diagonalization with overlap
     ethr =  1.25E-08,  avg # of iterations =  2.0

     negative rho (up, down):  4.688E-07 0.000E+00

     total cpu time spent up to now is    53176.5 secs

     total energy              =    -288.16383912 Ry
     Harris-Foulkes estimate   =    -288.16383985 Ry
     estimated scf accuracy    <       0.00000165 Ry

     iteration #  9     ecut=    50.00 Ry     beta=0.70
     Davidson diagonalization with overlap
     ethr =  2.32E-09,  avg # of iterations =  3.0

     negative rho (up, down):  4.680E-07 0.000E+00

     total cpu time spent up to now is    53201.1 secs

     total energy              =    -288.16383937 Ry
     Harris-Foulkes estimate   =    -288.16383979 Ry
     estimated scf accuracy    <       0.00000142 Ry

     iteration # 10     ecut=    50.00 Ry     beta=0.70
     Davidson diagonalization with overlap
     ethr =  1.99E-09,  avg # of iterations =  2.0

     negative rho (up, down):  4.681E-07 0.000E+00

     total cpu time spent up to now is    53223.6 secs

     End of self-consistent calculation

          k = 0.0000 0.0000 0.0000 ( 21247 PWs)   bands (ev):

   -28.0143 -13.7775 -13.5405 -13.3890 -10.7578 -10.2602 -10.0981  -8.3020
    -8.2240  -7.7577  -7.1694  -6.8444  -6.5359  -6.5298  -6.3513  -6.0487
    -5.6822  -5.5316  -5.2506  -4.8974  -4.8728  -4.6979  -4.5392  -4.4402
    -4.2523  -4.0760  -4.0237  -3.8822  -3.6757  -2.4865  -2.3329  -1.5999
    -1.4297  -1.2913  -0.3850  -0.2600   1.0908   1.8309   2.3102   2.4092
     2.5863   2.8034   2.9326

          k = 0.1419 0.0422-0.5495 ( 21362 PWs)   bands (ev):

   -28.0143 -13.7778 -13.5496 -13.3908 -10.7261 -10.1724 -10.1050  -8.4137
    -8.2755  -7.7932  -7.1391  -7.0601  -6.6006  -6.5472  -6.1604  -6.0585
    -5.5609  -5.3987  -5.3664  -4.8854  -4.7882  -4.6096  -4.5013  -4.4556
    -4.3369  -4.0489  -3.9822  -3.9180  -3.7165  -2.4522  -2.2822  -1.6039
    -1.4628  -1.3152  -0.3785  -0.0017   1.1511   1.4853   2.0467   2.2588
     2.5328   2.7329   2.8538

          k = 0.1115-0.3232-0.5052 ( 21216 PWs)   bands (ev):

   -28.0143 -13.7778 -13.5496 -13.3908 -10.7241 -10.1726 -10.1062  -8.4285
    -8.2571  -7.8037  -7.1266  -7.0654  -6.6534  -6.4714  -6.1841  -6.0445
    -5.5615  -5.4116  -5.3668  -4.8851  -4.7895  -4.6099  -4.5308  -4.4548
    -4.3032  -4.0252  -3.9979  -3.9059  -3.7392  -2.4549  -2.2737  -1.6102
    -1.4704  -1.3047  -0.3807  -0.0005   1.1530   1.4530   2.0167   2.3439
     2.5301   2.7456   2.8248

          k =-0.4602-0.3464-0.3601 ( 21368 PWs)   bands (ev):

   -28.0143 -13.7824 -13.5417 -13.3907 -10.7089 -10.2798 -10.0997  -8.2954
    -8.2239  -7.7982  -7.1610  -6.8567  -6.7020  -6.4728  -6.2357  -6.0389
    -5.6893  -5.4836  -5.3719  -4.9838  -4.8132  -4.6635  -4.5068  -4.4499
    -4.2532  -4.1083  -3.9739  -3.7980  -3.6307  -2.4429  -2.3696  -1.6404
    -1.5053  -1.1889  -0.4970  -0.2558   1.0748   1.7549   2.2148   2.2905
     2.5098   2.7783   2.9230

          k =-0.5717-0.0232 0.1452 ( 21362 PWs)   bands (ev):

   -28.0143 -13.7820 -13.5506 -13.3910 -10.7053 -10.1829 -10.0932  -8.4409
    -8.2028  -7.8031  -7.1583  -7.0971  -6.6663  -6.4739  -6.0994  -6.0770
    -5.5498  -5.5142  -5.4335  -4.9495  -4.7439  -4.6037  -4.5148  -4.4308
    -4.2740  -4.1648  -3.9580  -3.7981  -3.6851  -2.4124  -2.3315  -1.5935
    -1.5120  -1.2271  -0.4831   0.0111   1.2624   1.8058   2.0203   2.3117
     2.5784   2.6287   2.7950

          k =-0.0304-0.3654 0.0442 ( 21362 PWs)   bands (ev):

   -28.0143 -13.7776 -13.5405 -13.3890 -10.7539 -10.2665 -10.0969  -8.2986
    -8.2263  -7.7606  -7.1860  -6.8328  -6.5337  -6.4628  -6.4067  -6.0628
    -5.6647  -5.5146  -5.2797  -4.9091  -4.8691  -4.6879  -4.5441  -4.4302
    -4.2572  -4.0647  -4.0375  -3.8818  -3.6859  -2.4979  -2.3121  -1.5968
    -1.4310  -1.2853  -0.3982  -0.2687   1.1075   1.8970   2.2411   2.3877
     2.6343   2.7928   2.8686

          k =-0.7136-0.0654 0.6946 ( 21216 PWs)   bands (ev):

   -28.0143 -13.7823 -13.5416 -13.3907 -10.7104 -10.2791 -10.0984  -8.3426
    -8.1512  -7.8032  -7.1978  -6.8759  -6.6968  -6.4447  -6.2358  -6.0130
    -5.6950  -5.5289  -5.3442  -4.9537  -4.8228  -4.6651  -4.5195  -4.4639
    -4.2409  -4.1033  -3.9637  -3.7930  -3.6571  -2.4384  -2.3671  -1.6262
    -1.5091  -1.1874  -0.4996  -0.2529   1.0724   1.7564   2.2556   2.2926
     2.6004   2.6987   2.8279

          k =-0.5413 0.3423 0.1009 ( 21216 PWs)   bands (ev):

   -28.0143 -13.7821 -13.5507 -13.3910 -10.7037 -10.1811 -10.0964  -8.4170
    -8.2373  -7.8091  -7.1508  -7.0564  -6.6875  -6.4928  -6.0970  -6.0690
    -5.5385  -5.5195  -5.4311  -4.9690  -4.7459  -4.5679  -4.5611  -4.4033
    -4.2766  -4.1715  -3.9525  -3.8157  -3.6553  -2.4251  -2.3245  -1.5995
    -1.5039  -1.2267  -0.5052   0.0276   1.2461   1.7894   1.9802   2.2972
     2.4927   2.6830   2.8064

     the Fermi energy is    -0.1369 ev

!    total energy              =    -288.16383957 Ry
     Harris-Foulkes estimate   =    -288.16383960 Ry
     estimated scf accuracy    <       0.00000004 Ry

     The total energy is the sum of the following terms:

     one-electron contribution =    -101.04269259 Ry
     hartree contribution      =      66.75439356 Ry
     xc contribution           =     -97.55273230 Ry
     ewald contribution        =     -50.41281240 Ry
     one-center paw contrib.   =    -105.90976887 Ry
     smearing contrib. (-TS)   =      -0.00022698 Ry

     convergence has been achieved in  10 iterations

     negative rho (up, down):  4.681E-07 0.000E+00

     Forces acting on atoms (cartesian axes, Ry/au):

     atom    1 type  1   force =     0.00039778   -0.00628681   -0.00209209
     atom    2 type  1   force =     0.00078318    0.00420567   -0.00368301
     atom    3 type  2   force =     0.00054244   -0.00110829   -0.01337064
     atom    4 type  3   force =    -0.00223099    0.00758492   -0.00859435
     atom    5 type  3   force =     0.00066478    0.00175258    0.00351377
     atom    6 type  4   force =     0.01652894    0.00390556    0.00465915
     atom    7 type  4   force =    -0.00133655   -0.00069946    0.00403558
     atom    8 type  4   force =    -0.00923915    0.00238654    0.01354099
     atom    9 type  4   force =     0.00848763    0.00155341   -0.00333944
     atom   10 type  4   force =    -0.00457786   -0.00831091    0.00917753
     atom   11 type  4   force =    -0.00160948   -0.00231466    0.00381728
     atom   12 type  4   force =     0.00427308   -0.00046559    0.00200497
     atom   13 type  5   force =     0.00476175    0.00092558   -0.00271907
     atom   14 type  5   force =     0.00294450   -0.00160282   -0.00099576
     atom   15 type  5   force =     0.00664848   -0.00204562   -0.00834921
     atom   16 type  5   force =     0.00212957   -0.00316961   -0.00310058
     atom   17 type  5   force =     0.00024566    0.00249960   -0.00463970
     atom   18 type  5   force =    -0.00680335   -0.00645211    0.01205873
     atom   19 type  5   force =     0.00788755    0.00142582    0.00456330
     atom   20 type  5   force =    -0.00109244   -0.00263099    0.00523953
     atom   21 type  5   force =    -0.00715530    0.00084440   -0.00044538
     atom   22 type  5   force =    -0.00168929   -0.00248137   -0.00377418
     atom   23 type  5   force =    -0.00102509    0.00192218   -0.00138173
     atom   24 type  5   force =    -0.00242802    0.00260724   -0.00189249
     atom   25 type  5   force =     0.00084378    0.00130623   -0.00322665
     atom   26 type  5   force =    -0.00000890    0.00371205   -0.01190182
     atom   27 type  5   force =    -0.01364544    0.00307197    0.00579064
     atom   28 type  5   force =    -0.00075422   -0.00306769   -0.00669757
     atom   29 type  5   force =    -0.00172736   -0.00001458   -0.00274290
     atom   30 type  5   force =    -0.00242971   -0.00504108    0.00473198
     atom   31 type  5   force =     0.00849245   -0.00850153    0.00236853
     atom   32 type  5   force =    -0.00031706   -0.00172496    0.00115788
     atom   33 type  5   force =     0.00100791    0.00191066   -0.00947403
     atom   34 type  5   force =    -0.00289478   -0.00102904    0.00070478
     atom   35 type  5   force =    -0.00235872    0.00075015   -0.00544126
     atom   36 type  5   force =     0.00323185    0.00030858    0.00335238
     atom   37 type  5   force =    -0.00366250   -0.00036764   -0.00087308
     atom   38 type  5   force =    -0.00403080    0.01440489   -0.00553262
     atom   39 type  5   force =     0.00551496    0.00171314   -0.00712146
     atom   40 type  5   force =    -0.00883404    0.00369113    0.01123816
     atom   41 type  5   force =    -0.00485685   -0.00208158   -0.00531509
     atom   42 type  5   force =     0.00783990   -0.00097993    0.01143763
     atom   43 type  5   force =     0.00126978   -0.00033926    0.00593979
     atom   44 type  5   force =     0.00021196   -0.00176676    0.00737154

     Total force =     0.061069     Total SCF correction =     0.000209


     Computing stress (Cartesian axis) and pressure


     negative rho (up, down):  4.681E-07 0.000E+00
          total   stress  (Ry/bohr**3)                   (kbar)     P=   -1.04
  -0.00001161  -0.00001331   0.00001717         -1.71     -1.96      2.53
  -0.00001331  -0.00001093   0.00001737         -1.96     -1.61      2.56
   0.00001717   0.00001737   0.00000140          2.53      2.56      0.21


     number of scf cycles    =  44
     number of bfgs steps    =  42

     enthalpy old            =    -288.1502966927 Ry
     enthalpy new            =    -288.1638395670 Ry

     CASE: enthalpy_new < enthalpy_old

     new trust radius        =       0.2081073558 bohr
     new conv_thr            =       0.0000001653 Ry

     new unit-cell volume =   4151.75055 a.u.^3 (   615.22595 Ang^3 )
     density =      1.01867 g/cm^3

CELL_PARAMETERS (angstrom)
   7.575472351  -0.403643763   1.999874849
  -0.255267266  11.181043399   0.811642716
   2.041143406   0.813312452   7.883718658

ATOMIC_POSITIONS (angstrom)
K        5.916341685   6.485640684   3.303086991
K        5.103805069   1.375142362   7.397446324
Ba       6.741649810   8.462479721   7.599333993
Al       3.259047709   4.057713932   5.035580631
Al       1.902086211  10.099384978   6.491771692
B        1.638029956   9.235228076   3.357308596
B        5.313359262   5.943297632   8.040593156
B        7.852980415  10.991462858   8.419981269
B        4.346503530   7.225086257   6.385396606
B        6.433975118   2.107954208   4.232846353
B        5.246595861   3.367617877   4.342776158
B        3.669138051   8.699947012   1.994318162
H        7.340946952   5.037408277   6.375144892
H        2.863847371   8.610357580   3.055600014
H        1.389706594   8.600472666   6.998918276
H        6.908567992  11.031588773   7.660124142
H        1.612939789   4.152402742   3.248020561
H        4.511214800   2.785658521   5.186190852
H        8.303503001   8.117000668   4.954052971
H        4.248877724   8.224907657   7.056974019
H        6.520319595   5.793825430   8.057255396
H        8.325784420   0.838860231   8.195030483
H        5.005436985   7.521684341   5.385693661
H        7.429033447   2.849887037   8.427769167
H        8.066969111   5.033423835   6.566662498
H        1.906263746   9.048289894   4.609272563
H        5.050334624   9.820450057   8.878237910
H        1.390603909   4.499612274   2.612930271
H        3.319727817   6.656515411   6.183250810
H        1.613232250  10.383847208   3.010431590
H        5.664981920   1.265975674   3.774428497
H        2.934870083   2.300765056   1.657120363
H        5.257431791   6.371472359   6.795994617
H        2.190100493   2.177360388   1.667489801
H        4.458895894  -0.175298289   2.132875659
H        7.024849064   3.302519394   7.981749988
H        3.434172534  10.524327115   6.780100682
H        7.482098591   2.062835841   3.579932580
H        6.736160405   1.754670723   5.411557053
H        5.003332046   6.808106191   8.830004388
H        4.354205982   3.527186257   3.440841316
H        5.316882268   4.509355935   4.815737753
H        4.653122372   4.943284176   8.003000692
H        4.406942444   0.563286512   1.942807525



     Writing output data file 00_K2BaAl2B7H32_Monster.save
     NEW-OLD atomic charge density approx. for the potential

     negative rho (up, down):  1.686E-06 0.000E+00
     extrapolated charge   70.23493, renormalised to   71.00000

     total cpu time spent up to now is    54050.1 secs

     Self-consistent Calculation

     iteration #  1     ecut=    50.00 Ry     beta=0.70
     Davidson diagonalization with overlap
     ethr =  1.00E-06,  avg # of iterations = 12.4

     negative rho (up, down):  6.286E-07 0.000E+00

     total cpu time spent up to now is    54105.0 secs

     total energy              =    -288.13349221 Ry
     Harris-Foulkes estimate   =    -288.88339795 Ry
     estimated scf accuracy    <       0.04702536 Ry

     iteration #  2     ecut=    50.00 Ry     beta=0.70
     Davidson diagonalization with overlap
     ethr =  6.62E-05,  avg # of iterations =  5.9

     negative rho (up, down):  6.507E-07 0.000E+00

     total cpu time spent up to now is    54140.0 secs

     total energy              =    -288.16145841 Ry
     Harris-Foulkes estimate   =    -288.21343818 Ry
     estimated scf accuracy    <       0.13570060 Ry

     iteration #  3     ecut=    50.00 Ry     beta=0.70
     Davidson diagonalization with overlap
     ethr =  6.62E-05,  avg # of iterations =  5.0

     negative rho (up, down):  5.996E-07 0.000E+00

     total cpu time spent up to now is    54168.6 secs

     total energy              =    -288.17459390 Ry
     Harris-Foulkes estimate   =    -288.18058742 Ry
     estimated scf accuracy    <       0.01671736 Ry

     iteration #  4     ecut=    50.00 Ry     beta=0.70
     Davidson diagonalization with overlap
     ethr =  2.35E-05,  avg # of iterations =  3.0

     negative rho (up, down):  5.067E-07 0.000E+00

     total cpu time spent up to now is    54192.8 secs

     total energy              =    -288.17478493 Ry
     Harris-Foulkes estimate   =    -288.17722028 Ry
     estimated scf accuracy    <       0.00692141 Ry

     iteration #  5     ecut=    50.00 Ry     beta=0.70
     Davidson diagonalization with overlap
     ethr =  9.75E-06,  avg # of iterations =  4.9

     negative rho (up, down):  4.489E-07 0.000E+00

     total cpu time spent up to now is    54218.6 secs

     total energy              =    -288.17494723 Ry
     Harris-Foulkes estimate   =    -288.17551460 Ry
     estimated scf accuracy    <       0.00126933 Ry

     iteration #  6     ecut=    50.00 Ry     beta=0.70
     Davidson diagonalization with overlap
     ethr =  1.79E-06,  avg # of iterations =  4.4

     negative rho (up, down):  4.349E-07 0.000E+00

     total cpu time spent up to now is    54247.0 secs

     total energy              =    -288.17481562 Ry
     Harris-Foulkes estimate   =    -288.17505389 Ry
     estimated scf accuracy    <       0.00050709 Ry

     iteration #  7     ecut=    50.00 Ry     beta=0.70
     Davidson diagonalization with overlap
     ethr =  7.14E-07,  avg # of iterations =  3.2

     negative rho (up, down):  4.225E-07 0.000E+00

     total cpu time spent up to now is    54271.6 secs

     total energy              =    -288.17481787 Ry
     Harris-Foulkes estimate   =    -288.17486095 Ry
     estimated scf accuracy    <       0.00009440 Ry

     iteration #  8     ecut=    50.00 Ry     beta=0.70
     Davidson diagonalization with overlap
     ethr =  1.33E-07,  avg # of iterations =  3.0

     negative rho (up, down):  4.252E-07 0.000E+00

     total cpu time spent up to now is    54296.9 secs

     total energy              =    -288.17482647 Ry
     Harris-Foulkes estimate   =    -288.17484158 Ry
     estimated scf accuracy    <       0.00002996 Ry

     iteration #  9     ecut=    50.00 Ry     beta=0.70
     Davidson diagonalization with overlap
     ethr =  4.22E-08,  avg # of iterations =  2.0

     negative rho (up, down):  4.232E-07 0.000E+00

     total cpu time spent up to now is    54321.0 secs

     total energy              =    -288.17483246 Ry
     Harris-Foulkes estimate   =    -288.17484042 Ry
     estimated scf accuracy    <       0.00001911 Ry

     iteration # 10     ecut=    50.00 Ry     beta=0.70
     Davidson diagonalization with overlap
     ethr =  2.69E-08,  avg # of iterations =  2.0

     negative rho (up, down):  4.237E-07 0.000E+00

     total cpu time spent up to now is    54343.7 secs

     total energy              =    -288.17483635 Ry
     Harris-Foulkes estimate   =    -288.17483711 Ry
     estimated scf accuracy    <       0.00000203 Ry

     iteration # 11     ecut=    50.00 Ry     beta=0.70
     Davidson diagonalization with overlap
     ethr =  2.86E-09,  avg # of iterations =  2.0

     negative rho (up, down):  4.238E-07 0.000E+00

     total cpu time spent up to now is    54367.1 secs

     End of self-consistent calculation

          k = 0.0000 0.0000 0.0000 ( 21247 PWs)   bands (ev):

   -27.9364 -13.6948 -13.4627 -13.3171 -10.7261 -10.3224  -9.9395  -8.2571
    -8.1687  -7.6692  -7.1312  -6.8033  -6.4876  -6.4061  -6.3096  -5.9800
    -5.6810  -5.6032  -5.2182  -4.8244  -4.7924  -4.6897  -4.5351  -4.4015
    -4.1816  -4.0494  -3.9674  -3.8140  -3.6034  -2.4471  -2.2894  -1.5503
    -1.3937  -1.1887  -0.3257  -0.1928   1.1787   1.9122   2.3408   2.5090
     2.6118   2.8178   2.9851

          k = 0.1490 0.0437-0.5557 ( 21362 PWs)   bands (ev):

   -27.9364 -13.6949 -13.4744 -13.3193 -10.6846 -10.2398  -9.9440  -8.3582
    -8.2273  -7.7129  -7.0905  -7.0591  -6.5291  -6.4525  -6.1047  -5.9982
    -5.5483  -5.4541  -5.3504  -4.8213  -4.7295  -4.5611  -4.4993  -4.4044
    -4.2902  -4.0043  -3.9200  -3.8599  -3.6395  -2.4072  -2.2425  -1.5444
    -1.4273  -1.2202  -0.3222   0.0862   1.2267   1.5887   2.1552   2.3547
     2.5674   2.7524   2.9280

          k = 0.1174-0.3217-0.5098 ( 21216 PWs)   bands (ev):

   -27.9364 -13.6949 -13.4744 -13.3193 -10.6829 -10.2390  -9.9458  -8.3729
    -8.2092  -7.7242  -7.0772  -7.0660  -6.5536  -6.4017  -6.1268  -5.9892
    -5.5489  -5.4528  -5.3634  -4.8214  -4.7328  -4.5673  -4.5129  -4.4072
    -4.2606  -3.9701  -3.9445  -3.8527  -3.6586  -2.4143  -2.2283  -1.5505
    -1.4385  -1.2066  -0.3260   0.0889   1.2269   1.5522   2.1644   2.3879
     2.5664   2.7497   2.8967

          k =-0.4572-0.3458-0.3585 ( 21368 PWs)   bands (ev):

   -27.9364 -13.6996 -13.4640 -13.3188 -10.6723 -10.3487  -9.9385  -8.2488
    -8.1755  -7.7089  -7.1320  -6.7869  -6.6415  -6.4397  -6.1638  -5.9708
    -5.6649  -5.4865  -5.3569  -4.9505  -4.7477  -4.6493  -4.4855  -4.3983
    -4.1945  -4.0493  -3.9413  -3.7456  -3.5603  -2.4095  -2.3356  -1.5942
    -1.4605  -1.0781  -0.4369  -0.1949   1.1588   1.8501   2.2286   2.3856
     2.5759   2.8359   2.9861

          k =-0.5747-0.0241 0.1513 ( 21362 PWs)   bands (ev):

   -27.9364 -13.6990 -13.4756 -13.3195 -10.6617 -10.2508  -9.9331  -8.3895
    -8.1525  -7.7219  -7.1514  -7.0596  -6.5661  -6.3994  -6.0391  -6.0228
    -5.5789  -5.5013  -5.4342  -4.8975  -4.7097  -4.5492  -4.4495  -4.3762
    -4.2160  -4.1353  -3.9142  -3.7472  -3.6210  -2.3646  -2.3115  -1.5349
    -1.4768  -1.1229  -0.4325   0.1006   1.3673   1.8978   2.1956   2.3431
     2.5776   2.6746   2.8481

          k =-0.0316-0.3655 0.0459 ( 21362 PWs)   bands (ev):

   -27.9364 -13.6949 -13.4627 -13.3171 -10.7222 -10.3262  -9.9409  -8.2515
    -8.1743  -7.6722  -7.1463  -6.7872  -6.4374  -6.3925  -6.3635  -5.9985
    -5.6744  -5.5730  -5.2483  -4.8417  -4.7851  -4.6803  -4.5274  -4.3954
    -4.1921  -4.0303  -3.9894  -3.8151  -3.6115  -2.4586  -2.2670  -1.5471
    -1.3950  -1.1814  -0.3393  -0.2041   1.1989   1.9698   2.3076   2.4518
     2.6789   2.7952   2.9309

          k =-0.7237-0.0678 0.7070 ( 21216 PWs)   bands (ev):

   -27.9364 -13.6995 -13.4640 -13.3188 -10.6740 -10.3475  -9.9376  -8.2971
    -8.0998  -7.7142  -7.1716  -6.8066  -6.6330  -6.4121  -6.1652  -5.9425
    -5.6830  -5.5082  -5.3416  -4.9210  -4.7590  -4.6489  -4.4964  -4.4173
    -4.1747  -4.0506  -3.9345  -3.7404  -3.5800  -2.3845  -2.3557  -1.5815
    -1.4613  -1.0782  -0.4449  -0.1838   1.1524   1.8473   2.2889   2.3849
     2.6287   2.7486   2.9095

          k =-0.5431 0.3414 0.1054 ( 21216 PWs)   bands (ev):

   -27.9364 -13.6990 -13.4756 -13.3195 -10.6604 -10.2502  -9.9349  -8.3643
    -8.1889  -7.7280  -7.1520  -7.0078  -6.5999  -6.4083  -6.0420  -6.0075
    -5.5733  -5.4986  -5.4370  -4.9149  -4.7122  -4.5427  -4.4740  -4.3439
    -4.2209  -4.1255  -3.9184  -3.7631  -3.5961  -2.3897  -2.2911  -1.5436
    -1.4667  -1.1219  -0.4508   0.1129   1.3486   1.8702   2.1474   2.3482
     2.5224   2.7235   2.8443

     the Fermi energy is    -0.0628 ev

!    total energy              =    -288.17483672 Ry
     Harris-Foulkes estimate   =    -288.17483680 Ry
     estimated scf accuracy    <       0.00000010 Ry

     The total energy is the sum of the following terms:

     one-electron contribution =     -99.72740323 Ry
     hartree contribution      =      66.24649356 Ry
     xc contribution           =     -97.58259123 Ry
     ewald contribution        =     -51.20577745 Ry
     one-center paw contrib.   =    -105.90589139 Ry
     smearing contrib. (-TS)   =       0.00033303 Ry

     convergence has been achieved in  11 iterations

     negative rho (up, down):  4.238E-07 0.000E+00

     Forces acting on atoms (cartesian axes, Ry/au):

     atom    1 type  1   force =    -0.00046955   -0.00750466   -0.00113702
     atom    2 type  1   force =     0.00187688    0.00342987   -0.00350647
     atom    3 type  2   force =    -0.00143078   -0.00158614   -0.01552950
     atom    4 type  3   force =     0.00616957    0.00734417   -0.00538658
     atom    5 type  3   force =     0.00156700    0.00035213   -0.00006040
     atom    6 type  4   force =     0.02065229   -0.00364764    0.01611984
     atom    7 type  4   force =    -0.00955619    0.00463074    0.00699810
     atom    8 type  4   force =    -0.01266911   -0.00390330    0.01244089
     atom    9 type  4   force =     0.01352914    0.01255617   -0.00650346
     atom   10 type  4   force =     0.00255770   -0.01360284    0.00686836
     atom   11 type  4   force =    -0.00365801   -0.01593497   -0.00591457
     atom   12 type  4   force =     0.00384488    0.00072877   -0.00443010
     atom   13 type  5   force =     0.00072800    0.00091916   -0.00411815
     atom   14 type  5   force =     0.00205785   -0.00179574    0.00105765
     atom   15 type  5   force =     0.00868542    0.00080787   -0.00620132
     atom   16 type  5   force =     0.00213505   -0.00064825   -0.00291212
     atom   17 type  5   force =    -0.00056482    0.00291837   -0.00598560
     atom   18 type  5   force =    -0.00482531   -0.00237396    0.01395846
     atom   19 type  5   force =     0.00749732   -0.00081712    0.00520296
     atom   20 type  5   force =    -0.00124209   -0.00125406    0.00582653
     atom   21 type  5   force =     0.00005264   -0.00028147   -0.00142970
     atom   22 type  5   force =    -0.00142263    0.00133398   -0.00147704
     atom   23 type  5   force =    -0.00321817   -0.00038143    0.00250278
     atom   24 type  5   force =    -0.00040619    0.00028733    0.00059641
     atom   25 type  5   force =     0.00534205    0.00114112   -0.00225678
     atom   26 type  5   force =    -0.00575866    0.00579962   -0.02010294
     atom   27 type  5   force =    -0.00975569    0.00176715    0.00676749
     atom   28 type  5   force =    -0.00103427   -0.00374557   -0.00688442
     atom   29 type  5   force =    -0.00473516   -0.00572686   -0.00340377
     atom   30 type  5   force =    -0.00068025    0.00340887    0.00273214
     atom   31 type  5   force =     0.00676278   -0.01591096    0.00160383
     atom   32 type  5   force =    -0.00117784   -0.00180735    0.00146867
     atom   33 type  5   force =     0.00305430   -0.00219614   -0.00570930
     atom   34 type  5   force =    -0.00229556   -0.00057918    0.00131058
     atom   35 type  5   force =    -0.00272188    0.00944260   -0.00724616
     atom   36 type  5   force =     0.00076284    0.00271777    0.00083882
     atom   37 type  5   force =    -0.00470186   -0.00251352    0.00045373
     atom   38 type  5   force =    -0.00636556    0.01423797   -0.00209085
     atom   39 type  5   force =    -0.00034892    0.00772784   -0.01439592
     atom   40 type  5   force =    -0.00797069    0.00087477    0.00686167
     atom   41 type  5   force =     0.00177117    0.00036487   -0.00133866
     atom   42 type  5   force =    -0.00312312    0.01441076    0.01889805
     atom   43 type  5   force =     0.00058754   -0.00136224    0.00525807
     atom   44 type  5   force =     0.00049790   -0.00962850    0.01025581

     Total force =     0.077180     Total SCF correction =     0.000327


     Computing stress (Cartesian axis) and pressure


     negative rho (up, down):  4.238E-07 0.000E+00
          total   stress  (Ry/bohr**3)                   (kbar)     P=   -0.63
  -0.00002087  -0.00001697   0.00000679         -3.07     -2.50      1.00
  -0.00001697   0.00000554   0.00002469         -2.50      0.81      3.63
   0.00000679   0.00002469   0.00000241          1.00      3.63      0.36


     number of scf cycles    =  45
     number of bfgs steps    =  43

     enthalpy old            =    -288.1638395670 Ry
     enthalpy new            =    -288.1748367156 Ry

     CASE: enthalpy_new < enthalpy_old

     new trust radius        =       0.1877782132 bohr
     new conv_thr            =       0.0000002065 Ry

     new unit-cell volume =   4100.79278 a.u.^3 (   607.67479 Ang^3 )
     density =      1.03133 g/cm^3

CELL_PARAMETERS (angstrom)
   7.560910073  -0.425681621   2.066536506
  -0.269179005  11.177494954   0.832975694
   2.101019101   0.842452726   7.852429551

ATOMIC_POSITIONS (angstrom)
K        5.917596363   6.434409439   3.344073490
K        5.133997917   1.420292630   7.394424804
Ba       6.764757885   8.486199191   7.621131266
Al       3.206008252   4.044638405   4.984488370
Al       1.924106695  10.121913374   6.516371120
B        1.673523930   9.241911989   3.382859693
B        5.341344787   5.974628903   8.066764401
B        7.861199501  10.988891064   8.494899317
B        4.374280558   7.223458882   6.402232786
B        6.440295027   2.096841188   4.312376412
B        5.236972825   3.314983061   4.395929673
B        3.640460849   8.719659713   2.037444977
H        7.363197272   5.047233138   6.421663885
H        2.883610776   8.590397719   3.105131622
H        1.407539801   8.595246538   6.943391109
H        6.934752023  11.002428356   7.706260995
H        1.615806884   4.166589048   3.236563753
H        4.474365169   2.779906608   5.226905653
H        8.323298682   8.100729392   5.042270689
H        4.276696930   8.213856783   7.082231100
H        6.540808830   5.819864930   8.082464880
H        8.352390483   0.853050623   8.220890203
H        5.021998084   7.549275079   5.400719616
H        7.476356145   2.858073799   8.463424441
H        8.086822587   5.043099428   6.617344200
H        1.948615788   9.062035332   4.634962929
H        5.053206575   9.858969848   8.915078974
H        1.385820809   4.488011366   2.586951857
H        3.338604922   6.681670568   6.193061941
H        1.611238781  10.382506680   3.029575950
H        5.700724075   1.246036800   3.827588922
H        2.924898480   2.268302826   1.678944702
H        5.287027412   6.380785465   6.806398961
H        2.177785448   2.161715543   1.673992071
H        4.439337761  -0.194817627   2.136204727
H        7.073364226   3.315443410   8.023599889
H        3.448140485  10.565590866   6.795101849
H        7.464011622   2.127546329   3.606297528
H        6.800717069   1.707649179   5.462198549
H        5.030008962   6.837428976   8.859857982
H        4.373025671   3.496325911   3.470578338
H        5.417463876   4.507084260   4.889504937
H        4.705083008   4.964073616   8.042950057
H        4.418125511   0.529444069   2.001428364



     Writing output data file 00_K2BaAl2B7H32_Monster.save
     NEW-OLD atomic charge density approx. for the potential

     negative rho (up, down):  1.849E-06 0.000E+00
     extrapolated charge   70.11847, renormalised to   71.00000

     total cpu time spent up to now is    55193.5 secs

     Self-consistent Calculation

     iteration #  1     ecut=    50.00 Ry     beta=0.70
     Davidson diagonalization with overlap
     ethr =  1.00E-06,  avg # of iterations = 14.2

     negative rho (up, down):  5.131E-07 0.000E+00

     total cpu time spent up to now is    55250.0 secs

     total energy              =    -288.10828347 Ry
     Harris-Foulkes estimate   =    -288.98770812 Ry
     estimated scf accuracy    <       0.08254733 Ry

     iteration #  2     ecut=    50.00 Ry     beta=0.70
     Davidson diagonalization with overlap
     ethr =  1.16E-04,  avg # of iterations =  7.0

     negative rho (up, down):  3.213E-07 0.000E+00

     total cpu time spent up to now is    55285.6 secs

     total energy              =    -288.15234492 Ry
     Harris-Foulkes estimate   =    -288.25872027 Ry
     estimated scf accuracy    <       0.28788943 Ry

     iteration #  3     ecut=    50.00 Ry     beta=0.70
     Davidson diagonalization with overlap
     ethr =  1.16E-04,  avg # of iterations =  6.6

     negative rho (up, down):  2.755E-07 0.000E+00

     total cpu time spent up to now is    55316.1 secs

     total energy              =    -288.18274330 Ry
     Harris-Foulkes estimate   =    -288.19243505 Ry
     estimated scf accuracy    <       0.02786376 Ry

     iteration #  4     ecut=    50.00 Ry     beta=0.70
     Davidson diagonalization with overlap
     ethr =  3.92E-05,  avg # of iterations =  4.8

     negative rho (up, down):  2.726E-07 0.000E+00

     total cpu time spent up to now is    55341.6 secs

     total energy              =    -288.18274237 Ry
     Harris-Foulkes estimate   =    -288.18651180 Ry
     estimated scf accuracy    <       0.01234985 Ry

     iteration #  5     ecut=    50.00 Ry     beta=0.70
     Davidson diagonalization with overlap
     ethr =  1.74E-05,  avg # of iterations =  4.4

     negative rho (up, down):  2.615E-07 0.000E+00

     total cpu time spent up to now is    55366.3 secs

     total energy              =    -288.18242168 Ry
     Harris-Foulkes estimate   =    -288.18364593 Ry
     estimated scf accuracy    <       0.00277391 Ry

     iteration #  6     ecut=    50.00 Ry     beta=0.70
     Davidson diagonalization with overlap
     ethr =  3.91E-06,  avg # of iterations =  5.1

     negative rho (up, down):  2.698E-07 0.000E+00

     total cpu time spent up to now is    55395.0 secs

     total energy              =    -288.18259120 Ry
     Harris-Foulkes estimate   =    -288.18279505 Ry
     estimated scf accuracy    <       0.00041757 Ry

     iteration #  7     ecut=    50.00 Ry     beta=0.70
     Davidson diagonalization with overlap
     ethr =  5.88E-07,  avg # of iterations =  3.0

     negative rho (up, down):  2.750E-07 0.000E+00

     total cpu time spent up to now is    55420.2 secs

     total energy              =    -288.18250623 Ry
     Harris-Foulkes estimate   =    -288.18260752 Ry
     estimated scf accuracy    <       0.00020358 Ry

     iteration #  8     ecut=    50.00 Ry     beta=0.70
     Davidson diagonalization with overlap
     ethr =  2.87E-07,  avg # of iterations =  3.0

     negative rho (up, down):  2.754E-07 0.000E+00

     total cpu time spent up to now is    55444.8 secs

     total energy              =    -288.18239786 Ry
     Harris-Foulkes estimate   =    -288.18248872 Ry
     estimated scf accuracy    <       0.00014897 Ry

     iteration #  9     ecut=    50.00 Ry     beta=0.70
     Davidson diagonalization with overlap
     ethr =  2.10E-07,  avg # of iterations =  4.1

     negative rho (up, down):  2.804E-07 0.000E+00

     total cpu time spent up to now is    55472.9 secs

     total energy              =    -288.18240998 Ry
     Harris-Foulkes estimate   =    -288.18244863 Ry
     estimated scf accuracy    <       0.00010300 Ry

     iteration # 10     ecut=    50.00 Ry     beta=0.70
     Davidson diagonalization with overlap
     ethr =  1.45E-07,  avg # of iterations =  2.0

     negative rho (up, down):  2.787E-07 0.000E+00

     total cpu time spent up to now is    55495.7 secs

     total energy              =    -288.18242854 Ry
     Harris-Foulkes estimate   =    -288.18243035 Ry
     estimated scf accuracy    <       0.00000318 Ry

     iteration # 11     ecut=    50.00 Ry     beta=0.70
     Davidson diagonalization with overlap
     ethr =  4.48E-09,  avg # of iterations =  3.0

     negative rho (up, down):  2.789E-07 0.000E+00

     total cpu time spent up to now is    55523.6 secs

     total energy              =    -288.18242938 Ry
     Harris-Foulkes estimate   =    -288.18243044 Ry
     estimated scf accuracy    <       0.00000238 Ry

     iteration # 12     ecut=    50.00 Ry     beta=0.70
     Davidson diagonalization with overlap
     ethr =  3.35E-09,  avg # of iterations =  2.0

     negative rho (up, down):  2.786E-07 0.000E+00

     total cpu time spent up to now is    55546.4 secs

     End of self-consistent calculation

          k = 0.0000 0.0000 0.0000 ( 21247 PWs)   bands (ev):

   -27.8309 -13.6085 -13.3608 -13.2191 -10.6877 -10.3655  -9.7590  -8.2092
    -8.1000  -7.5924  -7.1163  -6.7852  -6.4541  -6.3313  -6.2665  -6.0052
    -5.6804  -5.6430  -5.1840  -4.7556  -4.7070  -4.6079  -4.4403  -4.3439
    -4.1063  -3.9987  -3.9183  -3.7464  -3.5251  -2.4012  -2.2315  -1.5708
    -1.3490  -1.1404  -0.2733  -0.1249   1.3050   2.0052   2.3555   2.6069
     2.6558   2.8508   3.0917

          k = 0.1560 0.0456-0.5613 ( 21362 PWs)   bands (ev):

   -27.8309 -13.6084 -13.3759 -13.2218 -10.6248 -10.2972  -9.7615  -8.2976
    -8.1764  -7.6304  -7.0834  -7.0559  -6.4929  -6.3763  -6.1138  -5.9832
    -5.5390  -5.4981  -5.3182  -4.7299  -4.6621  -4.4621  -4.3752  -4.3649
    -4.2395  -3.9633  -3.8607  -3.7797  -3.5676  -2.3610  -2.1912  -1.5320
    -1.3906  -1.1769  -0.2784   0.1700   1.3204   1.7132   2.2311   2.4712
     2.6367   2.8097   3.0279

          k = 0.1222-0.3204-0.5130 ( 21216 PWs)   bands (ev):

   -27.8308 -13.6084 -13.3759 -13.2218 -10.6234 -10.2961  -9.7634  -8.3141
    -8.1567  -7.6436  -7.0671  -7.0623  -6.4855  -6.3587  -6.1463  -5.9645
    -5.5399  -5.4964  -5.3287  -4.7315  -4.6652  -4.4721  -4.3982  -4.3582
    -4.2130  -3.9429  -3.8603  -3.7776  -3.5851  -2.3734  -2.1708  -1.5385
    -1.4056  -1.1593  -0.2844   0.1751   1.3186   1.6696   2.2759   2.4507
     2.6558   2.7957   2.9804

          k =-0.4569-0.3461-0.3553 ( 21368 PWs)   bands (ev):

   -27.8308 -13.6132 -13.3622 -13.2208 -10.6252 -10.4013  -9.7550  -8.1974
    -8.1158  -7.6325  -7.1172  -6.7811  -6.6049  -6.3918  -6.0941  -5.9995
    -5.6503  -5.4988  -5.3083  -4.9055  -4.6754  -4.5610  -4.3785  -4.3538
    -4.1282  -3.9761  -3.9107  -3.6646  -3.4964  -2.3846  -2.2741  -1.6023
    -1.4321  -1.0196  -0.3635  -0.1333   1.2798   1.9672   2.2431   2.4820
     2.6318   2.9021   3.0908

          k =-0.5790-0.0257 0.1577 ( 21362 PWs)   bands (ev):

   -27.8309 -13.6123 -13.3773 -13.2219 -10.5978 -10.3111  -9.7502  -8.3327
    -8.0990  -7.6393  -7.1512  -7.0600  -6.5078  -6.3367  -6.0517  -6.0010
    -5.6294  -5.4651  -5.4000  -4.8187  -4.6540  -4.4529  -4.3578  -4.2914
    -4.1534  -4.0705  -3.8832  -3.6695  -3.5580  -2.3366  -2.2571  -1.5396
    -1.4341  -1.0681  -0.3730   0.1860   1.5010   1.9792   2.3444   2.4257
     2.5786   2.7692   2.9100

          k =-0.0338-0.3660 0.0483 ( 21362 PWs)   bands (ev):

   -27.8309 -13.6086 -13.3608 -13.2191 -10.6835 -10.3690  -9.7611  -8.2017
    -8.1090  -7.5955  -7.1268  -6.7654  -6.4092  -6.3350  -6.3073  -6.0241
    -5.6950  -5.5869  -5.2152  -4.7729  -4.6969  -4.5999  -4.4361  -4.3322
    -4.1179  -3.9900  -3.9340  -3.7506  -3.5297  -2.4143  -2.2062  -1.5678
    -1.3509  -1.1319  -0.2834  -0.1412   1.3282   2.0504   2.3523   2.5048
     2.7852   2.8046   3.0510

          k =-0.7350-0.0713 0.7190 ( 21216 PWs)   bands (ev):

   -27.8308 -13.6132 -13.3622 -13.2208 -10.6273 -10.3997  -9.7543  -8.2447
    -8.0378  -7.6383  -7.1627  -6.7977  -6.5936  -6.3638  -6.0981  -5.9739
    -5.6788  -5.4987  -5.3018  -4.8782  -4.6852  -4.5618  -4.3955  -4.3682
    -4.1109  -3.9662  -3.9105  -3.6583  -3.5157  -2.3483  -2.3088  -1.5869
    -1.4331  -1.0210  -0.3749  -0.1152   1.2701   1.9541   2.3113   2.4768
     2.6497   2.8298   3.0390

          k =-0.5452 0.3403 0.1094 ( 21216 PWs)   bands (ev):

   -27.8308 -13.6123 -13.3773 -13.2219 -10.5967 -10.3105  -9.7518  -8.3060
    -8.1379  -7.6458  -7.1552  -7.0042  -6.5526  -6.3324  -6.0508  -5.9903
    -5.6254  -5.4625  -5.4027  -4.8350  -4.6547  -4.4492  -4.3780  -4.2577
    -4.1585  -4.0766  -3.8768  -3.6858  -3.5324  -2.3617  -2.2348  -1.5480
    -1.4260  -1.0674  -0.3866   0.1943   1.4827   1.9413   2.2832   2.4348
     2.5644   2.7956   2.9090

     the Fermi energy is     0.0089 ev

!    total energy              =    -288.18242983 Ry
     Harris-Foulkes estimate   =    -288.18242999 Ry
     estimated scf accuracy    <       0.00000018 Ry

     The total energy is the sum of the following terms:

     one-electron contribution =     -98.55122951 Ry
     hartree contribution      =      65.82128476 Ry
     xc contribution           =     -97.62167854 Ry
     ewald contribution        =     -51.92888010 Ry
     one-center paw contrib.   =    -105.90277785 Ry
     smearing contrib. (-TS)   =       0.00085141 Ry

     convergence has been achieved in  12 iterations

     negative rho (up, down):  2.786E-07 0.000E+00

     Forces acting on atoms (cartesian axes, Ry/au):

     atom    1 type  1   force =    -0.00100517   -0.00700605   -0.00095971
     atom    2 type  1   force =     0.00284245    0.00177389   -0.00289895
     atom    3 type  2   force =    -0.00193923   -0.00197730   -0.01680131
     atom    4 type  3   force =     0.01295289    0.00805926   -0.00015418
     atom    5 type  3   force =    -0.00065728   -0.00104706   -0.00337858
     atom    6 type  4   force =     0.01541968   -0.00829996    0.01708461
     atom    7 type  4   force =    -0.01186280    0.00469385    0.00636397
     atom    8 type  4   force =    -0.01638335   -0.00786191    0.01090188
     atom    9 type  4   force =     0.01469519    0.01869574   -0.00794405
     atom   10 type  4   force =     0.01052996   -0.01910687   -0.00634510
     atom   11 type  4   force =     0.00838132    0.02987797    0.01138288
     atom   12 type  4   force =     0.00680522    0.00276907   -0.00697541
     atom   13 type  5   force =    -0.00107960    0.00089607   -0.00491475
     atom   14 type  5   force =     0.00338253   -0.00237543    0.00475743
     atom   15 type  5   force =     0.01026228    0.00312891   -0.00388349
     atom   16 type  5   force =     0.00428761    0.00379274   -0.00027495
     atom   17 type  5   force =    -0.00185952    0.00402514   -0.00883888
     atom   18 type  5   force =    -0.00963917   -0.00341970    0.01976204
     atom   19 type  5   force =     0.00899330   -0.00147443    0.00724681
     atom   20 type  5   force =    -0.00219259    0.00238933    0.00688900
     atom   21 type  5   force =     0.00571559    0.00102706   -0.00150302
     atom   22 type  5   force =    -0.00277723    0.00176246   -0.00123339
     atom   23 type  5   force =    -0.00283829   -0.00231387    0.00429614
     atom   24 type  5   force =     0.00042586   -0.00079254    0.00161338
     atom   25 type  5   force =     0.00740938    0.00097668   -0.00169223
     atom   26 type  5   force =    -0.00775144    0.00638220   -0.02239836
     atom   27 type  5   force =    -0.00904869    0.00131826    0.00277466
     atom   28 type  5   force =    -0.00076779   -0.00499989   -0.00525789
     atom   29 type  5   force =    -0.00659816   -0.01032024   -0.00353200
     atom   30 type  5   force =     0.00253494    0.00796813    0.00195238
     atom   31 type  5   force =     0.00621341   -0.02085512    0.00169059
     atom   32 type  5   force =    -0.00100177   -0.00175833    0.00176756
     atom   33 type  5   force =     0.00376795   -0.00512254   -0.00297686
     atom   34 type  5   force =    -0.00275474   -0.00033011    0.00203793
     atom   35 type  5   force =    -0.00117200   -0.02535705    0.00124158
     atom   36 type  5   force =    -0.00034514    0.00397003   -0.00015663
     atom   37 type  5   force =    -0.00259027   -0.00394899    0.00218305
     atom   38 type  5   force =    -0.00890275    0.01108333    0.00303243
     atom   39 type  5   force =    -0.00362016    0.01159200   -0.01596871
     atom   40 type  5   force =    -0.00767870    0.00036683    0.00439823
     atom   41 type  5   force =     0.00533560    0.00224128   -0.00218786
     atom   42 type  5   force =    -0.02104383   -0.02373131    0.00127400
     atom   43 type  5   force =    -0.00329601   -0.00317359    0.00470287
     atom   44 type  5   force =    -0.00114947    0.02648209    0.00292286

     Total force =     0.100320     Total SCF correction =     0.000485


     Computing stress (Cartesian axis) and pressure


     negative rho (up, down):  2.786E-07 0.000E+00
          total   stress  (Ry/bohr**3)                   (kbar)     P=    0.17
  -0.00002053  -0.00002397  -0.00000578         -3.02     -3.53     -0.85
  -0.00002397   0.00001495   0.00001345         -3.53      2.20      1.98
  -0.00000578   0.00001345   0.00000908         -0.85      1.98      1.34


     number of scf cycles    =  46
     number of bfgs steps    =  44

     enthalpy old            =    -288.1748367156 Ry
     enthalpy new            =    -288.1824298347 Ry

     CASE: enthalpy_new < enthalpy_old

     new trust radius        =       0.1334998643 bohr
     new conv_thr            =       0.0000002988 Ry

     new unit-cell volume =   4062.48640 a.u.^3 (   601.99837 Ang^3 )
     density =      1.04106 g/cm^3

CELL_PARAMETERS (angstrom)
   7.550179651  -0.439811824   2.114424287
  -0.277267570  11.181870806   0.850967386
   2.142907025   0.866011544   7.823398100

ATOMIC_POSITIONS (angstrom)
K        5.917916963   6.405605825   3.371542149
K        5.156061513   1.451008291   7.386510245
Ba       6.770652418   8.506482666   7.625791593
Al       3.170480592   4.058155829   4.952096447
Al       1.936128677  10.144094946   6.523698203
B        1.699758748   9.251014278   3.404732358
B        5.359996393   6.006380410   8.081414221
B        7.866257506  10.996654245   8.545071585
B        4.394646363   7.234636056   6.414949526
B        6.447597051   2.076735978   4.355120252
B        5.245687629   3.309948126   4.453711245
B        3.622585915   8.757128146   2.072974525
H        7.378903949   5.062735354   6.451884256
H        2.912095717   8.589439557   3.159871315
H        1.421421340   8.604012883   6.903862142
H        6.955854872  11.007663288   7.743662455
H        1.616409854   4.181244034   3.224178551
H        4.444295603   2.779967926   5.265521009
H        8.344084758   8.096079684   5.115079472
H        4.297225490   8.221180107   7.098846149
H        6.558198265   5.844512358   8.097740992
H        8.367141574   0.868889327   8.232719694
H        5.034492278   7.564784228   5.412884897
H        7.512561903   2.870762873   8.486799366
H        8.103085396   5.059454681   6.654405955
H        1.976288750   9.079644399   4.636994582
H        5.049204638   9.892088346   8.931726743
H        1.383727185   4.482495761   2.566603905
H        3.358668420   6.703215254   6.196090567
H        1.615869616  10.385584426   3.043635185
H        5.725199024   1.220207767   3.859365520
H        2.916653937   2.242044438   1.692423351
H        5.307592512   6.386545670   6.809223517
H        2.167053651   2.151876028   1.677427952
H        4.425330019  -0.230338870   2.135177572
H        7.110182199   3.336301026   8.051535185
H        3.459265740  10.590498768   6.802284848
H        7.453455837   2.171123093   3.626287836
H        6.838668914   1.689642231   5.487769650
H        5.048061301   6.865481610   8.876408224
H        4.397194424   3.471105890   3.494652068
H        5.466113028   4.477969939   4.914065835
H        4.735262260   4.983048309   8.064475929
H        4.428783696   0.528927033   2.050447182



     Writing output data file 00_K2BaAl2B7H32_Monster.save
     NEW-OLD atomic charge density approx. for the potential

     negative rho (up, down):  4.254E-06 0.000E+00
     extrapolated charge   70.33108, renormalised to   71.00000

     total cpu time spent up to now is    56373.1 secs

     Self-consistent Calculation

     iteration #  1     ecut=    50.00 Ry     beta=0.70
     Davidson diagonalization with overlap
     ethr =  1.00E-06,  avg # of iterations = 12.5

     negative rho (up, down):  2.219E-07 0.000E+00

     total cpu time spent up to now is    56426.4 secs

     total energy              =    -288.16616898 Ry
     Harris-Foulkes estimate   =    -288.79539537 Ry
     estimated scf accuracy    <       0.02723823 Ry

     iteration #  2     ecut=    50.00 Ry     beta=0.70
     Davidson diagonalization with overlap
     ethr =  3.84E-05,  avg # of iterations =  6.5

     negative rho (up, down):  4.730E-08 0.000E+00

     total cpu time spent up to now is    56462.1 secs

     total energy              =    -288.18370144 Ry
     Harris-Foulkes estimate   =    -288.21198759 Ry
     estimated scf accuracy    <       0.07306259 Ry

     iteration #  3     ecut=    50.00 Ry     beta=0.70
     Davidson diagonalization with overlap
     ethr =  3.84E-05,  avg # of iterations =  5.4

     negative rho (up, down):  3.093E-08 0.000E+00

     total cpu time spent up to now is    56491.1 secs

     total energy              =    -288.19112832 Ry
     Harris-Foulkes estimate   =    -288.19421400 Ry
     estimated scf accuracy    <       0.00835519 Ry

     iteration #  4     ecut=    50.00 Ry     beta=0.70
     Davidson diagonalization with overlap
     ethr =  1.18E-05,  avg # of iterations =  3.2

     negative rho (up, down):  5.863E-08 0.000E+00

     total cpu time spent up to now is    56515.2 secs

     total energy              =    -288.19132149 Ry
     Harris-Foulkes estimate   =    -288.19253733 Ry
     estimated scf accuracy    <       0.00325655 Ry

     iteration #  5     ecut=    50.00 Ry     beta=0.70
     Davidson diagonalization with overlap
     ethr =  4.59E-06,  avg # of iterations =  5.0

     negative rho (up, down):  7.339E-08 0.000E+00

     total cpu time spent up to now is    56542.6 secs

     total energy              =    -288.19160147 Ry
     Harris-Foulkes estimate   =    -288.19174680 Ry
     estimated scf accuracy    <       0.00030736 Ry

     iteration #  6     ecut=    50.00 Ry     beta=0.70
     Davidson diagonalization with overlap
     ethr =  4.33E-07,  avg # of iterations =  3.1

     negative rho (up, down):  8.385E-08 0.000E+00

     total cpu time spent up to now is    56568.7 secs

     total energy              =    -288.19163154 Ry
     Harris-Foulkes estimate   =    -288.19166116 Ry
     estimated scf accuracy    <       0.00006521 Ry

     iteration #  7     ecut=    50.00 Ry     beta=0.70
     Davidson diagonalization with overlap
     ethr =  9.18E-08,  avg # of iterations =  2.9

     negative rho (up, down):  8.878E-08 0.000E+00

     total cpu time spent up to now is    56593.8 secs

     total energy              =    -288.19161732 Ry
     Harris-Foulkes estimate   =    -288.19163475 Ry
     estimated scf accuracy    <       0.00003339 Ry

     iteration #  8     ecut=    50.00 Ry     beta=0.70
     Davidson diagonalization with overlap
     ethr =  4.70E-08,  avg # of iterations =  3.0

     negative rho (up, down):  8.930E-08 0.000E+00

     total cpu time spent up to now is    56619.1 secs

     total energy              =    -288.19160152 Ry
     Harris-Foulkes estimate   =    -288.19161314 Ry
     estimated scf accuracy    <       0.00002293 Ry

     iteration #  9     ecut=    50.00 Ry     beta=0.70
     Davidson diagonalization with overlap
     ethr =  3.23E-08,  avg # of iterations =  2.9

     negative rho (up, down):  8.952E-08 0.000E+00

     total cpu time spent up to now is    56644.4 secs

     total energy              =    -288.19158829 Ry
     Harris-Foulkes estimate   =    -288.19159889 Ry
     estimated scf accuracy    <       0.00001651 Ry

     iteration # 10     ecut=    50.00 Ry     beta=0.70
     Davidson diagonalization with overlap
     ethr =  2.32E-08,  avg # of iterations =  3.1

     negative rho (up, down):  8.982E-08 0.000E+00

     total cpu time spent up to now is    56672.0 secs

     total energy              =    -288.19158291 Ry
     Harris-Foulkes estimate   =    -288.19158472 Ry
     estimated scf accuracy    <       0.00000404 Ry

     iteration # 11     ecut=    50.00 Ry     beta=0.70
     Davidson diagonalization with overlap
     ethr =  5.69E-09,  avg # of iterations =  3.4

     negative rho (up, down):  8.900E-08 0.000E+00

     total cpu time spent up to now is    56701.7 secs

     total energy              =    -288.19158117 Ry
     Harris-Foulkes estimate   =    -288.19158532 Ry
     estimated scf accuracy    <       0.00000604 Ry

     iteration # 12     ecut=    50.00 Ry     beta=0.70
     Davidson diagonalization with overlap
     ethr =  5.69E-09,  avg # of iterations =  4.0

     negative rho (up, down):  8.871E-08 0.000E+00

     total cpu time spent up to now is    56732.0 secs

     total energy              =    -288.19158320 Ry
     Harris-Foulkes estimate   =    -288.19158665 Ry
     estimated scf accuracy    <       0.00000501 Ry

     iteration # 13     ecut=    50.00 Ry     beta=0.70
     Davidson diagonalization with overlap
     ethr =  5.69E-09,  avg # of iterations =  3.0

     negative rho (up, down):  8.862E-08 0.000E+00

     total cpu time spent up to now is    56759.0 secs

     total energy              =    -288.19158302 Ry
     Harris-Foulkes estimate   =    -288.19158322 Ry
     estimated scf accuracy    <       0.00000036 Ry

     iteration # 14     ecut=    50.00 Ry     beta=0.70
     Davidson diagonalization with overlap
     ethr =  5.02E-10,  avg # of iterations =  3.0

     negative rho (up, down):  8.870E-08 0.000E+00

     total cpu time spent up to now is    56784.3 secs

     End of self-consistent calculation

          k = 0.0000 0.0000 0.0000 ( 21247 PWs)   bands (ev):

   -27.7722 -13.5684 -13.2954 -13.1634 -10.6828 -10.3798  -9.6160  -8.1913
    -8.0439  -7.5220  -7.0770  -6.7341  -6.4117  -6.2618  -6.2111  -5.8845
    -5.6902  -5.6725  -5.1785  -4.6951  -4.6505  -4.5360  -4.4194  -4.3416
    -4.0246  -3.9452  -3.8492  -3.6934  -3.4901  -2.3522  -2.1614  -1.5546
    -1.2961  -1.1289  -0.2306  -0.0396   1.3876   2.0694   2.3383   2.6604
     2.7157   2.8666   3.1565

          k = 0.1612 0.0471-0.5659 ( 21362 PWs)   bands (ev):

   -27.7722 -13.5681 -13.3127 -13.1667 -10.6014 -10.3267  -9.6173  -8.2468
    -8.1592  -7.5464  -7.0708  -7.0035  -6.4493  -6.2996  -6.0224  -5.9070
    -5.5600  -5.4953  -5.3268  -4.6825  -4.5998  -4.3858  -4.3594  -4.3454
    -4.1713  -3.9044  -3.7854  -3.7148  -3.5507  -2.3134  -2.1194  -1.5077
    -1.3454  -1.1652  -0.2411   0.2608   1.4035   1.8055   2.2553   2.5503
     2.7225   2.8598   3.0847

          k = 0.1258-0.3190-0.5157 ( 21216 PWs)   bands (ev):

   -27.7722 -13.5681 -13.3127 -13.1667 -10.6004 -10.3254  -9.6193  -8.2665
    -8.1369  -7.5599  -7.0704  -6.9923  -6.4404  -6.2847  -6.0441  -5.9024
    -5.5552  -5.4982  -5.3359  -4.6822  -4.6018  -4.4149  -4.3636  -4.3379
    -4.1459  -3.8855  -3.7827  -3.7134  -3.5695  -2.3265  -2.0977  -1.5141
    -1.3685  -1.1399  -0.2467   0.2654   1.3993   1.7659   2.2985   2.5173
     2.7611   2.8211   3.0319

          k =-0.4565-0.3458-0.3532 ( 21368 PWs)   bands (ev):

   -27.7722 -13.5732 -13.2969 -13.1651 -10.6157 -10.4210  -9.6096  -8.1820
    -8.0600  -7.5630  -7.0888  -6.7088  -6.5613  -6.3527  -6.0373  -5.8852
    -5.6548  -5.4936  -5.3016  -4.8633  -4.6164  -4.4974  -4.3607  -4.3198
    -4.0540  -3.9080  -3.8637  -3.6001  -3.4758  -2.3360  -2.2165  -1.5823
    -1.3831  -1.0087  -0.3114  -0.0512   1.3653   2.0589   2.2346   2.5497
     2.6661   2.9356   3.1800

          k =-0.5823-0.0268 0.1625 ( 21362 PWs)   bands (ev):

   -27.7722 -13.5720 -13.3143 -13.1668 -10.5700 -10.3449  -9.6051  -8.2886
    -8.0769  -7.5552  -7.1556  -6.9908  -6.4521  -6.2603  -5.9631  -5.9284
    -5.6695  -5.4501  -5.4053  -4.7725  -4.5899  -4.4094  -4.3340  -4.2030
    -4.0823  -4.0240  -3.8378  -3.6134  -3.5316  -2.2879  -2.1975  -1.5156
    -1.3986  -1.0548  -0.3265   0.2752   1.6052   2.0481   2.3302   2.5840
     2.6163   2.8250   2.9678

          k =-0.0354-0.3661 0.0502 ( 21362 PWs)   bands (ev):

   -27.7722 -13.5685 -13.2954 -13.1634 -10.6788 -10.3829  -9.6184  -8.1840
    -8.0536  -7.5245  -7.0873  -6.7140  -6.3640  -6.2745  -6.2433  -5.9119
    -5.7266  -5.5871  -5.2139  -4.7145  -4.6390  -4.5257  -4.4121  -4.3295
    -4.0378  -3.9404  -3.8650  -3.6949  -3.4953  -2.3619  -2.1381  -1.5516
    -1.2990  -1.1199  -0.2412  -0.0572   1.4150   2.0920   2.3805   2.5481
     2.7913   2.8732   3.1329

          k =-0.7435-0.0739 0.7284 ( 21216 PWs)   bands (ev):

   -27.7722 -13.5731 -13.2969 -13.1650 -10.6180 -10.4192  -9.6090  -8.2188
    -7.9926  -7.5683  -7.1331  -6.7273  -6.5500  -6.3256  -6.0420  -5.8513
    -5.6918  -5.4863  -5.2970  -4.8404  -4.6255  -4.4978  -4.3656  -4.3454
    -4.0330  -3.9102  -3.8560  -3.5951  -3.4922  -2.2972  -2.2549  -1.5685
    -1.3808  -1.0125  -0.3222  -0.0312   1.3512   2.0390   2.3106   2.5356
     2.6712   2.8739   3.1388

          k =-0.5469 0.3393 0.1122 ( 21216 PWs)   bands (ev):

   -27.7722 -13.5721 -13.3143 -13.1668 -10.5691 -10.3442  -9.6066  -8.2583
    -8.1184  -7.5621  -7.1599  -6.9341  -6.4933  -6.2617  -5.9695  -5.9073
    -5.6654  -5.4502  -5.4081  -4.7854  -4.5882  -4.4223  -4.3430  -4.1829
    -4.0805  -4.0104  -3.8419  -3.6296  -3.5099  -2.3101  -2.1767  -1.5234
    -1.3905  -1.0543  -0.3395   0.2822   1.5881   2.0017   2.3032   2.5164
     2.6628   2.8485   2.9673

     the Fermi energy is     0.0954 ev

!    total energy              =    -288.19158304 Ry
     Harris-Foulkes estimate   =    -288.19158306 Ry
     estimated scf accuracy    <       0.00000003 Ry

     The total energy is the sum of the following terms:

     one-electron contribution =     -97.64262891 Ry
     hartree contribution      =      65.49246508 Ry
     xc contribution           =     -97.63290272 Ry
     ewald contribution        =     -52.50957200 Ry
     one-center paw contrib.   =    -105.89985040 Ry
     smearing contrib. (-TS)   =       0.00090592 Ry

     convergence has been achieved in  14 iterations

     negative rho (up, down):  8.870E-08 0.000E+00

     Forces acting on atoms (cartesian axes, Ry/au):

     atom    1 type  1   force =    -0.00143126   -0.00750667   -0.00034270
     atom    2 type  1   force =     0.00335860    0.00046241   -0.00210208
     atom    3 type  2   force =     0.00030756    0.00178523   -0.01466880
     atom    4 type  3   force =     0.01807754    0.00429154    0.00168395
     atom    5 type  3   force =    -0.00077403   -0.00059139   -0.00504459
     atom    6 type  4   force =     0.01533550   -0.00630534    0.01031316
     atom    7 type  4   force =    -0.01368934   -0.00324454    0.00505349
     atom    8 type  4   force =    -0.01728519   -0.00817768    0.01365040
     atom    9 type  4   force =     0.01516397    0.01863676   -0.00706854
     atom   10 type  4   force =     0.00725650   -0.01069675   -0.01045730
     atom   11 type  4   force =     0.00073663    0.01426004    0.00386440
     atom   12 type  4   force =     0.00538702    0.00298833   -0.01011943
     atom   13 type  5   force =     0.00173872    0.00083321   -0.00444864
     atom   14 type  5   force =     0.00546138   -0.00220388    0.00196389
     atom   15 type  5   force =     0.01057698    0.00375750   -0.00287702
     atom   16 type  5   force =     0.00227313    0.00475227   -0.00270693
     atom   17 type  5   force =    -0.00199347    0.00325419   -0.00807558
     atom   18 type  5   force =    -0.00725559    0.00209987    0.01680673
     atom   19 type  5   force =     0.00644818   -0.00497663    0.00572445
     atom   20 type  5   force =    -0.00297144    0.00309373    0.00645310
     atom   21 type  5   force =     0.00612608    0.00260269   -0.00143283
     atom   22 type  5   force =    -0.00275142   -0.00021130   -0.00127227
     atom   23 type  5   force =    -0.00081998   -0.00137990    0.00327816
     atom   24 type  5   force =    -0.00106691    0.00077919    0.00008831
     atom   25 type  5   force =     0.00493771    0.00085972   -0.00254337
     atom   26 type  5   force =    -0.00705743    0.00556979   -0.01292462
     atom   27 type  5   force =    -0.00634261    0.00007640    0.00439550
     atom   28 type  5   force =    -0.00161013   -0.00458293   -0.00672822
     atom   29 type  5   force =    -0.00892240   -0.01254140   -0.00303457
     atom   30 type  5   force =     0.00358908    0.01054300    0.00170435
     atom   31 type  5   force =     0.00585576   -0.02140361    0.00172462
     atom   32 type  5   force =    -0.00167898   -0.00168263    0.00211808
     atom   33 type  5   force =     0.00288421   -0.00455435   -0.00127040
     atom   34 type  5   force =    -0.00232278   -0.00002003    0.00249171
     atom   35 type  5   force =    -0.00161177    0.00769656   -0.00468051
     atom   36 type  5   force =     0.00084802    0.00242337    0.00134190
     atom   37 type  5   force =    -0.00225210   -0.00492967    0.00275950
     atom   38 type  5   force =    -0.00838444    0.00807000    0.00456552
     atom   39 type  5   force =    -0.00276236    0.01012127   -0.01380942
     atom   40 type  5   force =    -0.00790153    0.00104740    0.00346465
     atom   41 type  5   force =     0.00878407    0.00401511    0.00217329
     atom   42 type  5   force =    -0.02121706   -0.01413676    0.00563802
     atom   43 type  5   force =    -0.00219286    0.00110647    0.00489648
     atom   44 type  5   force =    -0.00085155   -0.00598060    0.00945417

     Total force =     0.083027     Total SCF correction =     0.000171


     Computing stress (Cartesian axis) and pressure


     negative rho (up, down):  8.870E-08 0.000E+00
          total   stress  (Ry/bohr**3)                   (kbar)     P=    0.00
  -0.00002574  -0.00002008  -0.00000633         -3.79     -2.95     -0.93
  -0.00002008   0.00000740   0.00001475         -2.95      1.09      2.17
  -0.00000633   0.00001475   0.00001842         -0.93      2.17      2.71


     number of scf cycles    =  47
     number of bfgs steps    =  45

     enthalpy old            =    -288.1824298347 Ry
     enthalpy new            =    -288.1915830359 Ry

     CASE: enthalpy_new < enthalpy_old

     new trust radius        =       0.1479637772 bohr
     new conv_thr            =       0.0000002140 Ry

     new unit-cell volume =   4015.24632 a.u.^3 (   594.99811 Ang^3 )
     density =      1.05330 g/cm^3

CELL_PARAMETERS (angstrom)
   7.521727983  -0.465421634   2.157970699
  -0.292513250  11.183693656   0.872472969
   2.186463805   0.898391872   7.800446434

ATOMIC_POSITIONS (angstrom)
K        5.901436712   6.352166602   3.398172087
K        5.170509314   1.487067105   7.380259873
Ba       6.757940181   8.521635565   7.623711162
Al       3.141668443   4.075322672   4.931572688
Al       1.943075950  10.167275942   6.535875178
B        1.728024749   9.257495683   3.436742021
B        5.363392704   6.035333565   8.101007847
B        7.847998890  10.993452920   8.606601770
B        4.405289039   7.251797260   6.434453943
B        6.437657215   2.037447144   4.392605744
B        5.242388375   3.304603186   4.511085196
B        3.588663593   8.791291933   2.107635360
H        7.377715913   5.071537806   6.481143992
H        2.931750906   8.583516683   3.219400261
H        1.437736172   8.614731959   6.871876131
H        6.957770267  11.009288980   7.783185072
H        1.608342081   4.196842629   3.209601395
H        4.409784822   2.787269679   5.313295295
H        8.347672961   8.070061220   5.192049758
H        4.306987311   8.234804741   7.124668928
H        6.564759447   5.871160457   8.118141457
H        8.362840899   0.881310434   8.241644219
H        5.031813897   7.576410907   5.430152915
H        7.533250598   2.881541435   8.511695160
H        8.101500692   5.068159363   6.690934462
H        1.987853340   9.103119855   4.638870533
H        5.032361945   9.928822287   8.954727926
H        1.372017817   4.470953985   2.540470753
H        3.372384696   6.722667270   6.198389758
H        1.615426387  10.392483989   3.066168313
H        5.743580892   1.156123643   3.890275574
H        2.900564390   2.212524646   1.706508401
H        5.314965009   6.386224378   6.812825653
H        2.150196479   2.139370842   1.682381772
H        4.397912087  -0.254888310   2.129870838
H        7.133831757   3.357761686   8.083554472
H        3.456304342  10.621361561   6.816213140
H        7.417835635   2.226792832   3.644510658
H        6.857233373   1.679294113   5.506465340
H        5.050278210   6.898337044   8.895436038
H        4.417771501   3.446912965   3.526522484
H        5.495359767   4.436953157   4.942996593
H        4.758574392   5.005784115   8.094290568
H        4.432092446   0.510468309   2.101886280



     Writing output data file 00_K2BaAl2B7H32_Monster.save
     NEW-OLD atomic charge density approx. for the potential

     negative rho (up, down):  2.543E-05 0.000E+00
     extrapolated charge   70.16537, renormalised to   71.00000

     total cpu time spent up to now is    57610.8 secs

     Self-consistent Calculation

     iteration #  1     ecut=    50.00 Ry     beta=0.70
     Davidson diagonalization with overlap
     ethr =  1.00E-06,  avg # of iterations = 12.8

     negative rho (up, down):  9.163E-08 0.000E+00

     total cpu time spent up to now is    57665.9 secs

     total energy              =    -288.16813514 Ry
     Harris-Foulkes estimate   =    -288.94900772 Ry
     estimated scf accuracy    <       0.03568627 Ry

     iteration #  2     ecut=    50.00 Ry     beta=0.70
     Davidson diagonalization with overlap
     ethr =  5.03E-05,  avg # of iterations =  6.9

     total cpu time spent up to now is    57701.8 secs

     total energy              =    -288.19255698 Ry
     Harris-Foulkes estimate   =    -288.22988123 Ry
     estimated scf accuracy    <       0.09679324 Ry

     iteration #  3     ecut=    50.00 Ry     beta=0.70
     Davidson diagonalization with overlap
     ethr =  5.03E-05,  avg # of iterations =  6.4

     total cpu time spent up to now is    57732.5 secs

     total energy              =    -288.20218224 Ry
     Harris-Foulkes estimate   =    -288.20582589 Ry
     estimated scf accuracy    <       0.01010004 Ry

     iteration #  4     ecut=    50.00 Ry     beta=0.70
     Davidson diagonalization with overlap
     ethr =  1.42E-05,  avg # of iterations =  4.1

     negative rho (up, down):  1.491E-08 0.000E+00

     total cpu time spent up to now is    57757.6 secs

     total energy              =    -288.20214772 Ry
     Harris-Foulkes estimate   =    -288.20383281 Ry
     estimated scf accuracy    <       0.00446862 Ry

     iteration #  5     ecut=    50.00 Ry     beta=0.70
     Davidson diagonalization with overlap
     ethr =  6.29E-06,  avg # of iterations =  5.1

     negative rho (up, down):  2.780E-08 0.000E+00

     total cpu time spent up to now is    57785.1 secs

     total energy              =    -288.20263893 Ry
     Harris-Foulkes estimate   =    -288.20277599 Ry
     estimated scf accuracy    <       0.00028212 Ry

     iteration #  6     ecut=    50.00 Ry     beta=0.70
     Davidson diagonalization with overlap
     ethr =  3.97E-07,  avg # of iterations =  4.2

     negative rho (up, down):  3.279E-08 0.000E+00

     total cpu time spent up to now is    57813.4 secs

     total energy              =    -288.20270890 Ry
     Harris-Foulkes estimate   =    -288.20272283 Ry
     estimated scf accuracy    <       0.00003194 Ry

     iteration #  7     ecut=    50.00 Ry     beta=0.70
     Davidson diagonalization with overlap
     ethr =  4.50E-08,  avg # of iterations =  3.0

     negative rho (up, down):  3.471E-08 0.000E+00

     total cpu time spent up to now is    57838.6 secs

     total energy              =    -288.20271492 Ry
     Harris-Foulkes estimate   =    -288.20271653 Ry
     estimated scf accuracy    <       0.00000383 Ry

     iteration #  8     ecut=    50.00 Ry     beta=0.70
     Davidson diagonalization with overlap
     ethr =  5.40E-09,  avg # of iterations =  3.0

     negative rho (up, down):  3.506E-08 0.000E+00

     total cpu time spent up to now is    57865.1 secs

     total energy              =    -288.20271566 Ry
     Harris-Foulkes estimate   =    -288.20271601 Ry
     estimated scf accuracy    <       0.00000078 Ry

     iteration #  9     ecut=    50.00 Ry     beta=0.70
     Davidson diagonalization with overlap
     ethr =  1.10E-09,  avg # of iterations =  2.0

     negative rho (up, down):  3.521E-08 0.000E+00

     total cpu time spent up to now is    57889.6 secs

     End of self-consistent calculation

          k = 0.0000 0.0000 0.0000 ( 21247 PWs)   bands (ev):

   -27.6495 -13.4839 -13.1617 -13.0426 -10.6475 -10.3351  -9.5981  -8.1736
    -7.9246  -7.3837  -7.0647  -6.7084  -6.3740  -6.2568  -6.1270  -5.8066
    -5.6889  -5.6374  -5.1524  -4.6222  -4.5423  -4.4903  -4.3790  -4.3652
    -3.9776  -3.8777  -3.7147  -3.6797  -3.4413  -2.2736  -2.1015  -1.6089
    -1.2337  -1.1381  -0.2578   0.1378   1.5465   2.1032   2.3726   2.7200
     2.7697   2.9357   3.2412

          k = 0.1667 0.0489-0.5704 ( 21362 PWs)   bands (ev):

   -27.6495 -13.4835 -13.1805 -13.0475 -10.5532 -10.2923  -9.5996  -8.1413
    -8.1331  -7.3823  -7.0952  -6.9651  -6.3668  -6.2867  -5.9736  -5.8475
    -5.5359  -5.4727  -5.3118  -4.6274  -4.5156  -4.4222  -4.3509  -4.2249
    -4.0320  -3.9304  -3.6958  -3.6372  -3.5150  -2.2382  -2.0582  -1.5524
    -1.2652  -1.1910  -0.2838   0.4385   1.5552   1.9298   2.2864   2.6313
     2.7822   3.0075   3.1618

          k = 0.1289-0.3176-0.5176 ( 21216 PWs)   bands (ev):

   -27.6495 -13.4835 -13.1805 -13.0475 -10.5524 -10.2906  -9.6017  -8.1866
    -8.0856  -7.3990  -7.0968  -6.9447  -6.3748  -6.2586  -5.9765  -5.8655
    -5.5127  -5.4947  -5.3181  -4.6262  -4.5118  -4.4441  -4.3524  -4.2196
    -4.0146  -3.9222  -3.6836  -3.6360  -3.5356  -2.2600  -2.0273  -1.5580
    -1.3074  -1.1491  -0.2862   0.4423   1.5473   1.9036   2.2952   2.6195
     2.8018   2.9630   3.1119

          k =-0.4583-0.3461-0.3497 ( 21368 PWs)   bands (ev):

   -27.6495 -13.4890 -13.1634 -13.0441 -10.5774 -10.3791  -9.5911  -8.1688
    -7.9401  -7.4284  -7.0813  -6.6693  -6.5595  -6.2591  -6.0077  -5.8207
    -5.6594  -5.4162  -5.2915  -4.7896  -4.5256  -4.4078  -4.3857  -4.2979
    -3.9741  -3.8863  -3.7781  -3.5262  -3.4395  -2.2956  -2.1323  -1.6179
    -1.2639  -1.1072  -0.3174   0.1237   1.5343   2.1201   2.3057   2.5988
     2.6852   2.9846   3.3183

          k =-0.5872-0.0285 0.1679 ( 21362 PWs)   bands (ev):

   -27.6495 -13.4878 -13.1823 -13.0474 -10.5171 -10.3152  -9.5861  -8.2060
    -8.0294  -7.3927  -7.1826  -6.9461  -6.4137  -6.1841  -5.9348  -5.8607
    -5.6244  -5.4527  -5.3968  -4.7108  -4.4962  -4.4198  -4.3418  -4.0784
    -3.9892  -3.9395  -3.8201  -3.5645  -3.4781  -2.2493  -2.1103  -1.5566
    -1.2871  -1.1382  -0.3422   0.4498   1.7820   2.1701   2.2902   2.5612
     2.8581   2.9200   3.0804

          k =-0.0378-0.3665 0.0528 ( 21362 PWs)   bands (ev):

   -27.6495 -13.4840 -13.1617 -13.0426 -10.6432 -10.3385  -9.6005  -8.1684
    -7.9341  -7.3862  -7.0703  -6.6887  -6.3452  -6.2513  -6.1626  -5.8401
    -5.7128  -5.5530  -5.1939  -4.6415  -4.5444  -4.4460  -4.3788  -4.3662
    -3.9701  -3.8995  -3.7261  -3.6767  -3.4476  -2.2882  -2.0716  -1.6060
    -1.2338  -1.1341  -0.2663   0.1164   1.5866   2.1010   2.4449   2.5960
     2.8164   2.9904   3.2533

          k =-0.7539-0.0773 0.7383 ( 21216 PWs)   bands (ev):

   -27.6495 -13.4890 -13.1634 -13.0441 -10.5799 -10.3773  -9.5904  -8.1890
    -7.8871  -7.4348  -7.1232  -6.6918  -6.5488  -6.2243  -6.0203  -5.7806
    -5.6992  -5.4076  -5.2869  -4.7717  -4.5143  -4.4405  -4.3781  -4.3214
    -3.9349  -3.9126  -3.7680  -3.5230  -3.4505  -2.2698  -2.1596  -1.6068
    -1.2464  -1.1232  -0.3240   0.1421   1.5132   2.1060   2.3648   2.6153
     2.6621   2.9345   3.2865

          k =-0.5494 0.3380 0.1151 ( 21216 PWs)   bands (ev):

   -27.6495 -13.4878 -13.1823 -13.0474 -10.5165 -10.3141  -9.5876  -8.1633
    -8.0831  -7.4016  -7.1873  -6.8892  -6.4447  -6.1945  -5.9418  -5.8376
    -5.6184  -5.4555  -5.4004  -4.7182  -4.4798  -4.4677  -4.3333  -4.0438
    -4.0097  -3.9104  -3.8276  -3.5775  -3.4674  -2.2621  -2.0968  -1.5616
    -1.2775  -1.1433  -0.3533   0.4558   1.7710   2.0971   2.2935   2.5074
     2.8995   2.9413   3.0799

     the Fermi energy is     0.2856 ev

!    total energy              =    -288.20271576 Ry
     Harris-Foulkes estimate   =    -288.20271582 Ry
     estimated scf accuracy    <       0.00000008 Ry

     The total energy is the sum of the following terms:

     one-electron contribution =     -96.74681824 Ry
     hartree contribution      =      65.20817798 Ry
     xc contribution           =     -97.67343646 Ry
     ewald contribution        =     -53.09286091 Ry
     one-center paw contrib.   =    -105.89693577 Ry
     smearing contrib. (-TS)   =      -0.00084237 Ry

     convergence has been achieved in   9 iterations

     negative rho (up, down):  3.521E-08 0.000E+00

     Forces acting on atoms (cartesian axes, Ry/au):

     atom    1 type  1   force =    -0.00170534   -0.00628006   -0.00021058
     atom    2 type  1   force =     0.00400977   -0.00240866   -0.00010154
     atom    3 type  2   force =     0.00382324    0.00875393   -0.00890188
     atom    4 type  3   force =     0.02004191    0.00151309    0.00263569
     atom    5 type  3   force =    -0.00421754    0.00096777   -0.00619112
     atom    6 type  4   force =     0.00758514    0.00101261   -0.01029756
     atom    7 type  4   force =    -0.00846141   -0.00116990    0.00424069
     atom    8 type  4   force =    -0.02219938   -0.00922987    0.01434075
     atom    9 type  4   force =     0.01199002    0.01415159   -0.00527205
     atom   10 type  4   force =     0.00136850    0.00066219   -0.01813280
     atom   11 type  4   force =    -0.00957678   -0.01315169   -0.00496392
     atom   12 type  4   force =     0.00595986    0.00059377   -0.01355708
     atom   13 type  5   force =     0.00372310    0.00078313   -0.00395028
     atom   14 type  5   force =     0.00959260   -0.00188404   -0.00278658
     atom   15 type  5   force =     0.01041523    0.00389022   -0.00216351
     atom   16 type  5   force =     0.00246916    0.00494957   -0.00433009
     atom   17 type  5   force =    -0.00246032    0.00315513   -0.00849856
     atom   18 type  5   force =    -0.00452990    0.00545453    0.01282954
     atom   19 type  5   force =     0.00628418   -0.00532008    0.00524017
     atom   20 type  5   force =    -0.00420644    0.00155490    0.00435507
     atom   21 type  5   force =     0.00374833    0.00434219   -0.00114504
     atom   22 type  5   force =    -0.00164368   -0.00190118   -0.00030328
     atom   23 type  5   force =     0.00343417    0.00109856    0.00016967
     atom   24 type  5   force =    -0.00183519    0.00141671   -0.00070575
     atom   25 type  5   force =     0.00315925    0.00076261   -0.00333037
     atom   26 type  5   force =    -0.00260046    0.00302449    0.00677364
     atom   27 type  5   force =    -0.00419212   -0.00125828    0.00595093
     atom   28 type  5   force =    -0.00139078   -0.00501428   -0.00558164
     atom   29 type  5   force =    -0.01057104   -0.01311187   -0.00130942
     atom   30 type  5   force =     0.00443818    0.00672252    0.00310453
     atom   31 type  5   force =     0.00681879   -0.01433159    0.00388496
     atom   32 type  5   force =    -0.00086389   -0.00152657    0.00247050
     atom   33 type  5   force =     0.00108059   -0.00273403    0.00189647
     atom   34 type  5   force =    -0.00329996    0.00008086    0.00293904
     atom   35 type  5   force =    -0.00094333    0.01035256   -0.00403172
     atom   36 type  5   force =     0.00143589    0.00179848    0.00212726
     atom   37 type  5   force =     0.00163020   -0.00536110    0.00374301
     atom   38 type  5   force =    -0.00778300    0.00308102    0.00600818
     atom   39 type  5   force =     0.00100345    0.00636526   -0.00766193
     atom   40 type  5   force =    -0.00720558   -0.00131907    0.00053423
     atom   41 type  5   force =     0.00889222    0.00561729    0.00367139
     atom   42 type  5   force =    -0.01548656    0.00284729    0.01224854
     atom   43 type  5   force =    -0.00592402   -0.00194048    0.00473913
     atom   44 type  5   force =    -0.00180706   -0.00700953    0.00952330

     Total force =     0.076107     Total SCF correction =     0.000363


     Computing stress (Cartesian axis) and pressure


     negative rho (up, down):  3.521E-08 0.000E+00
          total   stress  (Ry/bohr**3)                   (kbar)     P=    0.88
  -0.00002157  -0.00001077  -0.00000108         -3.17     -1.58     -0.16
  -0.00001077   0.00000830   0.00000971         -1.58      1.22      1.43
  -0.00000108   0.00000971   0.00003113         -0.16      1.43      4.58


     number of scf cycles    =  48
     number of bfgs steps    =  46

     enthalpy old            =    -288.1915830359 Ry
     enthalpy new            =    -288.2027157599 Ry

     CASE: enthalpy_new < enthalpy_old

     new trust radius        =       0.2303211515 bohr
     new conv_thr            =       0.0000002220 Ry

     new unit-cell volume =   3964.91712 a.u.^3 (   587.54009 Ang^3 )
     density =      1.06667 g/cm^3

CELL_PARAMETERS (angstrom)
   7.477997131  -0.508701979   2.200497012
  -0.317734035  11.183793806   0.902262195
   2.239613794   0.949507979   7.796204749

ATOMIC_POSITIONS (angstrom)
K        5.866610141   6.260188026   3.426381014
K        5.187074035   1.530229451   7.387361839
Ba       6.724766163   8.549170830   7.620242373
Al       3.126452160   4.109161920   4.928705798
Al       1.937504702  10.204532697   6.560312340
B        1.764522219   9.270520121   3.484173156
B        5.356679592   6.082214362   8.146646778
B        7.797494256  10.979815931   8.697380332
B        4.410489965   7.275517826   6.472010147
B        6.406285861   1.972084471   4.420539579
B        5.220312112   3.272195287   4.567306860
B        3.539936957   8.808503128   2.140251939
H        7.366626725   5.073430163   6.518966062
H        2.953060289   8.563070560   3.289383398
H        1.470971422   8.641585114   6.861491773
H        6.946959749  11.004992920   7.837678038
H        1.587170817   4.216387654   3.190000375
H        4.379382665   2.805352259   5.392136835
H        8.352554589   8.026711742   5.300746729
H        4.310627095   8.253258059   7.176123009
H        6.560043488   5.906814967   8.153364861
H        8.347329354   0.888832571   8.260574584
H        5.018330127   7.591636185   5.461623486
H        7.545215707   2.899567101   8.552799977
H        8.088924114   5.070487621   6.737349580
H        1.990344608   9.143264325   4.656793435
H        5.003419432   9.981817652   9.005971619
H        1.349001589   4.447530600   2.505248957
H        3.381192329   6.744961956   6.207602374
H        1.610524194  10.407437445   3.111321669
H        5.777041821   1.031782006   3.937349354
H        2.878553498   2.175613463   1.726383895
H        5.313122649   6.378992859   6.824394784
H        2.125735003   2.123864028   1.692282137
H        4.356431187  -0.289454194   2.117152288
H        7.155961554   3.392119571   8.138623143
H        3.448787571  10.649741534   6.852102008
H        7.355728686   2.304355862   3.668508279
H        6.861618557   1.679710758   5.523768255
H        5.040391823   6.949705345   8.941761323
H        4.427751627   3.427628291   3.563973193
H        5.520051960   4.399267529   5.005819963
H        4.780943597   5.031701144   8.149370414
H        4.432260140   0.497079954   2.169956670



     Writing output data file 00_K2BaAl2B7H32_Monster.save
     NEW-OLD atomic charge density approx. for the potential

     negative rho (up, down):  2.721E-05 0.000E+00
     extrapolated charge   70.09951, renormalised to   71.00000

     total cpu time spent up to now is    58799.2 secs

     Self-consistent Calculation

     iteration #  1     ecut=    50.00 Ry     beta=0.70
     Davidson diagonalization with overlap
     ethr =  1.00E-06,  avg # of iterations = 12.0

     negative rho (up, down):  2.961E-08 0.000E+00

     total cpu time spent up to now is    58861.8 secs

     total energy              =    -288.19035530 Ry
     Harris-Foulkes estimate   =    -289.01427489 Ry
     estimated scf accuracy    <       0.02611527 Ry

     iteration #  2     ecut=    50.00 Ry     beta=0.70
     Davidson diagonalization with overlap
     ethr =  3.68E-05,  avg # of iterations =  6.4

     negative rho (up, down):  3.099E-08 0.000E+00

     total cpu time spent up to now is    58901.8 secs

     total energy              =    -288.21058367 Ry
     Harris-Foulkes estimate   =    -288.22974292 Ry
     estimated scf accuracy    <       0.04766821 Ry

     iteration #  3     ecut=    50.00 Ry     beta=0.70
     Davidson diagonalization with overlap
     ethr =  3.68E-05,  avg # of iterations =  4.2

     total cpu time spent up to now is    58932.2 secs

     total energy              =    -288.21478427 Ry
     Harris-Foulkes estimate   =    -288.21622397 Ry
     estimated scf accuracy    <       0.00379002 Ry

     iteration #  4     ecut=    50.00 Ry     beta=0.70
     Davidson diagonalization with overlap
     ethr =  5.34E-06,  avg # of iterations =  5.5

     total cpu time spent up to now is    58964.6 secs

     total energy              =    -288.21484649 Ry
     Harris-Foulkes estimate   =    -288.21574963 Ry
     estimated scf accuracy    <       0.00226141 Ry

     iteration #  5     ecut=    50.00 Ry     beta=0.70
     Davidson diagonalization with overlap
     ethr =  3.19E-06,  avg # of iterations =  3.8

     total cpu time spent up to now is    58992.7 secs

     total energy              =    -288.21528871 Ry
     Harris-Foulkes estimate   =    -288.21539721 Ry
     estimated scf accuracy    <       0.00029091 Ry

     iteration #  6     ecut=    50.00 Ry     beta=0.70
     Davidson diagonalization with overlap
     ethr =  4.10E-07,  avg # of iterations =  2.9

     total cpu time spent up to now is    59019.3 secs

     total energy              =    -288.21534212 Ry
     Harris-Foulkes estimate   =    -288.21535661 Ry
     estimated scf accuracy    <       0.00003377 Ry

     iteration #  7     ecut=    50.00 Ry     beta=0.70
     Davidson diagonalization with overlap
     ethr =  4.76E-08,  avg # of iterations =  2.9

     total cpu time spent up to now is    59046.2 secs

     total energy              =    -288.21534740 Ry
     Harris-Foulkes estimate   =    -288.21534856 Ry
     estimated scf accuracy    <       0.00000262 Ry

     iteration #  8     ecut=    50.00 Ry     beta=0.70
     Davidson diagonalization with overlap
     ethr =  3.70E-09,  avg # of iterations =  3.0

     total cpu time spent up to now is    59074.8 secs

     total energy              =    -288.21534803 Ry
     Harris-Foulkes estimate   =    -288.21534814 Ry
     estimated scf accuracy    <       0.00000025 Ry

     iteration #  9     ecut=    50.00 Ry     beta=0.70
     Davidson diagonalization with overlap
     ethr =  3.50E-10,  avg # of iterations =  3.0

     total cpu time spent up to now is    59102.9 secs

     End of self-consistent calculation

          k = 0.0000 0.0000 0.0000 ( 21247 PWs)   bands (ev):

   -27.5546 -13.4383 -13.0617 -12.9472 -10.6118 -10.2819  -9.5345  -8.1435
    -7.8391  -7.3096  -7.0238  -6.6400  -6.3318  -6.2251  -6.0365  -5.6788
    -5.6578  -5.5902  -5.1116  -4.5272  -4.4464  -4.4230  -4.3778  -4.2192
    -4.0223  -3.7613  -3.6619  -3.5619  -3.3659  -2.1984  -2.0172  -1.6022
    -1.3805  -1.0689  -0.2301   0.2566   1.6952   2.1289   2.4826   2.7759
     2.8648   3.0181   3.3108

          k = 0.1724 0.0512-0.5741 ( 21362 PWs)   bands (ev):

   -27.5546 -13.4377 -13.0825 -12.9533 -10.4838 -10.2702  -9.5363  -8.1111
    -8.0642  -7.2720  -7.0678  -6.9040  -6.2871  -6.2436  -5.9196  -5.7225
    -5.4947  -5.4154  -5.2988  -4.5330  -4.4513  -4.3526  -4.3305  -4.0901
    -3.9922  -3.8952  -3.6482  -3.5081  -3.4430  -2.1727  -1.9716  -1.5414
    -1.3923  -1.1130  -0.2777   0.5385   1.6990   2.0143   2.4267   2.6725
     2.8806   3.1478   3.2235

          k = 0.1308-0.3159-0.5175 ( 21216 PWs)   bands (ev):

   -27.5546 -13.4377 -13.0825 -12.9533 -10.4836 -10.2676  -9.5387  -8.1483
    -8.0248  -7.2880  -7.0731  -6.8772  -6.3142  -6.2040  -5.8873  -5.7805
    -5.4789  -5.4277  -5.3001  -4.5252  -4.4399  -4.3798  -4.3391  -4.0753
    -4.0066  -3.8653  -3.6424  -3.5058  -3.4554  -2.2021  -1.9313  -1.5493
    -1.4080  -1.1011  -0.2753   0.5405   1.6857   2.0313   2.3622   2.6951
     2.8691   3.0944   3.1985

          k =-0.4630-0.3468-0.3431 ( 21368 PWs)   bands (ev):

   -27.5546 -13.4437 -13.0635 -12.9485 -10.5417 -10.3258  -9.5269  -8.1416
    -7.8521  -7.3559  -7.0416  -6.5905  -6.5383  -6.1715  -5.9533  -5.7316
    -5.6043  -5.3613  -5.2526  -4.6997  -4.4333  -4.3504  -4.3242  -4.1887
    -4.0066  -3.8305  -3.6331  -3.4269  -3.3873  -2.2129  -2.0658  -1.6051
    -1.3372  -1.1606  -0.2407   0.2385   1.7041   2.1431   2.4798   2.6076
     2.7535   3.0354   3.4053

          k =-0.5938-0.0309 0.1744 ( 21362 PWs)   bands (ev):

   -27.5546 -13.4423 -13.0843 -12.9532 -10.4348 -10.3058  -9.5215  -8.1466
    -7.9924  -7.2896  -7.1474  -6.8821  -6.3651  -6.1096  -5.8921  -5.7223
    -5.5817  -5.3960  -5.3934  -4.6060  -4.4409  -4.3556  -4.2975  -4.0614
    -3.8811  -3.8184  -3.7562  -3.5163  -3.3796  -2.1677  -2.0405  -1.5435
    -1.3677  -1.1679  -0.2781   0.5462   1.9351   2.2419   2.3878   2.5622
     2.9746   3.0925   3.1744

          k =-0.0417-0.3671 0.0567 ( 21362 PWs)   bands (ev):

   -27.5546 -13.4384 -13.0617 -12.9472 -10.6074 -10.2852  -9.5371  -8.1399
    -7.8488  -7.3084  -7.0291  -6.6224  -6.3077  -6.2135  -6.0734  -5.7387
    -5.6581  -5.5013  -5.1588  -4.5474  -4.4512  -4.3864  -4.3632  -4.2178
    -4.0217  -3.7778  -3.6611  -3.5735  -3.3696  -2.2172  -1.9806  -1.5999
    -1.3798  -1.0689  -0.2382   0.2336   1.7474   2.1244   2.5342   2.6880
     2.8911   3.0925   3.3399

          k =-0.7663-0.0822 0.7485 ( 21216 PWs)   bands (ev):

   -27.5546 -13.4436 -13.0635 -12.9485 -10.5442 -10.3241  -9.5262  -8.1532
    -7.8092  -7.3583  -7.0844  -6.6148  -6.5296  -6.1258  -5.9758  -5.7139
    -5.6217  -5.3459  -5.2483  -4.6789  -4.4204  -4.4008  -4.3165  -4.2064
    -3.9911  -3.8311  -3.6246  -3.4342  -3.3854  -2.1861  -2.0942  -1.5951
    -1.3205  -1.1749  -0.2490   0.2608   1.6742   2.1466   2.4963   2.6486
     2.7390   2.9901   3.3778

          k =-0.5522 0.3362 0.1177 ( 21216 PWs)   bands (ev):

   -27.5546 -13.4423 -13.0844 -12.9532 -10.4351 -10.3035  -9.5231  -8.1058
    -8.0419  -7.2960  -7.1579  -6.8284  -6.3831  -6.1279  -5.8966  -5.6959
    -5.5726  -5.4361  -5.3700  -4.6166  -4.4242  -4.3950  -4.2911  -4.0445
    -3.9077  -3.7912  -3.7377  -3.5133  -3.3887  -2.1790  -2.0273  -1.5473
    -1.3611  -1.1727  -0.2884   0.5526   1.9462   2.1685   2.3559   2.5160
     3.0347   3.1019   3.1825

     the Fermi energy is     0.3951 ev

!    total energy              =    -288.21534808 Ry
     Harris-Foulkes estimate   =    -288.21534810 Ry
     estimated scf accuracy    <       0.00000003 Ry

     The total energy is the sum of the following terms:

     one-electron contribution =     -95.78431696 Ry
     hartree contribution      =      64.89136864 Ry
     xc contribution           =     -97.68784046 Ry
     ewald contribution        =     -53.73910389 Ry
     one-center paw contrib.   =    -105.89395253 Ry
     smearing contrib. (-TS)   =      -0.00150288 Ry

     convergence has been achieved in   9 iterations

     Forces acting on atoms (cartesian axes, Ry/au):

     atom    1 type  1   force =    -0.00133367   -0.00407366   -0.00103640
     atom    2 type  1   force =     0.00469583   -0.00500002    0.00277741
     atom    3 type  2   force =     0.00929300    0.01279077   -0.00415672
     atom    4 type  3   force =     0.01964668   -0.00102954    0.00354480
     atom    5 type  3   force =    -0.00116003    0.00254965   -0.00523480
     atom    6 type  4   force =     0.00063128    0.01020299   -0.03600881
     atom    7 type  4   force =    -0.00575630   -0.00818869   -0.00157073
     atom    8 type  4   force =    -0.02587701   -0.00772578    0.01711599
     atom    9 type  4   force =     0.00506559    0.00614082   -0.00306170
     atom   10 type  4   force =     0.00061014    0.02023385   -0.02178673
     atom   11 type  4   force =    -0.00868264   -0.01691816   -0.00311058
     atom   12 type  4   force =     0.00640294    0.00380227   -0.01316039
     atom   13 type  5   force =     0.00420612    0.00085336   -0.00366096
     atom   14 type  5   force =     0.01392368    0.00100261   -0.01030769
     atom   15 type  5   force =     0.00721695    0.00229266   -0.00153003
     atom   16 type  5   force =     0.00039620    0.00615764   -0.00715561
     atom   17 type  5   force =    -0.00240021    0.00293465   -0.00776247
     atom   18 type  5   force =    -0.00810382    0.00620696    0.00665817
     atom   19 type  5   force =     0.00101327   -0.00818487    0.00164429
     atom   20 type  5   force =    -0.00626451   -0.00232141   -0.00051696
     atom   21 type  5   force =     0.00235315    0.00789933    0.00000873
     atom   22 type  5   force =    -0.00165311   -0.00551932    0.00093128
     atom   23 type  5   force =     0.00918751    0.00469995   -0.00322340
     atom   24 type  5   force =     0.00002292   -0.00103541    0.00126410
     atom   25 type  5   force =     0.00238113    0.00064269   -0.00362651
     atom   26 type  5   force =     0.00539949    0.00003668    0.03434144
     atom   27 type  5   force =    -0.00218705   -0.00403791    0.00782738
     atom   28 type  5   force =    -0.00116211   -0.00526357   -0.00379717
     atom   29 type  5   force =    -0.00992442   -0.01129332    0.00228117
     atom   30 type  5   force =     0.00587671    0.00123963    0.00310858
     atom   31 type  5   force =     0.00626563   -0.00562081    0.00297944
     atom   32 type  5   force =    -0.00241339   -0.00182273    0.00262845
     atom   33 type  5   force =    -0.00260788    0.00166188    0.00943118
     atom   34 type  5   force =    -0.00199446    0.00031579    0.00333140
     atom   35 type  5   force =     0.00264958    0.03620779   -0.00146687
     atom   36 type  5   force =    -0.00056472    0.00405968    0.00012500
     atom   37 type  5   force =     0.00350198   -0.00497284    0.00397041
     atom   38 type  5   force =    -0.00972259   -0.00775364    0.00720084
     atom   39 type  5   force =     0.00641186    0.00146666   -0.00113321
     atom   40 type  5   force =    -0.00555426   -0.00453986   -0.00417599
     atom   41 type  5   force =     0.00639545    0.00573567    0.00625679
     atom   42 type  5   force =    -0.01379113   -0.00453358    0.00731910
     atom   43 type  5   force =    -0.00729557    0.00241802    0.00525393
     atom   44 type  5   force =    -0.00509820   -0.03171687    0.00748384

     Total force =     0.104897     Total SCF correction =     0.000257


     Computing stress (Cartesian axis) and pressure

          total   stress  (Ry/bohr**3)                   (kbar)     P=    0.55
  -0.00000725  -0.00000055   0.00001016         -1.07     -0.08      1.49
  -0.00000055  -0.00001860  -0.00000341         -0.08     -2.74     -0.50
   0.00001016  -0.00000341   0.00003699          1.49     -0.50      5.44


     number of scf cycles    =  49
     number of bfgs steps    =  47

     enthalpy old            =    -288.2027157599 Ry
     enthalpy new            =    -288.2153480797 Ry

     CASE: enthalpy_new < enthalpy_old

     new trust radius        =       0.1806277148 bohr
     new conv_thr            =       0.0000003621 Ry

     new unit-cell volume =   3942.24588 a.u.^3 (   584.18056 Ang^3 )
     density =      1.07281 g/cm^3

CELL_PARAMETERS (angstrom)
   7.446364775  -0.537744270   2.211531375
  -0.335331764  11.175133631   0.915527356
   2.264272125   0.978154314   7.811863534

ATOMIC_POSITIONS (angstrom)
K        5.836513257   6.187393993   3.434179177
K        5.192849509   1.545417264   7.400930751
Ba       6.695551489   8.558712852   7.612009575
Al       3.140866732   4.131768528   4.951279157
Al       1.929659610  10.218036900   6.577958545
B        1.779837419   9.272261570   3.504630782
B        5.337240086   6.094692372   8.175577283
B        7.745941760  10.950511215   8.751338336
B        4.401452060   7.284760084   6.496218909
B        6.375234125   1.937263138   4.418601947
B        5.200404729   3.247969631   4.589404850
B        3.509711854   8.804950024   2.148395542
H        7.348854338   5.063029201   6.533683472
H        2.961058188   8.543057571   3.320214114
H        1.496114832   8.650694861   6.873244634
H        6.923955606  10.997433124   7.861536036
H        1.565945170   4.222654775   3.175819659
H        4.365221928   2.821804651   5.443532296
H        8.344339575   7.975537399   5.352076963
H        4.301842068   8.255175949   7.211197728
H        6.549149006   5.929505369   8.180346683
H        8.325720726   0.881331711   8.272214736
H        5.002752833   7.594890661   5.483022810
H        7.537833335   2.903276445   8.579239253
H        8.071113652   5.059941341   6.757600760
H        1.986375792   9.167710695   4.681483652
H        4.979884700  10.001521297   9.043232187
H        1.329854523   4.422645690   2.482327995
H        3.379127942   6.744284440   6.213480269
H        1.608265409  10.414699414   3.145174321
H        5.796558276   0.931698690   3.963286898
H        2.864291624   2.155433229   1.736910512
H        5.302352690   6.366967711   6.837362619
H        2.111621218   2.115361936   1.701228133
H        4.332801790  -0.283396855   2.115549452
H        7.152672102   3.415307539   8.172068923
H        3.440671011  10.650528279   6.881167526
H        7.301736290   2.345390959   3.676276528
H        6.847256066   1.690584862   5.524516162
H        5.021086774   6.963724657   8.969798991
H        4.428511927   3.425931457   3.589752450
H        5.509244977   4.357452197   5.040295615
H        4.782355634   5.039734047   8.188702410
H        4.423651259   0.477532479   2.199448912



     Writing output data file 00_K2BaAl2B7H32_Monster.save
     NEW-OLD atomic charge density approx. for the potential

     negative rho (up, down):  9.611E-07 0.000E+00
     extrapolated charge   70.59203, renormalised to   71.00000

     total cpu time spent up to now is    60064.4 secs

     Self-consistent Calculation

     iteration #  1     ecut=    50.00 Ry     beta=0.70
     Davidson diagonalization with overlap
     ethr =  1.00E-06,  avg # of iterations = 10.8

     negative rho (up, down):  2.077E-08 0.000E+00

     total cpu time spent up to now is    60120.1 secs

     total energy              =    -288.21765726 Ry
     Harris-Foulkes estimate   =    -288.58779545 Ry
     estimated scf accuracy    <       0.00843330 Ry

     iteration #  2     ecut=    50.00 Ry     beta=0.70
     Davidson diagonalization with overlap
     ethr =  1.19E-05,  avg # of iterations =  6.4

     total cpu time spent up to now is    60159.8 secs

     total energy              =    -288.22422335 Ry
     Harris-Foulkes estimate   =    -288.22852807 Ry
     estimated scf accuracy    <       0.01014132 Ry

     iteration #  3     ecut=    50.00 Ry     beta=0.70
     Davidson diagonalization with overlap
     ethr =  1.19E-05,  avg # of iterations =  3.0

     total cpu time spent up to now is    60188.3 secs

     total energy              =    -288.22555004 Ry
     Harris-Foulkes estimate   =    -288.22568548 Ry
     estimated scf accuracy    <       0.00049965 Ry

     iteration #  4     ecut=    50.00 Ry     beta=0.70
     Davidson diagonalization with overlap
     ethr =  7.04E-07,  avg # of iterations =  5.5

     total cpu time spent up to now is    60222.0 secs

     total energy              =    -288.22561604 Ry
     Harris-Foulkes estimate   =    -288.22569452 Ry
     estimated scf accuracy    <       0.00016885 Ry

     iteration #  5     ecut=    50.00 Ry     beta=0.70
     Davidson diagonalization with overlap
     ethr =  2.38E-07,  avg # of iterations =  3.0

     total cpu time spent up to now is    60250.2 secs

     total energy              =    -288.22565111 Ry
     Harris-Foulkes estimate   =    -288.22567146 Ry
     estimated scf accuracy    <       0.00004721 Ry

     iteration #  6     ecut=    50.00 Ry     beta=0.70
     Davidson diagonalization with overlap
     ethr =  6.65E-08,  avg # of iterations =  3.0

     total cpu time spent up to now is    60276.7 secs

     total energy              =    -288.22566097 Ry
     Harris-Foulkes estimate   =    -288.22566605 Ry
     estimated scf accuracy    <       0.00001317 Ry

     iteration #  7     ecut=    50.00 Ry     beta=0.70
     Davidson diagonalization with overlap
     ethr =  1.85E-08,  avg # of iterations =  3.0

     total cpu time spent up to now is    60303.0 secs

     total energy              =    -288.22566330 Ry
     Harris-Foulkes estimate   =    -288.22566348 Ry
     estimated scf accuracy    <       0.00000042 Ry

     iteration #  8     ecut=    50.00 Ry     beta=0.70
     Davidson diagonalization with overlap
     ethr =  5.89E-10,  avg # of iterations =  3.2

     total cpu time spent up to now is    60332.5 secs

     End of self-consistent calculation

          k = 0.0000 0.0000 0.0000 ( 21247 PWs)   bands (ev):

   -27.5080 -13.4178 -13.0123 -12.8979 -10.5784 -10.2333  -9.6047  -8.1239
    -7.7930  -7.2742  -6.9944  -6.6146  -6.3150  -6.2095  -5.9795  -5.6714
    -5.6336  -5.5580  -5.0725  -4.4918  -4.4227  -4.3977  -4.3686  -4.1734
    -4.1074  -3.7155  -3.6255  -3.4849  -3.3099  -2.1549  -1.9920  -1.5905
    -1.4580  -1.0567  -0.2266   0.3077   1.7833   2.1559   2.5475   2.8230
     2.9317   3.0529   3.3429

          k = 0.1744 0.0523-0.5744 ( 21362 PWs)   bands (ev):

   -27.5080 -13.4171 -13.0334 -12.9045 -10.4383 -10.2341  -9.6082  -8.0961
    -8.0240  -7.2143  -7.0244  -6.8874  -6.2715  -6.2091  -5.8838  -5.7244
    -5.4489  -5.3803  -5.2783  -4.5041  -4.4304  -4.3367  -4.3198  -4.1326
    -4.0009  -3.8044  -3.6564  -3.4486  -3.3613  -2.1319  -1.9441  -1.5214
    -1.4733  -1.0820  -0.2848   0.5718   1.7799   2.0616   2.5324   2.6832
     2.9433   3.1918   3.2577

          k = 0.1303-0.3155-0.5156 ( 21216 PWs)   bands (ev):

   -27.5080 -13.4171 -13.0335 -12.9045 -10.4384 -10.2308  -9.6108  -8.1324
    -7.9853  -7.2276  -7.0365  -6.8546  -6.2925  -6.1789  -5.8591  -5.7734
    -5.4427  -5.3797  -5.2825  -4.4912  -4.4222  -4.3635  -4.3300  -4.1219
    -4.0115  -3.7769  -3.6501  -3.4561  -3.3626  -2.1692  -1.8950  -1.5290
    -1.4843  -1.0791  -0.2783   0.5732   1.7653   2.0966   2.4289   2.7120
     2.9305   3.1203   3.2558

          k =-0.4674-0.3479-0.3383 ( 21368 PWs)   bands (ev):

   -27.5080 -13.4234 -13.0143 -12.8991 -10.5083 -10.2762  -9.5993  -8.1225
    -7.8018  -7.3210  -7.0094  -6.5652  -6.5345  -6.1180  -5.9096  -5.7332
    -5.6039  -5.3195  -5.2149  -4.6507  -4.3989  -4.3362  -4.3201  -4.1413
    -4.0980  -3.8076  -3.5256  -3.3855  -3.3338  -2.1635  -2.0414  -1.5726
    -1.4640  -1.1564  -0.2102   0.2882   1.7962   2.1786   2.5793   2.6068
     2.7949   3.0490   3.4420

          k =-0.5977-0.0325 0.1773 ( 21362 PWs)   bands (ev):

   -27.5080 -13.4220 -13.0354 -12.9044 -10.3837 -10.2752  -9.5935  -8.1114
    -7.9742  -7.2362  -7.0996  -6.8588  -6.3570  -6.0760  -5.8504  -5.7388
    -5.5254  -5.3928  -5.3419  -4.5565  -4.4435  -4.3613  -4.2892  -4.1188
    -3.8325  -3.7867  -3.6608  -3.4840  -3.3165  -2.1148  -2.0117  -1.5401
    -1.4638  -1.1535  -0.2534   0.5780   2.0220   2.2704   2.4764   2.5785
     3.0362   3.1380   3.2264

          k =-0.0440-0.3678 0.0588 ( 21362 PWs)   bands (ev):

   -27.5080 -13.4179 -13.0124 -12.8980 -10.5736 -10.2371  -9.6071  -8.1218
    -7.8021  -7.2695  -7.0020  -6.5964  -6.2934  -6.1920  -6.0226  -5.7244
    -5.6543  -5.4498  -5.1242  -4.5057  -4.4297  -4.3799  -4.3388  -4.1739
    -4.1077  -3.7222  -3.6274  -3.5015  -3.3129  -2.1793  -1.9480  -1.5920
    -1.4554  -1.0576  -0.2338   0.2839   1.8397   2.1598   2.5674   2.7580
     2.9489   3.1393   3.3753

          k =-0.7721-0.0848 0.7517 ( 21216 PWs)   bands (ev):

   -27.5080 -13.4233 -13.0142 -12.8991 -10.5109 -10.2745  -9.5986  -8.1292
    -7.7665  -7.3199  -7.0524  -6.5939  -6.5247  -6.0620  -5.9398  -5.6973
    -5.6384  -5.3047  -5.2101  -4.6205  -4.4092  -4.3850  -4.2975  -4.1730
    -4.0768  -3.8043  -3.5164  -3.3951  -3.3288  -2.1420  -2.0608  -1.5732
    -1.4492  -1.1613  -0.2201   0.3119   1.7646   2.1821   2.5450   2.7003
     2.7917   3.0036   3.4112

          k =-0.5537 0.3353 0.1185 ( 21216 PWs)   bands (ev):

   -27.5080 -13.4219 -13.0354 -12.9044 -10.3846 -10.2720  -9.5952  -8.0752
    -8.0174  -7.2377  -7.1182  -6.8061  -6.3720  -6.0976  -5.8586  -5.7052
    -5.5154  -5.4260  -5.3260  -4.5791  -4.4198  -4.3871  -4.2748  -4.1317
    -3.8582  -3.7570  -3.6315  -3.4788  -3.3295  -2.1251  -2.0006  -1.5412
    -1.4617  -1.1566  -0.2631   0.5849   2.0482   2.2059   2.4137   2.5304
     3.0989   3.1382   3.2448

     the Fermi energy is     0.4371 ev

!    total energy              =    -288.22566342 Ry
     Harris-Foulkes estimate   =    -288.22566347 Ry
     estimated scf accuracy    <       0.00000008 Ry

     The total energy is the sum of the following terms:

     one-electron contribution =     -95.44423863 Ry
     hartree contribution      =      64.79276059 Ry
     xc contribution           =     -97.70322221 Ry
     ewald contribution        =     -53.97633788 Ry
     one-center paw contrib.   =    -105.89269684 Ry
     smearing contrib. (-TS)   =      -0.00192845 Ry

     convergence has been achieved in   8 iterations

     Forces acting on atoms (cartesian axes, Ry/au):

     atom    1 type  1   force =    -0.00050788   -0.00204779   -0.00236679
     atom    2 type  1   force =     0.00508127   -0.00605057    0.00419189
     atom    3 type  2   force =     0.01203588    0.01302678   -0.00098857
     atom    4 type  3   force =     0.01514295   -0.00098536    0.00217393
     atom    5 type  3   force =     0.00018665    0.00296014   -0.00402325
     atom    6 type  4   force =    -0.00244860    0.00936480   -0.03725188
     atom    7 type  4   force =     0.00468999   -0.00448609   -0.00494855
     atom    8 type  4   force =    -0.02939178   -0.00480101    0.01745368
     atom    9 type  4   force =     0.00216540   -0.00217603   -0.00278304
     atom   10 type  4   force =    -0.00199152    0.01824698   -0.01789542
     atom   11 type  4   force =    -0.00950134   -0.02647468   -0.00066950
     atom   12 type  4   force =     0.00797841    0.00638026   -0.01386645
     atom   13 type  5   force =     0.00566833    0.00097461   -0.00281738
     atom   14 type  5   force =     0.01579068    0.00373903   -0.01483877
     atom   15 type  5   force =     0.00424589    0.00061706   -0.00096443
     atom   16 type  5   force =     0.00150082    0.00548853   -0.00657327
     atom   17 type  5   force =    -0.00142901    0.00247798   -0.00553905
     atom   18 type  5   force =    -0.01062192    0.00347223    0.00161598
     atom   19 type  5   force =     0.00117869   -0.00466919    0.00098401
     atom   20 type  5   force =    -0.00821607   -0.00349469   -0.00287687
     atom   21 type  5   force =    -0.00177038    0.00831070    0.00034086
     atom   22 type  5   force =    -0.00183496   -0.00805476    0.00252446
     atom   23 type  5   force =     0.01200885    0.00637911   -0.00466774
     atom   24 type  5   force =    -0.00438066    0.00485845   -0.00360519
     atom   25 type  5   force =     0.00048582    0.00064063   -0.00423601
     atom   26 type  5   force =     0.00781482   -0.00076218    0.03621425
     atom   27 type  5   force =    -0.00170278   -0.00619561    0.00943001
     atom   28 type  5   force =    -0.00104033   -0.00485279   -0.00317352
     atom   29 type  5   force =    -0.00942418   -0.00897270    0.00455969
     atom   30 type  5   force =     0.00521791   -0.00250076    0.00097131
     atom   31 type  5   force =     0.00932185    0.00971236    0.00466671
     atom   32 type  5   force =    -0.00157653   -0.00193353    0.00260833
     atom   33 type  5   force =    -0.00586107    0.00554348    0.01276178
     atom   34 type  5   force =    -0.00285920    0.00007202    0.00327163
     atom   35 type  5   force =     0.00093722    0.01510435   -0.00169426
     atom   36 type  5   force =     0.00397496   -0.00210467    0.00503782
     atom   37 type  5   force =     0.00457929   -0.00370721    0.00383716
     atom   38 type  5   force =    -0.00803892   -0.01376363    0.00474406
     atom   39 type  5   force =     0.00911295   -0.00002190   -0.00046590
     atom   40 type  5   force =    -0.00567140   -0.00480432   -0.00573992
     atom   41 type  5   force =     0.00039721    0.00483631    0.00432965
     atom   42 type  5   force =    -0.00742801    0.00188909    0.00754337
     atom   43 type  5   force =    -0.01070695   -0.00172387    0.00467885
     atom   44 type  5   force =    -0.00311237   -0.00951155    0.00804632

     Total force =     0.099782     Total SCF correction =     0.000360


     Computing stress (Cartesian axis) and pressure

          total   stress  (Ry/bohr**3)                   (kbar)     P=    0.46
   0.00000320   0.00000819   0.00001645          0.47      1.20      2.42
   0.00000819  -0.00001907  -0.00000540          1.20     -2.81     -0.80
   0.00001645  -0.00000540   0.00002535          2.42     -0.80      3.73


     number of scf cycles    =  50
     number of bfgs steps    =  48

     enthalpy old            =    -288.2153480797 Ry
     enthalpy new            =    -288.2256634193 Ry

     CASE: enthalpy_new < enthalpy_old

     new trust radius        =       0.2531127831 bohr
     new conv_thr            =       0.0000003725 Ry

     new unit-cell volume =   3899.90975 a.u.^3 (   577.90699 Ang^3 )
     density =      1.08445 g/cm^3

CELL_PARAMETERS (angstrom)
   7.403095820  -0.585157997   2.259154641
  -0.365137463  11.166866430   0.939249496
   2.329926731   1.025476047   7.833811981

ATOMIC_POSITIONS (angstrom)
K        5.797871758   6.075946030   3.460147851
K        5.231783528   1.570020464   7.440119380
Ba       6.671814974   8.597528939   7.626794026
Al       3.160589491   4.165556965   4.977901686
Al       1.929562917  10.255946575   6.612945886
B        1.816309062   9.283018216   3.541081916
B        5.332924571   6.121091978   8.236194532
B        7.671638706  10.912494735   8.861614196
B        4.404451174   7.288935382   6.540592131
B        6.341847311   1.893697348   4.440135693
B        5.178554372   3.184298510   4.651825771
B        3.462541396   8.810081717   2.171337569
H        7.345142859   5.057790176   6.584811782
H        2.989996459   8.506523553   3.381900133
H        1.544546289   8.674621585   6.882936462
H        6.905332123  10.994747865   7.919299272
H        1.537608935   4.238891935   3.151254353
H        4.329736334   2.845058431   5.536993582
H        8.355373885   7.902696056   5.471478518
H        4.301372999   8.250070560   7.270234379
H        6.551095417   5.984396867   8.242151747
H        8.322432273   0.861262560   8.316948100
H        5.004771252   7.612999076   5.529689212
H        7.555800694   2.917126909   8.644067067
H        8.063722521   5.052917149   6.816578290
H        2.012385949   9.212391521   4.747065289
H        4.958333889  10.039882633   9.117585146
H        1.302042855   4.379634896   2.437988791
H        3.389240196   6.745095011   6.234051938
H        1.604964417  10.434351019   3.194530836
H        5.851759039   0.801313698   4.037040146
H        2.844627796   2.109135767   1.762547094
H        5.310255800   6.365160669   6.879817987
H        2.086860953   2.098791507   1.718329570
H        4.297292507  -0.290612005   2.119212517
H        7.184561187   3.450533745   8.254510119
H        3.452040136  10.651159712   6.939890187
H        7.230018934   2.395308818   3.706530030
H        6.858771089   1.687515176   5.553497971
H        5.014054599   6.989992569   9.029159472
H        4.436802451   3.417594595   3.639228967
H        5.526742517   4.294217880   5.118753574
H        4.808023623   5.057522155   8.269088956
H        4.423691395   0.452265616   2.275918690



     Writing output data file 00_K2BaAl2B7H32_Monster.save
     NEW-OLD atomic charge density approx. for the potential

     negative rho (up, down):  4.241E-05 0.000E+00
     extrapolated charge   70.22989, renormalised to   71.00000

     Writing output data file 00_K2BaAl2B7H32_Monster.save

     init_run     :    351.78s CPU    277.07s WALL (       1 calls)
     electrons    :  51597.64s CPU  19214.73s WALL (      50 calls)
     update_pot   :  14463.86s CPU  14475.61s WALL (      50 calls)
     forces       :   8090.78s CPU   7659.35s WALL (      50 calls)
     stress       :  21249.05s CPU  19488.45s WALL (      50 calls)

     Called by init_run:
     wfcinit      :     88.36s CPU     19.21s WALL (       1 calls)
     potinit      :     80.06s CPU     79.53s WALL (       1 calls)

     Called by electrons:
     c_bands      :  23312.86s CPU  12867.55s WALL (     678 calls)
     sum_band     :  20128.66s CPU   4134.57s WALL (     678 calls)
     v_of_rho     :    674.11s CPU    409.16s WALL (     729 calls)
     newd         :   7236.12s CPU   1614.34s WALL (     729 calls)
     PAW_pot      :    764.70s CPU    290.91s WALL (     779 calls)
     mix_rho      :     83.23s CPU     49.10s WALL (     678 calls)

     Called by c_bands:
     init_us_2    :    322.02s CPU    248.40s WALL (   12056 calls)
     cegterg      :  22833.44s CPU  12372.85s WALL (    5424 calls)

     Called by sum_band:
     sum_band:bec :     51.95s CPU     45.34s WALL (    5824 calls)
     addusdens    :  15365.12s CPU   2138.78s WALL (     678 calls)

     Called by *egterg:
     h_psi        :  18803.69s CPU   7800.69s WALL (   26882 calls)
     s_psi        :   1192.97s CPU   1163.30s WALL (   26882 calls)
     g_psi        :     33.55s CPU     35.93s WALL (   21450 calls)
     cdiaghg      :    797.64s CPU   1115.01s WALL (   26482 calls)

     Called by h_psi:
     h_psi:pot    :  18746.41s CPU   7741.11s WALL (   26882 calls)
     h_psi:calbec :   1129.52s CPU   1144.66s WALL (   26882 calls)
     vloc_psi     :  16464.84s CPU   5432.25s WALL (   26882 calls)
     add_vuspsi   :   1151.19s CPU   1164.07s WALL (   26882 calls)

     General routines
     calbec       :   1658.16s CPU   1714.57s WALL (   34706 calls)
     fft          :    512.34s CPU    157.78s WALL (   12762 calls)
     ffts         :     18.78s CPU      7.06s WALL (    1407 calls)
     fftw         :  15497.30s CPU   4065.02s WALL ( 1506832 calls)
     interpolate  :     84.00s CPU     36.73s WALL (    1407 calls)
     davcio       :      0.03s CPU      0.06s WALL (       8 calls)

     Parallel routines
     fft_scatter  :    416.88s CPU   1098.95s WALL ( 1521001 calls)

     PWSCF        :     1d    2h45m CPU        0d   17h 1m WALL


   This run was terminated on:  18:10:44  24Nov2025            

=------------------------------------------------------------------------------=
   JOB DONE.
=------------------------------------------------------------------------------=
