
     Program PWSCF v.6.1 starts on 23Nov2025 at 17:23:33 

     This program is part of the open-source Quantum ESPRESSO suite
     for quantum simulation of materials; please cite
         "P. Giannozzi et al., J. Phys.:Condens. Matter 21 395502 (2009);
          URL http://www.quantum-espresso.org", 
     in publications or presentations arising from this work. More details at
     http://www.quantum-espresso.org/quote

     Parallel version (MPI & OpenMP), running on      12 processor cores
     Number of MPI processes:                 1
     Threads/MPI process:                    12
     Waiting for input...
     Reading input from standard input

     Current dimensions of program PWSCF are:
     Max number of different atomic species (ntypx) = 10
     Max number of k-points (npk) =  40000
     Max angular momentum in pseudopotentials (lmaxx) =  3
               file Hf.UPF: wavefunction(s)  5P renormalized

     Subspace diagonalization in iterative solution of the eigenvalue problem:
     a serial algorithm will be used


     G-vector sticks info
     --------------------
     sticks:   dense  smooth     PW     G-vecs:    dense   smooth      PW
     Sum        1547     767    287                26119     9251    2113



     bravais-lattice index     =            0
     lattice parameter (alat)  =       7.2682  a.u.
     unit-cell volume          =     193.3768 (a.u.)^3
     number of atoms/cell      =            4
     number of atomic types    =            2
     number of electrons       =        15.00
     number of Kohn-Sham states=           12
     kinetic-energy cutoff     =      50.0000  Ry
     charge density cutoff     =     400.0000  Ry
     convergence threshold     =      1.0E-06
     mixing beta               =       0.7000
     number of iterations used =            8  plain     mixing
     Exchange-correlation      =  SLA  PW   PBX  PBC ( 1  4  3  4 0 0)
     nstep                     =           50


     celldm(1)=   7.268162  celldm(2)=   0.000000  celldm(3)=   0.000000
     celldm(4)=   0.000000  celldm(5)=   0.000000  celldm(6)=   0.000000

     crystal axes: (cart. coord. in units of alat)
               a(1) = (  -0.388101   0.388121   0.835906 )  
               a(2) = (   0.388099  -0.388125   0.835907 )  
               a(3) = (   0.388101   0.388125  -0.835909 )  

     reciprocal axes: (cart. coord. in units 2 pi/alat)
               b(1) = (  0.000002  1.288253  0.598156 )  
               b(2) = (  1.288330  0.000002  0.598155 )  
               b(3) = (  1.288329  1.288252  0.000005 )  


     PseudoPot. # 1 for  H read from file:
     ./pseudo/H.UPF
     MD5 check sum: 3f4114867bd07edc7f1424d066fc1888
     Pseudo is Ultrasoft, Zval =  1.0
     Generated using "atomic" code by A. Dal Corso  v.6.3MaX
     Using radial grid of  929 points,  2 beta functions with: 
                l(1) =   0
                l(2) =   0
     Q(r) pseudized with 0 coefficients 


     PseudoPot. # 2 for Hf read from file:
     ./pseudo/Hf.UPF
     MD5 check sum: bf8a91e620b6303fe4cf956cf37905ef
     Pseudo is Projector augmented-wave + core cor, Zval = 12.0
     Generated using "atomic" code by A. Dal Corso  v.6.2.2
     Shape of augmentation charge: PSQ
     Using radial grid of 1271 points,  6 beta functions with: 
                l(1) =   0
                l(2) =   0
                l(3) =   1
                l(4) =   1
                l(5) =   2
                l(6) =   2
     Q(r) pseudized with 0 coefficients 


     atomic species   valence    mass     pseudopotential
        H              1.00     1.00000      H( 1.00)
        Hf            12.00     1.00000     Hf( 1.00)

     No symmetry found



   Cartesian axes

     site n.     atom                  positions (alat units)
         1           Hf  tau(   1) = (  -0.0000005   0.0000010   0.0000276  )
         2           H   tau(   2) = (  -0.0000008   0.3881226   0.4179488  )
         3           H   tau(   3) = (   0.3880995  -0.0000021   0.4179436  )
         4           H   tau(   4) = (  -0.0000008  -0.0000034   0.8358930  )

     number of k points=     8  Methfessel-Paxton smearing, width (Ry)=  0.0200
                       cart. coord. in units 2pi/alat
        k(    1) = (   0.0000000   0.0000000   0.0000000), wk =   0.2500000
        k(    2) = (  -0.6441643  -0.6441259  -0.0000024), wk =   0.2500000
        k(    3) = (  -0.6441649  -0.0000012  -0.2990775), wk =   0.2500000
        k(    4) = (  -1.2883292  -0.6441271  -0.2990799), wk =   0.2500000
        k(    5) = (  -0.0000010  -0.6441267  -0.2990779), wk =   0.2500000
        k(    6) = (  -0.6441653  -1.2882526  -0.2990803), wk =   0.2500000
        k(    7) = (  -0.6441659  -0.6441279  -0.5981554), wk =   0.2500000
        k(    8) = (  -1.2883303  -1.2882539  -0.5981578), wk =   0.2500000

     Dense  grid:    26119 G-vectors     FFT dimensions: (  48,  48,  48)

     Smooth grid:     9251 G-vectors     FFT dimensions: (  36,  36,  36)

     Estimated max dynamical RAM per process >      22.42MB

     Initial potential from superposition of free atoms

     starting charge   14.99803, renormalised to   15.00000
     Starting wfc are   13 randomized atomic wfcs
     Checking if some PAW data can be deallocated... 

     total cpu time spent up to now is       11.1 secs

     Self-consistent Calculation

     iteration #  1     ecut=    50.00 Ry     beta=0.70
     Davidson diagonalization with overlap
     ethr =  1.00E-02,  avg # of iterations =  2.0

     total cpu time spent up to now is       12.2 secs

     total energy              =    -699.76017677 Ry
     Harris-Foulkes estimate   =    -699.85853550 Ry
     estimated scf accuracy    <       0.18180888 Ry

     iteration #  2     ecut=    50.00 Ry     beta=0.70
     Davidson diagonalization with overlap
     ethr =  1.21E-03,  avg # of iterations =  2.6

     total cpu time spent up to now is       13.2 secs

     total energy              =    -699.78842505 Ry
     Harris-Foulkes estimate   =    -699.79104767 Ry
     estimated scf accuracy    <       0.00557247 Ry

     iteration #  3     ecut=    50.00 Ry     beta=0.70
     Davidson diagonalization with overlap
     ethr =  3.71E-05,  avg # of iterations =  2.0

     total cpu time spent up to now is       14.0 secs

     total energy              =    -699.78984539 Ry
     Harris-Foulkes estimate   =    -699.78989818 Ry
     estimated scf accuracy    <       0.00032232 Ry

     iteration #  4     ecut=    50.00 Ry     beta=0.70
     Davidson diagonalization with overlap
     ethr =  2.15E-06,  avg # of iterations =  2.6

     total cpu time spent up to now is       14.8 secs

     total energy              =    -699.78936560 Ry
     Harris-Foulkes estimate   =    -699.78937355 Ry
     estimated scf accuracy    <       0.00002281 Ry

     iteration #  5     ecut=    50.00 Ry     beta=0.70
     Davidson diagonalization with overlap
     ethr =  1.52E-07,  avg # of iterations =  2.0

     total cpu time spent up to now is       15.6 secs

     total energy              =    -699.78936667 Ry
     Harris-Foulkes estimate   =    -699.78936731 Ry
     estimated scf accuracy    <       0.00000157 Ry

     iteration #  6     ecut=    50.00 Ry     beta=0.70
     Davidson diagonalization with overlap
     ethr =  1.05E-08,  avg # of iterations =  2.4

     total cpu time spent up to now is       16.7 secs

     End of self-consistent calculation

          k = 0.0000 0.0000 0.0000 (  1153 PWs)   bands (ev):

   -49.7592 -18.5601 -17.9034 -17.9032   1.3848   8.8433  11.3759  13.1298
    14.8044  14.8054  18.1450  19.1909

          k =-0.6442-0.6441-0.0000 (  1164 PWs)   bands (ev):

   -49.6698 -18.5935 -18.5376 -18.4742   5.9986   6.7796   9.0740  14.1468
    14.2181  16.7950  19.0725  20.3742

          k =-0.6442-0.0000-0.2991 (  1152 PWs)   bands (ev):

   -49.7124 -18.7122 -18.5456 -17.8438   5.4611   6.8569  11.1005  11.5202
    14.6598  15.3411  16.6763  20.7151

          k =-1.2883-0.6441-0.2991 (  1152 PWs)   bands (ev):

   -49.7124 -18.7121 -18.5456 -17.8436   5.4609   6.8565  11.1001  11.5202
    14.6610  15.3411  16.6767  20.7137

          k =-0.0000-0.6441-0.2991 (  1152 PWs)   bands (ev):

   -49.7124 -18.7121 -18.5456 -17.8436   5.4609   6.8565  11.1001  11.5201
    14.6610  15.3412  16.6768  20.7137

          k =-0.6442-1.2883-0.2991 (  1152 PWs)   bands (ev):

   -49.7124 -18.7122 -18.5456 -17.8438   5.4611   6.8569  11.1005  11.5202
    14.6598  15.3410  16.6762  20.7151

          k =-0.6442-0.6441-0.5982 (  1164 PWs)   bands (ev):

   -49.6698 -18.5935 -18.5376 -18.4742   5.9986   6.7796   9.0740  14.1468
    14.2181  16.7950  19.0725  20.3742

          k =-1.2883-1.2883-0.5982 (  1162 PWs)   bands (ev):

   -49.7535 -18.7638 -17.9242 -17.9240   4.9860   5.2863   8.9498  16.3640
    17.0312  17.0318  18.3641  18.6000

     the Fermi energy is    11.7370 ev

!    total energy              =    -699.78936693 Ry
     Harris-Foulkes estimate   =    -699.78936695 Ry
     estimated scf accuracy    <       0.00000003 Ry

     The total energy is the sum of the following terms:

     one-electron contribution =     -16.72577635 Ry
     hartree contribution      =      15.10800556 Ry
     xc contribution           =     -43.69679239 Ry
     ewald contribution        =     -80.26431664 Ry
     one-center paw contrib.   =    -574.21131321 Ry
     smearing contrib. (-TS)   =       0.00082609 Ry

     convergence has been achieved in   6 iterations

     Forces acting on atoms (cartesian axes, Ry/au):

     atom    1 type  2   force =     0.00000891   -0.00000456   -0.00000375
     atom    2 type  1   force =    -0.00000247    0.00000036   -0.00001236
     atom    3 type  1   force =    -0.00000338    0.00000187   -0.00000593
     atom    4 type  1   force =    -0.00000306    0.00000233    0.00002204

     Total force =     0.000029     Total SCF correction =     0.000034
     SCF correction compared to forces is large: reduce conv_thr to get better values


     Computing stress (Cartesian axis) and pressure

          total   stress  (Ry/bohr**3)                   (kbar)     P=    9.49
  -0.00031903  -0.00000003  -0.00000002        -46.93     -0.00     -0.00
  -0.00000003  -0.00032003  -0.00000002         -0.00    -47.08     -0.00
  -0.00000002  -0.00000002   0.00083253         -0.00     -0.00    122.47


     BFGS Geometry Optimization

     number of scf cycles    =   1
     number of bfgs steps    =   0

     enthalpy new            =    -699.7893669318 Ry

     new trust radius        =       0.0578859270 bohr
     new conv_thr            =       0.0000010000 Ry

     new unit-cell volume =    194.26041 a.u.^3 (    28.78642 Ang^3 )
     density =      0.23074 g/cm^3

CELL_PARAMETERS (angstrom)
  -1.480790948   1.480827218   3.281931924
   1.480778599  -1.480844300   3.281934320
   1.480788051   1.480841403  -3.281943615

ATOMIC_POSITIONS (angstrom)
Hf       0.000002695   0.000001573   0.000106182
H       -0.000005834   1.480832215   1.640941787
H        1.480779454  -0.000008704   1.640925026
H       -0.000005797  -0.000013272   3.281891944



     Writing output data file HfH3.save
     NEW-OLD atomic charge density approx. for the potential
     extrapolated charge   15.06822, renormalised to   15.00000

     total cpu time spent up to now is       38.4 secs

     Self-consistent Calculation

     iteration #  1     ecut=    50.00 Ry     beta=0.70
     Davidson diagonalization with overlap
     ethr =  1.00E-06,  avg # of iterations =  4.5

     total cpu time spent up to now is       40.1 secs

     total energy              =    -699.79244942 Ry
     Harris-Foulkes estimate   =    -699.76414858 Ry
     estimated scf accuracy    <       0.00041100 Ry

     iteration #  2     ecut=    50.00 Ry     beta=0.70
     Davidson diagonalization with overlap
     ethr =  2.74E-06,  avg # of iterations =  3.0

     total cpu time spent up to now is       41.4 secs

     total energy              =    -699.79271058 Ry
     Harris-Foulkes estimate   =    -699.79287558 Ry
     estimated scf accuracy    <       0.00032097 Ry

     iteration #  3     ecut=    50.00 Ry     beta=0.70
     Davidson diagonalization with overlap
     ethr =  2.14E-06,  avg # of iterations =  2.0

     total cpu time spent up to now is       42.5 secs

     total energy              =    -699.79270129 Ry
     Harris-Foulkes estimate   =    -699.79273448 Ry
     estimated scf accuracy    <       0.00005488 Ry

     iteration #  4     ecut=    50.00 Ry     beta=0.70
     Davidson diagonalization with overlap
     ethr =  3.66E-07,  avg # of iterations =  2.4

     total cpu time spent up to now is       43.8 secs

     total energy              =    -699.79270915 Ry
     Harris-Foulkes estimate   =    -699.79270978 Ry
     estimated scf accuracy    <       0.00000128 Ry

     iteration #  5     ecut=    50.00 Ry     beta=0.70
     Davidson diagonalization with overlap
     ethr =  8.54E-09,  avg # of iterations =  2.4

     total cpu time spent up to now is       45.2 secs

     End of self-consistent calculation

          k = 0.0000 0.0000 0.0000 (  1153 PWs)   bands (ev):

   -49.8384 -18.6562 -17.9578 -17.9576   1.3549   8.4480  11.2234  13.2914
    14.9194  14.9200  18.2171  18.7854

          k =-0.6493-0.6493-0.0000 (  1164 PWs)   bands (ev):

   -49.7405 -18.6864 -18.6392 -18.5484   5.8267   6.8531   9.1291  13.8833
    14.0846  16.7304  19.0583  20.5048

          k =-0.6493-0.0000-0.2930 (  1152 PWs)   bands (ev):

   -49.7874 -18.8142 -18.6316 -17.8907   5.4920   6.8427  10.9421  11.3352
    14.6568  15.0348  16.6809  20.7181

          k =-1.2987-0.6493-0.2930 (  1152 PWs)   bands (ev):

   -49.7874 -18.8142 -18.6317 -17.8905   5.4918   6.8424  10.9419  11.3352
    14.6575  15.0347  16.6811  20.7174

          k =-0.0000-0.6493-0.2930 (  1152 PWs)   bands (ev):

   -49.7874 -18.8142 -18.6317 -17.8905   5.4918   6.8425  10.9419  11.3351
    14.6575  15.0348  16.6812  20.7174

          k =-0.6493-1.2986-0.2930 (  1152 PWs)   bands (ev):

   -49.7874 -18.8142 -18.6316 -17.8907   5.4920   6.8427  10.9421  11.3353
    14.6568  15.0347  16.6808  20.7181

          k =-0.6493-0.6493-0.5860 (  1164 PWs)   bands (ev):

   -49.7405 -18.6864 -18.6392 -18.5484   5.8267   6.8532   9.1291  13.8833
    14.0845  16.7304  19.0583  20.5048

          k =-1.2987-1.2986-0.5860 (  1162 PWs)   bands (ev):

   -49.8336 -18.8386 -17.9749 -17.9747   4.7791   5.1225   9.0600  16.0586
    16.9512  16.9516  18.2777  18.3972

     the Fermi energy is    11.5504 ev

!    total energy              =    -699.79270940 Ry
     Harris-Foulkes estimate   =    -699.79270943 Ry
     estimated scf accuracy    <       0.00000005 Ry

     The total energy is the sum of the following terms:

     one-electron contribution =     -17.23750437 Ry
     hartree contribution      =      15.31967777 Ry
     xc contribution           =     -43.69482813 Ry
     ewald contribution        =     -79.96902597 Ry
     one-center paw contrib.   =    -574.21189299 Ry
     smearing contrib. (-TS)   =       0.00086429 Ry

     convergence has been achieved in   5 iterations

     Forces acting on atoms (cartesian axes, Ry/au):

     atom    1 type  2   force =     0.00003134   -0.00002786   -0.00031877
     atom    2 type  1   force =    -0.00000987    0.00000816    0.00010622
     atom    3 type  1   force =    -0.00001051    0.00000950    0.00010897
     atom    4 type  1   force =    -0.00001096    0.00001021    0.00010358

     Total force =     0.000371     Total SCF correction =     0.000953
     SCF correction compared to forces is large: reduce conv_thr to get better values


     Computing stress (Cartesian axis) and pressure

          total   stress  (Ry/bohr**3)                   (kbar)     P=   11.53
  -0.00012723  -0.00000001  -0.00000005        -18.72     -0.00     -0.01
  -0.00000001  -0.00012798  -0.00000001         -0.00    -18.83     -0.00
  -0.00000005  -0.00000001   0.00049042         -0.01     -0.00     72.14


     number of scf cycles    =   2
     number of bfgs steps    =   1

     enthalpy old            =    -699.7893669318 Ry
     enthalpy new            =    -699.7927093987 Ry

     CASE: enthalpy_new < enthalpy_old

     new trust radius        =       0.0730511551 bohr
     new conv_thr            =       0.0000000100 Ry

     new unit-cell volume =    196.45811 a.u.^3 (    29.11209 Ang^3 )
     density =      0.22816 g/cm^3

CELL_PARAMETERS (angstrom)
  -1.470048605   1.470010491   3.367942750
   1.470018287  -1.470030124   3.367937837
   1.470043257   1.470024777  -3.367955926

ATOMIC_POSITIONS (angstrom)
Hf       0.000038005  -0.000029800  -0.000283072
H       -0.000022660   1.470024052   1.684074577
H        1.470010563   0.000000148   1.684057154
H       -0.000027143  -0.000003013   3.368025724



     Writing output data file HfH3.save
     NEW-OLD atomic charge density approx. for the potential
     extrapolated charge   15.16778, renormalised to   15.00000

     total cpu time spent up to now is       69.3 secs

     Self-consistent Calculation

     iteration #  1     ecut=    50.00 Ry     beta=0.70
     Davidson diagonalization with overlap
     ethr =  1.00E-06,  avg # of iterations =  4.5

     total cpu time spent up to now is       71.0 secs

     total energy              =    -699.79203423 Ry
     Harris-Foulkes estimate   =    -699.71526689 Ry
     estimated scf accuracy    <       0.00159874 Ry

     iteration #  2     ecut=    50.00 Ry     beta=0.70
     Davidson diagonalization with overlap
     ethr =  1.07E-05,  avg # of iterations =  3.4

     total cpu time spent up to now is       72.4 secs

     total energy              =    -699.79421796 Ry
     Harris-Foulkes estimate   =    -699.79509155 Ry
     estimated scf accuracy    <       0.00173826 Ry

     iteration #  3     ecut=    50.00 Ry     beta=0.70
     Davidson diagonalization with overlap
     ethr =  1.07E-05,  avg # of iterations =  1.9

     total cpu time spent up to now is       73.4 secs

     total energy              =    -699.79413529 Ry
     Harris-Foulkes estimate   =    -699.79434098 Ry
     estimated scf accuracy    <       0.00032847 Ry

     iteration #  4     ecut=    50.00 Ry     beta=0.70
     Davidson diagonalization with overlap
     ethr =  2.19E-06,  avg # of iterations =  2.8

     total cpu time spent up to now is       74.6 secs

     total energy              =    -699.79417867 Ry
     Harris-Foulkes estimate   =    -699.79418579 Ry
     estimated scf accuracy    <       0.00001034 Ry

     iteration #  5     ecut=    50.00 Ry     beta=0.70
     Davidson diagonalization with overlap
     ethr =  6.89E-08,  avg # of iterations =  2.4

     total cpu time spent up to now is       75.8 secs

     total energy              =    -699.79418150 Ry
     Harris-Foulkes estimate   =    -699.79418183 Ry
     estimated scf accuracy    <       0.00000052 Ry

     iteration #  6     ecut=    50.00 Ry     beta=0.70
     Davidson diagonalization with overlap
     ethr =  3.46E-09,  avg # of iterations =  2.4

     total cpu time spent up to now is       76.9 secs

     total energy              =    -699.79418163 Ry
     Harris-Foulkes estimate   =    -699.79418164 Ry
     estimated scf accuracy    <       0.00000002 Ry

     iteration #  7     ecut=    50.00 Ry     beta=0.70
     Davidson diagonalization with overlap
     ethr =  1.17E-10,  avg # of iterations =  2.0

     total cpu time spent up to now is       77.9 secs

     End of self-consistent calculation

          k = 0.0000 0.0000 0.0000 (  1153 PWs)   bands (ev):

   -50.0403 -18.8714 -18.1341 -18.1340   1.2735   7.9380  10.9650  13.4033
    14.9514  14.9515  18.1656  18.2004

          k =-0.6541-0.6541-0.0000 (  1164 PWs)   bands (ev):

   -49.9341 -18.8979 -18.8606 -18.7405   5.5573   6.8914   9.1183  13.4973
    13.8591  16.5815  18.8999  20.5061

          k =-0.6541-0.0000-0.2855 (  1152 PWs)   bands (ev):

   -49.9854 -19.0363 -18.8332 -18.0596   5.4788   6.7522  10.6746  11.0321
    14.5379  14.5704  16.5829  20.5231

          k =-1.3082-0.6541-0.2855 (  1152 PWs)   bands (ev):

   -49.9854 -19.0364 -18.8332 -18.0596   5.4788   6.7522  10.6747  11.0322
    14.5378  14.5703  16.5828  20.5232

          k =-0.0000-0.6541-0.2855 (  1152 PWs)   bands (ev):

   -49.9854 -19.0364 -18.8332 -18.0596   5.4788   6.7523  10.6747  11.0321
    14.5377  14.5704  16.5828  20.5232

          k =-0.6541-1.3082-0.2855 (  1152 PWs)   bands (ev):

   -49.9854 -19.0363 -18.8332 -18.0596   5.4788   6.7521  10.6747  11.0322
    14.5379  14.5703  16.5828  20.5231

          k =-0.6541-0.6541-0.5710 (  1164 PWs)   bands (ev):

   -49.9341 -18.8979 -18.8606 -18.7404   5.5573   6.8915   9.1182  13.4973
    13.8591  16.5815  18.9000  20.5061

          k =-1.3082-1.3082-0.5710 (  1162 PWs)   bands (ev):

   -50.0367 -19.0263 -18.1472 -18.1471   4.4688   4.8773   9.1034  15.5741
    16.7466  16.7467  17.8203  18.3061

     the Fermi energy is    11.2469 ev

!    total energy              =    -699.79418164 Ry
     Harris-Foulkes estimate   =    -699.79418164 Ry
     estimated scf accuracy    <          6.4E-10 Ry

     The total energy is the sum of the following terms:

     one-electron contribution =     -18.11382020 Ry
     hartree contribution      =      15.65104965 Ry
     xc contribution           =     -43.68343377 Ry
     ewald contribution        =     -79.43674794 Ry
     one-center paw contrib.   =    -574.21214328 Ry
     smearing contrib. (-TS)   =       0.00091390 Ry

     convergence has been achieved in   7 iterations

     Forces acting on atoms (cartesian axes, Ry/au):

     atom    1 type  2   force =    -0.00001293    0.00001222   -0.00002747
     atom    2 type  1   force =     0.00000473   -0.00000460    0.00002459
     atom    3 type  1   force =     0.00000303   -0.00000305    0.00002589
     atom    4 type  1   force =     0.00000518   -0.00000456   -0.00002301

     Total force =     0.000055     Total SCF correction =     0.000032
     SCF correction compared to forces is large: reduce conv_thr to get better values


     Computing stress (Cartesian axis) and pressure

          total   stress  (Ry/bohr**3)                   (kbar)     P=    6.78
   0.00004625   0.00000003  -0.00000001          6.80      0.00     -0.00
   0.00000003   0.00004640  -0.00000001          0.00      6.83     -0.00
  -0.00000001  -0.00000001   0.00004552         -0.00     -0.00      6.70


     number of scf cycles    =   3
     number of bfgs steps    =   2

     enthalpy old            =    -699.7927093987 Ry
     enthalpy new            =    -699.7941816361 Ry

     CASE: enthalpy_new < enthalpy_old

     new trust radius        =       0.0051379428 bohr
     new conv_thr            =       0.0000000100 Ry

     new unit-cell volume =    197.21500 a.u.^3 (    29.22425 Ang^3 )
     density =      0.22728 g/cm^3

CELL_PARAMETERS (angstrom)
  -1.471527243   1.471492192   3.374115742
   1.471495395  -1.471512941   3.374110629
   1.471524112   1.471509810  -3.374129478

ATOMIC_POSITIONS (angstrom)
Hf       0.000031881  -0.000023943  -0.000307291
H       -0.000019656   1.471504875   1.687178024
H        1.471490518  -0.000000427   1.687161367
H       -0.000025416  -0.000005761   3.374187424



     Writing output data file HfH3.save
     NEW-OLD atomic charge density approx. for the potential
     extrapolated charge   15.05756, renormalised to   15.00000

     total cpu time spent up to now is       99.9 secs

     Self-consistent Calculation

     iteration #  1     ecut=    50.00 Ry     beta=0.70
     Davidson diagonalization with overlap
     ethr =  1.00E-06,  avg # of iterations =  4.0

     total cpu time spent up to now is      101.1 secs

     total energy              =    -699.78646015 Ry
     Harris-Foulkes estimate   =    -699.77169859 Ry
     estimated scf accuracy    <       0.00129853 Ry

     iteration #  2     ecut=    50.00 Ry     beta=0.70
     Davidson diagonalization with overlap
     ethr =  8.66E-06,  avg # of iterations =  3.5

     total cpu time spent up to now is      102.2 secs

     total energy              =    -699.79427870 Ry
     Harris-Foulkes estimate   =    -699.79515068 Ry
     estimated scf accuracy    <       0.00172767 Ry

     iteration #  3     ecut=    50.00 Ry     beta=0.70
     Davidson diagonalization with overlap
     ethr =  8.66E-06,  avg # of iterations =  1.9

     total cpu time spent up to now is      103.0 secs

     total energy              =    -699.79426626 Ry
     Harris-Foulkes estimate   =    -699.79439155 Ry
     estimated scf accuracy    <       0.00036511 Ry

     iteration #  4     ecut=    50.00 Ry     beta=0.70
     Davidson diagonalization with overlap
     ethr =  2.43E-06,  avg # of iterations =  2.0

     total cpu time spent up to now is      103.8 secs

     total energy              =    -699.79423362 Ry
     Harris-Foulkes estimate   =    -699.79428017 Ry
     estimated scf accuracy    <       0.00015242 Ry

     iteration #  5     ecut=    50.00 Ry     beta=0.70
     Davidson diagonalization with overlap
     ethr =  1.02E-06,  avg # of iterations =  1.4

     total cpu time spent up to now is      104.5 secs

     total energy              =    -699.79423031 Ry
     Harris-Foulkes estimate   =    -699.79423828 Ry
     estimated scf accuracy    <       0.00007025 Ry

     iteration #  6     ecut=    50.00 Ry     beta=0.70
     Davidson diagonalization with overlap
     ethr =  4.68E-07,  avg # of iterations =  1.0

     total cpu time spent up to now is      105.2 secs

     total energy              =    -699.79420965 Ry
     Harris-Foulkes estimate   =    -699.79423081 Ry
     estimated scf accuracy    <       0.00005558 Ry

     iteration #  7     ecut=    50.00 Ry     beta=0.70
     Davidson diagonalization with overlap
     ethr =  3.71E-07,  avg # of iterations =  1.2

     total cpu time spent up to now is      105.9 secs

     total energy              =    -699.79420385 Ry
     Harris-Foulkes estimate   =    -699.79421202 Ry
     estimated scf accuracy    <       0.00001887 Ry

     iteration #  8     ecut=    50.00 Ry     beta=0.70
     Davidson diagonalization with overlap
     ethr =  1.26E-07,  avg # of iterations =  1.4

     total cpu time spent up to now is      106.7 secs

     total energy              =    -699.79420285 Ry
     Harris-Foulkes estimate   =    -699.79420501 Ry
     estimated scf accuracy    <       0.00000496 Ry

     iteration #  9     ecut=    50.00 Ry     beta=0.70
     Davidson diagonalization with overlap
     ethr =  3.30E-08,  avg # of iterations =  1.5

     total cpu time spent up to now is      107.4 secs

     total energy              =    -699.79420251 Ry
     Harris-Foulkes estimate   =    -699.79420315 Ry
     estimated scf accuracy    <       0.00000135 Ry

     iteration # 10     ecut=    50.00 Ry     beta=0.70
     Davidson diagonalization with overlap
     ethr =  9.02E-09,  avg # of iterations =  1.4

     total cpu time spent up to now is      108.1 secs

     total energy              =    -699.79420243 Ry
     Harris-Foulkes estimate   =    -699.79420262 Ry
     estimated scf accuracy    <       0.00000027 Ry

     iteration # 11     ecut=    50.00 Ry     beta=0.70
     Davidson diagonalization with overlap
     ethr =  1.80E-09,  avg # of iterations =  2.0

     total cpu time spent up to now is      109.0 secs

     End of self-consistent calculation

          k = 0.0000 0.0000 0.0000 (  1153 PWs)   bands (ev):

   -50.1092 -18.9386 -18.2046 -18.2046   1.2431   7.8858  10.9122  13.3510
    14.8920  14.8921  18.0870  18.1229

          k =-0.6534-0.6534-0.0000 (  1164 PWs)   bands (ev):

   -50.0045 -18.9608 -18.9243 -18.8086   5.5194   6.8573   9.0686  13.4327
    13.7953  16.5243  18.8097  20.4164

          k =-0.6534-0.0000-0.2850 (  1152 PWs)   bands (ev):

   -50.0550 -19.0978 -18.9003 -18.1308   5.4449   6.7036  10.6194  10.9717
    14.4759  14.4974  16.5108  20.4296

          k =-1.3069-0.6534-0.2850 (  1152 PWs)   bands (ev):

   -50.0550 -19.0978 -18.9002 -18.1308   5.4449   6.7036  10.6195  10.9717
    14.4758  14.4972  16.5107  20.4297

          k =-0.0000-0.6534-0.2850 (  1152 PWs)   bands (ev):

   -50.0550 -19.0978 -18.9002 -18.1308   5.4449   6.7036  10.6194  10.9716
    14.4758  14.4973  16.5107  20.4297

          k =-0.6534-1.3069-0.2850 (  1152 PWs)   bands (ev):

   -50.0550 -19.0978 -18.9002 -18.1308   5.4449   6.7035  10.6194  10.9718
    14.4759  14.4972  16.5107  20.4296

          k =-0.6534-0.6534-0.5700 (  1164 PWs)   bands (ev):

   -50.0045 -18.9608 -18.9243 -18.8086   5.5194   6.8573   9.0685  13.4327
    13.7953  16.5244  18.8098  20.4164

          k =-1.3069-1.3069-0.5700 (  1162 PWs)   bands (ev):

   -50.1057 -19.0903 -18.2174 -18.2174   4.4233   4.8320   9.0626  15.4925
    16.6706  16.6707  17.7373  18.2256

     the Fermi energy is    11.1867 ev

!    total energy              =    -699.79420248 Ry
     Harris-Foulkes estimate   =    -699.79420248 Ry
     estimated scf accuracy    <          2.2E-09 Ry

     The total energy is the sum of the following terms:

     one-electron contribution =     -18.27092842 Ry
     hartree contribution      =      15.69355289 Ry
     xc contribution           =     -43.67715176 Ry
     ewald contribution        =     -79.32873990 Ry
     one-center paw contrib.   =    -574.21185596 Ry
     smearing contrib. (-TS)   =       0.00092066 Ry

     convergence has been achieved in  11 iterations

     Forces acting on atoms (cartesian axes, Ry/au):

     atom    1 type  2   force =    -0.00000458    0.00000882   -0.00003169
     atom    2 type  1   force =     0.00000247   -0.00000360    0.00002614
     atom    3 type  1   force =     0.00000068   -0.00000205    0.00002726
     atom    4 type  1   force =     0.00000143   -0.00000316   -0.00002172

     Total force =     0.000055     Total SCF correction =     0.000039
     SCF correction compared to forces is large: reduce conv_thr to get better values


     Computing stress (Cartesian axis) and pressure

          total   stress  (Ry/bohr**3)                   (kbar)     P=    1.44
   0.00001038   0.00000001  -0.00000002          1.53      0.00     -0.00
   0.00000001   0.00001051  -0.00000000          0.00      1.55     -0.00
  -0.00000002  -0.00000000   0.00000842         -0.00     -0.00      1.24


     number of scf cycles    =   4
     number of bfgs steps    =   3

     enthalpy old            =    -699.7941816361 Ry
     enthalpy new            =    -699.7942024836 Ry

     CASE: enthalpy_new < enthalpy_old

     new trust radius        =       0.0011299486 bohr
     new conv_thr            =       0.0000000100 Ry

     new unit-cell volume =    197.41340 a.u.^3 (    29.25365 Ang^3 )
     density =      0.22705 g/cm^3

CELL_PARAMETERS (angstrom)
  -1.471970040   1.471938363   3.375474169
   1.471933539  -1.471959731   3.375467063
   1.471967810   1.471957502  -3.375488213

ATOMIC_POSITIONS (angstrom)
Hf       0.000028997  -0.000018290  -0.000331974
H       -0.000018788   1.471949330   1.687876311
H        1.471930681  -0.000001437   1.687859504
H       -0.000026845  -0.000008099   3.375529244



     Writing output data file HfH3.save
     NEW-OLD atomic charge density approx. for the potential
     extrapolated charge   15.01507, renormalised to   15.00000

     total cpu time spent up to now is      130.2 secs

     Self-consistent Calculation

     iteration #  1     ecut=    50.00 Ry     beta=0.70
     Davidson diagonalization with overlap
     ethr =  1.00E-06,  avg # of iterations =  4.0

     total cpu time spent up to now is      131.8 secs

     total energy              =    -699.78952673 Ry
     Harris-Foulkes estimate   =    -699.79056025 Ry
     estimated scf accuracy    <       0.00081930 Ry

     iteration #  2     ecut=    50.00 Ry     beta=0.70
     Davidson diagonalization with overlap
     ethr =  5.46E-06,  avg # of iterations =  3.6

     total cpu time spent up to now is      132.9 secs

     total energy              =    -699.79425494 Ry
     Harris-Foulkes estimate   =    -699.79483211 Ry
     estimated scf accuracy    <       0.00117449 Ry

     iteration #  3     ecut=    50.00 Ry     beta=0.70
     Davidson diagonalization with overlap
     ethr =  5.46E-06,  avg # of iterations =  1.9

     total cpu time spent up to now is      133.7 secs

     total energy              =    -699.79424674 Ry
     Harris-Foulkes estimate   =    -699.79433011 Ry
     estimated scf accuracy    <       0.00025153 Ry

     iteration #  4     ecut=    50.00 Ry     beta=0.70
     Davidson diagonalization with overlap
     ethr =  1.68E-06,  avg # of iterations =  2.0

     total cpu time spent up to now is      134.6 secs

     total energy              =    -699.79422286 Ry
     Harris-Foulkes estimate   =    -699.79425583 Ry
     estimated scf accuracy    <       0.00010621 Ry

     iteration #  5     ecut=    50.00 Ry     beta=0.70
     Davidson diagonalization with overlap
     ethr =  7.08E-07,  avg # of iterations =  1.4

     total cpu time spent up to now is      135.5 secs

     total energy              =    -699.79422105 Ry
     Harris-Foulkes estimate   =    -699.79422638 Ry
     estimated scf accuracy    <       0.00004636 Ry

     iteration #  6     ecut=    50.00 Ry     beta=0.70
     Davidson diagonalization with overlap
     ethr =  3.09E-07,  avg # of iterations =  1.0

     total cpu time spent up to now is      136.4 secs

     total energy              =    -699.79421176 Ry
     Harris-Foulkes estimate   =    -699.79422139 Ry
     estimated scf accuracy    <       0.00003641 Ry

     iteration #  7     ecut=    50.00 Ry     beta=0.70
     Davidson diagonalization with overlap
     ethr =  2.43E-07,  avg # of iterations =  1.0

     total cpu time spent up to now is      137.6 secs

     total energy              =    -699.79420938 Ry
     Harris-Foulkes estimate   =    -699.79421255 Ry
     estimated scf accuracy    <       0.00001845 Ry

     iteration #  8     ecut=    50.00 Ry     beta=0.70
     Davidson diagonalization with overlap
     ethr =  1.23E-07,  avg # of iterations =  1.0

     total cpu time spent up to now is      138.7 secs

     total energy              =    -699.79420534 Ry
     Harris-Foulkes estimate   =    -699.79420958 Ry
     estimated scf accuracy    <       0.00001253 Ry

     iteration #  9     ecut=    50.00 Ry     beta=0.70
     Davidson diagonalization with overlap
     ethr =  8.35E-08,  avg # of iterations =  1.2

     total cpu time spent up to now is      139.6 secs

     total energy              =    -699.79420503 Ry
     Harris-Foulkes estimate   =    -699.79420579 Ry
     estimated scf accuracy    <       0.00000483 Ry

     iteration # 10     ecut=    50.00 Ry     beta=0.70
     Davidson diagonalization with overlap
     ethr =  3.22E-08,  avg # of iterations =  1.0

     total cpu time spent up to now is      140.4 secs

     total energy              =    -699.79420260 Ry
     Harris-Foulkes estimate   =    -699.79420509 Ry
     estimated scf accuracy    <       0.00000342 Ry

     iteration # 11     ecut=    50.00 Ry     beta=0.70
     Davidson diagonalization with overlap
     ethr =  2.28E-08,  avg # of iterations =  2.1

     total cpu time spent up to now is      141.4 secs

     End of self-consistent calculation

          k = 0.0000 0.0000 0.0000 (  1153 PWs)   bands (ev):

   -50.1268 -18.9557 -18.2227 -18.2227   1.2350   7.8734  10.8990  13.3361
    14.8760  14.8760  18.0661  18.1040

          k =-0.6532-0.6532-0.0000 (  1164 PWs)   bands (ev):

   -50.0224 -18.9768 -18.9404 -18.8260   5.5100   6.8478   9.0549  13.4167
    13.7787  16.5092  18.7859  20.3924

          k =-0.6532-0.0000-0.2849 (  1152 PWs)   bands (ev):

   -50.0728 -19.1133 -18.9174 -18.1491   5.4357   6.6906  10.6056  10.9562
    14.4597  14.4794  16.4918  20.4053

          k =-1.3065-0.6532-0.2849 (  1152 PWs)   bands (ev):

   -50.0728 -19.1133 -18.9174 -18.1491   5.4356   6.6905  10.6056  10.9563
    14.4597  14.4793  16.4917  20.4054

          k =-0.0000-0.6532-0.2849 (  1152 PWs)   bands (ev):

   -50.0728 -19.1133 -18.9174 -18.1491   5.4356   6.6906  10.6056  10.9562
    14.4596  14.4794  16.4917  20.4054

          k =-0.6532-1.3065-0.2849 (  1152 PWs)   bands (ev):

   -50.0728 -19.1133 -18.9174 -18.1491   5.4356   6.6905  10.6056  10.9563
    14.4597  14.4792  16.4917  20.4053

          k =-0.6532-0.6532-0.5697 (  1164 PWs)   bands (ev):

   -50.0224 -18.9768 -18.9404 -18.8260   5.5100   6.8478   9.0549  13.4167
    13.7787  16.5092  18.7860  20.3924

          k =-1.3065-1.3065-0.5697 (  1162 PWs)   bands (ev):

   -50.1233 -19.1067 -18.2354 -18.2354   4.4121   4.8204   9.0516  15.4723
    16.6510  16.6510  17.7163  18.2044

     the Fermi energy is    11.1713 ev

!    total energy              =    -699.79420342 Ry
     Harris-Foulkes estimate   =    -699.79420343 Ry
     estimated scf accuracy    <          5.6E-09 Ry

     The total energy is the sum of the following terms:

     one-electron contribution =     -18.31008767 Ry
     hartree contribution      =      15.70358659 Ry
     xc contribution           =     -43.67545602 Ry
     ewald contribution        =     -79.30139120 Ry
     one-center paw contrib.   =    -574.21177799 Ry
     smearing contrib. (-TS)   =       0.00092288 Ry

     convergence has been achieved in  11 iterations

     Forces acting on atoms (cartesian axes, Ry/au):

     atom    1 type  2   force =    -0.00000736    0.00000433   -0.00004598
     atom    2 type  1   force =     0.00000276   -0.00000194    0.00002961
     atom    3 type  1   force =     0.00000160   -0.00000079    0.00003052
     atom    4 type  1   force =     0.00000300   -0.00000160   -0.00001415

     Total force =     0.000065     Total SCF correction =     0.000019
     SCF correction compared to forces is large: reduce conv_thr to get better values


     Computing stress (Cartesian axis) and pressure

          total   stress  (Ry/bohr**3)                   (kbar)     P=    0.05
   0.00000066   0.00000002  -0.00000003          0.10      0.00     -0.00
   0.00000002   0.00000070  -0.00000002          0.00      0.10     -0.00
  -0.00000003  -0.00000002  -0.00000036         -0.00     -0.00     -0.05


     bfgs converged in   5 scf cycles and   4 bfgs steps
     (criteria: energy <  1.0E-04 Ry, force <  1.0E-03Ry/Bohr, cell <  5.0E-01kbar)

     End of BFGS Geometry Optimization

     Final enthalpy =    -699.7942034212 Ry
Begin final coordinates
     new unit-cell volume =    197.41340 a.u.^3 (    29.25365 Ang^3 )
     density =      0.22705 g/cm^3

CELL_PARAMETERS (angstrom)
  -1.471970040   1.471938363   3.375474169
   1.471933539  -1.471959731   3.375467063
   1.471967810   1.471957502  -3.375488213

ATOMIC_POSITIONS (angstrom)
Hf       0.000028997  -0.000018290  -0.000331974
H       -0.000018788   1.471949330   1.687876311
H        1.471930681  -0.000001437   1.687859504
H       -0.000026845  -0.000008099   3.375529244
End final coordinates



     A final scf calculation at the relaxed structure.
     The G-vectors are recalculated for the final unit cell
     Results may differ from those at the preceding step.

     G-vector sticks info
     --------------------
     sticks:   dense  smooth     PW     G-vecs:    dense   smooth      PW
     Sum        1589     793    303                26689     9413    2225



     bravais-lattice index     =            0
     lattice parameter (alat)  =       7.2682  a.u.
     unit-cell volume          =     197.4134 (a.u.)^3
     number of atoms/cell      =            4
     number of atomic types    =            2
     number of electrons       =        15.00
     number of Kohn-Sham states=           12
     kinetic-energy cutoff     =      50.0000  Ry
     charge density cutoff     =     400.0000  Ry
     convergence threshold     =      1.0E-08
     mixing beta               =       0.7000
     number of iterations used =            8  plain     mixing
     Exchange-correlation      =  SLA  PW   PBX  PBC ( 1  4  3  4 0 0)

     celldm(1)=   7.268162  celldm(2)=   0.000000  celldm(3)=   0.000000
     celldm(4)=   0.000000  celldm(5)=   0.000000  celldm(6)=   0.000000

     crystal axes: (cart. coord. in units of alat)
               a(1) = (  -0.382713   0.382705   0.877625 )  
               a(2) = (   0.382704  -0.382710   0.877623 )  
               a(3) = (   0.382712   0.382710  -0.877629 )  

     reciprocal axes: (cart. coord. in units 2 pi/alat)
               b(1) = (  0.000005  1.306484  0.569724 )  
               b(2) = (  1.306483  0.000004  0.569727 )  
               b(3) = (  1.306480  1.306482  0.000011 )  


     PseudoPot. # 1 for  H read from file:
     ./pseudo/H.UPF
     MD5 check sum: 3f4114867bd07edc7f1424d066fc1888
     Pseudo is Ultrasoft, Zval =  1.0
     Generated using "atomic" code by A. Dal Corso  v.6.3MaX
     Using radial grid of  929 points,  2 beta functions with: 
                l(1) =   0
                l(2) =   0
     Q(r) pseudized with 0 coefficients 


     PseudoPot. # 2 for Hf read from file:
     ./pseudo/Hf.UPF
     MD5 check sum: bf8a91e620b6303fe4cf956cf37905ef
     Pseudo is Projector augmented-wave + core cor, Zval = 12.0
     Generated using "atomic" code by A. Dal Corso  v.6.2.2
     Shape of augmentation charge: PSQ
     Using radial grid of 1271 points,  6 beta functions with: 
                l(1) =   0
                l(2) =   0
                l(3) =   1
                l(4) =   1
                l(5) =   2
                l(6) =   2
     Q(r) pseudized with 0 coefficients 


     atomic species   valence    mass     pseudopotential
        H              1.00     1.00000      H( 1.00)
        Hf            12.00     1.00000     Hf( 1.00)

     No symmetry found



   Cartesian axes

     site n.     atom                  positions (alat units)
         1           Hf  tau(   1) = (   0.0000075  -0.0000048  -0.0000863  )
         2           H   tau(   2) = (  -0.0000049   0.3827077   0.4388488  )
         3           H   tau(   3) = (   0.3827028  -0.0000004   0.4388444  )
         4           H   tau(   4) = (  -0.0000070  -0.0000021   0.8776395  )

     number of k points=     8  Methfessel-Paxton smearing, width (Ry)=  0.0200
                       cart. coord. in units 2pi/alat
        k(    1) = (   0.0000000   0.0000000   0.0000000), wk =   0.2500000
        k(    2) = (  -0.6532400  -0.6532412  -0.0000056), wk =   0.2500000
        k(    3) = (  -0.6532416  -0.0000019  -0.2848635), wk =   0.2500000
        k(    4) = (  -1.3064816  -0.6532431  -0.2848691), wk =   0.2500000
        k(    5) = (  -0.0000025  -0.6532421  -0.2848620), wk =   0.2500000
        k(    6) = (  -0.6532426  -1.3064833  -0.2848676), wk =   0.2500000
        k(    7) = (  -0.6532441  -0.6532440  -0.5697255), wk =   0.2500000
        k(    8) = (  -1.3064841  -1.3064852  -0.5697311), wk =   0.2500000

     Dense  grid:    26689 G-vectors     FFT dimensions: (  48,  48,  48)

     Smooth grid:     9413 G-vectors     FFT dimensions: (  36,  36,  36)

     Estimated max dynamical RAM per process >      22.74MB

     Initial potential from superposition of free atoms

     starting charge   14.99803, renormalised to   15.00000
     Starting wfc are   13 randomized atomic wfcs
     Checking if some PAW data can be deallocated... 

     Writing output data file HfH3.save

     total cpu time spent up to now is      161.8 secs

     Self-consistent Calculation

     iteration #  1     ecut=    50.00 Ry     beta=0.70
     Davidson diagonalization with overlap
     ethr =  1.00E-06,  avg # of iterations =  9.8

     total cpu time spent up to now is      163.6 secs

     total energy              =    -699.76714628 Ry
     Harris-Foulkes estimate   =    -699.86524996 Ry
     estimated scf accuracy    <       0.17993948 Ry

     iteration #  2     ecut=    50.00 Ry     beta=0.70
     Davidson diagonalization with overlap
     ethr =  1.20E-03,  avg # of iterations =  2.4

     total cpu time spent up to now is      164.5 secs

     total energy              =    -699.79341293 Ry
     Harris-Foulkes estimate   =    -699.79629937 Ry
     estimated scf accuracy    <       0.00603874 Ry

     iteration #  3     ecut=    50.00 Ry     beta=0.70
     Davidson diagonalization with overlap
     ethr =  4.03E-05,  avg # of iterations =  2.0

     total cpu time spent up to now is      165.6 secs

     total energy              =    -699.79443071 Ry
     Harris-Foulkes estimate   =    -699.79448306 Ry
     estimated scf accuracy    <       0.00033630 Ry

     iteration #  4     ecut=    50.00 Ry     beta=0.70
     Davidson diagonalization with overlap
     ethr =  2.24E-06,  avg # of iterations =  1.9

     total cpu time spent up to now is      166.5 secs

     total energy              =    -699.79446186 Ry
     Harris-Foulkes estimate   =    -699.79446088 Ry
     estimated scf accuracy    <       0.00000803 Ry

     iteration #  5     ecut=    50.00 Ry     beta=0.70
     Davidson diagonalization with overlap
     ethr =  5.35E-08,  avg # of iterations =  1.9

     total cpu time spent up to now is      167.5 secs

     total energy              =    -699.79446291 Ry
     Harris-Foulkes estimate   =    -699.79446283 Ry
     estimated scf accuracy    <       0.00000018 Ry

     iteration #  6     ecut=    50.00 Ry     beta=0.70
     Davidson diagonalization with overlap
     ethr =  1.20E-09,  avg # of iterations =  2.2

     total cpu time spent up to now is      168.5 secs

     End of self-consistent calculation

          k = 0.0000 0.0000 0.0000 (  1195 PWs)   bands (ev):

   -50.1273 -18.9590 -18.2229 -18.2229   1.2350   7.8732  10.8990  13.3359
    14.8756  14.8757  18.0660  18.1036

          k =-0.6532-0.6532-0.0000 (  1164 PWs)   bands (ev):

   -50.0229 -18.9765 -18.9401 -18.8283   5.5103   6.8476   9.0551  13.4164
    13.7786  16.5091  18.7863  20.3924

          k =-0.6532-0.0000-0.2849 (  1180 PWs)   bands (ev):

   -50.0733 -19.1134 -18.9202 -18.1491   5.4356   6.6904  10.6054  10.9562
    14.4596  14.4791  16.4914  20.4050

          k =-1.3065-0.6532-0.2849 (  1180 PWs)   bands (ev):

   -50.0733 -19.1134 -18.9202 -18.1491   5.4356   6.6904  10.6054  10.9563
    14.4596  14.4789  16.4913  20.4051

          k =-0.0000-0.6532-0.2849 (  1180 PWs)   bands (ev):

   -50.0733 -19.1134 -18.9202 -18.1491   5.4356   6.6905  10.6054  10.9562
    14.4596  14.4790  16.4913  20.4051

          k =-0.6532-1.3065-0.2849 (  1180 PWs)   bands (ev):

   -50.0733 -19.1134 -18.9202 -18.1491   5.4355   6.6904  10.6054  10.9564
    14.4596  14.4789  16.4913  20.4050

          k =-0.6532-0.6532-0.5697 (  1164 PWs)   bands (ev):

   -50.0229 -18.9765 -18.9401 -18.8283   5.5103   6.8476   9.0551  13.4164
    13.7786  16.5091  18.7863  20.3924

          k =-1.3065-1.3065-0.5697 (  1170 PWs)   bands (ev):

   -50.1238 -19.1091 -18.2352 -18.2352   4.4121   4.8202   9.0515  15.4721
    16.6505  16.6505  17.7163  18.2043

     the Fermi energy is    11.1714 ev

!    total energy              =    -699.79446295 Ry
     Harris-Foulkes estimate   =    -699.79446294 Ry
     estimated scf accuracy    <          5.1E-09 Ry

     The total energy is the sum of the following terms:

     one-electron contribution =     -18.31026170 Ry
     hartree contribution      =      15.70376921 Ry
     xc contribution           =     -43.67555054 Ry
     ewald contribution        =     -79.30139120 Ry
     one-center paw contrib.   =    -574.21195113 Ry
     smearing contrib. (-TS)   =       0.00092241 Ry

     convergence has been achieved in   6 iterations

     Forces acting on atoms (cartesian axes, Ry/au):

     atom    1 type  2   force =    -0.00000950    0.00000596   -0.00004070
     atom    2 type  1   force =     0.00000379   -0.00000274    0.00002857
     atom    3 type  1   force =     0.00000209   -0.00000131    0.00002955
     atom    4 type  1   force =     0.00000362   -0.00000190   -0.00001742

     Total force =     0.000062     Total SCF correction =     0.000025
     SCF correction compared to forces is large: reduce conv_thr to get better values


     Computing stress (Cartesian axis) and pressure

          total   stress  (Ry/bohr**3)                   (kbar)     P=    0.76
  -0.00000178   0.00000001  -0.00000002         -0.26      0.00     -0.00
   0.00000001  -0.00000175  -0.00000001          0.00     -0.26     -0.00
  -0.00000002  -0.00000001   0.00001901         -0.00     -0.00      2.80


     Writing output data file HfH3.save

     init_run     :     16.25s CPU     16.50s WALL (       2 calls)
     electrons    :     75.08s CPU     48.09s WALL (       6 calls)
     update_pot   :     30.77s CPU     31.28s WALL (       4 calls)
     forces       :     21.62s CPU     22.18s WALL (       6 calls)
     stress       :     53.05s CPU     56.25s WALL (       6 calls)

     Called by init_run:
     wfcinit      :      0.59s CPU      0.44s WALL (       2 calls)
     potinit      :      3.78s CPU      3.66s WALL (       2 calls)

     Called by electrons:
     c_bands      :     34.53s CPU     26.38s WALL (      46 calls)
     sum_band     :     18.00s CPU      9.67s WALL (      46 calls)
     v_of_rho     :      4.59s CPU      3.84s WALL (      52 calls)
     newd         :      8.97s CPU      4.54s WALL (      52 calls)
     PAW_pot      :     12.19s CPU      5.19s WALL (      56 calls)
     mix_rho      :      0.44s CPU      0.26s WALL (      46 calls)

     Called by c_bands:
     init_us_2    :      2.36s CPU      2.70s WALL (     880 calls)
     cegterg      :     33.00s CPU     24.48s WALL (     368 calls)

     Called by sum_band:
     sum_band:bec :      0.17s CPU      0.25s WALL (     400 calls)
     addusdens    :     11.62s CPU      5.64s WALL (      46 calls)

     Called by *egterg:
     h_psi        :     28.47s CPU     13.33s WALL (    1254 calls)
     s_psi        :      0.08s CPU      0.38s WALL (    1254 calls)
     g_psi        :      0.00s CPU      0.04s WALL (     870 calls)
     cdiaghg      :      4.72s CPU      9.69s WALL (    1206 calls)

     Called by h_psi:
     h_psi:pot    :     28.47s CPU     13.29s WALL (    1254 calls)
     h_psi:calbec :      0.02s CPU      0.25s WALL (    1254 calls)
     vloc_psi     :     28.41s CPU     12.79s WALL (    1254 calls)
     add_vuspsi   :      0.05s CPU      0.24s WALL (    1254 calls)

     General routines
     calbec       :      0.02s CPU      0.38s WALL (    1894 calls)
     fft          :      4.03s CPU      1.63s WALL (     962 calls)
     ffts         :      0.06s CPU      0.09s WALL (      98 calls)
     fftw         :     27.06s CPU      9.51s WALL (   27636 calls)
     interpolate  :      0.66s CPU      0.35s WALL (      98 calls)
     davcio       :      0.00s CPU      0.01s WALL (      16 calls)

     Parallel routines
     fft_scatter  :      0.12s CPU      1.45s WALL (   28696 calls)

     PWSCF        :  3m19.70s CPU     2m56.51s WALL


   This run was terminated on:  17:26:30  23Nov2025            

=------------------------------------------------------------------------------=
   JOB DONE.
=------------------------------------------------------------------------------=
