
     Program PWSCF v.6.1 starts on 20Dec2025 at 11:48:52 

     This program is part of the open-source Quantum ESPRESSO suite
     for quantum simulation of materials; please cite
         "P. Giannozzi et al., J. Phys.:Condens. Matter 21 395502 (2009);
          URL http://www.quantum-espresso.org", 
     in publications or presentations arising from this work. More details at
     http://www.quantum-espresso.org/quote

     Parallel version (MPI & OpenMP), running on      12 processor cores
     Number of MPI processes:                 1
     Threads/MPI process:                    12
     Waiting for input...
     Reading input from standard input

     Current dimensions of program PWSCF are:
     Max number of different atomic species (ntypx) = 10
     Max number of k-points (npk) =  40000
     Max angular momentum in pseudopotentials (lmaxx) =  3
               file H.UPF: wavefunction(s)  1S renormalized
               file Mg.UPF: wavefunction(s)  Xn Xn Xn Xn Xn Xn renormalized
               file Re.UPF: wavefunction(s)  5P 5D 4F renormalized

     Subspace diagonalization in iterative solution of the eigenvalue problem:
     a serial algorithm will be used


     G-vector sticks info
     --------------------
     sticks:   dense  smooth     PW     G-vecs:    dense   smooth      PW
     Sum        8215    4121   1165               373549   132051   20013



     bravais-lattice index     =            0
     lattice parameter (alat)  =      17.4111  a.u.
     unit-cell volume          =    2766.1971 (a.u.)^3
     number of atoms/cell      =           36
     number of atomic types    =            4
     number of electrons       =       129.00
     number of Kohn-Sham states=           78
     kinetic-energy cutoff     =      50.0000  Ry
     charge density cutoff     =     400.0000  Ry
     convergence threshold     =      1.0E-06
     mixing beta               =       0.7000
     number of iterations used =            8  plain     mixing
     Exchange-correlation      =  SLA  PW   PBX  PBC ( 1  4  3  4 0 0)
     nstep                     =           50


     celldm(1)=  17.411126  celldm(2)=   0.000000  celldm(3)=   0.000000
     celldm(4)=   0.000000  celldm(5)=   0.000000  celldm(6)=   0.000000

     crystal axes: (cart. coord. in units of alat)
               a(1) = (   0.486055  -0.873927   0.001539 )  
               a(2) = (   0.488331   0.875241  -0.001073 )  
               a(3) = (   0.000271  -0.000877   0.614995 )  

     reciprocal axes: (cart. coord. in units 2 pi/alat)
               b(1) = (  1.027061 -0.573039 -0.001270 )  
               b(2) = (  1.025518  0.570366  0.000362 )  
               b(3) = ( -0.000781  0.002430  1.626033 )  


     PseudoPot. # 1 for  H read from file:
     C:/Users/Acer/Desktop/Quantum_Espresso/pseudo/H.UPF
     MD5 check sum: 850d63dcbcc06c5de8b44e0ab9f952da
     Pseudo is Projector augmented-wave, Zval =  1.0
     Generated using "atomic" code by A. Dal Corso  v.5.1.2
     Shape of augmentation charge: PSQ
     Using radial grid of  929 points,  2 beta functions with: 
                l(1) =   0
                l(2) =   0
     Q(r) pseudized with 0 coefficients 


     PseudoPot. # 2 for K  read from file:
     C:/Users/Acer/Desktop/Quantum_Espresso/pseudo/K.UPF
     MD5 check sum: 86a9a9c3c3350590e9a8cd52a3b0554c
     Pseudo is Norm-conserving + core correction, Zval =  1.0
     Generated by new atomic code, or converted to UPF format
     Using radial grid of 1165 points,  2 beta functions with: 
                l(1) =   0
                l(2) =   1

     PseudoPot. # 3 for Mg read from file:
     C:/Users/Acer/Desktop/Quantum_Espresso/pseudo/Mg.UPF
     MD5 check sum: a77e51077e70c6c73445c6cac60d158f
     Pseudo is Projector augmented-wave + core cor, Zval = 10.0
     Generated using ATOMPAW code
     Shape of augmentation charge: BESSEL
     Using radial grid of 1171 points,  6 beta functions with: 
                l(1) =   0
                l(2) =   0
                l(3) =   0
                l(4) =   0
                l(5) =   1
                l(6) =   1
     Q(r) pseudized with 0 coefficients 


     PseudoPot. # 4 for Re read from file:
     C:/Users/Acer/Desktop/Quantum_Espresso/pseudo/Re.UPF
     MD5 check sum: 89f63c9a8fa23467ef1c371692ceb0a5
     Pseudo is Projector augmented-wave + core cor, Zval = 29.0
     Generated using "atomic" code by A. Dal Corso  v.5.1.2
     Shape of augmentation charge: PSQ
     Using radial grid of 1275 points,  8 beta functions with: 
                l(1) =   0
                l(2) =   0
                l(3) =   1
                l(4) =   1
                l(5) =   2
                l(6) =   2
                l(7) =   3
                l(8) =   3
     Q(r) pseudized with 0 coefficients 


     atomic species   valence    mass     pseudopotential
        H              1.00     1.00000      H( 1.00)
        K              1.00     1.00000     K ( 1.00)
        Mg            10.00     1.00000     Mg( 1.00)
        Re            29.00     1.00000     Re( 1.00)

     No symmetry found



   Cartesian axes

     site n.     atom                  positions (alat units)
         1           K   tau(   1) = (   0.1188882   0.2300351   0.3072213  )
         2           Mg  tau(   2) = (   0.6413218   0.0004254   0.3078031  )
         3           K   tau(   3) = (   0.1183102  -0.2305948   0.3079071  )
         4           K   tau(   4) = (   0.2945798   0.5516787  -0.0006792  )
         5           K   tau(   5) = (   0.3923521   0.0005437   0.0001795  )
         6           K   tau(   6) = (   0.2931769  -0.5509539   0.0009526  )
         7           Re  tau(   7) = (   0.5052424  -0.2688186   0.3081004  )
         8           Re  tau(   8) = (   0.5059688   0.2693057   0.3073457  )
         9           Re  tau(   9) = (  -0.0244672  -0.0000625  -0.0000234  )
        10           H   tau(  10) = (   0.5363256  -0.3891643   0.4424315  )
        11           H   tau(  11) = (   0.5935793  -0.1656056   0.4457806  )
        12           H   tau(  12) = (   0.3817603  -0.2550317   0.4419387  )
        13           H   tau(  13) = (   0.3822988   0.2551988   0.1734099  )
        14           H   tau(  14) = (   0.3816424  -0.2546475   0.1741605  )
        15           H   tau(  15) = (   0.5362330  -0.3887335   0.1742853  )
        16           H   tau(  16) = (   0.5934730  -0.1651893   0.1702883  )
        17           H   tau(  17) = (   0.5373203   0.3893535   0.4412456  )
        18           H   tau(  18) = (   0.5940178   0.1659138   0.4452400  )
        19           H   tau(  19) = (   0.0626888  -0.1577741   0.0002589  )
        20           H   tau(  20) = (   0.7653961   0.0010239   0.0003835  )
        21           H   tau(  21) = (   0.0631191   0.1579732  -0.0002098  )
        22           H   tau(  22) = (   0.3979623  -0.7704017   0.1423725  )
        23           H   tau(  23) = (   0.1213474  -0.0005425   0.4979455  )
        24           H   tau(  24) = (   0.4001311   0.7706059   0.4729850  )
        25           H   tau(  25) = (   0.3999542   0.7710539   0.1401012  )
        26           H   tau(  26) = (   0.1211738  -0.0000124   0.1171825  )
        27           H   tau(  27) = (   0.3981038  -0.7708628   0.4752850  )
        28           H   tau(  28) = (   0.3881028   0.4070035   0.3070867  )
        29           H   tau(  29) = (   0.6830925   0.3134766   0.3073611  )
        30           H   tau(  30) = (   0.4270024   0.1054614   0.3075458  )
        31           H   tau(  31) = (   0.4267682  -0.1051993   0.3078662  )
        32           H   tau(  32) = (   0.6822748  -0.3125089   0.3082945  )
        33           H   tau(  33) = (   0.3870517  -0.4068440   0.3082991  )
        34           H   tau(  34) = (   0.3824119   0.2548171   0.4411939  )
        35           H   tau(  35) = (   0.5372407   0.3897362   0.1730711  )
        36           H   tau(  36) = (   0.5938756   0.1663330   0.1698085  )

     number of k points=     8  Methfessel-Paxton smearing, width (Ry)=  0.0200
                       cart. coord. in units 2pi/alat
        k(    1) = (   0.0000000   0.0000000   0.0000000), wk =   0.2500000
        k(    2) = (   0.0003904  -0.0012148  -0.8130165), wk =   0.2500000
        k(    3) = (  -0.5127589  -0.2851830  -0.0001808), wk =   0.2500000
        k(    4) = (  -0.5123685  -0.2863978  -0.8131973), wk =   0.2500000
        k(    5) = (  -0.5135304   0.2865195   0.0006352), wk =   0.2500000
        k(    6) = (  -0.5131400   0.2853047  -0.8123813), wk =   0.2500000
        k(    7) = (  -1.0262893   0.0013365   0.0004543), wk =   0.2500000
        k(    8) = (  -1.0258989   0.0001217  -0.8125622), wk =   0.2500000

     Dense  grid:   373549 G-vectors     FFT dimensions: ( 120, 120,  72)

     Smooth grid:   132051 G-vectors     FFT dimensions: (  80,  80,  50)

     Estimated max dynamical RAM per process >     618.77MB

     Initial potential from superposition of free atoms

     starting charge  128.90386, renormalised to  129.00000
     Starting wfc are  108 randomized atomic wfcs
     Checking if some PAW data can be deallocated... 

     total cpu time spent up to now is      171.2 secs

     Self-consistent Calculation

     iteration #  1     ecut=    50.00 Ry     beta=0.70
     Davidson diagonalization with overlap
     ethr =  1.00E-02,  avg # of iterations =  3.0

     total cpu time spent up to now is      209.5 secs

     total energy              =   -4360.48565552 Ry
     Harris-Foulkes estimate   =   -4361.37294518 Ry
     estimated scf accuracy    <       1.57778323 Ry

     iteration #  2     ecut=    50.00 Ry     beta=0.70
     Davidson diagonalization with overlap
     ethr =  1.22E-03,  avg # of iterations =  4.5

     total cpu time spent up to now is      250.5 secs

     total energy              =   -4360.47371117 Ry
     Harris-Foulkes estimate   =   -4360.85957033 Ry
     estimated scf accuracy    <       0.61631847 Ry

     iteration #  3     ecut=    50.00 Ry     beta=0.70
     Davidson diagonalization with overlap
     ethr =  4.78E-04,  avg # of iterations =  4.6

     total cpu time spent up to now is      291.8 secs

     total energy              =   -4360.60348671 Ry
     Harris-Foulkes estimate   =   -4360.92553899 Ry
     estimated scf accuracy    <       0.87128821 Ry

     iteration #  4     ecut=    50.00 Ry     beta=0.70
     Davidson diagonalization with overlap
     ethr =  4.78E-04,  avg # of iterations =  2.5

     total cpu time spent up to now is      327.5 secs

     total energy              =   -4360.74373887 Ry
     Harris-Foulkes estimate   =   -4360.75385966 Ry
     estimated scf accuracy    <       0.02884924 Ry

     iteration #  5     ecut=    50.00 Ry     beta=0.70
     Davidson diagonalization with overlap
     ethr =  2.24E-05,  avg # of iterations =  5.5

     total cpu time spent up to now is      367.8 secs

     total energy              =   -4360.74749506 Ry
     Harris-Foulkes estimate   =   -4360.74841184 Ry
     estimated scf accuracy    <       0.00273861 Ry

     iteration #  6     ecut=    50.00 Ry     beta=0.70
     Davidson diagonalization with overlap
     ethr =  2.12E-06,  avg # of iterations =  6.2

     total cpu time spent up to now is      409.2 secs

     total energy              =   -4360.74778156 Ry
     Harris-Foulkes estimate   =   -4360.74817394 Ry
     estimated scf accuracy    <       0.00130518 Ry

     iteration #  7     ecut=    50.00 Ry     beta=0.70
     Davidson diagonalization with overlap
     ethr =  1.01E-06,  avg # of iterations =  4.0

     total cpu time spent up to now is      445.5 secs

     total energy              =   -4360.74786788 Ry
     Harris-Foulkes estimate   =   -4360.74807678 Ry
     estimated scf accuracy    <       0.00055919 Ry

     iteration #  8     ecut=    50.00 Ry     beta=0.70
     Davidson diagonalization with overlap
     ethr =  4.33E-07,  avg # of iterations =  3.2

     total cpu time spent up to now is      480.1 secs

     total energy              =   -4360.74798283 Ry
     Harris-Foulkes estimate   =   -4360.74802339 Ry
     estimated scf accuracy    <       0.00013589 Ry

     iteration #  9     ecut=    50.00 Ry     beta=0.70
     Davidson diagonalization with overlap
     ethr =  1.05E-07,  avg # of iterations =  2.8

     total cpu time spent up to now is      512.4 secs

     total energy              =   -4360.74800152 Ry
     Harris-Foulkes estimate   =   -4360.74800287 Ry
     estimated scf accuracy    <       0.00000324 Ry

     iteration # 10     ecut=    50.00 Ry     beta=0.70
     Davidson diagonalization with overlap
     ethr =  2.51E-09,  avg # of iterations =  3.6

     total cpu time spent up to now is      551.5 secs

     total energy              =   -4360.74800199 Ry
     Harris-Foulkes estimate   =   -4360.74800338 Ry
     estimated scf accuracy    <       0.00000397 Ry

     iteration # 11     ecut=    50.00 Ry     beta=0.70
     Davidson diagonalization with overlap
     ethr =  2.51E-09,  avg # of iterations =  3.0

     total cpu time spent up to now is      585.1 secs

     End of self-consistent calculation

          k = 0.0000 0.0000 0.0000 ( 16447 PWs)   bands (ev):

   -76.9080 -76.9015 -76.6879 -73.0031 -40.1225 -40.0966 -40.0574 -38.8509
   -38.8441 -38.8145 -38.8081 -38.7856 -38.7796 -38.5851 -38.5801 -38.5591
   -34.0242 -34.0183 -34.0178 -34.0169 -34.0160 -34.0111 -34.0102 -34.0095
   -34.0085 -34.0029 -34.0008 -33.9954 -33.9938 -33.9885 -33.8235 -33.8211
   -33.8104 -33.8073 -33.8039 -33.8016 -33.7928  -5.7772  -4.9927  -4.7837
    -2.6376  -2.0784  -2.0594  -1.9962  -1.8233  -1.4594  -1.4469  -1.3334
    -1.3265  -1.1757  -1.1675  -1.1612  -1.0321  -0.8980  -0.8229  -0.7101
    -0.7057  -0.6256  -0.4958  -0.3332  -0.2785  -0.2330   0.0946   0.2460
     5.1603   5.5605   6.0188   6.0550   6.0707   6.1560   6.2812   6.6521
     7.1583   7.2010   7.2181   7.3277   7.3792   7.5502

          k = 0.0004-0.0012-0.8130 ( 16526 PWs)   bands (ev):

   -76.9080 -76.9015 -76.6879 -73.0031 -40.1225 -40.0966 -40.0574 -38.8511
   -38.8443 -38.8145 -38.8081 -38.7859 -38.7799 -38.5851 -38.5803 -38.5595
   -34.0243 -34.0183 -34.0178 -34.0170 -34.0160 -34.0111 -34.0103 -34.0096
   -34.0085 -34.0030 -34.0008 -33.9956 -33.9938 -33.9886 -33.8235 -33.8212
   -33.8104 -33.8073 -33.8040 -33.8016 -33.7930  -5.5312  -4.8817  -4.7293
    -2.5088  -2.2893  -2.0392  -1.9834  -1.9256  -1.6758  -1.5850  -1.5671
    -1.4174  -1.2743  -1.1790  -1.1448  -0.9991  -0.9832  -0.8912  -0.7858
    -0.7417  -0.6161  -0.6019  -0.3165  -0.1774  -0.0621   0.1300   0.3150
     5.3021   5.6444   5.6854   6.2516   6.2643   6.6056   6.6132   6.8541
     6.8952   7.0044   7.1515   7.9434   7.9815   8.0427

          k =-0.5128-0.2852-0.0002 ( 16490 PWs)   bands (ev):

   -76.9080 -76.9015 -76.6879 -73.0031 -40.1225 -40.0966 -40.0574 -38.8510
   -38.8442 -38.8145 -38.8081 -38.7857 -38.7798 -38.5851 -38.5802 -38.5593
   -34.0242 -34.0183 -34.0178 -34.0170 -34.0160 -34.0111 -34.0102 -34.0096
   -34.0085 -34.0030 -34.0008 -33.9954 -33.9938 -33.9885 -33.8235 -33.8211
   -33.8105 -33.8073 -33.8039 -33.8016 -33.7929  -5.6282  -5.1545  -4.8717
    -2.5749  -2.0661  -1.8999  -1.8341  -1.6790  -1.5005  -1.4471  -1.4235
    -1.3952  -1.3213  -1.1765  -1.1402  -0.9926  -0.9618  -0.8226  -0.7499
    -0.6619  -0.6394  -0.5662  -0.3572  -0.2615  -0.2400   0.0138   0.2545
     5.3626   5.4494   5.5473   5.7683   6.2406   6.5462   6.6733   6.9549
     7.1563   7.1762   7.2144   7.4516   7.5542   7.7930

          k =-0.5124-0.2864-0.8132 ( 16554 PWs)   bands (ev):

   -76.9080 -76.9015 -76.6879 -73.0031 -40.1225 -40.0966 -40.0574 -38.8510
   -38.8442 -38.8146 -38.8083 -38.7859 -38.7800 -38.5852 -38.5802 -38.5595
   -34.0243 -34.0184 -34.0178 -34.0170 -34.0161 -34.0112 -34.0103 -34.0096
   -34.0086 -34.0030 -34.0009 -33.9956 -33.9938 -33.9887 -33.8236 -33.8212
   -33.8105 -33.8073 -33.8040 -33.8017 -33.7930  -5.4464  -5.0042  -4.7141
    -2.4537  -2.3063  -2.0622  -1.9869  -1.7665  -1.6498  -1.5734  -1.5105
    -1.4954  -1.3813  -1.3091  -1.2923  -1.1233  -0.9435  -0.9105  -0.6739
    -0.6574  -0.6172  -0.4540  -0.3568  -0.1155  -0.0962   0.1489   0.3337
     5.2464   5.6725   5.7903   5.8438   6.0660   6.1842   6.6743   6.7541
     7.0170   7.2069   7.4021   7.7214   7.9333   7.9432

          k =-0.5135 0.2865 0.0006 ( 16490 PWs)   bands (ev):

   -76.9080 -76.9015 -76.6879 -73.0031 -40.1225 -40.0966 -40.0574 -38.8510
   -38.8442 -38.8145 -38.8081 -38.7857 -38.7798 -38.5851 -38.5802 -38.5593
   -34.0243 -34.0183 -34.0178 -34.0170 -34.0160 -34.0111 -34.0102 -34.0096
   -34.0085 -34.0029 -34.0008 -33.9954 -33.9939 -33.9885 -33.8235 -33.8211
   -33.8105 -33.8073 -33.8039 -33.8017 -33.7929  -5.6268  -5.1556  -4.8724
    -2.5759  -2.0662  -1.9023  -1.8343  -1.6845  -1.4902  -1.4461  -1.4251
    -1.3942  -1.3208  -1.1769  -1.1396  -0.9917  -0.9581  -0.8218  -0.7503
    -0.6631  -0.6396  -0.5655  -0.3515  -0.2618  -0.2531   0.0161   0.2534
     5.3615   5.4518   5.5456   5.7727   6.2411   6.5292   6.6698   6.9592
     7.1519   7.1601   7.2189   7.4645   7.5619   7.7968

          k =-0.5131 0.2853-0.8124 ( 16536 PWs)   bands (ev):

   -76.9080 -76.9015 -76.6879 -73.0031 -40.1225 -40.0966 -40.0574 -38.8509
   -38.8442 -38.8146 -38.8082 -38.7859 -38.7800 -38.5852 -38.5801 -38.5595
   -34.0243 -34.0184 -34.0178 -34.0170 -34.0160 -34.0111 -34.0102 -34.0096
   -34.0085 -34.0029 -34.0008 -33.9956 -33.9939 -33.9887 -33.8236 -33.8212
   -33.8104 -33.8073 -33.8039 -33.8017 -33.7930  -5.4453  -5.0056  -4.7140
    -2.4534  -2.3063  -2.0626  -1.9879  -1.7635  -1.6582  -1.5824  -1.5084
    -1.4867  -1.3722  -1.3085  -1.2933  -1.1244  -0.9461  -0.9069  -0.6735
    -0.6543  -0.6197  -0.4574  -0.3552  -0.1325  -0.0828   0.1481   0.3352
     5.2487   5.6772   5.7865   5.8442   6.0658   6.1855   6.6783   6.7411
     7.0170   7.2070   7.3987   7.7156   7.9346   7.9455

          k =-1.0263 0.0013 0.0005 ( 16510 PWs)   bands (ev):

   -76.9080 -76.9015 -76.6879 -73.0031 -40.1225 -40.0966 -40.0574 -38.8510
   -38.8441 -38.8145 -38.8082 -38.7858 -38.7799 -38.5852 -38.5802 -38.5594
   -34.0243 -34.0184 -34.0178 -34.0170 -34.0160 -34.0112 -34.0102 -34.0096
   -34.0085 -34.0030 -34.0008 -33.9955 -33.9938 -33.9885 -33.8236 -33.8212
   -33.8104 -33.8073 -33.8040 -33.8016 -33.7929  -5.5664  -5.2824  -4.8286
    -2.4113  -2.0690  -2.0502  -1.8468  -1.8268  -1.4711  -1.4016  -1.3419
    -1.3322  -1.2757  -1.1854  -1.0807  -1.0083  -0.8922  -0.8628  -0.8579
    -0.6513  -0.6218  -0.6121  -0.4105  -0.2397  -0.2183   0.0554   0.1837
     5.3401   5.3862   5.6195   5.8030   6.2481   6.6100   6.7419   6.9470
     7.1011   7.1994   7.3839   7.3865   7.4008   7.4576

          k =-1.0259 0.0001-0.8126 ( 16498 PWs)   bands (ev):

   -76.9080 -76.9015 -76.6879 -73.0031 -40.1225 -40.0966 -40.0574 -38.8508
   -38.8440 -38.8145 -38.8081 -38.7860 -38.7800 -38.5851 -38.5800 -38.5595
   -34.0243 -34.0183 -34.0177 -34.0170 -34.0160 -34.0111 -34.0102 -34.0096
   -34.0085 -34.0030 -34.0008 -33.9956 -33.9938 -33.9887 -33.8235 -33.8212
   -33.8105 -33.8072 -33.8039 -33.8016 -33.7930  -5.3659  -5.1233  -4.7228
    -2.3303  -2.2855  -2.0915  -2.0027  -1.7499  -1.6756  -1.5226  -1.5167
    -1.4239  -1.4148  -1.2266  -1.1318  -1.1122  -0.9926  -0.9248  -0.8893
    -0.7405  -0.7295  -0.4279  -0.3649  -0.1786   0.0164   0.1084   0.3595
     5.4746   5.5119   5.7001   5.8830   6.1767   6.2708   6.7924   6.8267
     6.9853   6.9991   7.2761   7.4587   7.8120   8.0808

     the Fermi energy is     5.3041 ev

!    total energy              =   -4360.74800256 Ry
     Harris-Foulkes estimate   =   -4360.74800278 Ry
     estimated scf accuracy    <       0.00000029 Ry

     The total energy is the sum of the following terms:

     one-electron contribution =   -3300.25795277 Ry
     hartree contribution      =    1650.68738329 Ry
     xc contribution           =    -317.76824177 Ry
     ewald contribution        =    -744.67060029 Ry
     one-center paw contrib.   =   -1648.73700047 Ry
     smearing contrib. (-TS)   =      -0.00159055 Ry

     convergence has been achieved in  11 iterations

     Forces acting on atoms (cartesian axes, Ry/au):

     atom    1 type  2   force =    -0.00201875   -0.00329559    0.00004059
     atom    2 type  3   force =     0.03068747   -0.00112910   -0.00005872
     atom    3 type  2   force =    -0.00206543    0.00316107   -0.00010689
     atom    4 type  2   force =    -0.00845609   -0.01953316   -0.00021906
     atom    5 type  2   force =    -0.00244553    0.00000403    0.00003231
     atom    6 type  2   force =    -0.00884417    0.02003372    0.00015424
     atom    7 type  4   force =     0.01455127   -0.00411087    0.00166214
     atom    8 type  4   force =     0.01542910    0.00210335   -0.00137075
     atom    9 type  4   force =     0.04706055    0.00185507    0.00024310
     atom   10 type  1   force =     0.00709891   -0.00686205    0.00507487
     atom   11 type  1   force =    -0.00646578   -0.00115395   -0.00827634
     atom   12 type  1   force =    -0.01071858    0.00197685    0.00890367
     atom   13 type  1   force =    -0.01005590   -0.00145762   -0.00821589
     atom   14 type  1   force =    -0.01014253    0.00166086   -0.00853152
     atom   15 type  1   force =     0.00770883   -0.00929408   -0.00752802
     atom   16 type  1   force =    -0.00679651   -0.00195630    0.00849361
     atom   17 type  1   force =     0.00711559    0.00867266    0.00670581
     atom   18 type  1   force =    -0.00658436    0.00192856   -0.00824684
     atom   19 type  1   force =     0.00228414   -0.01794083   -0.00033095
     atom   20 type  1   force =    -0.00679024    0.00025990    0.00001637
     atom   21 type  1   force =     0.00089401    0.01587404    0.00026119
     atom   22 type  1   force =    -0.00112353    0.00048538   -0.00460254
     atom   23 type  1   force =    -0.00985785   -0.00034956   -0.00471927
     atom   24 type  1   force =    -0.00072469   -0.00012486    0.00524661
     atom   25 type  1   force =    -0.00018825    0.00128233   -0.00629020
     atom   26 type  1   force =    -0.01046152   -0.00017370    0.00418698
     atom   27 type  1   force =    -0.00022710   -0.00127325    0.00617907
     atom   28 type  1   force =    -0.00366921    0.00055706    0.00026265
     atom   29 type  1   force =     0.00181654    0.00299917    0.00004477
     atom   30 type  1   force =    -0.00842903   -0.00558572   -0.00021381
     atom   31 type  1   force =    -0.00969716    0.00742283    0.00028418
     atom   32 type  1   force =     0.00271952   -0.00377971   -0.00019332
     atom   33 type  1   force =    -0.00199239    0.00120872   -0.00022403
     atom   34 type  1   force =    -0.01048973   -0.00119023    0.00873548
     atom   35 type  1   force =     0.00675429    0.00683593   -0.00483247
     atom   36 type  1   force =    -0.00587592    0.00088906    0.00743299

     Total force =     0.087755     Total SCF correction =     0.004913


     Computing stress (Cartesian axis) and pressure

          total   stress  (Ry/bohr**3)                   (kbar)     P=   12.51
   0.00010258  -0.00000869  -0.00000249         15.09     -1.28     -0.37
  -0.00000869   0.00016630   0.00001011         -1.28     24.46      1.49
  -0.00000249   0.00001011  -0.00001371         -0.37      1.49     -2.02


     BFGS Geometry Optimization

     number of scf cycles    =   1
     number of bfgs steps    =   0

     enthalpy new            =   -4360.7480025577 Ry

     new trust radius        =       0.0470977273 bohr
     new conv_thr            =       0.0000010000 Ry

     new unit-cell volume =   2783.86631 a.u.^3 (   412.52642 Ang^3 )
     density =      0.14491 g/cm^3

CELL_PARAMETERS (angstrom)
   4.491532875  -8.086435510   0.011863677
   4.509062497   8.096644750  -0.008128746
   0.002152929  -0.006686596   5.664356427

ATOMIC_POSITIONS (angstrom)
K        1.096486414   2.126982861   2.830122963
Mg       5.940120710   0.002764034   2.834594256
K        1.092043259  -2.131275437   2.835290746
K        2.715504151   5.093093682  -0.005259094
K        3.622936057   0.004246995   0.001446516
K        2.704541608  -5.087296281   0.007407679
Re       4.675106822  -2.489556835   2.837694207
Re       4.681203940   2.492401008   2.830391205
Re      -0.201040968   0.000450908  -0.000074725
H        4.958438577  -3.604190969   4.076446147
H        5.479656052  -1.532927221   4.100718551
H        3.520966184  -2.358205148   4.074335901
H        3.525424950   2.359931301   1.593204733
H        3.520335657  -2.355443827   1.598765396
H        4.958060818  -3.602123543   1.600042885
H        5.478656017  -1.530140410   1.572192823
H        4.966075805   3.606810303   4.068200359
H        5.482979595   1.535885868   4.096526723
H        0.580598923  -1.469365308   0.001803371
H        7.066511397   0.008080314   0.003103471
H        0.583199659   1.469856497  -0.001460607
H        3.676922213  -7.127870192   1.306852830
H        1.115395607  -0.004287925   4.583716155
H        3.693891071   7.129785116   4.360726541
H        3.692732011   7.133901905   1.288627299
H        1.113688561  -0.000174888   1.081444483
H        3.678514699  -7.132294356   4.378816383
H        3.582045174   3.765780857   2.829258734
H        6.310020565   2.901188149   2.831283618
H        3.939447355   0.972609461   2.832510319
H        3.937031178  -0.969483259   2.835236292
H        6.304200083  -2.893951412   2.838297113
H        3.574853903  -3.763485560   2.838274654
H        3.526085830   2.357167192   4.068572275
H        4.965302095   3.608749381   1.592099349
H        5.482199050   1.538572723   1.567985093



     Writing output data file K5MgReH93.save
     NEW-OLD atomic charge density approx. for the potential
     extrapolated charge  129.81815, renormalised to  129.00000

     total cpu time spent up to now is     1197.9 secs

     Self-consistent Calculation

     iteration #  1     ecut=    50.00 Ry     beta=0.70
     Davidson diagonalization with overlap
     c_bands:  1 eigenvalues not converged
     c_bands:  1 eigenvalues not converged
     ethr =  1.00E-06,  avg # of iterations = 17.6

     total cpu time spent up to now is     1277.2 secs

     total energy              =   -4359.90903001 Ry
     Harris-Foulkes estimate   =   -4341.00970974 Ry
     estimated scf accuracy    <       0.76437059 Ry

     iteration #  2     ecut=    50.00 Ry     beta=0.70
     Davidson diagonalization with overlap
     ethr =  5.93E-04,  avg # of iterations =  4.2

     total cpu time spent up to now is     1323.1 secs

     total energy              =   -4360.09310634 Ry
     Harris-Foulkes estimate   =   -4362.44538250 Ry
     estimated scf accuracy    <       8.33729724 Ry

     iteration #  3     ecut=    50.00 Ry     beta=0.70
     Davidson diagonalization with overlap
     ethr =  5.93E-04,  avg # of iterations =  3.5

     total cpu time spent up to now is     1359.9 secs

     total energy              =   -4360.78550227 Ry
     Harris-Foulkes estimate   =   -4360.84733831 Ry
     estimated scf accuracy    <       0.48110328 Ry

     iteration #  4     ecut=    50.00 Ry     beta=0.70
     Davidson diagonalization with overlap
     ethr =  3.73E-04,  avg # of iterations =  1.0

     total cpu time spent up to now is     1388.7 secs

     total energy              =   -4360.77416789 Ry
     Harris-Foulkes estimate   =   -4360.79498470 Ry
     estimated scf accuracy    <       0.22185068 Ry

     iteration #  5     ecut=    50.00 Ry     beta=0.70
     Davidson diagonalization with overlap
     ethr =  1.72E-04,  avg # of iterations =  1.0

     total cpu time spent up to now is     1417.0 secs

     total energy              =   -4360.76796089 Ry
     Harris-Foulkes estimate   =   -4360.77735297 Ry
     estimated scf accuracy    <       0.12745648 Ry

     iteration #  6     ecut=    50.00 Ry     beta=0.70
     Davidson diagonalization with overlap
     ethr =  9.88E-05,  avg # of iterations =  2.6

     total cpu time spent up to now is     1447.4 secs

     total energy              =   -4360.75860274 Ry
     Harris-Foulkes estimate   =   -4360.76952394 Ry
     estimated scf accuracy    <       0.08114436 Ry

     iteration #  7     ecut=    50.00 Ry     beta=0.70
     Davidson diagonalization with overlap
     ethr =  6.29E-05,  avg # of iterations =  2.9

     total cpu time spent up to now is     1477.9 secs

     total energy              =   -4360.75525172 Ry
     Harris-Foulkes estimate   =   -4360.76084431 Ry
     estimated scf accuracy    <       0.03109049 Ry

     iteration #  8     ecut=    50.00 Ry     beta=0.70
     Davidson diagonalization with overlap
     ethr =  2.41E-05,  avg # of iterations =  3.6

     total cpu time spent up to now is     1509.9 secs

     total energy              =   -4360.75526709 Ry
     Harris-Foulkes estimate   =   -4360.75670836 Ry
     estimated scf accuracy    <       0.00795064 Ry

     iteration #  9     ecut=    50.00 Ry     beta=0.70
     Davidson diagonalization with overlap
     ethr =  6.16E-06,  avg # of iterations =  6.0

     total cpu time spent up to now is     1546.3 secs

     total energy              =   -4360.75551958 Ry
     Harris-Foulkes estimate   =   -4360.75575370 Ry
     estimated scf accuracy    <       0.00173775 Ry

     iteration # 10     ecut=    50.00 Ry     beta=0.70
     Davidson diagonalization with overlap
     ethr =  1.35E-06,  avg # of iterations =  2.6

     total cpu time spent up to now is     1577.3 secs

     total energy              =   -4360.75533231 Ry
     Harris-Foulkes estimate   =   -4360.75557725 Ry
     estimated scf accuracy    <       0.00073164 Ry

     iteration # 11     ecut=    50.00 Ry     beta=0.70
     Davidson diagonalization with overlap
     ethr =  5.67E-07,  avg # of iterations =  3.0

     total cpu time spent up to now is     1610.9 secs

     total energy              =   -4360.75545691 Ry
     Harris-Foulkes estimate   =   -4360.75545802 Ry
     estimated scf accuracy    <       0.00000326 Ry

     iteration # 12     ecut=    50.00 Ry     beta=0.70
     Davidson diagonalization with overlap
     ethr =  2.53E-09,  avg # of iterations =  3.8

     total cpu time spent up to now is     1652.4 secs

     End of self-consistent calculation

          k = 0.0000 0.0000 0.0000 ( 16447 PWs)   bands (ev):

   -76.9737 -76.9708 -76.7255 -73.0708 -40.1884 -40.1662 -40.1244 -38.9036
   -38.9002 -38.8720 -38.8685 -38.8398 -38.8373 -38.6200 -38.6108 -38.5896
   -34.1037 -34.1008 -34.0974 -34.0956 -34.0951 -34.0945 -34.0924 -34.0919
   -34.0884 -34.0860 -34.0799 -34.0771 -34.0740 -34.0713 -33.8690 -33.8672
   -33.8558 -33.8529 -33.8516 -33.8467 -33.8384  -5.7754  -5.0003  -4.7876
    -2.6384  -2.1120  -2.0819  -2.0218  -1.8540  -1.5131  -1.4397  -1.3563
    -1.3123  -1.1987  -1.1853  -1.1265  -1.0107  -0.9221  -0.8252  -0.7272
    -0.7064  -0.6442  -0.5202  -0.3597  -0.3061  -0.2523   0.0431   0.1641
     5.0877   5.4792   5.9252   6.0020   6.0200   6.0995   6.2312   6.6049
     7.0830   7.1350   7.2507   7.2572   7.2884   7.4280

          k = 0.0003-0.0010-0.8133 ( 16526 PWs)   bands (ev):

   -76.9737 -76.9708 -76.7255 -73.0708 -40.1884 -40.1662 -40.1244 -38.9039
   -38.9004 -38.8719 -38.8685 -38.8401 -38.8376 -38.6202 -38.6108 -38.5899
   -34.1038 -34.1008 -34.0974 -34.0956 -34.0951 -34.0945 -34.0925 -34.0919
   -34.0885 -34.0860 -34.0799 -34.0771 -34.0742 -34.0715 -33.8690 -33.8673
   -33.8558 -33.8530 -33.8517 -33.8467 -33.8386  -5.5282  -4.8877  -4.7306
    -2.5052  -2.3210  -2.0896  -2.0139  -1.9469  -1.6859  -1.5823  -1.5648
    -1.3924  -1.3305  -1.1977  -1.1236  -1.0561  -1.0345  -0.8826  -0.8029
    -0.6651  -0.6474  -0.6053  -0.3467  -0.1927  -0.1156   0.1027   0.2285
     5.2425   5.5567   5.6220   6.1720   6.2310   6.5159   6.5674   6.7586
     6.8177   6.9206   7.1089   7.8797   7.9064   7.9546

          k =-0.5115-0.2841-0.0001 ( 16490 PWs)   bands (ev):

   -76.9737 -76.9708 -76.7255 -73.0708 -40.1884 -40.1662 -40.1244 -38.9038
   -38.9003 -38.8720 -38.8685 -38.8400 -38.8374 -38.6201 -38.6108 -38.5898
   -34.1037 -34.1008 -34.0975 -34.0956 -34.0951 -34.0945 -34.0925 -34.0919
   -34.0884 -34.0861 -34.0799 -34.0771 -34.0741 -34.0713 -33.8690 -33.8672
   -33.8558 -33.8530 -33.8517 -33.8467 -33.8385  -5.6265  -5.1617  -4.8757
    -2.5773  -2.1002  -1.9206  -1.8653  -1.7009  -1.5167  -1.5016  -1.4188
    -1.4137  -1.3221  -1.1448  -1.1399  -1.0358  -0.9168  -0.8476  -0.7586
    -0.6812  -0.6578  -0.5506  -0.3918  -0.2972  -0.2803  -0.0214   0.1707
     5.2903   5.3647   5.4964   5.7014   6.1907   6.4965   6.5850   6.9046
     7.1067   7.1168   7.1961   7.3715   7.4880   7.6720

          k =-0.5112-0.2851-0.8134 ( 16554 PWs)   bands (ev):

   -76.9737 -76.9708 -76.7255 -73.0708 -40.1884 -40.1662 -40.1244 -38.9038
   -38.9003 -38.8721 -38.8687 -38.8402 -38.8376 -38.6201 -38.6110 -38.5900
   -34.1038 -34.1008 -34.0975 -34.0956 -34.0951 -34.0946 -34.0925 -34.0919
   -34.0885 -34.0861 -34.0799 -34.0771 -34.0742 -34.0715 -33.8691 -33.8673
   -33.8558 -33.8530 -33.8517 -33.8468 -33.8386  -5.4433  -5.0102  -4.7158
    -2.4521  -2.3371  -2.0983  -2.0175  -1.7743  -1.6778  -1.5736  -1.5038
    -1.4908  -1.3924  -1.3711  -1.3286  -1.1047  -0.9801  -0.9057  -0.6756
    -0.6628  -0.6051  -0.4789  -0.3382  -0.1665  -0.1325   0.1153   0.2476
     5.1803   5.5855   5.7398   5.8282   6.0019   6.0961   6.5954   6.6668
     6.9026   7.1633   7.3512   7.6210   7.8429   7.8717

          k =-0.5122 0.2852 0.0005 ( 16490 PWs)   bands (ev):

   -76.9737 -76.9708 -76.7255 -73.0708 -40.1884 -40.1662 -40.1244 -38.9037
   -38.9003 -38.8720 -38.8685 -38.8400 -38.8374 -38.6201 -38.6109 -38.5898
   -34.1038 -34.1008 -34.0974 -34.0956 -34.0951 -34.0945 -34.0924 -34.0919
   -34.0885 -34.0860 -34.0799 -34.0772 -34.0741 -34.0713 -33.8690 -33.8672
   -33.8558 -33.8530 -33.8517 -33.8467 -33.8385  -5.6253  -5.1626  -4.8764
    -2.5776  -2.1002  -1.9226  -1.8655  -1.7050  -1.5099  -1.5014  -1.4179
    -1.4145  -1.3214  -1.1432  -1.1400  -1.0344  -0.9146  -0.8471  -0.7599
    -0.6830  -0.6580  -0.5495  -0.3867  -0.3072  -0.2804  -0.0199   0.1698
     5.2867   5.3669   5.4981   5.7043   6.1915   6.4838   6.5813   6.9059
     7.1015   7.1130   7.1985   7.3770   7.4933   7.6769

          k =-0.5118 0.2842-0.8128 ( 16536 PWs)   bands (ev):

   -76.9737 -76.9708 -76.7255 -73.0708 -40.1884 -40.1662 -40.1244 -38.9037
   -38.9003 -38.8721 -38.8686 -38.8402 -38.8376 -38.6201 -38.6110 -38.5900
   -34.1038 -34.1008 -34.0975 -34.0956 -34.0951 -34.0945 -34.0925 -34.0919
   -34.0885 -34.0860 -34.0799 -34.0772 -34.0742 -34.0715 -33.8691 -33.8673
   -33.8558 -33.8530 -33.8517 -33.8468 -33.8386  -5.4423  -5.0114  -4.7157
    -2.4514  -2.3372  -2.0985  -2.0182  -1.7725  -1.6842  -1.5770  -1.5008
    -1.4874  -1.3886  -1.3709  -1.3293  -1.1048  -0.9817  -0.9024  -0.6742
    -0.6634  -0.6045  -0.4799  -0.3397  -0.1784  -0.1226   0.1133   0.2498
     5.1821   5.5895   5.7378   5.8276   5.9996   6.0974   6.5989   6.6617
     6.8987   7.1697   7.3464   7.6132   7.8390   7.8727

          k =-1.0237 0.0011 0.0004 ( 16510 PWs)   bands (ev):

   -76.9737 -76.9708 -76.7255 -73.0708 -40.1884 -40.1662 -40.1244 -38.9038
   -38.9002 -38.8720 -38.8686 -38.8401 -38.8375 -38.6201 -38.6109 -38.5899
   -34.1038 -34.1009 -34.0975 -34.0956 -34.0951 -34.0946 -34.0925 -34.0919
   -34.0885 -34.0860 -34.0799 -34.0771 -34.0741 -34.0714 -33.8691 -33.8673
   -33.8558 -33.8530 -33.8517 -33.8467 -33.8385  -5.5645  -5.2897  -4.8321
    -2.4066  -2.1035  -2.0692  -1.8777  -1.8533  -1.4951  -1.4008  -1.3915
    -1.3254  -1.2765  -1.1497  -1.1308  -1.0115  -0.9241  -0.8774  -0.8355
    -0.6716  -0.6690  -0.5733  -0.4085  -0.2803  -0.2592   0.0091   0.1048
     5.2576   5.3114   5.5784   5.7520   6.1950   6.5580   6.6675   6.8778
     7.0109   7.1211   7.2780   7.3038   7.3570   7.5260

          k =-1.0233 0.0001-0.8129 ( 16498 PWs)   bands (ev):

   -76.9737 -76.9708 -76.7255 -73.0708 -40.1884 -40.1662 -40.1244 -38.9036
   -38.9001 -38.8719 -38.8685 -38.8402 -38.8377 -38.6200 -38.6108 -38.5900
   -34.1038 -34.1008 -34.0974 -34.0955 -34.0951 -34.0945 -34.0924 -34.0919
   -34.0885 -34.0860 -34.0799 -34.0771 -34.0742 -34.0715 -33.8690 -33.8673
   -33.8558 -33.8530 -33.8516 -33.8467 -33.8386  -5.3626  -5.1289  -4.7243
    -2.3271  -2.3149  -2.1316  -2.0328  -1.7746  -1.6703  -1.5392  -1.5153
    -1.4479  -1.3879  -1.2307  -1.2056  -1.0900  -1.0428  -0.9607  -0.9338
    -0.7592  -0.6664  -0.4058  -0.3891  -0.1864  -0.0444   0.0826   0.2733
     5.4153   5.4335   5.6218   5.8445   6.0882   6.2618   6.6941   6.7169
     6.8893   6.9570   7.1805   7.4477   7.7838   7.9728

     the Fermi energy is     5.2317 ev

!    total energy              =   -4360.75545912 Ry
     Harris-Foulkes estimate   =   -4360.75545921 Ry
     estimated scf accuracy    <       0.00000013 Ry

     The total energy is the sum of the following terms:

     one-electron contribution =   -3299.81483980 Ry
     hartree contribution      =    1650.21607761 Ry
     xc contribution           =    -317.68360943 Ry
     ewald contribution        =    -744.72374962 Ry
     one-center paw contrib.   =   -1648.74750486 Ry
     smearing contrib. (-TS)   =      -0.00183303 Ry

     convergence has been achieved in  12 iterations

     Forces acting on atoms (cartesian axes, Ry/au):

     atom    1 type  2   force =    -0.00172454   -0.00331320    0.00004555
     atom    2 type  3   force =     0.02715292   -0.00052534   -0.00005610
     atom    3 type  2   force =    -0.00176514    0.00313530   -0.00009142
     atom    4 type  2   force =    -0.00725004   -0.01682499   -0.00015677
     atom    5 type  2   force =    -0.00251915   -0.00003114    0.00003321
     atom    6 type  2   force =    -0.00758924    0.01721397    0.00011005
     atom    7 type  4   force =    -0.00957918   -0.00264138   -0.00087332
     atom    8 type  4   force =    -0.01046398    0.00442504    0.00085765
     atom    9 type  4   force =    -0.00450018   -0.00105724   -0.00008795
     atom   10 type  1   force =     0.00712368   -0.00489579    0.00316446
     atom   11 type  1   force =    -0.00497198   -0.00137401   -0.00698214
     atom   12 type  1   force =    -0.00461170    0.00119253    0.00414467
     atom   13 type  1   force =    -0.00413005   -0.00099081   -0.00366624
     atom   14 type  1   force =    -0.00398080    0.00092267   -0.00340044
     atom   15 type  1   force =     0.00738537   -0.00588582   -0.00389405
     atom   16 type  1   force =    -0.00528464   -0.00204985    0.00747107
     atom   17 type  1   force =     0.00700054    0.00527187    0.00334561
     atom   18 type  1   force =    -0.00500847    0.00176769   -0.00720356
     atom   19 type  1   force =     0.00363910   -0.01493944   -0.00022939
     atom   20 type  1   force =     0.00784423    0.00026287    0.00003684
     atom   21 type  1   force =     0.00323217    0.01470619    0.00020903
     atom   22 type  1   force =     0.00256443   -0.00188924   -0.00721974
     atom   23 type  1   force =    -0.00097546   -0.00017518   -0.00930677
     atom   24 type  1   force =     0.00293912    0.00247925    0.00788000
     atom   25 type  1   force =     0.00316673    0.00327632   -0.00830781
     atom   26 type  1   force =    -0.00133536   -0.00004164    0.00902150
     atom   27 type  1   force =     0.00307928   -0.00294175    0.00813757
     atom   28 type  1   force =     0.00137591   -0.00428694    0.00014555
     atom   29 type  1   force =     0.00342168    0.00276325   -0.00006056
     atom   30 type  1   force =    -0.00381637    0.00036837   -0.00023577
     atom   31 type  1   force =    -0.00445416   -0.00000563    0.00031342
     atom   32 type  1   force =     0.00375652   -0.00342635   -0.00003423
     atom   33 type  1   force =     0.00191365    0.00473483   -0.00009712
     atom   34 type  1   force =    -0.00410083   -0.00073718    0.00347965
     atom   35 type  1   force =     0.00689549    0.00457806   -0.00284039
     atom   36 type  1   force =    -0.00442954    0.00093474    0.00634791

     Total force =     0.060276     Total SCF correction =     0.004310


     Computing stress (Cartesian axis) and pressure

          total   stress  (Ry/bohr**3)                   (kbar)     P=    5.66
   0.00005731  -0.00000521  -0.00000169          8.43     -0.77     -0.25
  -0.00000521   0.00009867   0.00000621         -0.77     14.51      0.91
  -0.00000169   0.00000621  -0.00004065         -0.25      0.91     -5.98


     number of scf cycles    =   2
     number of bfgs steps    =   1

     enthalpy old            =   -4360.7480025577 Ry
     enthalpy new            =   -4360.7554591191 Ry

     CASE: enthalpy_new < enthalpy_old

     new trust radius        =       0.0840804754 bohr
     new conv_thr            =       0.0000002715 Ry

     new unit-cell volume =   2813.17853 a.u.^3 (   416.87004 Ang^3 )
     density =      0.14340 g/cm^3

CELL_PARAMETERS (angstrom)
   4.516215466  -8.152517057   0.007267786
   4.527102555   8.159067640  -0.004698971
   0.001434591  -0.003949629   5.652065530

ATOMIC_POSITIONS (angstrom)
K        1.097861790   2.140079069   2.824949722
Mg       6.008154002   0.000664148   2.827588893
K        1.095099709  -2.142755698   2.827817064
K        2.715449000   5.107135047  -0.003353565
K        3.636578974   0.002749084   0.001024454
K        2.708121626  -5.102920466   0.004732076
Re       4.694903580  -2.514298580   2.829574316
Re       4.698463828   2.516963090   2.825122768
Re      -0.185821479   0.000296376  -0.000031765
H        4.993084017  -3.640745777   4.070455212
H        5.498048762  -1.547232883   4.079975064
H        3.528892645  -2.374323046   4.071777544
H        3.532502362   2.376368540   1.583327301
H        3.529455334  -2.373179754   1.586674689
H        4.993552667  -3.641945479   1.587088799
H        5.496912087  -1.546672851   1.578272443
H        4.997633448   3.644437500   4.066682736
H        5.500021400   1.550420837   4.077107437
H        0.588570345  -1.503991515   0.000611175
H        7.104810957   0.005578898   0.002229500
H        0.588917668   1.502855530  -0.000472236
H        3.699211089  -7.187033098   1.291001987
H        1.114825069  -0.002861815   4.562524134
H        3.710474294   7.189432319   4.364252877
H        3.710167843   7.193458451   1.278064941
H        1.112935855  -0.000209919   1.089550644
H        3.701313004  -7.191779367   4.375917962
H        3.596871423   3.791585693   2.824768025
H        6.342568363   2.927057625   2.825721095
H        3.949927093   0.978004455   2.826014805
H        3.947119128  -0.974154884   2.828531493
H        6.339861272  -2.923222223   2.829774826
H        3.594031938  -3.788234690   2.829612021
H        3.532683268   2.375183701   4.067629104
H        4.996916785   3.643666284   1.584929312
H        5.500439643   1.550617569   1.574038059



     Writing output data file K5MgReH93.save
     NEW-OLD atomic charge density approx. for the potential
     extrapolated charge  130.34313, renormalised to  129.00000

     total cpu time spent up to now is     2264.5 secs

     Self-consistent Calculation

     iteration #  1     ecut=    50.00 Ry     beta=0.70
     Davidson diagonalization with overlap
     c_bands:  1 eigenvalues not converged
     ethr =  1.00E-06,  avg # of iterations = 16.4

     total cpu time spent up to now is     2348.6 secs

     total energy              =   -4358.52466977 Ry
     Harris-Foulkes estimate   =   -4328.36750061 Ry
     estimated scf accuracy    <       2.01334710 Ry

     iteration #  2     ecut=    50.00 Ry     beta=0.70
     Davidson diagonalization with overlap
     ethr =  1.56E-03,  avg # of iterations =  3.9

     total cpu time spent up to now is     2393.0 secs

     total energy              =   -4359.24230970 Ry
     Harris-Foulkes estimate   =   -4365.12519347 Ry
     estimated scf accuracy    <      20.17510189 Ry

     iteration #  3     ecut=    50.00 Ry     beta=0.70
     Davidson diagonalization with overlap
     ethr =  1.56E-03,  avg # of iterations =  3.2

     total cpu time spent up to now is     2429.4 secs

     total energy              =   -4360.83675427 Ry
     Harris-Foulkes estimate   =   -4361.02191486 Ry
     estimated scf accuracy    <       1.33552733 Ry

     iteration #  4     ecut=    50.00 Ry     beta=0.70
     Davidson diagonalization with overlap
     ethr =  1.04E-03,  avg # of iterations =  1.0

     total cpu time spent up to now is     2457.9 secs

     total energy              =   -4360.81034441 Ry
     Harris-Foulkes estimate   =   -4360.86592000 Ry
     estimated scf accuracy    <       0.56706779 Ry

     iteration #  5     ecut=    50.00 Ry     beta=0.70
     Davidson diagonalization with overlap
     ethr =  4.40E-04,  avg # of iterations =  1.4

     total cpu time spent up to now is     2487.0 secs

     total energy              =   -4360.79745325 Ry
     Harris-Foulkes estimate   =   -4360.81887261 Ry
     estimated scf accuracy    <       0.31512429 Ry

     iteration #  6     ecut=    50.00 Ry     beta=0.70
     Davidson diagonalization with overlap
     ethr =  2.44E-04,  avg # of iterations =  3.2

     total cpu time spent up to now is     2517.7 secs

     total energy              =   -4360.77509922 Ry
     Harris-Foulkes estimate   =   -4360.80086705 Ry
     estimated scf accuracy    <       0.20856861 Ry

     iteration #  7     ecut=    50.00 Ry     beta=0.70
     Davidson diagonalization with overlap
     ethr =  1.62E-04,  avg # of iterations =  3.8

     total cpu time spent up to now is     2549.4 secs

     total energy              =   -4360.76907900 Ry
     Harris-Foulkes estimate   =   -4360.77971324 Ry
     estimated scf accuracy    <       0.08944834 Ry

     iteration #  8     ecut=    50.00 Ry     beta=0.70
     Davidson diagonalization with overlap
     ethr =  6.93E-05,  avg # of iterations =  3.1

     total cpu time spent up to now is     2580.6 secs

     total energy              =   -4360.76303150 Ry
     Harris-Foulkes estimate   =   -4360.77101876 Ry
     estimated scf accuracy    <       0.04188554 Ry

     iteration #  9     ecut=    50.00 Ry     beta=0.70
     Davidson diagonalization with overlap
     ethr =  3.25E-05,  avg # of iterations =  5.0

     total cpu time spent up to now is     2614.7 secs

     total energy              =   -4360.76372612 Ry
     Harris-Foulkes estimate   =   -4360.76536606 Ry
     estimated scf accuracy    <       0.00800071 Ry

     iteration # 10     ecut=    50.00 Ry     beta=0.70
     Davidson diagonalization with overlap
     ethr =  6.20E-06,  avg # of iterations =  4.1

     total cpu time spent up to now is     2648.7 secs

     total energy              =   -4360.76365124 Ry
     Harris-Foulkes estimate   =   -4360.76418350 Ry
     estimated scf accuracy    <       0.00162066 Ry

     iteration # 11     ecut=    50.00 Ry     beta=0.70
     Davidson diagonalization with overlap
     ethr =  1.26E-06,  avg # of iterations =  3.8

     total cpu time spent up to now is     2684.0 secs

     total energy              =   -4360.76393398 Ry
     Harris-Foulkes estimate   =   -4360.76393492 Ry
     estimated scf accuracy    <       0.00000195 Ry

     iteration # 12     ecut=    50.00 Ry     beta=0.70
     Davidson diagonalization with overlap
     ethr =  1.51E-09,  avg # of iterations =  4.5

     total cpu time spent up to now is     2730.3 secs

     total energy              =   -4360.76393955 Ry
     Harris-Foulkes estimate   =   -4360.76394033 Ry
     estimated scf accuracy    <       0.00000208 Ry

     iteration # 13     ecut=    50.00 Ry     beta=0.70
     Davidson diagonalization with overlap
     ethr =  1.51E-09,  avg # of iterations =  3.0

     total cpu time spent up to now is     2764.2 secs

     total energy              =   -4360.76393990 Ry
     Harris-Foulkes estimate   =   -4360.76394002 Ry
     estimated scf accuracy    <       0.00000033 Ry

     iteration # 14     ecut=    50.00 Ry     beta=0.70
     Davidson diagonalization with overlap
     ethr =  2.60E-10,  avg # of iterations =  2.8

     total cpu time spent up to now is     2796.9 secs

     End of self-consistent calculation

          k = 0.0000 0.0000 0.0000 ( 16447 PWs)   bands (ev):

   -77.0608 -77.0606 -76.8359 -73.1789 -40.2937 -40.2758 -40.2327 -38.9758
   -38.9738 -38.9455 -38.9445 -38.9098 -38.9097 -38.7179 -38.7068 -38.6937
   -34.2104 -34.2100 -34.2036 -34.2033 -34.2021 -34.2017 -34.2002 -34.2000
   -34.1939 -34.1933 -34.1860 -34.1857 -34.1790 -34.1786 -33.9943 -33.9922
   -33.9818 -33.9802 -33.9758 -33.9722 -33.9634  -5.7610  -5.0007  -4.8272
    -2.6155  -2.1232  -2.1142  -2.0419  -1.8603  -1.6031  -1.4552  -1.3825
    -1.3071  -1.2412  -1.2037  -1.1941  -1.0367  -0.9209  -0.8476  -0.7357
    -0.7089  -0.6497  -0.5415  -0.3856  -0.3681  -0.3016  -0.0461   0.0033
     4.9594   5.3756   5.7999   5.9260   5.9402   6.0001   6.1267   6.4727
     6.9645   7.0247   7.1103   7.1562   7.2226   7.3119

          k = 0.0002-0.0006-0.8151 ( 16526 PWs)   bands (ev):

   -77.0608 -77.0606 -76.8359 -73.1789 -40.2937 -40.2758 -40.2327 -38.9760
   -38.9740 -38.9455 -38.9445 -38.9101 -38.9100 -38.7181 -38.7068 -38.6940
   -34.2105 -34.2101 -34.2036 -34.2032 -34.2021 -34.2018 -34.2003 -34.2001
   -34.1939 -34.1933 -34.1861 -34.1857 -34.1792 -34.1788 -33.9943 -33.9923
   -33.9818 -33.9802 -33.9759 -33.9722 -33.9637  -5.5051  -4.8848  -4.7686
    -2.4712  -2.3324  -2.1669  -2.0209  -1.9637  -1.6806  -1.6048  -1.5852
    -1.4530  -1.3895  -1.2118  -1.1147  -1.1014  -1.0971  -0.9158  -0.8418
    -0.6807  -0.6578  -0.5883  -0.4087  -0.1927  -0.1878   0.0435   0.0587
     5.1450   5.3966   5.5257   6.0658   6.1264   6.3715   6.4714   6.6147
     6.6798   6.8250   7.0585   7.7364   7.8012   7.8301

          k =-0.5092-0.2821-0.0001 ( 16490 PWs)   bands (ev):

   -77.0608 -77.0606 -76.8359 -73.1789 -40.2937 -40.2758 -40.2327 -38.9759
   -38.9738 -38.9455 -38.9445 -38.9100 -38.9099 -38.7180 -38.7068 -38.6939
   -34.2105 -34.2101 -34.2036 -34.2033 -34.2021 -34.2017 -34.2002 -34.2000
   -34.1939 -34.1933 -34.1860 -34.1857 -34.1791 -34.1787 -33.9943 -33.9923
   -33.9818 -33.9802 -33.9759 -33.9722 -33.9635  -5.6088  -5.1634  -4.9161
    -2.5565  -2.1118  -1.9440  -1.8706  -1.7172  -1.5996  -1.5284  -1.4349
    -1.4297  -1.3515  -1.2055  -1.1706  -1.0887  -0.9285  -0.8458  -0.7603
    -0.6875  -0.6662  -0.5412  -0.4272  -0.3772  -0.3316  -0.1004   0.0098
     5.1948   5.2425   5.4099   5.5692   6.0937   6.4025   6.4482   6.8061
     6.9597   7.0087   7.1313   7.2812   7.4029   7.5610

          k =-0.5090-0.2827-0.8151 ( 16554 PWs)   bands (ev):

   -77.0608 -77.0606 -76.8359 -73.1789 -40.2937 -40.2758 -40.2327 -38.9758
   -38.9740 -38.9455 -38.9447 -38.9102 -38.9101 -38.7180 -38.7070 -38.6941
   -34.2105 -34.2101 -34.2037 -34.2033 -34.2022 -34.2018 -34.2003 -34.2001
   -34.1940 -34.1933 -34.1860 -34.1857 -34.1793 -34.1789 -33.9944 -33.9923
   -33.9818 -33.9802 -33.9759 -33.9723 -33.9637  -5.4201  -5.0063  -4.7548
    -2.4230  -2.3487  -2.1613  -2.0236  -1.7734  -1.7002  -1.5958  -1.5376
    -1.5095  -1.4711  -1.4235  -1.3470  -1.0846  -1.0355  -0.9208  -0.7348
    -0.7168  -0.5912  -0.4877  -0.3310  -0.2344  -0.1733   0.0491   0.0779
     5.0769   5.4239   5.6512   5.7465   5.8874   5.9807   6.4849   6.5592
     6.7720   7.0458   7.2451   7.4796   7.7203   7.7576

          k =-0.5096 0.2828 0.0003 ( 16490 PWs)   bands (ev):

   -77.0608 -77.0606 -76.8359 -73.1789 -40.2937 -40.2758 -40.2327 -38.9758
   -38.9739 -38.9455 -38.9445 -38.9100 -38.9099 -38.7179 -38.7068 -38.6939
   -34.2105 -34.2101 -34.2037 -34.2033 -34.2021 -34.2017 -34.2002 -34.2000
   -34.1939 -34.1934 -34.1861 -34.1857 -34.1791 -34.1787 -33.9943 -33.9923
   -33.9818 -33.9802 -33.9759 -33.9722 -33.9635  -5.6079  -5.1642  -4.9166
    -2.5563  -2.1118  -1.9448  -1.8707  -1.7184  -1.5994  -1.5258  -1.4344
    -1.4303  -1.3510  -1.2057  -1.1675  -1.0901  -0.9287  -0.8453  -0.7624
    -0.6861  -0.6664  -0.5410  -0.4239  -0.3823  -0.3317  -0.1009   0.0103
     5.1928   5.2430   5.4122   5.5680   6.0942   6.3990   6.4471   6.8054
     6.9579   7.0068   7.1334   7.2820   7.4070   7.5618

          k =-0.5094 0.2822-0.8147 ( 16536 PWs)   bands (ev):

   -77.0608 -77.0606 -76.8359 -73.1789 -40.2937 -40.2758 -40.2327 -38.9759
   -38.9739 -38.9456 -38.9446 -38.9102 -38.9101 -38.7179 -38.7069 -38.6941
   -34.2105 -34.2101 -34.2037 -34.2033 -34.2021 -34.2018 -34.2003 -34.2000
   -34.1939 -34.1934 -34.1861 -34.1857 -34.1793 -34.1789 -33.9943 -33.9923
   -33.9818 -33.9802 -33.9759 -33.9722 -33.9637  -5.4193  -5.0074  -4.7548
    -2.4225  -2.3489  -2.1612  -2.0235  -1.7723  -1.7019  -1.5992  -1.5367
    -1.5059  -1.4704  -1.4230  -1.3483  -1.0854  -1.0349  -0.9205  -0.7333
    -0.7191  -0.5910  -0.4855  -0.3337  -0.2371  -0.1703   0.0450   0.0821
     5.0775   5.4259   5.6501   5.7460   5.8865   5.9806   6.4863   6.5603
     6.7679   7.0515   7.2422   7.4755   7.7173   7.7561

          k =-1.0188 0.0007 0.0003 ( 16510 PWs)   bands (ev):

   -77.0608 -77.0606 -76.8359 -73.1789 -40.2937 -40.2758 -40.2327 -38.9759
   -38.9738 -38.9455 -38.9446 -38.9101 -38.9100 -38.7179 -38.7068 -38.6940
   -34.2105 -34.2101 -34.2037 -34.2033 -34.2021 -34.2017 -34.2003 -34.2000
   -34.1939 -34.1933 -34.1861 -34.1857 -34.1791 -34.1787 -33.9943 -33.9923
   -33.9818 -33.9802 -33.9759 -33.9722 -33.9635  -5.5501  -5.2887  -4.8704
    -2.3670  -2.1170  -2.0979  -1.8875  -1.8817  -1.5770  -1.4383  -1.4075
    -1.3428  -1.2825  -1.2135  -1.1382  -1.0780  -0.9730  -0.8706  -0.8385
    -0.6897  -0.6803  -0.5434  -0.4282  -0.3757  -0.3083  -0.0746  -0.0403
     5.1317   5.2249   5.4957   5.6136   6.0911   6.4746   6.5508   6.7882
     6.8676   7.0167   7.0914   7.1839   7.2938   7.5184

          k =-1.0186 0.0001-0.8148 ( 16498 PWs)   bands (ev):

   -77.0608 -77.0606 -76.8359 -73.1789 -40.2937 -40.2758 -40.2327 -38.9757
   -38.9737 -38.9454 -38.9445 -38.9102 -38.9101 -38.7178 -38.7067 -38.6941
   -34.2105 -34.2101 -34.2036 -34.2033 -34.2021 -34.2017 -34.2002 -34.2000
   -34.1939 -34.1933 -34.1861 -34.1857 -34.1793 -34.1789 -33.9943 -33.9923
   -33.9817 -33.9802 -33.9759 -33.9722 -33.9637  -5.3392  -5.1237  -4.7627
    -2.3252  -2.2918  -2.1949  -2.0353  -1.8033  -1.6833  -1.5484  -1.5416
    -1.4727  -1.4408  -1.2903  -1.2524  -1.0738  -1.0578  -1.0207  -0.9912
    -0.8145  -0.6599  -0.4408  -0.3555  -0.2049  -0.1232   0.0252   0.1025
     5.2789   5.2971   5.5128   5.7683   5.9637   6.1828   6.5728   6.5849
     6.7525   6.9020   7.0665   7.3416   7.6704   7.8253

     the Fermi energy is     5.1221 ev

!    total energy              =   -4360.76393994 Ry
     Harris-Foulkes estimate   =   -4360.76393996 Ry
     estimated scf accuracy    <       0.00000003 Ry

     The total energy is the sum of the following terms:

     one-electron contribution =   -3298.57783861 Ry
     hartree contribution      =    1649.18889924 Ry
     xc contribution           =    -317.55023780 Ry
     ewald contribution        =    -745.05730962 Ry
     one-center paw contrib.   =   -1648.76550472 Ry
     smearing contrib. (-TS)   =      -0.00194843 Ry

     convergence has been achieved in  14 iterations

     Forces acting on atoms (cartesian axes, Ry/au):

     atom    1 type  2   force =    -0.00114923   -0.00263391    0.00003598
     atom    2 type  3   force =     0.01966943    0.00014666   -0.00005850
     atom    3 type  2   force =    -0.00118833    0.00254685   -0.00007910
     atom    4 type  2   force =    -0.00508613   -0.01278672   -0.00007160
     atom    5 type  2   force =    -0.00224763    0.00000355    0.00001416
     atom    6 type  2   force =    -0.00525344    0.01293800    0.00002011
     atom    7 type  4   force =    -0.00903237   -0.00058010   -0.00113540
     atom    8 type  4   force =    -0.00841225    0.00112084    0.00115124
     atom    9 type  4   force =    -0.02305526   -0.00122252    0.00002343
     atom   10 type  1   force =     0.00481264   -0.00036917   -0.00130163
     atom   11 type  1   force =    -0.00430051   -0.00207483   -0.00600402
     atom   12 type  1   force =     0.00038295    0.00012700   -0.00019159
     atom   13 type  1   force =     0.00024024   -0.00008136    0.00002960
     atom   14 type  1   force =     0.00031188    0.00003738    0.00024642
     atom   15 type  1   force =     0.00464454    0.00024032    0.00210619
     atom   16 type  1   force =    -0.00422930   -0.00220766    0.00601785
     atom   17 type  1   force =     0.00460893   -0.00000412   -0.00179514
     atom   18 type  1   force =    -0.00419084    0.00210824   -0.00614968
     atom   19 type  1   force =    -0.00092148   -0.00152109   -0.00007148
     atom   20 type  1   force =     0.01842040    0.00014232    0.00001443
     atom   21 type  1   force =    -0.00068642    0.00224803    0.00006138
     atom   22 type  1   force =     0.00361570   -0.00284331   -0.00774017
     atom   23 type  1   force =     0.00285396   -0.00005271   -0.01046949
     atom   24 type  1   force =     0.00363235    0.00289697    0.00766600
     atom   25 type  1   force =     0.00342877    0.00274282   -0.00731882
     atom   26 type  1   force =     0.00300531    0.00002511    0.01058850
     atom   27 type  1   force =     0.00343687   -0.00258647    0.00737047
     atom   28 type  1   force =     0.00246242   -0.00544198    0.00002921
     atom   29 type  1   force =    -0.00492314    0.00001313   -0.00006467
     atom   30 type  1   force =     0.00071149    0.00759215   -0.00010249
     atom   31 type  1   force =     0.00073546   -0.00799987    0.00013542
     atom   32 type  1   force =    -0.00525515   -0.00012720    0.00001464
     atom   33 type  1   force =     0.00211790    0.00504669   -0.00001950
     atom   34 type  1   force =     0.00030763    0.00004809   -0.00024059
     atom   35 type  1   force =     0.00477378    0.00048970    0.00115921
     atom   36 type  1   force =    -0.00424115    0.00201915    0.00612964

     Total force =     0.054352     Total SCF correction =     0.001652


     Computing stress (Cartesian axis) and pressure

          total   stress  (Ry/bohr**3)                   (kbar)     P=   -4.76
  -0.00001829  -0.00000050  -0.00000001         -2.69     -0.07     -0.00
  -0.00000050  -0.00001277   0.00000003         -0.07     -1.88      0.00
  -0.00000001   0.00000003  -0.00006609         -0.00      0.00     -9.72


     number of scf cycles    =   3
     number of bfgs steps    =   2

     enthalpy old            =   -4360.7554591191 Ry
     enthalpy new            =   -4360.7639399395 Ry

     CASE: enthalpy_new < enthalpy_old

     new trust radius        =       0.0793073498 bohr
     new conv_thr            =       0.0000002306 Ry

     new unit-cell volume =   2824.56827 a.u.^3 (   418.55783 Ang^3 )
     density =      0.14282 g/cm^3

CELL_PARAMETERS (angstrom)
   4.530791685  -8.195189339   0.004007393
   4.536649896   8.198969981  -0.002247865
   0.000942547  -0.002023611   5.631339179

ATOMIC_POSITIONS (angstrom)
K        1.097261771   2.146401476   2.815297100
Mg       6.066007795  -0.000921841   2.816574384
K        1.095736140  -2.148025568   2.816463159
K        2.709913759   5.105054731  -0.002066374
K        3.642224967   0.001635600   0.000740100
K        2.705203957  -5.101944128   0.002877485
Re       4.704599441  -2.531072927   2.817525547
Re       4.707288584   2.532824325   2.815768044
Re      -0.182941490  -0.000077306   0.000101720
H        5.017424287  -3.664945030   4.056392762
H        5.504102020  -1.558244664   4.052404844
H        3.531839056  -2.384463111   4.061514961
H        3.534598103   2.386672178   1.572610882
H        3.533079800  -2.384519432   1.574405226
H        5.018379141  -3.668104199   1.576132502
H        5.502955854  -1.559276953   1.583327454
H        5.019507338   3.669098961   4.055668034
H        5.505130452   1.561406574   4.050453817
H        0.592266746  -1.527671123  -0.000291861
H        7.138616978   0.003730438   0.001619013
H        0.590984778   1.525622563   0.000273603
H        3.714577469  -7.226995586   1.272217870
H        1.114358645  -0.001962180   4.531448652
H        3.721473174   7.229484966   4.362130964
H        3.721628599   7.233312280   1.263456144
H        1.112448458  -0.000240293   1.099433207
H        3.716897464  -7.231732547   4.369064163
H        3.605704644   3.804756100   2.815606076
H        6.356235567   2.943424957   2.815767720
H        3.954810233   0.986458687   2.815378264
H        3.951755400  -0.982341457   2.817828039
H        6.355643432  -2.942283233   2.817719156
H        3.605955024  -3.800933696   2.817447262
H        3.534398486   2.386689000   4.058680128
H        5.018925277   3.666686793   1.577476346
H        5.506286164   1.559865986   1.579367111



     Writing output data file K5MgReH93.save
     NEW-OLD atomic charge density approx. for the potential
     extrapolated charge  129.51979, renormalised to  129.00000

     total cpu time spent up to now is     3409.2 secs

     Self-consistent Calculation

     iteration #  1     ecut=    50.00 Ry     beta=0.70
     Davidson diagonalization with overlap
     ethr =  1.00E-06,  avg # of iterations = 13.1

     total cpu time spent up to now is     3477.7 secs

     total energy              =   -4360.40012323 Ry
     Harris-Foulkes estimate   =   -4347.91342085 Ry
     estimated scf accuracy    <       0.33333788 Ry

     iteration #  2     ecut=    50.00 Ry     beta=0.70
     Davidson diagonalization with overlap
     ethr =  2.58E-04,  avg # of iterations =  4.2

     total cpu time spent up to now is     3523.8 secs

     total energy              =   -4360.45501618 Ry
     Harris-Foulkes estimate   =   -4361.52446745 Ry
     estimated scf accuracy    <       3.90057523 Ry

     iteration #  3     ecut=    50.00 Ry     beta=0.70
     Davidson diagonalization with overlap
     ethr =  2.58E-04,  avg # of iterations =  3.5

     total cpu time spent up to now is     3561.2 secs

     total energy              =   -4360.77999746 Ry
     Harris-Foulkes estimate   =   -4360.80785773 Ry
     estimated scf accuracy    <       0.20215464 Ry

     iteration #  4     ecut=    50.00 Ry     beta=0.70
     Davidson diagonalization with overlap
     ethr =  1.57E-04,  avg # of iterations =  1.0

     total cpu time spent up to now is     3589.4 secs

     total energy              =   -4360.77620142 Ry
     Harris-Foulkes estimate   =   -4360.78468308 Ry
     estimated scf accuracy    <       0.08870082 Ry

     iteration #  5     ecut=    50.00 Ry     beta=0.70
     Davidson diagonalization with overlap
     ethr =  6.88E-05,  avg # of iterations =  1.0

     total cpu time spent up to now is     3618.3 secs

     total energy              =   -4360.77276097 Ry
     Harris-Foulkes estimate   =   -4360.77765006 Ry
     estimated scf accuracy    <       0.05027471 Ry

     iteration #  6     ecut=    50.00 Ry     beta=0.70
     Davidson diagonalization with overlap
     ethr =  3.90E-05,  avg # of iterations =  2.5

     total cpu time spent up to now is     3648.2 secs

     total energy              =   -4360.76872402 Ry
     Harris-Foulkes estimate   =   -4360.77368318 Ry
     estimated scf accuracy    <       0.02701505 Ry

     iteration #  7     ecut=    50.00 Ry     beta=0.70
     Davidson diagonalization with overlap
     ethr =  2.09E-05,  avg # of iterations =  4.4

     total cpu time spent up to now is     3681.3 secs

     total energy              =   -4360.76854497 Ry
     Harris-Foulkes estimate   =   -4360.77012011 Ry
     estimated scf accuracy    <       0.00592864 Ry

     iteration #  8     ecut=    50.00 Ry     beta=0.70
     Davidson diagonalization with overlap
     ethr =  4.60E-06,  avg # of iterations =  4.8

     total cpu time spent up to now is     3716.7 secs

     total energy              =   -4360.76896790 Ry
     Harris-Foulkes estimate   =   -4360.76911169 Ry
     estimated scf accuracy    <       0.00039768 Ry

     iteration #  9     ecut=    50.00 Ry     beta=0.70
     Davidson diagonalization with overlap
     ethr =  3.08E-07,  avg # of iterations =  3.5

     total cpu time spent up to now is     3752.1 secs

     total energy              =   -4360.76904575 Ry
     Harris-Foulkes estimate   =   -4360.76904713 Ry
     estimated scf accuracy    <       0.00000465 Ry

     iteration # 10     ecut=    50.00 Ry     beta=0.70
     Davidson diagonalization with overlap
     ethr =  3.60E-09,  avg # of iterations =  3.6

     total cpu time spent up to now is     3791.1 secs

     total energy              =   -4360.76904746 Ry
     Harris-Foulkes estimate   =   -4360.76904777 Ry
     estimated scf accuracy    <       0.00000108 Ry

     iteration # 11     ecut=    50.00 Ry     beta=0.70
     Davidson diagonalization with overlap
     ethr =  8.37E-10,  avg # of iterations =  2.9

     total cpu time spent up to now is     3823.9 secs

     total energy              =   -4360.76904741 Ry
     Harris-Foulkes estimate   =   -4360.76904767 Ry
     estimated scf accuracy    <       0.00000082 Ry

     iteration # 12     ecut=    50.00 Ry     beta=0.70
     Davidson diagonalization with overlap
     ethr =  6.35E-10,  avg # of iterations =  2.5

     total cpu time spent up to now is     3855.4 secs

     total energy              =   -4360.76904744 Ry
     Harris-Foulkes estimate   =   -4360.76904751 Ry
     estimated scf accuracy    <       0.00000023 Ry

     iteration # 13     ecut=    50.00 Ry     beta=0.70
     Davidson diagonalization with overlap
     ethr =  1.81E-10,  avg # of iterations =  2.4

     total cpu time spent up to now is     3886.5 secs

     End of self-consistent calculation

          k = 0.0000 0.0000 0.0000 ( 16447 PWs)   bands (ev):

   -77.0833 -77.0810 -76.8974 -73.2004 -40.3124 -40.2987 -40.2558 -38.9938
   -38.9901 -38.9626 -38.9618 -38.9248 -38.9228 -38.7716 -38.7664 -38.7570
   -34.2411 -34.2386 -34.2340 -34.2329 -34.2315 -34.2304 -34.2296 -34.2271
   -34.2239 -34.2213 -34.2153 -34.2128 -34.2082 -34.2057 -34.0604 -34.0579
   -34.0477 -34.0461 -34.0437 -34.0390 -34.0300  -5.7457  -4.9965  -4.8690
    -2.5715  -2.1235  -2.1231  -2.0441  -1.8589  -1.6510  -1.4551  -1.3847
    -1.3041  -1.2892  -1.2775  -1.2116  -1.0596  -0.8819  -0.8344  -0.7288
    -0.7069  -0.6199  -0.5542  -0.4094  -0.3691  -0.3204  -0.1133  -0.1100
     4.8880   5.3592   5.7607   5.9081   5.9237   5.9787   6.0894   6.4046
     6.9391   6.9899   7.0374   7.1139   7.2039   7.2844

          k = 0.0002-0.0003-0.8181 ( 16526 PWs)   bands (ev):

   -77.0833 -77.0810 -76.8974 -73.2004 -40.3124 -40.2987 -40.2558 -38.9939
   -38.9903 -38.9627 -38.9618 -38.9251 -38.9230 -38.7718 -38.7664 -38.7573
   -34.2412 -34.2387 -34.2340 -34.2329 -34.2315 -34.2304 -34.2296 -34.2272
   -34.2239 -34.2213 -34.2153 -34.2129 -34.2084 -34.2060 -34.0603 -34.0579
   -34.0477 -34.0461 -34.0438 -34.0391 -34.0303  -5.4788  -4.8782  -4.8111
    -2.4154  -2.3305  -2.2113  -2.0181  -1.9664  -1.6508  -1.6115  -1.5887
    -1.5332  -1.4273  -1.1930  -1.1474  -1.1321  -1.0760  -0.9459  -0.8563
    -0.6837  -0.6626  -0.5484  -0.4459  -0.2307  -0.1538  -0.0695  -0.0045
     5.1153   5.3162   5.4835   6.0380   6.0824   6.2924   6.4562   6.5576
     6.6176   6.8223   7.0605   7.6777   7.7796   7.8121

          k =-0.5079-0.2808-0.0000 ( 16490 PWs)   bands (ev):

   -77.0833 -77.0810 -76.8974 -73.2004 -40.3124 -40.2987 -40.2558 -38.9939
   -38.9901 -38.9626 -38.9618 -38.9249 -38.9229 -38.7716 -38.7664 -38.7571
   -34.2412 -34.2386 -34.2340 -34.2329 -34.2315 -34.2304 -34.2296 -34.2271
   -34.2240 -34.2213 -34.2153 -34.2129 -34.2083 -34.2058 -34.0604 -34.0579
   -34.0477 -34.0461 -34.0438 -34.0391 -34.0301  -5.5888  -5.1621  -4.9577
    -2.5150  -2.1125  -1.9479  -1.8679  -1.7161  -1.6489  -1.5256  -1.4326
    -1.4320  -1.3762  -1.2982  -1.1965  -1.1041  -0.9447  -0.8053  -0.7568
    -0.6767  -0.6392  -0.5314  -0.4402  -0.3983  -0.3532  -0.1657  -0.1022
     5.1455   5.2304   5.3792   5.5037   6.0722   6.3682   6.3994   6.7617
     6.8854   6.9886   7.1049   7.2651   7.3837   7.5309

          k =-0.5078-0.2811-0.8181 ( 16554 PWs)   bands (ev):

   -77.0833 -77.0810 -76.8974 -73.2004 -40.3124 -40.2987 -40.2558 -38.9938
   -38.9903 -38.9629 -38.9619 -38.9251 -38.9231 -38.7716 -38.7667 -38.7573
   -34.2412 -34.2387 -34.2341 -34.2329 -34.2315 -34.2304 -34.2296 -34.2272
   -34.2240 -34.2213 -34.2153 -34.2129 -34.2085 -34.2060 -34.0604 -34.0579
   -34.0477 -34.0461 -34.0438 -34.0391 -34.0303  -5.3936  -4.9983  -4.7982
    -2.3773  -2.3460  -2.1934  -2.0195  -1.7528  -1.7128  -1.6044  -1.5911
    -1.5078  -1.5044  -1.4495  -1.3371  -1.0889  -1.0461  -0.9379  -0.7729
    -0.7285  -0.5903  -0.4799  -0.3372  -0.2385  -0.1692  -0.0479  -0.0037
     5.0428   5.3465   5.6171   5.7045   5.8340   5.9490   6.4531   6.5315
     6.7392   6.9939   7.2059   7.4427   7.6791   7.7232

          k =-0.5082 0.2812 0.0002 ( 16490 PWs)   bands (ev):

   -77.0833 -77.0810 -76.8974 -73.2004 -40.3124 -40.2987 -40.2558 -38.9938
   -38.9902 -38.9627 -38.9618 -38.9249 -38.9229 -38.7716 -38.7665 -38.7572
   -34.2412 -34.2387 -34.2340 -34.2329 -34.2315 -34.2304 -34.2296 -34.2271
   -34.2239 -34.2214 -34.2153 -34.2128 -34.2083 -34.2058 -34.0604 -34.0579
   -34.0477 -34.0461 -34.0438 -34.0391 -34.0301  -5.5883  -5.1624  -4.9582
    -2.5140  -2.1125  -1.9484  -1.8679  -1.7159  -1.6488  -1.5264  -1.4328
    -1.4320  -1.3760  -1.2983  -1.1913  -1.1082  -0.9469  -0.8049  -0.7598
    -0.6719  -0.6394  -0.5317  -0.4379  -0.4009  -0.3532  -0.1664  -0.1014
     5.1449   5.2284   5.3837   5.4994   6.0729   6.3721   6.4015   6.7590
     6.8842   6.9859   7.1064   7.2630   7.3854   7.5315

          k =-0.5080 0.2809-0.8179 ( 16536 PWs)   bands (ev):

   -77.0833 -77.0810 -76.8974 -73.2004 -40.3124 -40.2987 -40.2558 -38.9939
   -38.9901 -38.9627 -38.9620 -38.9251 -38.9231 -38.7716 -38.7666 -38.7573
   -34.2412 -34.2387 -34.2340 -34.2329 -34.2316 -34.2304 -34.2296 -34.2272
   -34.2239 -34.2214 -34.2153 -34.2128 -34.2085 -34.2060 -34.0604 -34.0579
   -34.0477 -34.0461 -34.0438 -34.0391 -34.0303  -5.3930  -4.9992  -4.7982
    -2.3765  -2.3462  -2.1933  -2.0187  -1.7536  -1.7116  -1.6041  -1.5901
    -1.5073  -1.5048  -1.4518  -1.3389  -1.0909  -1.0429  -0.9389  -0.7703
    -0.7333  -0.5904  -0.4752  -0.3377  -0.2413  -0.1674  -0.0482  -0.0034
     5.0436   5.3477   5.6155   5.7041   5.8331   5.9472   6.4548   6.5390
     6.7336   6.9983   7.2033   7.4411   7.6756   7.7213

          k =-1.0161 0.0004 0.0002 ( 16510 PWs)   bands (ev):

   -77.0833 -77.0810 -76.8974 -73.2004 -40.3124 -40.2987 -40.2558 -38.9938
   -38.9901 -38.9627 -38.9618 -38.9250 -38.9230 -38.7716 -38.7665 -38.7573
   -34.2412 -34.2387 -34.2341 -34.2329 -34.2316 -34.2304 -34.2296 -34.2271
   -34.2239 -34.2214 -34.2153 -34.2129 -34.2083 -34.2058 -34.0604 -34.0580
   -34.0477 -34.0461 -34.0438 -34.0391 -34.0301  -5.5345  -5.2833  -4.9103
    -2.3108  -2.1190  -2.0998  -1.9051  -1.8777  -1.6248  -1.4418  -1.4114
    -1.3626  -1.3015  -1.2782  -1.1366  -1.1247  -0.9882  -0.8508  -0.8291
    -0.6880  -0.6566  -0.5039  -0.4318  -0.4259  -0.3265  -0.1408  -0.1384
     5.0694   5.2285   5.4701   5.5382   6.0646   6.4520   6.5038   6.7584
     6.8031   7.0023   7.0113   7.1395   7.3074   7.5018

          k =-1.0160 0.0001-0.8179 ( 16498 PWs)   bands (ev):

   -77.0833 -77.0810 -76.8974 -73.2004 -40.3124 -40.2987 -40.2558 -38.9937
   -38.9900 -38.9626 -38.9617 -38.9251 -38.9231 -38.7714 -38.7664 -38.7573
   -34.2412 -34.2387 -34.2340 -34.2329 -34.2315 -34.2304 -34.2295 -34.2271
   -34.2240 -34.2214 -34.2153 -34.2129 -34.2085 -34.2060 -34.0604 -34.0579
   -34.0476 -34.0461 -34.0438 -34.0391 -34.0303  -5.3124  -5.1144  -4.8055
    -2.3220  -2.2597  -2.2091  -2.0276  -1.8126  -1.6832  -1.5494  -1.5341
    -1.5197  -1.4707  -1.3223  -1.2687  -1.0889  -1.0516  -1.0295  -1.0209
    -0.8351  -0.6640  -0.4565  -0.3140  -0.1908  -0.1558  -0.0254  -0.0228
     5.2029   5.2485   5.4671   5.7529   5.9226   6.1495   6.5259   6.5455
     6.7062   6.8881   7.0487   7.2641   7.6341   7.7902

     the Fermi energy is     5.0823 ev

!    total energy              =   -4360.76904741 Ry
     Harris-Foulkes estimate   =   -4360.76904746 Ry
     estimated scf accuracy    <       0.00000006 Ry

     The total energy is the sum of the following terms:

     one-electron contribution =   -3297.31867093 Ry
     hartree contribution      =    1648.41796938 Ry
     xc contribution           =    -317.50639022 Ry
     ewald contribution        =    -745.58719770 Ry
     one-center paw contrib.   =   -1648.77309899 Ry
     smearing contrib. (-TS)   =      -0.00165895 Ry

     convergence has been achieved in  13 iterations

     Forces acting on atoms (cartesian axes, Ry/au):

     atom    1 type  2   force =    -0.00064391   -0.00190332    0.00003237
     atom    2 type  3   force =     0.01420923    0.00048563   -0.00005178
     atom    3 type  2   force =    -0.00068328    0.00187163   -0.00006202
     atom    4 type  2   force =    -0.00320271   -0.01008831   -0.00001792
     atom    5 type  2   force =    -0.00195760    0.00002498    0.00000543
     atom    6 type  2   force =    -0.00324306    0.01009204   -0.00002431
     atom    7 type  4   force =    -0.00791705   -0.00023805   -0.00054769
     atom    8 type  4   force =    -0.01027130    0.00127034    0.00027560
     atom    9 type  4   force =    -0.01023971   -0.00045775   -0.00019115
     atom   10 type  1   force =     0.00298839    0.00178740   -0.00319421
     atom   11 type  1   force =    -0.00280384   -0.00181109   -0.00358862
     atom   12 type  1   force =     0.00274076   -0.00062831   -0.00185237
     atom   13 type  1   force =     0.00252130    0.00050830    0.00153346
     atom   14 type  1   force =     0.00218980   -0.00056970    0.00135007
     atom   15 type  1   force =     0.00259856    0.00314295    0.00461424
     atom   16 type  1   force =    -0.00244204   -0.00151088    0.00312415
     atom   17 type  1   force =     0.00289473   -0.00256910   -0.00389354
     atom   18 type  1   force =    -0.00239079    0.00142156   -0.00334233
     atom   19 type  1   force =    -0.00446266    0.00743995    0.00006789
     atom   20 type  1   force =     0.01980037    0.00001397    0.00001203
     atom   21 type  1   force =    -0.00397083   -0.00651114   -0.00003670
     atom   22 type  1   force =     0.00179937   -0.00128215   -0.00495032
     atom   23 type  1   force =     0.00201489    0.00000621   -0.00891631
     atom   24 type  1   force =     0.00154052    0.00086695    0.00438195
     atom   25 type  1   force =     0.00104267    0.00005765   -0.00345963
     atom   26 type  1   force =     0.00250295    0.00003705    0.00933964
     atom   27 type  1   force =     0.00119434   -0.00022606    0.00383049
     atom   28 type  1   force =     0.00183839   -0.00451746   -0.00001360
     atom   29 type  1   force =    -0.00757735   -0.00145364   -0.00001132
     atom   30 type  1   force =     0.00248988    0.00977070    0.00004393
     atom   31 type  1   force =     0.00288774   -0.01074257   -0.00002458
     atom   32 type  1   force =    -0.00869357    0.00172974    0.00001464
     atom   33 type  1   force =     0.00050363    0.00312763    0.00001597
     atom   34 type  1   force =     0.00249180    0.00051582   -0.00150498
     atom   35 type  1   force =     0.00316752   -0.00158362    0.00292360
     atom   36 type  1   force =    -0.00291717    0.00192264    0.00411794

     Total force =     0.046174     Total SCF correction =     0.002622


     Computing stress (Cartesian axis) and pressure

          total   stress  (Ry/bohr**3)                   (kbar)     P=   -8.00
  -0.00004577   0.00000279   0.00000099         -6.73      0.41      0.15
   0.00000279  -0.00006330  -0.00000371          0.41     -9.31     -0.55
   0.00000099  -0.00000371  -0.00005404          0.15     -0.55     -7.95


     number of scf cycles    =   4
     number of bfgs steps    =   3

     enthalpy old            =   -4360.7639399395 Ry
     enthalpy new            =   -4360.7690474098 Ry

     CASE: enthalpy_new < enthalpy_old

     new trust radius        =       0.1043318078 bohr
     new conv_thr            =       0.0000001980 Ry

     new unit-cell volume =   2823.51257 a.u.^3 (   418.40139 Ang^3 )
     density =      0.14288 g/cm^3

CELL_PARAMETERS (angstrom)
   4.539729874  -8.225073373   0.001637251
   4.541715127   8.226723738  -0.000447948
   0.000607666  -0.000658994   5.600861514

ATOMIC_POSITIONS (angstrom)
K        1.095049767   2.147552286   2.800616165
Mg       6.130501691  -0.002134728   2.800791017
K        1.094410516  -2.148555301   2.800420549
K        2.698704660   5.085706724  -0.001247198
K        3.642113003   0.000808572   0.000559322
K        2.695774245  -5.083254132   0.001606722
Re       4.705507826  -2.544694942   2.800994341
Re       4.705112054   2.546357262   2.801164120
Re      -0.176048943  -0.000304971   0.000059614
H        5.038744139  -3.682848987   4.033855990
H        5.501499616  -1.568308427   4.015287760
H        3.531774795  -2.391493540   4.044089025
H        3.533886653   2.393743099   1.559338805
H        3.533189355  -2.392467400   1.559741290
H        5.039863652  -3.686890811   1.565636148
H        5.500556597  -1.570444902   1.588338085
H        5.038849817   3.686917425   4.035181981
H        5.502164529   1.571112889   4.014260065
H        0.591397090  -1.543936012  -0.000985795
H        7.177873183   0.002359800   0.001195917
H        0.588925203   1.541490463   0.000872206
H        3.725886533  -7.256218730   1.248907635
H        1.112448889  -0.001491790   4.486371514
H        3.729307664   7.258377810   4.354547200
H        3.729488317   7.261731205   1.244039869
H        1.110760384  -0.000272790   1.113924180
H        3.728087821  -7.260506153   4.357789560
H        3.611463769   3.809150189   2.801309310
H        6.357413324   2.954533910   2.800846880
H        3.956379285   1.000217037   2.799940370
H        3.953173833  -0.996437632   2.802400405
H        6.357623236  -2.955531577   2.801221886
H        3.613249125  -3.805960578   2.800858161
H        3.533262947   2.394728466   4.042434178
H        5.038498442   3.683689183   1.568830330
H        5.503580000   1.568480227   1.585136366



     Writing output data file K5MgReH93.save
     NEW-OLD atomic charge density approx. for the potential
     extrapolated charge  128.95180, renormalised to  129.00000

     total cpu time spent up to now is     4499.0 secs

     Self-consistent Calculation

     iteration #  1     ecut=    50.00 Ry     beta=0.70
     Davidson diagonalization with overlap
     ethr =  1.00E-06,  avg # of iterations =  5.8

     total cpu time spent up to now is     4554.5 secs

     total energy              =   -4360.76739110 Ry
     Harris-Foulkes estimate   =   -4361.26014346 Ry
     estimated scf accuracy    <       0.00573069 Ry

     iteration #  2     ecut=    50.00 Ry     beta=0.70
     Davidson diagonalization with overlap
     ethr =  4.44E-06,  avg # of iterations =  5.9

     total cpu time spent up to now is     4603.3 secs

     total energy              =   -4360.77014210 Ry
     Harris-Foulkes estimate   =   -4360.78422267 Ry
     estimated scf accuracy    <       0.04600552 Ry

     iteration #  3     ecut=    50.00 Ry     beta=0.70
     Davidson diagonalization with overlap
     ethr =  4.44E-06,  avg # of iterations =  4.1

     total cpu time spent up to now is     4642.5 secs

     total energy              =   -4360.77397917 Ry
     Harris-Foulkes estimate   =   -4360.77531605 Ry
     estimated scf accuracy    <       0.00112792 Ry

     iteration #  4     ecut=    50.00 Ry     beta=0.70
     Davidson diagonalization with overlap
     ethr =  8.74E-07,  avg # of iterations =  4.0

     total cpu time spent up to now is     4677.5 secs

     total energy              =   -4360.77374906 Ry
     Harris-Foulkes estimate   =   -4360.77430588 Ry
     estimated scf accuracy    <       0.00114030 Ry

     iteration #  5     ecut=    50.00 Ry     beta=0.70
     Davidson diagonalization with overlap
     ethr =  8.74E-07,  avg # of iterations =  2.9

     total cpu time spent up to now is     4708.9 secs

     total energy              =   -4360.77374711 Ry
     Harris-Foulkes estimate   =   -4360.77388658 Ry
     estimated scf accuracy    <       0.00010144 Ry

     iteration #  6     ecut=    50.00 Ry     beta=0.70
     Davidson diagonalization with overlap
     ethr =  7.86E-08,  avg # of iterations =  2.9

     total cpu time spent up to now is     4743.5 secs

     total energy              =   -4360.77373133 Ry
     Harris-Foulkes estimate   =   -4360.77377071 Ry
     estimated scf accuracy    <       0.00002938 Ry

     iteration #  7     ecut=    50.00 Ry     beta=0.70
     Davidson diagonalization with overlap
     ethr =  2.28E-08,  avg # of iterations =  3.0

     total cpu time spent up to now is     4778.1 secs

     total energy              =   -4360.77373673 Ry
     Harris-Foulkes estimate   =   -4360.77374094 Ry
     estimated scf accuracy    <       0.00001262 Ry

     iteration #  8     ecut=    50.00 Ry     beta=0.70
     Davidson diagonalization with overlap
     ethr =  9.79E-09,  avg # of iterations =  2.9

     total cpu time spent up to now is     4811.4 secs

     total energy              =   -4360.77373824 Ry
     Harris-Foulkes estimate   =   -4360.77373861 Ry
     estimated scf accuracy    <       0.00000125 Ry

     iteration #  9     ecut=    50.00 Ry     beta=0.70
     Davidson diagonalization with overlap
     ethr =  9.72E-10,  avg # of iterations =  3.4

     total cpu time spent up to now is     4845.9 secs

     total energy              =   -4360.77373841 Ry
     Harris-Foulkes estimate   =   -4360.77373858 Ry
     estimated scf accuracy    <       0.00000054 Ry

     iteration # 10     ecut=    50.00 Ry     beta=0.70
     Davidson diagonalization with overlap
     ethr =  4.17E-10,  avg # of iterations =  3.0

     total cpu time spent up to now is     4879.5 secs

     End of self-consistent calculation

          k = 0.0000 0.0000 0.0000 ( 16447 PWs)   bands (ev):

   -77.0593 -77.0560 -76.9067 -73.1615 -40.2700 -40.2614 -40.2203 -38.9737
   -38.9694 -38.9421 -38.9400 -38.9003 -38.8975 -38.7856 -38.7803 -38.7734
   -34.2146 -34.2112 -34.2075 -34.2064 -34.2042 -34.2030 -34.2020 -34.1987
   -34.1970 -34.1937 -34.1875 -34.1844 -34.1804 -34.1771 -34.0631 -34.0604
   -34.0510 -34.0499 -34.0470 -34.0422 -34.0336  -5.7278  -4.9915  -4.9093
    -2.5038  -2.1159  -2.1030  -2.0362  -1.8370  -1.6875  -1.4641  -1.3943
    -1.3645  -1.3155  -1.2839  -1.2281  -1.0653  -0.8122  -0.8094  -0.7102
    -0.6795  -0.5593  -0.5574  -0.4302  -0.3399  -0.3074  -0.2088  -0.1675
     4.8541   5.3950   5.7864   5.9349   5.9666   6.0070   6.1167   6.3844
     6.9532   7.0075   7.0329   7.1326   7.2428   7.3250

          k = 0.0001-0.0001-0.8225 ( 16526 PWs)   bands (ev):

   -77.0593 -77.0560 -76.9067 -73.1615 -40.2700 -40.2614 -40.2203 -38.9739
   -38.9696 -38.9422 -38.9400 -38.9006 -38.8977 -38.7858 -38.7803 -38.7737
   -34.2147 -34.2113 -34.2075 -34.2064 -34.2041 -34.2031 -34.2020 -34.1987
   -34.1971 -34.1938 -34.1876 -34.1844 -34.1806 -34.1774 -34.0631 -34.0605
   -34.0510 -34.0500 -34.0470 -34.0422 -34.0339  -5.4479  -4.8713  -4.8525
    -2.3340  -2.3040  -2.2443  -1.9949  -1.9598  -1.6250  -1.6187  -1.6017
    -1.5795  -1.4570  -1.2041  -1.1460  -1.1308  -1.0448  -0.9695  -0.8517
    -0.6665  -0.6201  -0.4952  -0.4635  -0.2530  -0.1855  -0.1082  -0.0424
     5.1264   5.2839   5.4877   6.0475   6.0933   6.2691   6.4882   6.5710
     6.6189   6.8754   7.1309   7.6971   7.8173   7.8369

          k =-0.5072-0.2800 0.0000 ( 16490 PWs)   bands (ev):

   -77.0593 -77.0560 -76.9067 -73.1615 -40.2700 -40.2614 -40.2203 -38.9738
   -38.9694 -38.9421 -38.9400 -38.9005 -38.8976 -38.7857 -38.7803 -38.7736
   -34.2147 -34.2112 -34.2075 -34.2064 -34.2042 -34.2031 -34.2020 -34.1987
   -34.1971 -34.1937 -34.1875 -34.1845 -34.1804 -34.1772 -34.0632 -34.0605
   -34.0510 -34.0500 -34.0471 -34.0423 -34.0337  -5.5648  -5.1621  -4.9963
    -2.4503  -2.0920  -1.9432  -1.8442  -1.7034  -1.6861  -1.5172  -1.4431
    -1.4401  -1.3903  -1.3708  -1.2328  -1.1049  -0.9277  -0.7387  -0.7320
    -0.6484  -0.5787  -0.5227  -0.4561  -0.3810  -0.3440  -0.2301  -0.1903
     5.1317   5.2866   5.3994   5.4830   6.1014   6.3699   6.4230   6.7733
     6.8827   7.0146   7.1298   7.3014   7.4245   7.6047

          k =-0.5071-0.2801-0.8225 ( 16554 PWs)   bands (ev):

   -77.0593 -77.0560 -76.9067 -73.1615 -40.2700 -40.2614 -40.2203 -38.9738
   -38.9696 -38.9424 -38.9400 -38.9006 -38.8978 -38.7857 -38.7805 -38.7737
   -34.2146 -34.2113 -34.2076 -34.2064 -34.2042 -34.2031 -34.2021 -34.1987
   -34.1971 -34.1938 -34.1876 -34.1845 -34.1806 -34.1774 -34.0632 -34.0605
   -34.0510 -34.0500 -34.0471 -34.0423 -34.0339  -5.3621  -4.9898  -4.8406
    -2.3202  -2.3168  -2.2025  -1.9950  -1.7277  -1.7218  -1.6429  -1.6163
    -1.5169  -1.5069  -1.4600  -1.3069  -1.1210  -1.0178  -0.9513  -0.7812
    -0.7186  -0.5407  -0.4540  -0.3499  -0.2219  -0.1616  -0.1374  -0.0460
     5.0562   5.3129   5.6239   5.7139   5.8278   5.9549   6.4777   6.5698
     6.7615   7.0029   7.2340   7.4657   7.7022   7.7461

          k =-0.5073 0.2801 0.0001 ( 16490 PWs)   bands (ev):

   -77.0593 -77.0560 -76.9067 -73.1615 -40.2700 -40.2614 -40.2203 -38.9737
   -38.9695 -38.9422 -38.9400 -38.9005 -38.8976 -38.7857 -38.7803 -38.7736
   -34.2146 -34.2113 -34.2075 -34.2064 -34.2042 -34.2030 -34.2020 -34.1987
   -34.1971 -34.1938 -34.1876 -34.1844 -34.1804 -34.1772 -34.0632 -34.0605
   -34.0510 -34.0500 -34.0471 -34.0423 -34.0337  -5.5644  -5.1621  -4.9970
    -2.4489  -2.0919  -1.9439  -1.8447  -1.7019  -1.6856  -1.5198  -1.4444
    -1.4387  -1.3900  -1.3710  -1.2277  -1.1094  -0.9309  -0.7395  -0.7324
    -0.6469  -0.5789  -0.5198  -0.4556  -0.3829  -0.3440  -0.2279  -0.1909
     5.1317   5.2860   5.4008   5.4791   6.1014   6.3732   6.4251   6.7731
     6.8815   7.0139   7.1332   7.3010   7.4258   7.6046

          k =-0.5072 0.2800-0.8224 ( 16536 PWs)   bands (ev):

   -77.0593 -77.0560 -76.9067 -73.1615 -40.2700 -40.2614 -40.2203 -38.9739
   -38.9694 -38.9421 -38.9402 -38.9006 -38.8978 -38.7857 -38.7804 -38.7737
   -34.2147 -34.2112 -34.2075 -34.2064 -34.2042 -34.2031 -34.2020 -34.1987
   -34.1971 -34.1938 -34.1876 -34.1844 -34.1806 -34.1774 -34.0632 -34.0605
   -34.0510 -34.0500 -34.0471 -34.0423 -34.0339  -5.3616  -4.9905  -4.8406
    -2.3193  -2.3172  -2.2025  -1.9941  -1.7268  -1.7189  -1.6420  -1.6184
    -1.5175  -1.5047  -1.4642  -1.3103  -1.1209  -1.0151  -0.9516  -0.7779
    -0.7243  -0.5412  -0.4549  -0.3448  -0.2214  -0.1612  -0.1389  -0.0464
     5.0551   5.3132   5.6244   5.7134   5.8305   5.9540   6.4746   6.5743
     6.7608   7.0045   7.2332   7.4682   7.6999   7.7400

          k =-1.0145 0.0001 0.0001 ( 16510 PWs)   bands (ev):

   -77.0593 -77.0560 -76.9067 -73.1615 -40.2700 -40.2614 -40.2203 -38.9738
   -38.9695 -38.9422 -38.9400 -38.9006 -38.8977 -38.7857 -38.7803 -38.7737
   -34.2147 -34.2113 -34.2075 -34.2064 -34.2042 -34.2031 -34.2020 -34.1987
   -34.1971 -34.1938 -34.1876 -34.1845 -34.1804 -34.1772 -34.0632 -34.0605
   -34.0510 -34.0500 -34.0470 -34.0422 -34.0337  -5.5151  -5.2776  -4.9480
    -2.2332  -2.1004  -2.0842  -1.9145  -1.8530  -1.6612  -1.4520  -1.4302
    -1.3850  -1.3651  -1.2645  -1.1791  -1.1184  -0.9804  -0.8383  -0.7583
    -0.6553  -0.5984  -0.4904  -0.4531  -0.4138  -0.3123  -0.2193  -0.1953
     5.0546   5.2889   5.4937   5.5071   6.0860   6.4893   6.4956   6.7808
     6.8031   6.9995   7.0523   7.1532   7.3719   7.5410

          k =-1.0144 0.0000-0.8224 ( 16498 PWs)   bands (ev):

   -77.0593 -77.0560 -76.9067 -73.1615 -40.2700 -40.2614 -40.2203 -38.9736
   -38.9693 -38.9420 -38.9399 -38.9006 -38.8978 -38.7855 -38.7802 -38.7737
   -34.2147 -34.2113 -34.2075 -34.2064 -34.2042 -34.2030 -34.2020 -34.1987
   -34.1971 -34.1938 -34.1876 -34.1845 -34.1806 -34.1774 -34.0631 -34.0605
   -34.0509 -34.0500 -34.0471 -34.0423 -34.0339  -5.2802  -5.1043  -4.8472
    -2.2936  -2.2687  -2.1531  -2.0003  -1.8119  -1.6913  -1.5878  -1.5604
    -1.5091  -1.4479  -1.3370  -1.2913  -1.0781  -1.0575  -1.0487  -0.9897
    -0.8296  -0.6212  -0.4544  -0.2858  -0.1624  -0.1548  -0.1367  -0.0630
     5.1708   5.2454   5.4668   5.7844   5.9143   6.1631   6.5242   6.5926
     6.7200   6.9442   7.0820   7.2532   7.6785   7.8231

     the Fermi energy is     5.0848 ev

!    total energy              =   -4360.77373845 Ry
     Harris-Foulkes estimate   =   -4360.77373850 Ry
     estimated scf accuracy    <       0.00000006 Ry

     The total energy is the sum of the following terms:

     one-electron contribution =   -3294.56498962 Ry
     hartree contribution      =    1647.10034409 Ry
     xc contribution           =    -317.52899703 Ry
     ewald contribution        =    -747.00334349 Ry
     one-center paw contrib.   =   -1648.77552375 Ry
     smearing contrib. (-TS)   =      -0.00122865 Ry

     convergence has been achieved in  10 iterations

     Forces acting on atoms (cartesian axes, Ry/au):

     atom    1 type  2   force =    -0.00032159   -0.00113054    0.00002470
     atom    2 type  3   force =     0.00963148    0.00060485   -0.00002933
     atom    3 type  2   force =    -0.00032422    0.00113954   -0.00004081
     atom    4 type  2   force =    -0.00095270   -0.00728592    0.00001642
     atom    5 type  2   force =    -0.00139422    0.00003898   -0.00000200
     atom    6 type  2   force =    -0.00091769    0.00719822   -0.00004894
     atom    7 type  4   force =    -0.00249759    0.00073019    0.00012475
     atom    8 type  4   force =    -0.00077833   -0.00082674   -0.00020228
     atom    9 type  4   force =     0.00041758   -0.00014502    0.00010264
     atom   10 type  1   force =     0.00085951    0.00246028   -0.00341191
     atom   11 type  1   force =    -0.00073775   -0.00048617    0.00057962
     atom   12 type  1   force =     0.00312542   -0.00124970   -0.00149816
     atom   13 type  1   force =     0.00223642    0.00104099    0.00067946
     atom   14 type  1   force =     0.00234534   -0.00107121    0.00068233
     atom   15 type  1   force =     0.00038380    0.00405433    0.00495431
     atom   16 type  1   force =    -0.00020998    0.00013374   -0.00138966
     atom   17 type  1   force =     0.00062270   -0.00332086   -0.00414557
     atom   18 type  1   force =    -0.00059179    0.00004860    0.00074625
     atom   19 type  1   force =    -0.00511246    0.01167618    0.00015971
     atom   20 type  1   force =     0.01678406   -0.00007083   -0.00001188
     atom   21 type  1   force =    -0.00447482   -0.01067852   -0.00013194
     atom   22 type  1   force =    -0.00069714    0.00150656   -0.00027664
     atom   23 type  1   force =     0.00230182    0.00007732   -0.00789534
     atom   24 type  1   force =    -0.00114774   -0.00220500   -0.00061321
     atom   25 type  1   force =    -0.00173224   -0.00327877    0.00167916
     atom   26 type  1   force =     0.00283051    0.00004982    0.00833449
     atom   27 type  1   force =    -0.00154518    0.00301309   -0.00130265
     atom   28 type  1   force =    -0.00281653    0.00105487   -0.00005915
     atom   29 type  1   force =    -0.00931820   -0.00273311    0.00001995
     atom   30 type  1   force =     0.00225979    0.00870462    0.00014635
     atom   31 type  1   force =     0.00316128   -0.00994975   -0.00015719
     atom   32 type  1   force =    -0.00949607    0.00309749    0.00000516
     atom   33 type  1   force =    -0.00369035   -0.00196627    0.00004142
     atom   34 type  1   force =     0.00224130    0.00094728   -0.00060648
     atom   35 type  1   force =     0.00092831   -0.00212275    0.00304617
     atom   36 type  1   force =    -0.00137273    0.00094417    0.00048026

     Total force =     0.039105     Total SCF correction =     0.001911


     Computing stress (Cartesian axis) and pressure

          total   stress  (Ry/bohr**3)                   (kbar)     P=   -5.78
  -0.00003618   0.00000410   0.00000155         -5.32      0.60      0.23
   0.00000410  -0.00007175  -0.00000574          0.60    -10.55     -0.84
   0.00000155  -0.00000574  -0.00000999          0.23     -0.84     -1.47


     number of scf cycles    =   5
     number of bfgs steps    =   4

     enthalpy old            =   -4360.7690474098 Ry
     enthalpy new            =   -4360.7737384516 Ry

     CASE: enthalpy_new < enthalpy_old

     new trust radius        =       0.0878554067 bohr
     new conv_thr            =       0.0000001678 Ry

     new unit-cell volume =   2814.87584 a.u.^3 (   417.12156 Ang^3 )
     density =      0.14331 g/cm^3

CELL_PARAMETERS (angstrom)
   4.541352282  -8.229986257   0.001565954
   4.542455977   8.231148849  -0.000357785
   0.000641120  -0.000678031   5.579109835

ATOMIC_POSITIONS (angstrom)
K        1.092675752   2.143031145   2.789835102
Mg       6.178616773  -0.002426828   2.789792823
K        1.092175664  -2.144327344   2.789367908
K        2.688426055   5.056974349  -0.001415477
K        3.638020925   0.000663121   0.000600639
K        2.685580224  -5.054424699   0.001686291
Re       4.701206142  -2.548870087   2.790004175
Re       4.701507681   2.550218102   2.790391892
Re      -0.169607265  -0.000619172   0.000165935
H        5.050054024  -3.687176342   4.016641477
H        5.494637928  -1.572683116   3.990183438
H        3.530506417  -2.393096485   4.031580189
H        3.531849593   2.395035395   1.549661373
H        3.531403251  -2.394153763   1.549968165
H        5.050849618  -3.690332039   1.561960721
H        5.494081336  -1.574738745   1.591042495
H        5.049393057   3.690315229   4.017707789
H        5.495414170   1.574803613   3.989328677
H        0.586877297  -1.544789008  -0.001063830
H        7.210833224   0.002116962   0.001210198
H        0.584370061   1.542891734   0.000956847
H        3.729298959  -7.261414374   1.234069568
H        1.112019315  -0.001788219   4.449042539
H        3.731746726   7.262704387   4.347105359
H        3.731412209   7.265553814   1.230720665
H        1.110644111  -0.000317511   1.129777897
H        3.730987932  -7.264887818   4.349765961
H        3.610282012   3.806542119   2.790587993
H        6.346951533   2.955044195   2.790003600
H        3.955599136   1.013726139   2.789049780
H        3.952758954  -1.011147090   2.791618383
H        6.347210037  -2.956862546   2.790262267
H        3.611910369  -3.804383191   2.789863564
H        3.531062591   2.396204409   4.030590418
H        5.049283089   3.687768251   1.564024468
H        5.496368071   1.572455924   1.589128323



     Writing output data file K5MgReH93.save
     NEW-OLD atomic charge density approx. for the potential
     extrapolated charge  128.60449, renormalised to  129.00000

     total cpu time spent up to now is     5492.3 secs

     Self-consistent Calculation

     iteration #  1     ecut=    50.00 Ry     beta=0.70
     Davidson diagonalization with overlap
     c_bands:  1 eigenvalues not converged
     c_bands:  1 eigenvalues not converged
     c_bands:  1 eigenvalues not converged
     ethr =  1.00E-06,  avg # of iterations = 13.4

     total cpu time spent up to now is     5557.9 secs

     total energy              =   -4360.55387584 Ry
     Harris-Foulkes estimate   =   -4369.85601784 Ry
     estimated scf accuracy    <       0.20447595 Ry

     iteration #  2     ecut=    50.00 Ry     beta=0.70
     Davidson diagonalization with overlap
     ethr =  1.59E-04,  avg # of iterations =  5.4

     total cpu time spent up to now is     5605.8 secs

     total energy              =   -4360.60354442 Ry
     Harris-Foulkes estimate   =   -4361.22286271 Ry
     estimated scf accuracy    <       2.21925714 Ry

     iteration #  3     ecut=    50.00 Ry     beta=0.70
     Davidson diagonalization with overlap
     ethr =  1.59E-04,  avg # of iterations =  3.5

     total cpu time spent up to now is     5645.5 secs

     total energy              =   -4360.79005450 Ry
     Harris-Foulkes estimate   =   -4360.80310925 Ry
     estimated scf accuracy    <       0.12859212 Ry

     iteration #  4     ecut=    50.00 Ry     beta=0.70
     Davidson diagonalization with overlap
     ethr =  9.97E-05,  avg # of iterations =  1.0

     total cpu time spent up to now is     5674.0 secs

     total energy              =   -4360.77998050 Ry
     Harris-Foulkes estimate   =   -4360.79229132 Ry
     estimated scf accuracy    <       0.08090347 Ry

     iteration #  5     ecut=    50.00 Ry     beta=0.70
     Davidson diagonalization with overlap
     ethr =  6.27E-05,  avg # of iterations =  1.0

     total cpu time spent up to now is     5703.1 secs

     total energy              =   -4360.77671810 Ry
     Harris-Foulkes estimate   =   -4360.78209215 Ry
     estimated scf accuracy    <       0.03350022 Ry

     iteration #  6     ecut=    50.00 Ry     beta=0.70
     Davidson diagonalization with overlap
     ethr =  2.60E-05,  avg # of iterations =  3.6

     total cpu time spent up to now is     5735.3 secs

     total energy              =   -4360.77616499 Ry
     Harris-Foulkes estimate   =   -4360.77857947 Ry
     estimated scf accuracy    <       0.00913749 Ry

     iteration #  7     ecut=    50.00 Ry     beta=0.70
     Davidson diagonalization with overlap
     ethr =  7.08E-06,  avg # of iterations =  4.2

     total cpu time spent up to now is     5771.7 secs

     total energy              =   -4360.77689402 Ry
     Harris-Foulkes estimate   =   -4360.77705889 Ry
     estimated scf accuracy    <       0.00069069 Ry

     iteration #  8     ecut=    50.00 Ry     beta=0.70
     Davidson diagonalization with overlap
     c_bands:  1 eigenvalues not converged
     ethr =  5.35E-07,  avg # of iterations =  5.6

     total cpu time spent up to now is     5805.1 secs

     total energy              =   -4360.77687109 Ry
     Harris-Foulkes estimate   =   -4360.77694110 Ry
     estimated scf accuracy    <       0.00016165 Ry

     iteration #  9     ecut=    50.00 Ry     beta=0.70
     Davidson diagonalization with overlap
     ethr =  1.25E-07,  avg # of iterations =  3.1

     total cpu time spent up to now is     5840.5 secs

     total energy              =   -4360.77690230 Ry
     Harris-Foulkes estimate   =   -4360.77690592 Ry
     estimated scf accuracy    <       0.00000559 Ry

     iteration # 10     ecut=    50.00 Ry     beta=0.70
     Davidson diagonalization with overlap
     ethr =  4.33E-09,  avg # of iterations =  3.1

     total cpu time spent up to now is     5878.5 secs

     total energy              =   -4360.77690344 Ry
     Harris-Foulkes estimate   =   -4360.77690506 Ry
     estimated scf accuracy    <       0.00000640 Ry

     iteration # 11     ecut=    50.00 Ry     beta=0.70
     Davidson diagonalization with overlap
     ethr =  4.33E-09,  avg # of iterations =  1.9

     total cpu time spent up to now is     5908.4 secs

     total energy              =   -4360.77690327 Ry
     Harris-Foulkes estimate   =   -4360.77690386 Ry
     estimated scf accuracy    <       0.00000214 Ry

     iteration # 12     ecut=    50.00 Ry     beta=0.70
     Davidson diagonalization with overlap
     ethr =  1.66E-09,  avg # of iterations =  2.0

     total cpu time spent up to now is     5939.2 secs

     total energy              =   -4360.77690336 Ry
     Harris-Foulkes estimate   =   -4360.77690347 Ry
     estimated scf accuracy    <       0.00000037 Ry

     iteration # 13     ecut=    50.00 Ry     beta=0.70
     Davidson diagonalization with overlap
     ethr =  2.85E-10,  avg # of iterations =  2.4

     total cpu time spent up to now is     5971.3 secs

     End of self-consistent calculation

          k = 0.0000 0.0000 0.0000 ( 16447 PWs)   bands (ev):

   -77.0171 -77.0138 -76.8780 -73.0977 -40.2029 -40.1990 -40.1595 -38.9372
   -38.9330 -38.9089 -38.9064 -38.8625 -38.8592 -38.7684 -38.7587 -38.7497
   -34.1655 -34.1621 -34.1583 -34.1573 -34.1550 -34.1539 -34.1525 -34.1491
   -34.1478 -34.1444 -34.1380 -34.1347 -34.1307 -34.1273 -34.0258 -34.0232
   -34.0141 -34.0140 -34.0090 -34.0046 -33.9966  -5.7154  -4.9891  -4.9306
    -2.4438  -2.1046  -2.0797  -2.0299  -1.8148  -1.6904  -1.4703  -1.3993
    -1.3867  -1.3268  -1.2721  -1.2568  -1.0577  -0.7810  -0.7554  -0.6981
    -0.6478  -0.5590  -0.5047  -0.4272  -0.3215  -0.2801  -0.2486  -0.1971
     4.8590   5.4569   5.8549   5.9810   6.0279   6.0609   6.1667   6.4115
     6.9866   7.0553   7.0718   7.1804   7.2890   7.3784

          k = 0.0001-0.0001-0.8257 ( 16526 PWs)   bands (ev):

   -77.0171 -77.0138 -76.8780 -73.0977 -40.2029 -40.1990 -40.1595 -38.9373
   -38.9332 -38.9090 -38.9065 -38.8627 -38.8595 -38.7686 -38.7587 -38.7499
   -34.1656 -34.1622 -34.1583 -34.1573 -34.1550 -34.1540 -34.1525 -34.1491
   -34.1478 -34.1444 -34.1381 -34.1348 -34.1310 -34.1276 -34.0258 -34.0233
   -34.0142 -34.0141 -34.0090 -34.0047 -33.9969  -5.4272  -4.8746  -4.8683
    -2.2767  -2.2669  -2.2498  -1.9716  -1.9534  -1.6329  -1.6266  -1.6178
    -1.5467  -1.4694  -1.2506  -1.1148  -1.1039  -1.0255  -0.9768  -0.8399
    -0.6498  -0.5550  -0.4591  -0.4534  -0.2566  -0.2448  -0.0790  -0.0608
     5.1619   5.2994   5.5158   6.0695   6.1379   6.2973   6.5456   6.6287
     6.6646   6.9413   7.2145   7.7589   7.8711   7.8746

          k =-0.5071-0.2798 0.0000 ( 16490 PWs)   bands (ev):

   -77.0171 -77.0138 -76.8780 -73.0977 -40.2029 -40.1990 -40.1595 -38.9373
   -38.9330 -38.9089 -38.9065 -38.8626 -38.8594 -38.7685 -38.7588 -38.7498
   -34.1656 -34.1621 -34.1583 -34.1573 -34.1550 -34.1540 -34.1525 -34.1491
   -34.1478 -34.1444 -34.1380 -34.1348 -34.1308 -34.1274 -34.0259 -34.0233
   -34.0141 -34.0141 -34.0091 -34.0047 -33.9967  -5.5477  -5.1641  -5.0156
    -2.3932  -2.0687  -1.9412  -1.8213  -1.6922  -1.6881  -1.5132  -1.4511
    -1.4447  -1.3916  -1.3863  -1.2617  -1.1026  -0.8943  -0.7206  -0.6747
    -0.6263  -0.5266  -0.5085  -0.4552  -0.3656  -0.3195  -0.2696  -0.2250
     5.1525   5.3678   5.4393   5.5064   6.1574   6.4087   6.4747   6.8154
     6.9262   7.0579   7.1678   7.3620   7.4837   7.6573

          k =-0.5070-0.2799-0.8257 ( 16554 PWs)   bands (ev):

   -77.0171 -77.0138 -76.8780 -73.0977 -40.2029 -40.1990 -40.1595 -38.9372
   -38.9333 -38.9092 -38.9064 -38.8628 -38.8595 -38.7685 -38.7589 -38.7500
   -34.1656 -34.1622 -34.1584 -34.1573 -34.1550 -34.1540 -34.1525 -34.1491
   -34.1478 -34.1444 -34.1381 -34.1348 -34.1310 -34.1276 -34.0259 -34.0233
   -34.0142 -34.0141 -34.0091 -34.0047 -33.9969  -5.3406  -4.9859  -4.8634
    -2.2865  -2.2848  -2.1818  -1.9716  -1.7274  -1.7119  -1.6596  -1.6260
    -1.5026  -1.5018  -1.4648  -1.2844  -1.1411  -0.9959  -0.9535  -0.7666
    -0.7032  -0.4729  -0.4354  -0.3473  -0.2192  -0.1995  -0.1130  -0.0668
     5.0982   5.3274   5.6571   5.7527   5.8540   5.9776   6.5237   6.6282
     6.8128   7.0530   7.2959   7.5247   7.7584   7.7935

          k =-0.5072 0.2799 0.0001 ( 16490 PWs)   bands (ev):

   -77.0171 -77.0138 -76.8780 -73.0977 -40.2029 -40.1990 -40.1595 -38.9372
   -38.9331 -38.9089 -38.9064 -38.8626 -38.8594 -38.7685 -38.7588 -38.7498
   -34.1656 -34.1622 -34.1584 -34.1573 -34.1550 -34.1539 -34.1525 -34.1491
   -34.1478 -34.1444 -34.1381 -34.1348 -34.1308 -34.1274 -34.0259 -34.0233
   -34.0141 -34.0141 -34.0091 -34.0047 -33.9967  -5.5475  -5.1637  -5.0165
    -2.3913  -2.0686  -1.9420  -1.8216  -1.6903  -1.6875  -1.5167  -1.4503
    -1.4457  -1.3916  -1.3860  -1.2583  -1.1061  -0.8987  -0.7214  -0.6745
    -0.6225  -0.5268  -0.5058  -0.4577  -0.3650  -0.3196  -0.2648  -0.2285
     5.1525   5.3667   5.4412   5.5028   6.1578   6.4123   6.4777   6.8149
     6.9242   7.0560   7.1696   7.3613   7.4843   7.6568

          k =-0.5071 0.2798-0.8256 ( 16536 PWs)   bands (ev):

   -77.0171 -77.0138 -76.8780 -73.0977 -40.2029 -40.1990 -40.1595 -38.9373
   -38.9330 -38.9089 -38.9066 -38.8628 -38.8595 -38.7684 -38.7589 -38.7499
   -34.1656 -34.1621 -34.1584 -34.1573 -34.1550 -34.1540 -34.1525 -34.1491
   -34.1478 -34.1444 -34.1381 -34.1348 -34.1310 -34.1277 -34.0259 -34.0233
   -34.0142 -34.0141 -34.0091 -34.0047 -33.9969  -5.3402  -4.9866  -4.8634
    -2.2868  -2.2840  -2.1817  -1.9703  -1.7238  -1.7134  -1.6585  -1.6248
    -1.5041  -1.5010  -1.4697  -1.2887  -1.1391  -0.9939  -0.9543  -0.7641
    -0.7085  -0.4735  -0.4344  -0.3417  -0.2187  -0.2020  -0.1128  -0.0673
     5.0982   5.3276   5.6557   5.7523   5.8559   5.9765   6.5232   6.6327
     6.8114   7.0536   7.2952   7.5271   7.7570   7.7907

          k =-1.0143 0.0001 0.0001 ( 16510 PWs)   bands (ev):

   -77.0171 -77.0138 -76.8780 -73.0977 -40.2029 -40.1990 -40.1595 -38.9372
   -38.9331 -38.9089 -38.9064 -38.8627 -38.8595 -38.7684 -38.7588 -38.7499
   -34.1656 -34.1622 -34.1584 -34.1573 -34.1550 -34.1540 -34.1525 -34.1491
   -34.1478 -34.1444 -34.1381 -34.1348 -34.1308 -34.1274 -34.0259 -34.0233
   -34.0142 -34.0141 -34.0090 -34.0047 -33.9967  -5.5007  -5.2754  -4.9673
    -2.1732  -2.0782  -2.0680  -1.9119  -1.8293  -1.6633  -1.4572  -1.4425
    -1.3998  -1.3809  -1.2484  -1.2191  -1.1108  -0.9612  -0.8171  -0.7024
    -0.6166  -0.5470  -0.5047  -0.4388  -0.3943  -0.2839  -0.2535  -0.2283
     5.0784   5.3667   5.5237   5.5386   6.1356   6.5148   6.5475   6.8197
     6.8475   7.0742   7.1053   7.1877   7.4270   7.5831

          k =-1.0142-0.0000-0.8256 ( 16498 PWs)   bands (ev):

   -77.0171 -77.0138 -76.8780 -73.0977 -40.2029 -40.1990 -40.1595 -38.9371
   -38.9329 -38.9088 -38.9063 -38.8628 -38.8595 -38.7683 -38.7587 -38.7499
   -34.1656 -34.1622 -34.1584 -34.1573 -34.1550 -34.1539 -34.1525 -34.1491
   -34.1478 -34.1444 -34.1381 -34.1348 -34.1310 -34.1276 -34.0258 -34.0233
   -34.0141 -34.0141 -34.0091 -34.0047 -33.9969  -5.2578  -5.0995  -4.8695
    -2.2696  -2.2642  -2.1025  -1.9757  -1.8031  -1.6971  -1.6098  -1.5678
    -1.4992  -1.4200  -1.3271  -1.3101  -1.0634  -1.0609  -1.0472  -0.9671
    -0.8110  -0.5565  -0.4441  -0.2723  -0.1931  -0.1391  -0.1370  -0.0805
     5.1884   5.2822   5.4918   5.8360   5.9243   6.2001   6.5504   6.6764
     6.7669   7.0072   7.1366   7.2954   7.9010   7.9697

     the Fermi energy is     5.1171 ev

!    total energy              =   -4360.77690339 Ry
     Harris-Foulkes estimate   =   -4360.77690341 Ry
     estimated scf accuracy    <       0.00000003 Ry

     The total energy is the sum of the following terms:

     one-electron contribution =   -3292.18390724 Ry
     hartree contribution      =    1646.07349354 Ry
     xc contribution           =    -317.58429218 Ry
     ewald contribution        =    -748.30746104 Ry
     one-center paw contrib.   =   -1648.77381853 Ry
     smearing contrib. (-TS)   =      -0.00091793 Ry

     convergence has been achieved in  13 iterations

     Forces acting on atoms (cartesian axes, Ry/au):

     atom    1 type  2   force =    -0.00024395   -0.00054168    0.00001833
     atom    2 type  3   force =     0.00890226    0.00059402   -0.00001118
     atom    3 type  2   force =    -0.00024128    0.00056283   -0.00002704
     atom    4 type  2   force =     0.00067767   -0.00541712    0.00002381
     atom    5 type  2   force =    -0.00085613    0.00004546   -0.00000714
     atom    6 type  2   force =     0.00077020    0.00526662   -0.00005431
     atom    7 type  4   force =    -0.00014311   -0.00151141    0.00038183
     atom    8 type  4   force =    -0.00043458    0.00087801   -0.00039228
     atom    9 type  4   force =     0.00989267    0.00061636   -0.00007462
     atom   10 type  1   force =    -0.00051406    0.00183588   -0.00235707
     atom   11 type  1   force =     0.00086964    0.00114186    0.00393926
     atom   12 type  1   force =     0.00225990   -0.00139314   -0.00007662
     atom   13 type  1   force =     0.00181971    0.00120800   -0.00039686
     atom   14 type  1   force =     0.00167141   -0.00120819   -0.00058217
     atom   15 type  1   force =    -0.00085134    0.00296291    0.00339975
     atom   16 type  1   force =     0.00127085    0.00171000   -0.00462612
     atom   17 type  1   force =    -0.00050815   -0.00236714   -0.00276939
     atom   18 type  1   force =     0.00106195   -0.00155173    0.00417950
     atom   19 type  1   force =    -0.00318417    0.00982501    0.00018055
     atom   20 type  1   force =     0.00867256   -0.00011868   -0.00000812
     atom   21 type  1   force =    -0.00270382   -0.00928676   -0.00013202
     atom   22 type  1   force =    -0.00252855    0.00354122    0.00337306
     atom   23 type  1   force =     0.00151823    0.00009178   -0.00602025
     atom   24 type  1   force =    -0.00293420   -0.00417718   -0.00407297
     atom   25 type  1   force =    -0.00333504   -0.00498370    0.00484441
     atom   26 type  1   force =     0.00190355    0.00001057    0.00636769
     atom   27 type  1   force =    -0.00310363    0.00458254   -0.00441069
     atom   28 type  1   force =    -0.00540927    0.00465487   -0.00007348
     atom   29 type  1   force =    -0.00593947   -0.00272336    0.00003692
     atom   30 type  1   force =     0.00090794    0.00482930    0.00016934
     atom   31 type  1   force =     0.00155444   -0.00564836   -0.00018938
     atom   32 type  1   force =    -0.00655339    0.00320763   -0.00000361
     atom   33 type  1   force =    -0.00625885   -0.00546227    0.00004923
     atom   34 type  1   force =     0.00187647    0.00108433    0.00044494
     atom   35 type  1   force =    -0.00031653   -0.00151218    0.00202993
     atom   36 type  1   force =     0.00043007   -0.00074629   -0.00315323

     Total force =     0.034686     Total SCF correction =     0.000621


     Computing stress (Cartesian axis) and pressure

          total   stress  (Ry/bohr**3)                   (kbar)     P=   -1.41
  -0.00000767   0.00000377   0.00000124         -1.13      0.55      0.18
   0.00000377  -0.00005005  -0.00000443          0.55     -7.36     -0.65
   0.00000124  -0.00000443   0.00002890          0.18     -0.65      4.25


     number of scf cycles    =   6
     number of bfgs steps    =   5

     enthalpy old            =   -4360.7737384516 Ry
     enthalpy new            =   -4360.7769033865 Ry

     CASE: enthalpy_new < enthalpy_old

     new trust radius        =       0.0880730083 bohr
     new conv_thr            =       0.0000000989 Ry

     new unit-cell volume =   2805.65174 a.u.^3 (   415.75469 Ang^3 )
     density =      0.14379 g/cm^3

CELL_PARAMETERS (angstrom)
   4.540943034  -8.219943755   0.002865858
   4.543389832   8.221832664  -0.001272397
   0.000903069  -0.001505951   5.567053937

ATOMIC_POSITIONS (angstrom)
K        1.090668417   2.134973252   2.783638598
Mg       6.225710337  -0.001834959   2.783904088
K        1.089740080  -2.137040654   2.783522202
K        2.680566403   5.020482313  -0.002161268
K        3.633333969   0.001031363   0.000778230
K        2.676566622  -5.017308921   0.002550337
Re       4.695318115  -2.549653712   2.784550696
Re       4.695956583   2.550710821   2.784153279
Re      -0.159041090  -0.000485845   0.000130848
H        5.058091515  -3.683344926   4.005781968
H        5.488687068  -1.572601063   3.977068383
H        3.530536494  -2.391729025   4.026011782
H        3.531520313   2.393326314   1.542841043
H        3.530504211  -2.392359244   1.543602455
H        5.058264904  -3.684541082   1.563700547
H        5.488626449  -1.573852967   1.592033685
H        5.057777720   3.685379010   4.005264252
H        5.490138303   1.574055678   3.976070236
H        0.580854833  -1.535920945  -0.000740380
H        7.243853875   0.002709792   0.001510504
H        0.579114882   1.535066636   0.000729131
H        3.728903629  -7.250756846   1.226617644
H        1.113199764  -0.002480431   4.418161473
H        3.732237024   7.251002135   4.341922806
H        3.731057255   7.253322162   1.223408191
H        1.112219738  -0.000368329   1.149165116
H        3.729911588  -7.253301430   4.345988130
H        3.605285307   3.801665492   2.784248490
H        6.333774677   2.948952711   2.783856164
H        3.955208448   1.027042497   2.783144318
H        3.952863685  -1.025894374   2.785840389
H        6.332658037  -2.950265547   2.784856032
H        3.605115155  -3.800955476   2.784457535
H        3.530777550   2.394197233   4.025137587
H        5.057901296   3.684417533   1.562788302
H        5.490171177   1.572861251   1.591653676



     Writing output data file K5MgReH93.save
     NEW-OLD atomic charge density approx. for the potential
     extrapolated charge  128.57620, renormalised to  129.00000

     total cpu time spent up to now is     6585.7 secs

     Self-consistent Calculation

     iteration #  1     ecut=    50.00 Ry     beta=0.70
     Davidson diagonalization with overlap
     c_bands:  1 eigenvalues not converged
     c_bands:  1 eigenvalues not converged
     c_bands:  1 eigenvalues not converged
     c_bands:  1 eigenvalues not converged
     ethr =  1.00E-06,  avg # of iterations = 16.8

     total cpu time spent up to now is     6656.3 secs

     total energy              =   -4360.52359516 Ry
     Harris-Foulkes estimate   =   -4370.52012587 Ry
     estimated scf accuracy    <       0.23291898 Ry

     iteration #  2     ecut=    50.00 Ry     beta=0.70
     Davidson diagonalization with overlap
     ethr =  1.81E-04,  avg # of iterations =  5.2

     total cpu time spent up to now is     6704.0 secs

     total energy              =   -4360.58693947 Ry
     Harris-Foulkes estimate   =   -4361.28410488 Ry
     estimated scf accuracy    <       2.47747707 Ry

     iteration #  3     ecut=    50.00 Ry     beta=0.70
     Davidson diagonalization with overlap
     ethr =  1.81E-04,  avg # of iterations =  3.4

     total cpu time spent up to now is     6743.3 secs

     total energy              =   -4360.79381023 Ry
     Harris-Foulkes estimate   =   -4360.80932726 Ry
     estimated scf accuracy    <       0.14634306 Ry

     iteration #  4     ecut=    50.00 Ry     beta=0.70
     Davidson diagonalization with overlap
     ethr =  1.13E-04,  avg # of iterations =  1.0

     total cpu time spent up to now is     6771.5 secs

     total energy              =   -4360.78399155 Ry
     Harris-Foulkes estimate   =   -4360.79641135 Ry
     estimated scf accuracy    <       0.09002523 Ry

     iteration #  5     ecut=    50.00 Ry     beta=0.70
     Davidson diagonalization with overlap
     ethr =  6.98E-05,  avg # of iterations =  1.0

     total cpu time spent up to now is     6800.4 secs

     total energy              =   -4360.77958266 Ry
     Harris-Foulkes estimate   =   -4360.78602306 Ry
     estimated scf accuracy    <       0.04151306 Ry

     iteration #  6     ecut=    50.00 Ry     beta=0.70
     Davidson diagonalization with overlap
     ethr =  3.22E-05,  avg # of iterations =  2.8

     total cpu time spent up to now is     6831.2 secs

     total energy              =   -4360.77852971 Ry
     Harris-Foulkes estimate   =   -4360.78161528 Ry
     estimated scf accuracy    <       0.01230079 Ry

     iteration #  7     ecut=    50.00 Ry     beta=0.70
     Davidson diagonalization with overlap
     ethr =  9.54E-06,  avg # of iterations =  5.1

     total cpu time spent up to now is     6868.0 secs

     total energy              =   -4360.77930830 Ry
     Harris-Foulkes estimate   =   -4360.77959937 Ry
     estimated scf accuracy    <       0.00120830 Ry

     iteration #  8     ecut=    50.00 Ry     beta=0.70
     Davidson diagonalization with overlap
     ethr =  9.37E-07,  avg # of iterations =  3.1

     total cpu time spent up to now is     6899.2 secs

     total energy              =   -4360.77928898 Ry
     Harris-Foulkes estimate   =   -4360.77939325 Ry
     estimated scf accuracy    <       0.00023924 Ry

     iteration #  9     ecut=    50.00 Ry     beta=0.70
     Davidson diagonalization with overlap
     ethr =  1.85E-07,  avg # of iterations =  3.2

     total cpu time spent up to now is     6934.8 secs

     total energy              =   -4360.77934215 Ry
     Harris-Foulkes estimate   =   -4360.77934921 Ry
     estimated scf accuracy    <       0.00001187 Ry

     iteration # 10     ecut=    50.00 Ry     beta=0.70
     Davidson diagonalization with overlap
     ethr =  9.20E-09,  avg # of iterations =  3.0

     total cpu time spent up to now is     6972.4 secs

     total energy              =   -4360.77934547 Ry
     Harris-Foulkes estimate   =   -4360.77934721 Ry
     estimated scf accuracy    <       0.00000595 Ry

     iteration # 11     ecut=    50.00 Ry     beta=0.70
     Davidson diagonalization with overlap
     ethr =  4.61E-09,  avg # of iterations =  2.0

     total cpu time spent up to now is     7002.0 secs

     total energy              =   -4360.77934560 Ry
     Harris-Foulkes estimate   =   -4360.77934593 Ry
     estimated scf accuracy    <       0.00000108 Ry

     iteration # 12     ecut=    50.00 Ry     beta=0.70
     Davidson diagonalization with overlap
     ethr =  8.40E-10,  avg # of iterations =  2.8

     total cpu time spent up to now is     7035.4 secs

     total energy              =   -4360.77934571 Ry
     Harris-Foulkes estimate   =   -4360.77934575 Ry
     estimated scf accuracy    <       0.00000016 Ry

     iteration # 13     ecut=    50.00 Ry     beta=0.70
     Davidson diagonalization with overlap
     ethr =  1.27E-10,  avg # of iterations =  3.0

     total cpu time spent up to now is     7068.9 secs

     End of self-consistent calculation

          k = 0.0000 0.0000 0.0000 ( 16447 PWs)   bands (ev):

   -76.9745 -76.9738 -76.8460 -73.0344 -40.1370 -40.1363 -40.0990 -38.8977
   -38.8965 -38.8771 -38.8765 -38.8260 -38.8249 -38.7507 -38.7320 -38.7169
   -34.1153 -34.1146 -34.1080 -34.1075 -34.1070 -34.1064 -34.1019 -34.1013
   -34.0975 -34.0968 -34.0879 -34.0874 -34.0805 -34.0799 -33.9868 -33.9843
   -33.9768 -33.9754 -33.9677 -33.9644 -33.9570  -5.7023  -4.9842  -4.9417
    -2.3868  -2.0959  -2.0450  -2.0247  -1.7761  -1.6818  -1.4876  -1.4134
    -1.3610  -1.3304  -1.2913  -1.2645  -1.0451  -0.7642  -0.7173  -0.6867
    -0.6153  -0.5592  -0.4672  -0.4053  -0.3198  -0.2591  -0.2573  -0.2198
     4.8766   5.5093   5.9359   6.0313   6.0883   6.1038   6.2100   6.4548
     7.0031   7.1087   7.1277   7.2297   7.3333   7.4193

          k = 0.0001-0.0002-0.8275 ( 16526 PWs)   bands (ev):

   -76.9745 -76.9738 -76.8460 -73.0344 -40.1370 -40.1363 -40.0990 -38.8978
   -38.8967 -38.8772 -38.8765 -38.8262 -38.8251 -38.7509 -38.7319 -38.7172
   -34.1154 -34.1147 -34.1080 -34.1074 -34.1070 -34.1064 -34.1019 -34.1014
   -34.0975 -34.0969 -34.0880 -34.0875 -34.0808 -34.0802 -33.9868 -33.9844
   -33.9769 -33.9755 -33.9678 -33.9644 -33.9573  -5.4081  -4.8869  -4.8638
    -2.2537  -2.2401  -2.2013  -1.9453  -1.9338  -1.6498  -1.6314  -1.6125
    -1.5239  -1.4680  -1.2982  -1.1019  -1.0725  -1.0211  -0.9790  -0.8294
    -0.6276  -0.4747  -0.4378  -0.4331  -0.2805  -0.2489  -0.0743  -0.0677
     5.1927   5.3231   5.5524   6.0687   6.1894   6.3484   6.5931   6.7064
     6.7273   6.9933   7.2988   7.8263   7.8867   7.9229

          k =-0.5071-0.2801 0.0000 ( 16490 PWs)   bands (ev):

   -76.9745 -76.9738 -76.8460 -73.0344 -40.1370 -40.1363 -40.0990 -38.8978
   -38.8965 -38.8771 -38.8765 -38.8261 -38.8250 -38.7507 -38.7320 -38.7171
   -34.1154 -34.1147 -34.1080 -34.1075 -34.1070 -34.1064 -34.1019 -34.1014
   -34.0976 -34.0969 -34.0880 -34.0875 -34.0806 -34.0800 -33.9868 -33.9843
   -33.9768 -33.9755 -33.9678 -33.9644 -33.9571  -5.5300  -5.1638  -5.0248
    -2.3393  -2.0339  -1.9428  -1.7826  -1.6859  -1.6767  -1.5082  -1.4664
    -1.4607  -1.3779  -1.3685  -1.2882  -1.1087  -0.8547  -0.7026  -0.6349
    -0.6092  -0.4888  -0.4874  -0.4461  -0.3589  -0.3007  -0.2944  -0.2461
     5.1788   5.4332   5.4838   5.5464   6.2040   6.4583   6.5330   6.8755
     6.9771   7.0799   7.2023   7.4251   7.5449   7.7012

          k =-0.5069-0.2803-0.8275 ( 16554 PWs)   bands (ev):

   -76.9745 -76.9738 -76.8460 -73.0344 -40.1370 -40.1363 -40.0990 -38.8977
   -38.8968 -38.8774 -38.8765 -38.8263 -38.8252 -38.7508 -38.7321 -38.7172
   -34.1153 -34.1147 -34.1081 -34.1075 -34.1070 -34.1065 -34.1019 -34.1014
   -34.0976 -34.0969 -34.0880 -34.0875 -34.0808 -34.0802 -33.9869 -33.9844
   -33.9769 -33.9755 -33.9678 -33.9644 -33.9574  -5.3201  -4.9812  -4.8762
    -2.2647  -2.2472  -2.1492  -1.9343  -1.7243  -1.7117  -1.6425  -1.6411
    -1.5084  -1.4850  -1.4627  -1.2781  -1.1540  -0.9875  -0.9556  -0.7476
    -0.6819  -0.4168  -0.3909  -0.3335  -0.2530  -0.1855  -0.1030  -0.0837
     5.1405   5.3481   5.6956   5.7969   5.8904   5.9808   6.5652   6.6908
     6.8614   7.1133   7.3728   7.5799   7.8182   7.8419

          k =-0.5072 0.2803 0.0002 ( 16490 PWs)   bands (ev):

   -76.9745 -76.9738 -76.8460 -73.0344 -40.1370 -40.1363 -40.0990 -38.8977
   -38.8965 -38.8772 -38.8765 -38.8261 -38.8250 -38.7507 -38.7320 -38.7171
   -34.1153 -34.1147 -34.1080 -34.1075 -34.1070 -34.1064 -34.1019 -34.1014
   -34.0975 -34.0969 -34.0880 -34.0874 -34.0806 -34.0800 -33.9868 -33.9843
   -33.9768 -33.9755 -33.9678 -33.9644 -33.9571  -5.5296  -5.1635  -5.0258
    -2.3375  -2.0338  -1.9433  -1.7829  -1.6849  -1.6764  -1.5106  -1.4652
    -1.4620  -1.3776  -1.3685  -1.2869  -1.1106  -0.8582  -0.7023  -0.6346
    -0.6073  -0.4890  -0.4848  -0.4484  -0.3581  -0.3008  -0.2913  -0.2482
     5.1785   5.4330   5.4841   5.5455   6.2043   6.4585   6.5320   6.8757
     6.9760   7.0796   7.2026   7.4257   7.5466   7.7043

          k =-0.5070 0.2801-0.8274 ( 16536 PWs)   bands (ev):

   -76.9745 -76.9738 -76.8460 -73.0344 -40.1370 -40.1363 -40.0990 -38.8979
   -38.8965 -38.8771 -38.8766 -38.8262 -38.8251 -38.7507 -38.7321 -38.7172
   -34.1154 -34.1147 -34.1080 -34.1075 -34.1070 -34.1065 -34.1019 -34.1014
   -34.0975 -34.0969 -34.0880 -34.0874 -34.0808 -34.0802 -33.9869 -33.9843
   -33.9769 -33.9755 -33.9678 -33.9644 -33.9574  -5.3196  -4.9820  -4.8761
    -2.2639  -2.2474  -2.1488  -1.9335  -1.7219  -1.7130  -1.6407  -1.6404
    -1.5091  -1.4858  -1.4663  -1.2817  -1.1519  -0.9863  -0.9558  -0.7471
    -0.6841  -0.4166  -0.3913  -0.3296  -0.2527  -0.1871  -0.1028  -0.0839
     5.1407   5.3486   5.6952   5.7964   5.8912   5.9804   6.5648   6.6915
     6.8614   7.1146   7.3713   7.5799   7.8178   7.8409

          k =-1.0142 0.0002 0.0002 ( 16510 PWs)   bands (ev):

   -76.9745 -76.9738 -76.8460 -73.0344 -40.1370 -40.1363 -40.0990 -38.8977
   -38.8965 -38.8772 -38.8765 -38.8262 -38.8251 -38.7507 -38.7320 -38.7172
   -34.1154 -34.1147 -34.1080 -34.1075 -34.1070 -34.1064 -34.1019 -34.1014
   -34.0975 -34.0969 -34.0880 -34.0875 -34.0806 -34.0800 -33.9869 -33.9844
   -33.9769 -33.9755 -33.9678 -33.9644 -33.9571  -5.4840  -5.2724  -4.9770
    -2.1234  -2.0588  -2.0448  -1.9003  -1.7901  -1.6531  -1.4717  -1.4494
    -1.4087  -1.3659  -1.2596  -1.2339  -1.1087  -0.9364  -0.7922  -0.6658
    -0.5704  -0.5129  -0.5088  -0.4347  -0.3744  -0.2699  -0.2619  -0.2578
     5.1092   5.4292   5.5606   5.5844   6.1746   6.5344   6.6070   6.8597
     6.9068   7.1220   7.1862   7.2304   7.4723   7.6197

          k =-1.0141-0.0001-0.8273 ( 16498 PWs)   bands (ev):

   -76.9745 -76.9738 -76.8460 -73.0344 -40.1370 -40.1363 -40.0990 -38.8976
   -38.8964 -38.8770 -38.8764 -38.8262 -38.8251 -38.7505 -38.7319 -38.7172
   -34.1154 -34.1147 -34.1080 -34.1075 -34.1070 -34.1064 -34.1019 -34.1013
   -34.0976 -34.0969 -34.0880 -34.0875 -34.0808 -34.0802 -33.9868 -33.9844
   -33.9769 -33.9754 -33.9678 -33.9644 -33.9574  -5.2358  -5.0948  -4.8818
    -2.2682  -2.2251  -2.0601  -1.9399  -1.7882  -1.7126  -1.5907  -1.5841
    -1.5065  -1.3952  -1.3200  -1.3138  -1.0781  -1.0414  -1.0343  -0.9625
    -0.7859  -0.4774  -0.4312  -0.2605  -0.2257  -0.1307  -0.1216  -0.0916
     5.2151   5.3293   5.5183   5.8821   5.9141   6.2382   6.5888   6.7632
     6.8224   7.0731   7.1807   7.3720   7.9846   8.0079

     the Fermi energy is     5.1499 ev

!    total energy              =   -4360.77934570 Ry
     Harris-Foulkes estimate   =   -4360.77934573 Ry
     estimated scf accuracy    <       0.00000004 Ry

     The total energy is the sum of the following terms:

     one-electron contribution =   -3289.23644416 Ry
     hartree contribution      =    1644.77169843 Ry
     xc contribution           =    -317.63774190 Ry
     ewald contribution        =    -749.90413294 Ry
     one-center paw contrib.   =   -1648.77184145 Ry
     smearing contrib. (-TS)   =      -0.00088368 Ry

     convergence has been achieved in  13 iterations

     Forces acting on atoms (cartesian axes, Ry/au):

     atom    1 type  2   force =    -0.00023505    0.00000440    0.00001579
     atom    2 type  3   force =     0.00783425    0.00028108    0.00001475
     atom    3 type  2   force =    -0.00020446    0.00002010   -0.00001879
     atom    4 type  2   force =     0.00197442   -0.00382033    0.00002284
     atom    5 type  2   force =    -0.00012789    0.00003175   -0.00001185
     atom    6 type  2   force =     0.00211168    0.00366772   -0.00005781
     atom    7 type  4   force =     0.00141718   -0.00088131    0.00037265
     atom    8 type  4   force =     0.00193855    0.00052790   -0.00031460
     atom    9 type  4   force =     0.00858557    0.00007392    0.00007400
     atom   10 type  1   force =    -0.00138553    0.00007677   -0.00047380
     atom   11 type  1   force =     0.00143169    0.00200718    0.00521589
     atom   12 type  1   force =     0.00092519   -0.00140810    0.00150283
     atom   13 type  1   force =     0.00080242    0.00127546   -0.00162341
     atom   14 type  1   force =     0.00079519   -0.00129384   -0.00170883
     atom   15 type  1   force =    -0.00142146    0.00027026    0.00059231
     atom   16 type  1   force =     0.00149843    0.00225897   -0.00544432
     atom   17 type  1   force =    -0.00128352   -0.00020481   -0.00054337
     atom   18 type  1   force =     0.00138322   -0.00219215    0.00529579
     atom   19 type  1   force =     0.00107499    0.00361622    0.00013006
     atom   20 type  1   force =    -0.00023294   -0.00008195   -0.00001634
     atom   21 type  1   force =     0.00132618   -0.00345746   -0.00010211
     atom   22 type  1   force =    -0.00254016    0.00383247    0.00463416
     atom   23 type  1   force =     0.00075238    0.00013286   -0.00349746
     atom   24 type  1   force =    -0.00266734   -0.00392013   -0.00470653
     atom   25 type  1   force =    -0.00265408   -0.00403736    0.00473309
     atom   26 type  1   force =     0.00079368    0.00000161    0.00353610
     atom   27 type  1   force =    -0.00259143    0.00396472   -0.00471166
     atom   28 type  1   force =    -0.00712710    0.00753500   -0.00007026
     atom   29 type  1   force =    -0.00184763   -0.00217040    0.00004126
     atom   30 type  1   force =    -0.00121342   -0.00050174    0.00014357
     atom   31 type  1   force =    -0.00087988    0.00024228   -0.00016224
     atom   32 type  1   force =    -0.00184980    0.00243498   -0.00001085
     atom   33 type  1   force =    -0.00719594   -0.00754204    0.00004655
     atom   34 type  1   force =     0.00090708    0.00116783    0.00161422
     atom   35 type  1   force =    -0.00130927   -0.00004046    0.00047244
     atom   36 type  1   force =     0.00121480   -0.00187141   -0.00498409

     Total force =     0.028462     Total SCF correction =     0.001459


     Computing stress (Cartesian axis) and pressure

          total   stress  (Ry/bohr**3)                   (kbar)     P=    2.84
   0.00002273   0.00000150   0.00000041          3.34      0.22      0.06
   0.00000150  -0.00001669  -0.00000099          0.22     -2.46     -0.15
   0.00000041  -0.00000099   0.00005193          0.06     -0.15      7.64


     number of scf cycles    =   7
     number of bfgs steps    =   6

     enthalpy old            =   -4360.7769033865 Ry
     enthalpy new            =   -4360.7793456962 Ry

     CASE: enthalpy_new < enthalpy_old

     new trust radius        =       0.0514537525 bohr
     new conv_thr            =       0.0000000859 Ry

     new unit-cell volume =   2803.93296 a.u.^3 (   415.49999 Ang^3 )
     density =      0.14387 g/cm^3

CELL_PARAMETERS (angstrom)
   4.541918689  -8.205867908   0.004117206
   4.546197873   8.208739051  -0.002142428
   0.001149794  -0.002244034   5.570533101

ATOMIC_POSITIONS (angstrom)
K        1.090235627   2.128761643   2.785195515
Mg       6.255661063  -0.001018522   2.785854611
K        1.088818936  -2.131363918   2.785497519
K        2.679896003   4.995360265  -0.002764340
K        3.632438092   0.001483694   0.000932598
K        2.674727308  -4.991659618   0.003298956
Re       4.693822516  -2.547263448   2.786931650
Re       4.695543295   2.548463692   2.785643608
Re      -0.152263366  -0.000652996   0.000169710
H        5.062554825  -3.676951169   4.006877971
H        5.489088022  -1.569316821   3.981303656
H        3.533236883  -2.389654106   4.030728448
H        3.534172768   2.391100687   1.541450409
H        3.532571390  -2.389829946   1.542717359
H        5.062305923  -3.676733023   1.568450717
H        5.489287296  -1.569827593   1.591523777
H        5.062990421   3.678432907   4.004946777
H        5.491059632   1.570559829   3.980066324
H        0.578709265  -1.526264641  -0.000365197
H        7.263894055   0.003432899   0.001799504
H        0.577858504   1.526292505   0.000444642
H        3.728144789  -7.234978966   1.228601395
H        1.115587491  -0.002887522   4.408070115
H        3.732923724   7.234845798   4.343224064
H        3.731237555   7.236941458   1.224682392
H        1.114797934  -0.000367149   1.163111600
H        3.728794926  -7.237062019   4.348819811
H        3.599757572   3.800540128   2.785624756
H        6.328346092   2.941283864   2.785505697
H        3.956354853   1.032807608   2.785067547
H        3.954436644  -1.032478959   2.787731858
H        6.326132858  -2.941581634   2.787228762
H        3.598057621  -3.800451453   2.786852721
H        3.533607447   2.391587835   4.029709442
H        5.063181894   3.678641366   1.565366034
H        5.490437419   1.570339061   1.592053694



     Writing output data file K5MgReH93.save
     NEW-OLD atomic charge density approx. for the potential
     extrapolated charge  128.92098, renormalised to  129.00000

     total cpu time spent up to now is     7682.0 secs

     Self-consistent Calculation

     iteration #  1     ecut=    50.00 Ry     beta=0.70
     Davidson diagonalization with overlap
     ethr =  1.00E-06,  avg # of iterations = 10.0

     total cpu time spent up to now is     7741.2 secs

     total energy              =   -4360.73280592 Ry
     Harris-Foulkes estimate   =   -4362.52817077 Ry
     estimated scf accuracy    <       0.03455746 Ry

     iteration #  2     ecut=    50.00 Ry     beta=0.70
     Davidson diagonalization with overlap
     ethr =  2.68E-05,  avg # of iterations =  5.8

     total cpu time spent up to now is     7789.6 secs

     total energy              =   -4360.74835282 Ry
     Harris-Foulkes estimate   =   -4360.86205654 Ry
     estimated scf accuracy    <       0.42450933 Ry

     iteration #  3     ecut=    50.00 Ry     beta=0.70
     Davidson diagonalization with overlap
     ethr =  2.68E-05,  avg # of iterations =  5.0

     total cpu time spent up to now is     7832.0 secs

     total energy              =   -4360.78262808 Ry
     Harris-Foulkes estimate   =   -4360.78652119 Ry
     estimated scf accuracy    <       0.02312561 Ry

     iteration #  4     ecut=    50.00 Ry     beta=0.70
     Davidson diagonalization with overlap
     ethr =  1.79E-05,  avg # of iterations =  1.6

     total cpu time spent up to now is     7861.5 secs

     total energy              =   -4360.78159754 Ry
     Harris-Foulkes estimate   =   -4360.78352355 Ry
     estimated scf accuracy    <       0.01320077 Ry

     iteration #  5     ecut=    50.00 Ry     beta=0.70
     Davidson diagonalization with overlap
     ethr =  1.02E-05,  avg # of iterations =  1.1

     total cpu time spent up to now is     7890.0 secs

     total energy              =   -4360.78073552 Ry
     Harris-Foulkes estimate   =   -4360.78193137 Ry
     estimated scf accuracy    <       0.00578553 Ry

     iteration #  6     ecut=    50.00 Ry     beta=0.70
     Davidson diagonalization with overlap
     ethr =  4.48E-06,  avg # of iterations =  3.9

     total cpu time spent up to now is     7922.2 secs

     total energy              =   -4360.78059579 Ry
     Harris-Foulkes estimate   =   -4360.78101636 Ry
     estimated scf accuracy    <       0.00146017 Ry

     iteration #  7     ecut=    50.00 Ry     beta=0.70
     Davidson diagonalization with overlap
     ethr =  1.13E-06,  avg # of iterations =  4.2

     total cpu time spent up to now is     7956.0 secs

     total energy              =   -4360.78069588 Ry
     Harris-Foulkes estimate   =   -4360.78073782 Ry
     estimated scf accuracy    <       0.00014993 Ry

     iteration #  8     ecut=    50.00 Ry     beta=0.70
     Davidson diagonalization with overlap
     ethr =  1.16E-07,  avg # of iterations =  2.6

     total cpu time spent up to now is     7988.3 secs

     total energy              =   -4360.78069922 Ry
     Harris-Foulkes estimate   =   -4360.78071222 Ry
     estimated scf accuracy    <       0.00004007 Ry

     iteration #  9     ecut=    50.00 Ry     beta=0.70
     Davidson diagonalization with overlap
     ethr =  3.11E-08,  avg # of iterations =  2.5

     total cpu time spent up to now is     8020.2 secs

     total energy              =   -4360.78070168 Ry
     Harris-Foulkes estimate   =   -4360.78070404 Ry
     estimated scf accuracy    <       0.00000657 Ry

     iteration # 10     ecut=    50.00 Ry     beta=0.70
     Davidson diagonalization with overlap
     ethr =  5.09E-09,  avg # of iterations =  3.0

     total cpu time spent up to now is     8055.0 secs

     total energy              =   -4360.78070279 Ry
     Harris-Foulkes estimate   =   -4360.78070287 Ry
     estimated scf accuracy    <       0.00000021 Ry

     iteration # 11     ecut=    50.00 Ry     beta=0.70
     Davidson diagonalization with overlap
     ethr =  1.62E-10,  avg # of iterations =  3.1

     total cpu time spent up to now is     8092.5 secs

     End of self-consistent calculation

          k = 0.0000 0.0000 0.0000 ( 16447 PWs)   bands (ev):

   -76.9690 -76.9682 -76.8437 -73.0117 -40.1154 -40.1114 -40.0777 -38.8888
   -38.8878 -38.8757 -38.8751 -38.8221 -38.8219 -38.7543 -38.7295 -38.7088
   -34.1088 -34.1081 -34.1015 -34.1006 -34.1005 -34.0996 -34.0955 -34.0946
   -34.0912 -34.0905 -34.0818 -34.0809 -34.0745 -34.0737 -33.9849 -33.9824
   -33.9757 -33.9735 -33.9640 -33.9613 -33.9543  -5.6941  -4.9789  -4.9413
    -2.3606  -2.0965  -2.0249  -2.0237  -1.7501  -1.6711  -1.5020  -1.4243
    -1.3298  -1.3246  -1.3079  -1.2698  -1.0433  -0.7640  -0.7189  -0.6818
    -0.6023  -0.5624  -0.4671  -0.3937  -0.3281  -0.2625  -0.2506  -0.2320
     4.8816   5.5168   5.9739   6.0430   6.0983   6.1064   6.2095   6.4714
     6.9838   7.1257   7.1472   7.2391   7.3320   7.4140

          k = 0.0002-0.0003-0.8270 ( 16526 PWs)   bands (ev):

   -76.9690 -76.9682 -76.8437 -73.0117 -40.1154 -40.1114 -40.0777 -38.8889
   -38.8879 -38.8758 -38.8753 -38.8224 -38.8221 -38.7546 -38.7295 -38.7090
   -34.1089 -34.1082 -34.1014 -34.1006 -34.1005 -34.0997 -34.0955 -34.0946
   -34.0912 -34.0905 -34.0818 -34.0810 -34.0748 -34.0740 -33.9848 -33.9825
   -33.9757 -33.9736 -33.9640 -33.9613 -33.9546  -5.3981  -4.8877  -4.8592
    -2.2525  -2.2207  -2.1748  -1.9424  -1.9093  -1.6631  -1.6432  -1.5860
    -1.5278  -1.4571  -1.3243  -1.1029  -1.0715  -1.0335  -0.9809  -0.8319
    -0.6138  -0.4394  -0.4339  -0.4208  -0.2871  -0.2428  -0.0855  -0.0764
     5.1951   5.3283   5.5613   6.0396   6.2011   6.3712   6.5989   6.7442
     6.7566   6.9926   7.3199   7.8476   7.8674   7.9330

          k =-0.5068-0.2805-0.0000 ( 16490 PWs)   bands (ev):

   -76.9690 -76.9682 -76.8437 -73.0117 -40.1154 -40.1114 -40.0777 -38.8888
   -38.8879 -38.8757 -38.8751 -38.8222 -38.8220 -38.7544 -38.7295 -38.7089
   -34.1089 -34.1081 -34.1015 -34.1006 -34.1006 -34.0997 -34.0955 -34.0946
   -34.0912 -34.0906 -34.0818 -34.0809 -34.0746 -34.0738 -33.9849 -33.9824
   -33.9757 -33.9735 -33.9641 -33.9613 -33.9544  -5.5193  -5.1614  -5.0239
    -2.3157  -2.0128  -1.9469  -1.7574  -1.6875  -1.6628  -1.5029  -1.4804
    -1.4741  -1.3782  -1.3334  -1.2980  -1.1235  -0.8381  -0.6945  -0.6353
    -0.6103  -0.4879  -0.4757  -0.4396  -0.3615  -0.3054  -0.3044  -0.2538
     5.1822   5.4438   5.4918   5.5633   6.2096   6.4763   6.5521   6.8922
     6.9935   7.0607   7.1973   7.4459   7.5609   7.7013

          k =-0.5066-0.2808-0.8270 ( 16554 PWs)   bands (ev):

   -76.9690 -76.9682 -76.8437 -73.0117 -40.1154 -40.1114 -40.0777 -38.8891
   -38.8879 -38.8757 -38.8754 -38.8224 -38.8222 -38.7544 -38.7297 -38.7091
   -34.1089 -34.1081 -34.1015 -34.1007 -34.1006 -34.0997 -34.0955 -34.0946
   -34.0912 -34.0905 -34.0818 -34.0809 -34.0748 -34.0741 -33.9849 -33.9825
   -33.9757 -33.9736 -33.9641 -33.9614 -33.9546  -5.3089  -4.9774  -4.8771
    -2.2587  -2.2268  -2.1347  -1.9112  -1.7205  -1.7175  -1.6548  -1.6150
    -1.5211  -1.4775  -1.4547  -1.2875  -1.1650  -0.9974  -0.9613  -0.7469
    -0.6651  -0.4147  -0.3507  -0.3232  -0.2589  -0.1853  -0.1112  -0.0968
     5.1502   5.3515   5.7067   5.8060   5.9003   5.9564   6.5677   6.7044
     6.8680   7.1334   7.4035   7.5901   7.8331   7.8536

          k =-0.5070 0.2808 0.0002 ( 16490 PWs)   bands (ev):

   -76.9690 -76.9682 -76.8437 -73.0117 -40.1154 -40.1114 -40.0777 -38.8889
   -38.8878 -38.8757 -38.8752 -38.8222 -38.8220 -38.7544 -38.7295 -38.7089
   -34.1089 -34.1081 -34.1015 -34.1006 -34.1005 -34.0997 -34.0955 -34.0946
   -34.0912 -34.0905 -34.0818 -34.0810 -34.0746 -34.0738 -33.9849 -33.9824
   -33.9757 -33.9735 -33.9641 -33.9613 -33.9544  -5.5187  -5.1612  -5.0250
    -2.3141  -2.0128  -1.9469  -1.7574  -1.6878  -1.6628  -1.5040  -1.4790
    -1.4756  -1.3780  -1.3334  -1.2979  -1.1241  -0.8403  -0.6942  -0.6351
    -0.6084  -0.4881  -0.4750  -0.4416  -0.3602  -0.3054  -0.3024  -0.2552
     5.1818   5.4443   5.4913   5.5638   6.2100   6.4747   6.5491   6.8931
     6.9912   7.0610   7.1955   7.4474   7.5636   7.7063

          k =-0.5068 0.2805-0.8268 ( 16536 PWs)   bands (ev):

   -76.9690 -76.9682 -76.8437 -73.0117 -40.1154 -40.1114 -40.0777 -38.8888
   -38.8880 -38.8758 -38.8751 -38.8224 -38.8222 -38.7544 -38.7296 -38.7091
   -34.1089 -34.1081 -34.1015 -34.1006 -34.1006 -34.0997 -34.0955 -34.0946
   -34.0912 -34.0905 -34.0818 -34.0810 -34.0748 -34.0741 -33.9849 -33.9825
   -33.9757 -33.9735 -33.9641 -33.9613 -33.9546  -5.3083  -4.9782  -4.8771
    -2.2584  -2.2268  -2.1338  -1.9107  -1.7221  -1.7164  -1.6525  -1.6148
    -1.5220  -1.4783  -1.4567  -1.2890  -1.1641  -0.9970  -0.9617  -0.7471
    -0.6661  -0.4127  -0.3507  -0.3221  -0.2588  -0.1875  -0.1101  -0.0969
     5.1511   5.3523   5.7058   5.8057   5.8999   5.9562   6.5688   6.7033
     6.8676   7.1340   7.4017   7.5890   7.8338   7.8549

          k =-1.0138 0.0003 0.0002 ( 16510 PWs)   bands (ev):

   -76.9690 -76.9682 -76.8437 -73.0117 -40.1154 -40.1114 -40.0777 -38.8889
   -38.8878 -38.8757 -38.8752 -38.8224 -38.8221 -38.7544 -38.7295 -38.7090
   -34.1090 -34.1082 -34.1015 -34.1006 -34.1006 -34.0997 -34.0955 -34.0946
   -34.0912 -34.0905 -34.0818 -34.0810 -34.0746 -34.0738 -33.9849 -33.9825
   -33.9757 -33.9736 -33.9641 -33.9613 -33.9544  -5.4728  -5.2694  -4.9765
    -2.1046  -2.0621  -2.0245  -1.8918  -1.7645  -1.6411  -1.4828  -1.4586
    -1.4072  -1.3349  -1.2798  -1.2330  -1.1154  -0.9238  -0.7821  -0.6686
    -0.5541  -0.5151  -0.5070  -0.4390  -0.3624  -0.2795  -0.2734  -0.2654
     5.1147   5.4398   5.5792   5.5908   6.1756   6.5348   6.6197   6.8607
     6.9277   7.0936   7.2370   7.2528   7.4715   7.6109

          k =-1.0136-0.0001-0.8268 ( 16498 PWs)   bands (ev):

   -76.9690 -76.9682 -76.8437 -73.0117 -40.1154 -40.1114 -40.0777 -38.8887
   -38.8877 -38.8756 -38.8750 -38.8224 -38.8221 -38.7542 -38.7295 -38.7091
   -34.1089 -34.1081 -34.1015 -34.1006 -34.1005 -34.0997 -34.0955 -34.0946
   -34.0912 -34.0905 -34.0818 -34.0810 -34.0748 -34.0740 -33.9848 -33.9825
   -33.9757 -33.9735 -33.9641 -33.9613 -33.9546  -5.2232  -5.0917  -4.8825
    -2.2685  -2.2042  -2.0428  -1.9193  -1.7796  -1.7253  -1.5967  -1.5625
    -1.5209  -1.3906  -1.3138  -1.3084  -1.0950  -1.0345  -1.0328  -0.9772
    -0.7742  -0.4375  -0.4296  -0.2571  -0.2314  -0.1356  -0.1230  -0.1007
     5.2240   5.3476   5.5203   5.8820   5.8889   6.2427   6.5987   6.7933
     6.8360   7.0855   7.1862   7.4106   7.8761   8.0166

     the Fermi energy is     5.1564 ev

!    total energy              =   -4360.78070284 Ry
     Harris-Foulkes estimate   =   -4360.78070285 Ry
     estimated scf accuracy    <       0.00000002 Ry

     The total energy is the sum of the following terms:

     one-electron contribution =   -3287.52415944 Ry
     hartree contribution      =    1643.95095478 Ry
     xc contribution           =    -317.64291947 Ry
     ewald contribution        =    -750.79118807 Ry
     one-center paw contrib.   =   -1648.77249323 Ry
     smearing contrib. (-TS)   =      -0.00089740 Ry

     convergence has been achieved in  11 iterations

     Forces acting on atoms (cartesian axes, Ry/au):

     atom    1 type  2   force =    -0.00020198    0.00026173    0.00001668
     atom    2 type  3   force =     0.00710559    0.00021310   -0.00000221
     atom    3 type  2   force =    -0.00016729   -0.00023235   -0.00001494
     atom    4 type  2   force =     0.00240470   -0.00304122    0.00002107
     atom    5 type  2   force =     0.00031250    0.00002021   -0.00001302
     atom    6 type  2   force =     0.00256256    0.00290659   -0.00005746
     atom    7 type  4   force =    -0.00026174   -0.00180100    0.00016029
     atom    8 type  4   force =    -0.00027793    0.00071534   -0.00017460
     atom    9 type  4   force =     0.00359465    0.00101783    0.00003323
     atom   10 type  1   force =    -0.00155707   -0.00096792    0.00043372
     atom   11 type  1   force =     0.00075670    0.00164936    0.00382804
     atom   12 type  1   force =     0.00038781   -0.00125770    0.00186155
     atom   13 type  1   force =     0.00066592    0.00121836   -0.00160757
     atom   14 type  1   force =     0.00062691   -0.00121826   -0.00167198
     atom   15 type  1   force =    -0.00137514   -0.00143286   -0.00093693
     atom   16 type  1   force =     0.00057056    0.00162295   -0.00366737
     atom   17 type  1   force =    -0.00133684    0.00118726    0.00063320
     atom   18 type  1   force =     0.00063865   -0.00165919    0.00382696
     atom   19 type  1   force =     0.00431253   -0.00196540    0.00008483
     atom   20 type  1   force =    -0.00452946   -0.00006683   -0.00001107
     atom   21 type  1   force =     0.00421241    0.00146048   -0.00005738
     atom   22 type  1   force =    -0.00118701    0.00237758    0.00313452
     atom   23 type  1   force =    -0.00074757    0.00009757   -0.00072858
     atom   24 type  1   force =    -0.00114670   -0.00221547   -0.00284440
     atom   25 type  1   force =    -0.00091357   -0.00193073    0.00248907
     atom   26 type  1   force =    -0.00089595   -0.00004657    0.00061134
     atom   27 type  1   force =    -0.00088912    0.00189015   -0.00255291
     atom   28 type  1   force =    -0.00520427    0.00607825   -0.00005767
     atom   29 type  1   force =     0.00096823   -0.00149575    0.00003417
     atom   30 type  1   force =    -0.00228613   -0.00345259    0.00010297
     atom   31 type  1   force =    -0.00239080    0.00386166   -0.00011012
     atom   32 type  1   force =     0.00104118    0.00163329   -0.00000851
     atom   33 type  1   force =    -0.00490321   -0.00568447    0.00004263
     atom   34 type  1   force =     0.00078330    0.00114191    0.00156031
     atom   35 type  1   force =    -0.00150795    0.00087137   -0.00025705
     atom   36 type  1   force =     0.00083551   -0.00175664   -0.00410082

     Total force =     0.022101     Total SCF correction =     0.001807


     Computing stress (Cartesian axis) and pressure

          total   stress  (Ry/bohr**3)                   (kbar)     P=    3.18
   0.00002648  -0.00000042  -0.00000028          3.90     -0.06     -0.04
  -0.00000042  -0.00000404   0.00000151         -0.06     -0.59      0.22
  -0.00000028   0.00000151   0.00004240         -0.04      0.22      6.24


     number of scf cycles    =   8
     number of bfgs steps    =   7

     enthalpy old            =   -4360.7793456962 Ry
     enthalpy new            =   -4360.7807028400 Ry

     CASE: enthalpy_new < enthalpy_old

     new trust radius        =       0.0438446953 bohr
     new conv_thr            =       0.0000000711 Ry

     new unit-cell volume =   2807.05467 a.u.^3 (   415.96258 Ang^3 )
     density =      0.14371 g/cm^3

CELL_PARAMETERS (angstrom)
   4.545491652  -8.191981696   0.004671616
   4.550996940   8.195485071  -0.002484289
   0.001282808  -0.002516642   5.580830381

ATOMIC_POSITIONS (angstrom)
K        1.090523847   2.123818514   2.790298727
Mg       6.284705663  -0.000147636   2.791107489
K        1.088808977  -2.126534006   2.790719336
K        2.683248413   4.973738263  -0.003004477
K        3.634451627   0.001791804   0.001008314
K        2.677428450  -4.969831691   0.003581817
Re       4.694671468  -2.545577872   2.792444819
Re       4.697028959   2.546147545   2.790604666
Re      -0.147274296   0.000152552   0.000207604
H        5.067410798  -3.671008043   4.013229197
H        5.493448926  -1.564937288   3.992531846
H        3.538082090  -2.387893872   4.040541024
H        3.539195384   2.389393469   1.541964004
H        3.537170505  -2.387827206   1.543371937
H        5.067012076  -3.670208266   1.573429457
H        5.493708105  -1.565050465   1.590716192
H        5.068516170   3.672522720   4.010674742
H        5.495695382   1.566295291   3.991233192
H        0.580959596  -1.519948979  -0.000096130
H        7.279344965   0.003840128   0.001952910
H        0.580649809   1.520179597   0.000251059
H        3.729342014  -7.218791632   1.233531150
H        1.117501498  -0.002902357   4.407136319
H        3.735086162   7.218702008   4.348600691
H        3.733224249   7.220683678   1.229225002
H        1.116777921  -0.000358066   1.174528621
H        3.729925512  -7.220752965   4.354942904
H        3.594708404   3.802175012   2.790594158
H        6.329196110   2.933318127   2.790678927
H        3.958200746   1.033923542   2.790432261
H        3.956504937  -1.033656203   2.792848700
H        6.326244153  -2.932612620   2.792679247
H        3.592154538  -3.802058839   2.792334448
H        3.538836308   2.389656359   4.039369255
H        5.068650147   3.673244540   1.569511548
H        5.494776807   1.566577240   1.591671942



     Writing output data file K5MgReH93.save
     NEW-OLD atomic charge density approx. for the potential
     extrapolated charge  129.14335, renormalised to  129.00000

     total cpu time spent up to now is     8705.6 secs

     Self-consistent Calculation

     iteration #  1     ecut=    50.00 Ry     beta=0.70
     Davidson diagonalization with overlap
     ethr =  1.00E-06,  avg # of iterations =  9.2

     total cpu time spent up to now is     8763.6 secs

     total energy              =   -4360.75262811 Ry
     Harris-Foulkes estimate   =   -4357.21560832 Ry
     estimated scf accuracy    <       0.02669343 Ry

     iteration #  2     ecut=    50.00 Ry     beta=0.70
     Davidson diagonalization with overlap
     ethr =  2.07E-05,  avg # of iterations =  5.8

     total cpu time spent up to now is     8812.6 secs

     total energy              =   -4360.75578163 Ry
     Harris-Foulkes estimate   =   -4360.84041054 Ry
     estimated scf accuracy    <       0.30849229 Ry

     iteration #  3     ecut=    50.00 Ry     beta=0.70
     Davidson diagonalization with overlap
     ethr =  2.07E-05,  avg # of iterations =  4.0

     total cpu time spent up to now is     8851.4 secs

     total energy              =   -4360.78320966 Ry
     Harris-Foulkes estimate   =   -4360.78485030 Ry
     estimated scf accuracy    <       0.01497705 Ry

     iteration #  4     ecut=    50.00 Ry     beta=0.70
     Davidson diagonalization with overlap
     ethr =  1.16E-05,  avg # of iterations =  1.1

     total cpu time spent up to now is     8880.0 secs

     total energy              =   -4360.78185390 Ry
     Harris-Foulkes estimate   =   -4360.78353486 Ry
     estimated scf accuracy    <       0.00920818 Ry

     iteration #  5     ecut=    50.00 Ry     beta=0.70
     Davidson diagonalization with overlap
     ethr =  7.14E-06,  avg # of iterations =  1.8

     total cpu time spent up to now is     8909.3 secs

     total energy              =   -4360.78144236 Ry
     Harris-Foulkes estimate   =   -4360.78220293 Ry
     estimated scf accuracy    <       0.00286965 Ry

     iteration #  6     ecut=    50.00 Ry     beta=0.70
     Davidson diagonalization with overlap
     ethr =  2.22E-06,  avg # of iterations =  4.8

     total cpu time spent up to now is     8945.4 secs

     total energy              =   -4360.78163358 Ry
     Harris-Foulkes estimate   =   -4360.78172161 Ry
     estimated scf accuracy    <       0.00024343 Ry

     iteration #  7     ecut=    50.00 Ry     beta=0.70
     Davidson diagonalization with overlap
     ethr =  1.89E-07,  avg # of iterations =  2.2

     total cpu time spent up to now is     8976.7 secs

     total energy              =   -4360.78165541 Ry
     Harris-Foulkes estimate   =   -4360.78166211 Ry
     estimated scf accuracy    <       0.00001564 Ry

     iteration #  8     ecut=    50.00 Ry     beta=0.70
     Davidson diagonalization with overlap
     ethr =  1.21E-08,  avg # of iterations =  3.0

     total cpu time spent up to now is     9014.3 secs

     total energy              =   -4360.78165909 Ry
     Harris-Foulkes estimate   =   -4360.78165931 Ry
     estimated scf accuracy    <       0.00000053 Ry

     iteration #  9     ecut=    50.00 Ry     beta=0.70
     Davidson diagonalization with overlap
     ethr =  4.15E-10,  avg # of iterations =  3.0

     total cpu time spent up to now is     9050.0 secs

     total energy              =   -4360.78165916 Ry
     Harris-Foulkes estimate   =   -4360.78165921 Ry
     estimated scf accuracy    <       0.00000011 Ry

     iteration # 10     ecut=    50.00 Ry     beta=0.70
     Davidson diagonalization with overlap
     ethr =  8.73E-11,  avg # of iterations =  3.0

     total cpu time spent up to now is     9084.5 secs

     End of self-consistent calculation

          k = 0.0000 0.0000 0.0000 ( 16447 PWs)   bands (ev):

   -76.9865 -76.9821 -76.8625 -73.0119 -40.1165 -40.1096 -40.0789 -38.8998
   -38.8955 -38.8913 -38.8873 -38.8394 -38.8359 -38.7736 -38.7443 -38.7198
   -34.1296 -34.1247 -34.1220 -34.1210 -34.1171 -34.1161 -34.1160 -34.1123
   -34.1110 -34.1076 -34.1026 -34.0977 -34.0958 -34.0911 -34.0080 -34.0056
   -33.9994 -33.9967 -33.9854 -33.9835 -33.9766  -5.6854  -4.9705  -4.9372
    -2.3457  -2.0999  -2.0260  -2.0062  -1.7260  -1.6648  -1.5178  -1.4368
    -1.3288  -1.3104  -1.2925  -1.2805  -1.0452  -0.7730  -0.7386  -0.6741
    -0.5976  -0.5652  -0.4832  -0.3916  -0.3409  -0.2820  -0.2427  -0.2412
     4.8725   5.4943   5.9821   6.0297   6.0821   6.0829   6.1839   6.4651
     6.9416   7.1181   7.1403   7.2260   7.3086   7.3875

          k = 0.0002-0.0004-0.8255 ( 16526 PWs)   bands (ev):

   -76.9865 -76.9821 -76.8625 -73.0119 -40.1165 -40.1096 -40.0789 -38.8999
   -38.8955 -38.8914 -38.8875 -38.8396 -38.8361 -38.7738 -38.7443 -38.7200
   -34.1297 -34.1248 -34.1220 -34.1210 -34.1170 -34.1161 -34.1160 -34.1124
   -34.1110 -34.1076 -34.1026 -34.0977 -34.0961 -34.0914 -34.0080 -34.0057
   -33.9994 -33.9967 -33.9854 -33.9835 -33.9769  -5.3883  -4.8851  -4.8512
    -2.2553  -2.2043  -2.1612  -1.9405  -1.8868  -1.6775  -1.6570  -1.5615
    -1.5421  -1.4406  -1.3383  -1.1154  -1.0843  -1.0516  -0.9834  -0.8415
    -0.5994  -0.4576  -0.4159  -0.4073  -0.2879  -0.2379  -0.0986  -0.0921
     5.1791   5.3149   5.5535   5.9932   6.1857   6.3715   6.5770   6.7526
     6.7622   6.9627   7.3050   7.8269   7.8411   7.9185

          k =-0.5063-0.2809-0.0000 ( 16490 PWs)   bands (ev):

   -76.9865 -76.9821 -76.8625 -73.0119 -40.1165 -40.1096 -40.0789 -38.8998
   -38.8955 -38.8914 -38.8874 -38.8395 -38.8360 -38.7737 -38.7443 -38.7199
   -34.1296 -34.1248 -34.1220 -34.1210 -34.1171 -34.1161 -34.1160 -34.1124
   -34.1110 -34.1077 -34.1026 -34.0977 -34.0959 -34.0912 -34.0081 -34.0057
   -33.9994 -33.9967 -33.9854 -33.9835 -33.9767  -5.5084  -5.1561  -5.0195
    -2.3040  -1.9955  -1.9485  -1.7341  -1.6897  -1.6529  -1.4959  -1.4951
    -1.4898  -1.3826  -1.3023  -1.3014  -1.1405  -0.8293  -0.6895  -0.6539
    -0.6189  -0.5031  -0.4686  -0.4402  -0.3667  -0.3255  -0.3100  -0.2600
     5.1658   5.4229   5.4763   5.5598   6.1881   6.4703   6.5497   6.8809
     6.9829   7.0164   7.1723   7.4405   7.5525   7.6800

          k =-0.5061-0.2813-0.8255 ( 16554 PWs)   bands (ev):

   -76.9865 -76.9821 -76.8625 -73.0119 -40.1165 -40.1096 -40.0789 -38.9001
   -38.8956 -38.8913 -38.8876 -38.8397 -38.8362 -38.7737 -38.7445 -38.7201
   -34.1297 -34.1248 -34.1220 -34.1211 -34.1171 -34.1161 -34.1160 -34.1124
   -34.1110 -34.1077 -34.1026 -34.0977 -34.0961 -34.0914 -34.0081 -34.0057
   -33.9995 -33.9967 -33.9854 -33.9835 -33.9770  -5.2978  -4.9708  -4.8745
    -2.2608  -2.2106  -2.1287  -1.8904  -1.7339  -1.7058  -1.6677  -1.5940
    -1.5351  -1.4786  -1.4419  -1.2995  -1.1780  -1.0145  -0.9695  -0.7590
    -0.6475  -0.4184  -0.3339  -0.3151  -0.2599  -0.1943  -0.1242  -0.1112
     5.1387   5.3370   5.6979   5.7904   5.8940   5.9145   6.5469   6.6887
     6.8493   7.1207   7.4084   7.5738   7.8219   7.8439

          k =-0.5065 0.2813 0.0002 ( 16490 PWs)   bands (ev):

   -76.9865 -76.9821 -76.8625 -73.0119 -40.1165 -40.1096 -40.0789 -38.8999
   -38.8955 -38.8913 -38.8874 -38.8395 -38.8360 -38.7736 -38.7443 -38.7199
   -34.1297 -34.1248 -34.1220 -34.1210 -34.1171 -34.1161 -34.1160 -34.1124
   -34.1110 -34.1076 -34.1026 -34.0977 -34.0959 -34.0912 -34.0081 -34.0057
   -33.9994 -33.9967 -33.9854 -33.9835 -33.9767  -5.5076  -5.1564  -5.0202
    -2.3023  -1.9954  -1.9480  -1.7337  -1.6917  -1.6536  -1.4956  -1.4941
    -1.4911  -1.3821  -1.3025  -1.3016  -1.1410  -0.8307  -0.6881  -0.6537
    -0.6177  -0.5034  -0.4696  -0.4389  -0.3677  -0.3256  -0.3106  -0.2588
     5.1650   5.4239   5.4760   5.5612   6.1886   6.4656   6.5462   6.8804
     6.9835   7.0184   7.1696   7.4425   7.5548   7.6849

          k =-0.5063 0.2809-0.8252 ( 16536 PWs)   bands (ev):

   -76.9865 -76.9821 -76.8625 -73.0119 -40.1165 -40.1096 -40.0789 -38.8998
   -38.8957 -38.8914 -38.8873 -38.8397 -38.8361 -38.7736 -38.7444 -38.7201
   -34.1296 -34.1248 -34.1220 -34.1210 -34.1171 -34.1161 -34.1160 -34.1124
   -34.1110 -34.1076 -34.1026 -34.0977 -34.0962 -34.0914 -34.0081 -34.0057
   -33.9994 -33.9967 -33.9854 -33.9835 -33.9770  -5.2972  -4.9716  -4.8745
    -2.2603  -2.2104  -2.1272  -1.8910  -1.7346  -1.7069  -1.6650  -1.5948
    -1.5371  -1.4782  -1.4426  -1.3000  -1.1780  -1.0138  -0.9690  -0.7599
    -0.6476  -0.4157  -0.3339  -0.3171  -0.2598  -0.1936  -0.1243  -0.1113
     5.1394   5.3382   5.6995   5.7891   5.8906   5.9153   6.5478   6.6880
     6.8478   7.1259   7.4050   7.5681   7.8205   7.8456

          k =-1.0129 0.0003 0.0002 ( 16510 PWs)   bands (ev):

   -76.9865 -76.9821 -76.8625 -73.0119 -40.1165 -40.1096 -40.0789 -38.8999
   -38.8955 -38.8913 -38.8874 -38.8396 -38.8361 -38.7736 -38.7443 -38.7200
   -34.1297 -34.1248 -34.1220 -34.1210 -34.1171 -34.1161 -34.1160 -34.1124
   -34.1110 -34.1076 -34.1026 -34.0977 -34.0959 -34.0912 -34.0081 -34.0057
   -33.9995 -33.9967 -33.9854 -33.9835 -33.9767  -5.4610  -5.2639  -4.9728
    -2.0957  -2.0689  -2.0080  -1.8856  -1.7407  -1.6339  -1.4948  -1.4722
    -1.4016  -1.3061  -1.2888  -1.2378  -1.1196  -0.9174  -0.7773  -0.6891
    -0.5517  -0.5211  -0.5167  -0.4454  -0.3590  -0.2980  -0.2851  -0.2753
     5.0977   5.4207   5.5721   5.5796   6.1509   6.5215   6.6055   6.8428
     6.9210   7.0397   7.2251   7.2799   7.4460   7.5805

          k =-1.0127-0.0000-0.8252 ( 16498 PWs)   bands (ev):

   -76.9865 -76.9821 -76.8625 -73.0119 -40.1165 -40.1096 -40.0789 -38.8997
   -38.8954 -38.8912 -38.8872 -38.8397 -38.8361 -38.7735 -38.7442 -38.7201
   -34.1297 -34.1248 -34.1220 -34.1210 -34.1171 -34.1161 -34.1160 -34.1124
   -34.1109 -34.1077 -34.1026 -34.0977 -34.0961 -34.0914 -34.0080 -34.0057
   -33.9995 -33.9967 -33.9854 -33.9835 -33.9770  -5.2106  -5.0861  -4.8797
    -2.2747  -2.1870  -2.0311  -1.9023  -1.7747  -1.7391  -1.6101  -1.5390
    -1.5329  -1.3957  -1.3116  -1.2984  -1.1135  -1.0404  -1.0273  -0.9981
    -0.7694  -0.4340  -0.4204  -0.2587  -0.2323  -0.1433  -0.1324  -0.1121
     5.2135   5.3430   5.5070   5.8342   5.8713   6.2259   6.5925   6.7850
     6.8233   7.0731   7.1711   7.4173   7.8589   7.9955

     the Fermi energy is     5.1422 ev

!    total energy              =   -4360.78165915 Ry
     Harris-Foulkes estimate   =   -4360.78165919 Ry
     estimated scf accuracy    <       0.00000004 Ry

     The total energy is the sum of the following terms:

     one-electron contribution =   -3285.89626981 Ry
     hartree contribution      =    1643.07973696 Ry
     xc contribution           =    -317.61548415 Ry
     ewald contribution        =    -751.57274309 Ry
     one-center paw contrib.   =   -1648.77596823 Ry
     smearing contrib. (-TS)   =      -0.00093083 Ry

     convergence has been achieved in  10 iterations

     Forces acting on atoms (cartesian axes, Ry/au):

     atom    1 type  2   force =    -0.00011625    0.00037536    0.00001084
     atom    2 type  3   force =     0.00653917   -0.00023322    0.00002846
     atom    3 type  2   force =    -0.00007323   -0.00033786   -0.00000979
     atom    4 type  2   force =     0.00249743   -0.00244987    0.00001966
     atom    5 type  2   force =     0.00063248   -0.00000542   -0.00001494
     atom    6 type  2   force =     0.00267726    0.00237441   -0.00005664
     atom    7 type  4   force =     0.00025130    0.00103729   -0.00007375
     atom    8 type  4   force =    -0.00042028    0.00062759    0.00020848
     atom    9 type  4   force =    -0.00436215   -0.00132503   -0.00006466
     atom   10 type  1   force =    -0.00156236   -0.00173979    0.00075296
     atom   11 type  1   force =    -0.00067944    0.00039694    0.00102531
     atom   12 type  1   force =     0.00026388   -0.00121208    0.00146452
     atom   13 type  1   force =     0.00069912    0.00113064   -0.00106370
     atom   14 type  1   force =     0.00068385   -0.00121620   -0.00106252
     atom   15 type  1   force =    -0.00129975   -0.00245328   -0.00146937
     atom   16 type  1   force =    -0.00097426    0.00023017   -0.00066978
     atom   17 type  1   force =    -0.00138419    0.00177828    0.00079902
     atom   18 type  1   force =    -0.00078141   -0.00045874    0.00105485
     atom   19 type  1   force =     0.00580127   -0.00463752    0.00005141
     atom   20 type  1   force =    -0.00539296    0.00001591   -0.00000759
     atom   21 type  1   force =     0.00587591    0.00473079   -0.00003085
     atom   22 type  1   force =     0.00048827    0.00067900    0.00082049
     atom   23 type  1   force =    -0.00231165    0.00016668    0.00193105
     atom   24 type  1   force =     0.00075596    0.00004865   -0.00008997
     atom   25 type  1   force =     0.00103587    0.00045200   -0.00035928
     atom   26 type  1   force =    -0.00252970    0.00003960   -0.00210977
     atom   27 type  1   force =     0.00088408    0.00000098   -0.00005107
     atom   28 type  1   force =    -0.00209588    0.00308232   -0.00005515
     atom   29 type  1   force =     0.00143563   -0.00107265    0.00001288
     atom   30 type  1   force =    -0.00251273   -0.00421835    0.00005977
     atom   31 type  1   force =    -0.00268695    0.00450542   -0.00006762
     atom   32 type  1   force =     0.00173804    0.00099420   -0.00000278
     atom   33 type  1   force =    -0.00190029   -0.00292183    0.00004002
     atom   34 type  1   force =     0.00082273    0.00107912    0.00096111
     atom   35 type  1   force =    -0.00159171    0.00131187   -0.00032696
     atom   36 type  1   force =    -0.00040706   -0.00077541   -0.00165464

     Total force =     0.019703     Total SCF correction =     0.000353


     Computing stress (Cartesian axis) and pressure

          total   stress  (Ry/bohr**3)                   (kbar)     P=    1.09
   0.00001217  -0.00000103  -0.00000059          1.79     -0.15     -0.09
  -0.00000103  -0.00000829   0.00000249         -0.15     -1.22      0.37
  -0.00000059   0.00000249   0.00001825         -0.09      0.37      2.68


     number of scf cycles    =   9
     number of bfgs steps    =   8

     enthalpy old            =   -4360.7807028400 Ry
     enthalpy new            =   -4360.7816591500 Ry

     CASE: enthalpy_new < enthalpy_old

     new trust radius        =       0.0376513022 bohr
     new conv_thr            =       0.0000000654 Ry

     new unit-cell volume =   2810.56676 a.u.^3 (   416.48302 Ang^3 )
     density =      0.14353 g/cm^3

CELL_PARAMETERS (angstrom)
   4.549463652  -8.180145195   0.004356839
   4.555332326   8.183803486  -0.002185154
   0.001267713  -0.002246563   5.590737772

ATOMIC_POSITIONS (angstrom)
K        1.090868599   2.120305167   2.795367418
Mg       6.310378923   0.000238770   2.796044512
K        1.089105429  -2.122678810   2.795539155
K        2.687946041   4.955993679  -0.002834552
K        3.637356546   0.001883421   0.000985430
K        2.682093130  -4.952162645   0.003321130
Re       4.697351756  -2.542296350   2.797349736
Re       4.699438259   2.544251600   2.795681781
Re      -0.146898265  -0.000627751   0.000179797
H        5.071047170  -3.666901791   4.019768496
H        5.497383568  -1.561180123   4.002483297
H        3.542548028  -2.386573130   4.049978905
H        3.543988379   2.388279246   1.542587999
H        3.541804241  -2.386550961   1.543729482
H        5.070775266  -3.666409133   1.576293020
H        5.497529610  -1.561332340   1.590555143
H        5.072504399   3.668776854   4.017346823
H        5.499666252   1.562873606   4.001414090
H        0.586672707  -1.518364445  -0.000011949
H        7.288009833   0.003924960   0.001925915
H        0.586729610   1.518875683   0.000207279
H        3.731804985  -7.205184737   1.237383565
H        1.117180862  -0.002449889   4.410434361
H        3.737938613   7.205925830   4.355046215
H        3.736202171   7.207843994   1.233093423
H        1.116416457  -0.000245336   1.181111363
H        3.732549237  -7.207266167   4.360789344
H        3.590960356   3.804107261   2.795614802
H        6.332358590   2.926306635   2.795762811
H        3.958791143   1.031493400   2.795573292
H        3.957194783  -1.030906111   2.797596285
H        6.329312600  -2.924927183   2.797505637
H        3.588143493  -3.803682631   2.797189499
H        3.543801581   2.388558769   4.048741251
H        5.072505202   3.669323109   1.573141156
H        5.498848775   1.563079820   1.591379523



     Writing output data file K5MgReH93.save
     NEW-OLD atomic charge density approx. for the potential
     extrapolated charge  129.16108, renormalised to  129.00000

     total cpu time spent up to now is     9697.0 secs

     Self-consistent Calculation

     iteration #  1     ecut=    50.00 Ry     beta=0.70
     Davidson diagonalization with overlap
     ethr =  1.00E-06,  avg # of iterations = 10.1

     total cpu time spent up to now is     9755.2 secs

     total energy              =   -4360.74516236 Ry
     Harris-Foulkes estimate   =   -4356.82810492 Ry
     estimated scf accuracy    <       0.03423532 Ry

     iteration #  2     ecut=    50.00 Ry     beta=0.70
     Davidson diagonalization with overlap
     ethr =  2.65E-05,  avg # of iterations =  4.8

     total cpu time spent up to now is     9802.9 secs

     total energy              =   -4360.74857991 Ry
     Harris-Foulkes estimate   =   -4360.85771144 Ry
     estimated scf accuracy    <       0.39921811 Ry

     iteration #  3     ecut=    50.00 Ry     beta=0.70
     Davidson diagonalization with overlap
     ethr =  2.65E-05,  avg # of iterations =  4.0

     total cpu time spent up to now is     9841.7 secs

     total energy              =   -4360.78429666 Ry
     Harris-Foulkes estimate   =   -4360.78623358 Ry
     estimated scf accuracy    <       0.01910196 Ry

     iteration #  4     ecut=    50.00 Ry     beta=0.70
     Davidson diagonalization with overlap
     ethr =  1.48E-05,  avg # of iterations =  1.0

     total cpu time spent up to now is     9870.0 secs

     total energy              =   -4360.78308344 Ry
     Harris-Foulkes estimate   =   -4360.78468409 Ry
     estimated scf accuracy    <       0.01204510 Ry

     iteration #  5     ecut=    50.00 Ry     beta=0.70
     Davidson diagonalization with overlap
     ethr =  9.34E-06,  avg # of iterations =  1.0

     total cpu time spent up to now is     9898.5 secs

     total energy              =   -4360.78239815 Ry
     Harris-Foulkes estimate   =   -4360.78333862 Ry
     estimated scf accuracy    <       0.00555091 Ry

     iteration #  6     ecut=    50.00 Ry     beta=0.70
     Davidson diagonalization with overlap
     ethr =  4.30E-06,  avg # of iterations =  3.5

     total cpu time spent up to now is     9930.3 secs

     total energy              =   -4360.78225184 Ry
     Harris-Foulkes estimate   =   -4360.78263863 Ry
     estimated scf accuracy    <       0.00160786 Ry

     iteration #  7     ecut=    50.00 Ry     beta=0.70
     Davidson diagonalization with overlap
     ethr =  1.25E-06,  avg # of iterations =  4.2

     total cpu time spent up to now is     9964.2 secs

     total energy              =   -4360.78231168 Ry
     Harris-Foulkes estimate   =   -4360.78237071 Ry
     estimated scf accuracy    <       0.00022068 Ry

     iteration #  8     ecut=    50.00 Ry     beta=0.70
     Davidson diagonalization with overlap
     ethr =  1.71E-07,  avg # of iterations =  2.2

     total cpu time spent up to now is     9995.0 secs

     total energy              =   -4360.78232615 Ry
     Harris-Foulkes estimate   =   -4360.78233178 Ry
     estimated scf accuracy    <       0.00002412 Ry

     iteration #  9     ecut=    50.00 Ry     beta=0.70
     Davidson diagonalization with overlap
     ethr =  1.87E-08,  avg # of iterations =  3.1

     total cpu time spent up to now is    10028.2 secs

     total energy              =   -4360.78232745 Ry
     Harris-Foulkes estimate   =   -4360.78232890 Ry
     estimated scf accuracy    <       0.00000489 Ry

     iteration # 10     ecut=    50.00 Ry     beta=0.70
     Davidson diagonalization with overlap
     ethr =  3.79E-09,  avg # of iterations =  2.6

     total cpu time spent up to now is    10061.8 secs

     total energy              =   -4360.78232802 Ry
     Harris-Foulkes estimate   =   -4360.78232819 Ry
     estimated scf accuracy    <       0.00000041 Ry

     iteration # 11     ecut=    50.00 Ry     beta=0.70
     Davidson diagonalization with overlap
     ethr =  3.17E-10,  avg # of iterations =  3.0

     total cpu time spent up to now is    10099.0 secs

     End of self-consistent calculation

          k = 0.0000 0.0000 0.0000 ( 16447 PWs)   bands (ev):

   -77.0044 -77.0028 -76.8842 -73.0179 -40.1236 -40.1138 -40.0855 -38.9126
   -38.9109 -38.9039 -38.9024 -38.8567 -38.8555 -38.7920 -38.7627 -38.7362
   -34.1509 -34.1492 -34.1431 -34.1420 -34.1413 -34.1401 -34.1367 -34.1348
   -34.1342 -34.1325 -34.1237 -34.1218 -34.1177 -34.1160 -34.0340 -34.0317
   -34.0256 -34.0227 -34.0102 -34.0090 -34.0020  -5.6769  -4.9602  -4.9328
    -2.3344  -2.0996  -2.0266  -1.9977  -1.7141  -1.6619  -1.5223  -1.4400
    -1.3245  -1.2982  -1.2885  -1.2834  -1.0481  -0.7770  -0.7583  -0.6627
    -0.5987  -0.5631  -0.4995  -0.4004  -0.3468  -0.3033  -0.2457  -0.2336
     4.8591   5.4677   5.9773   6.0085   6.0603   6.0636   6.1533   6.4513
     6.9110   7.1049   7.1187   7.2101   7.2804   7.3609

          k = 0.0002-0.0003-0.8240 ( 16526 PWs)   bands (ev):

   -77.0044 -77.0028 -76.8842 -73.0179 -40.1236 -40.1138 -40.0855 -38.9126
   -38.9109 -38.9041 -38.9026 -38.8569 -38.8557 -38.7922 -38.7626 -38.7364
   -34.1510 -34.1492 -34.1431 -34.1420 -34.1412 -34.1401 -34.1367 -34.1348
   -34.1343 -34.1326 -34.1237 -34.1219 -34.1180 -34.1162 -34.0340 -34.0318
   -34.0257 -34.0227 -34.0103 -34.0090 -34.0023  -5.3782  -4.8821  -4.8410
    -2.2582  -2.1947  -2.1515  -1.9391  -1.8755  -1.6816  -1.6608  -1.5556
    -1.5525  -1.4244  -1.3358  -1.1292  -1.0975  -1.0646  -0.9821  -0.8505
    -0.5859  -0.4718  -0.4147  -0.3948  -0.2853  -0.2333  -0.1135  -0.1024
     5.1674   5.3003   5.5382   5.9593   6.1623   6.3585   6.5581   6.7397
     6.7564   6.9338   7.2775   7.7999   7.8222   7.8990

          k =-0.5059-0.2813 0.0000 ( 16490 PWs)   bands (ev):

   -77.0044 -77.0028 -76.8842 -73.0179 -40.1236 -40.1138 -40.0855 -38.9126
   -38.9109 -38.9040 -38.9025 -38.8568 -38.8556 -38.7921 -38.7627 -38.7363
   -34.1509 -34.1492 -34.1431 -34.1420 -34.1413 -34.1401 -34.1367 -34.1348
   -34.1343 -34.1326 -34.1237 -34.1219 -34.1178 -34.1160 -34.0340 -34.0317
   -34.0256 -34.0227 -34.0103 -34.0090 -34.0021  -5.4977  -5.1497  -5.0141
    -2.2959  -1.9870  -1.9432  -1.7225  -1.6897  -1.6490  -1.4989  -1.4956
    -1.4876  -1.3813  -1.2963  -1.2937  -1.1514  -0.8246  -0.6850  -0.6729
    -0.6254  -0.5188  -0.4662  -0.4408  -0.3698  -0.3473  -0.3122  -0.2600
     5.1456   5.4023   5.4532   5.5456   6.1705   6.4565   6.5419   6.8525
     6.9634   6.9855   7.1436   7.4265   7.5327   7.6579

          k =-0.5057-0.2817-0.8240 ( 16554 PWs)   bands (ev):

   -77.0044 -77.0028 -76.8842 -73.0179 -40.1236 -40.1138 -40.0855 -38.9128
   -38.9110 -38.9039 -38.9026 -38.8570 -38.8558 -38.7921 -38.7628 -38.7365
   -34.1510 -34.1492 -34.1432 -34.1420 -34.1414 -34.1402 -34.1367 -34.1348
   -34.1343 -34.1326 -34.1237 -34.1219 -34.1180 -34.1163 -34.0340 -34.0318
   -34.0257 -34.0227 -34.0103 -34.0090 -34.0023  -5.2865  -4.9621  -4.8715
    -2.2644  -2.2011  -2.1238  -1.8813  -1.7414  -1.6943  -1.6693  -1.5903
    -1.5421  -1.4801  -1.4276  -1.3052  -1.1832  -1.0268  -0.9738  -0.7722
    -0.6321  -0.4223  -0.3352  -0.3086  -0.2580  -0.1986  -0.1317  -0.1259
     5.1266   5.3227   5.6858   5.7684   5.8775   5.8840   6.5272   6.6647
     6.8261   7.1021   7.4005   7.5496   7.7986   7.8322

          k =-0.5061 0.2817 0.0002 ( 16490 PWs)   bands (ev):

   -77.0044 -77.0028 -76.8842 -73.0179 -40.1236 -40.1138 -40.0855 -38.9126
   -38.9109 -38.9039 -38.9025 -38.8568 -38.8556 -38.7921 -38.7627 -38.7363
   -34.1510 -34.1492 -34.1431 -34.1420 -34.1413 -34.1402 -34.1367 -34.1348
   -34.1343 -34.1326 -34.1237 -34.1219 -34.1178 -34.1160 -34.0340 -34.0318
   -34.0256 -34.0227 -34.0103 -34.0090 -34.0021  -5.4970  -5.1498  -5.0150
    -2.2951  -1.9871  -1.9429  -1.7222  -1.6908  -1.6492  -1.4982  -1.4963
    -1.4868  -1.3812  -1.2973  -1.2937  -1.1508  -0.8252  -0.6851  -0.6726
    -0.6245  -0.5190  -0.4662  -0.4426  -0.3692  -0.3473  -0.3115  -0.2598
     5.1453   5.4031   5.4521   5.5469   6.1708   6.4530   6.5377   6.8546
     6.9596   6.9860   7.1419   7.4292   7.5376   7.6600

          k =-0.5059 0.2814-0.8238 ( 16536 PWs)   bands (ev):

   -77.0044 -77.0028 -76.8842 -73.0179 -40.1236 -40.1138 -40.0855 -38.9126
   -38.9111 -38.9040 -38.9024 -38.8570 -38.8557 -38.7921 -38.7628 -38.7365
   -34.1510 -34.1492 -34.1432 -34.1420 -34.1413 -34.1402 -34.1367 -34.1348
   -34.1343 -34.1326 -34.1237 -34.1219 -34.1180 -34.1163 -34.0340 -34.0318
   -34.0256 -34.0227 -34.0103 -34.0090 -34.0023  -5.2859  -4.9628  -4.8715
    -2.2643  -2.2010  -2.1230  -1.8811  -1.7418  -1.6947  -1.6692  -1.5898
    -1.5420  -1.4811  -1.4272  -1.3049  -1.1837  -1.0270  -0.9737  -0.7726
    -0.6326  -0.4204  -0.3350  -0.3102  -0.2579  -0.1988  -0.1309  -0.1259
     5.1274   5.3238   5.6849   5.7690   5.8775   5.8830   6.5280   6.6616
     6.8267   7.1016   7.3987   7.5486   7.8005   7.8331

          k =-1.0119 0.0004 0.0002 ( 16510 PWs)   bands (ev):

   -77.0044 -77.0028 -76.8842 -73.0179 -40.1236 -40.1138 -40.0855 -38.9126
   -38.9109 -38.9039 -38.9025 -38.8569 -38.8557 -38.7921 -38.7627 -38.7365
   -34.1510 -34.1493 -34.1432 -34.1420 -34.1413 -34.1401 -34.1367 -34.1348
   -34.1343 -34.1326 -34.1237 -34.1219 -34.1178 -34.1161 -34.0340 -34.0318
   -34.0257 -34.0227 -34.0103 -34.0090 -34.0021  -5.4501  -5.2563  -4.9686
    -2.0950  -2.0674  -2.0002  -1.8766  -1.7288  -1.6301  -1.4977  -1.4765
    -1.3925  -1.2983  -1.2817  -1.2409  -1.1205  -0.9129  -0.7745  -0.7094
    -0.5612  -0.5360  -0.5162  -0.4430  -0.3599  -0.3091  -0.3067  -0.2726
     5.0746   5.4016   5.5471   5.5693   6.1315   6.5103   6.5812   6.8220
     6.9018   7.0053   7.2039   7.2801   7.4156   7.5490

          k =-1.0118 0.0000-0.8238 ( 16498 PWs)   bands (ev):

   -77.0044 -77.0028 -76.8842 -73.0179 -40.1236 -40.1138 -40.0855 -38.9125
   -38.9108 -38.9038 -38.9023 -38.8570 -38.8557 -38.7919 -38.7626 -38.7365
   -34.1510 -34.1492 -34.1431 -34.1420 -34.1413 -34.1401 -34.1367 -34.1347
   -34.1343 -34.1326 -34.1237 -34.1219 -34.1180 -34.1162 -34.0340 -34.0318
   -34.0257 -34.0227 -34.0103 -34.0090 -34.0023  -5.1981  -5.0784  -4.8766
    -2.2813  -2.1771  -2.0228  -1.8957  -1.7677  -1.7428  -1.6132  -1.5367
    -1.5319  -1.4018  -1.3154  -1.2815  -1.1217  -1.0474  -1.0212  -1.0135
    -0.7674  -0.4390  -0.4192  -0.2582  -0.2300  -0.1435  -0.1394  -0.1269
     5.2015   5.3330   5.4928   5.7998   5.8521   6.2066   6.5776   6.7641
     6.8023   7.0495   7.1584   7.3975   7.8285   7.9747

     the Fermi energy is     5.1267 ev

!    total energy              =   -4360.78232810 Ry
     Harris-Foulkes estimate   =   -4360.78232812 Ry
     estimated scf accuracy    <       0.00000001 Ry

     The total energy is the sum of the following terms:

     one-electron contribution =   -3284.66769580 Ry
     hartree contribution      =    1642.38955995 Ry
     xc contribution           =    -317.58114729 Ry
     ewald contribution        =    -752.14208436 Ry
     one-center paw contrib.   =   -1648.78007911 Ry
     smearing contrib. (-TS)   =      -0.00088149 Ry

     convergence has been achieved in  11 iterations

     Forces acting on atoms (cartesian axes, Ry/au):

     atom    1 type  2   force =    -0.00000733    0.00038112    0.00000370
     atom    2 type  3   force =     0.00586807   -0.00002285    0.00001869
     atom    3 type  2   force =     0.00001510   -0.00034695    0.00000329
     atom    4 type  2   force =     0.00244377   -0.00206917    0.00002310
     atom    5 type  2   force =     0.00075372   -0.00000374   -0.00001332
     atom    6 type  2   force =     0.00258395    0.00198346   -0.00005208
     atom    7 type  4   force =    -0.00197478   -0.00046590   -0.00028595
     atom    8 type  4   force =    -0.00145076   -0.00073327    0.00010090
     atom    9 type  4   force =    -0.00348851    0.00105786    0.00011420
     atom   10 type  1   force =    -0.00147335   -0.00153814    0.00022423
     atom   11 type  1   force =    -0.00157971   -0.00036796   -0.00096605
     atom   12 type  1   force =     0.00069463   -0.00103698    0.00055848
     atom   13 type  1   force =     0.00093464    0.00108033   -0.00029992
     atom   14 type  1   force =     0.00106110   -0.00104150   -0.00018209
     atom   15 type  1   force =    -0.00127457   -0.00207046   -0.00073259
     atom   16 type  1   force =    -0.00183670   -0.00052010    0.00130558
     atom   17 type  1   force =    -0.00132467    0.00186180    0.00046279
     atom   18 type  1   force =    -0.00177229    0.00050800   -0.00108251
     atom   19 type  1   force =     0.00528737   -0.00453624    0.00003625
     atom   20 type  1   force =    -0.00560575   -0.00004133   -0.00000833
     atom   21 type  1   force =     0.00496156    0.00367962   -0.00002938
     atom   22 type  1   force =     0.00135129   -0.00061299   -0.00092412
     atom   23 type  1   force =    -0.00373489    0.00001789    0.00381597
     atom   24 type  1   force =     0.00141270    0.00074795    0.00118222
     atom   25 type  1   force =     0.00162661    0.00105764   -0.00154123
     atom   26 type  1   force =    -0.00392834   -0.00007322   -0.00398707
     atom   27 type  1   force =     0.00162393   -0.00108654    0.00145594
     atom   28 type  1   force =     0.00072553    0.00021381   -0.00004331
     atom   29 type  1   force =     0.00122442   -0.00075883    0.00001227
     atom   30 type  1   force =    -0.00190655   -0.00300046    0.00005181
     atom   31 type  1   force =    -0.00222898    0.00375605   -0.00004696
     atom   32 type  1   force =     0.00164393    0.00073732    0.00000791
     atom   33 type  1   force =     0.00134093    0.00048362    0.00004334
     atom   34 type  1   force =     0.00098632    0.00102914    0.00027787
     atom   35 type  1   force =    -0.00148784    0.00148860   -0.00008243
     atom   36 type  1   force =    -0.00146456    0.00024242    0.00057881

     Total force =     0.018928     Total SCF correction =     0.001120


     Computing stress (Cartesian axis) and pressure

          total   stress  (Ry/bohr**3)                   (kbar)     P=   -1.41
  -0.00000557  -0.00000160  -0.00000047         -0.82     -0.24     -0.07
  -0.00000160  -0.00002107   0.00000194         -0.24     -3.10      0.29
  -0.00000047   0.00000194  -0.00000220         -0.07      0.29     -0.32


     number of scf cycles    =  10
     number of bfgs steps    =   9

     enthalpy old            =   -4360.7816591500 Ry
     enthalpy new            =   -4360.7823281027 Ry

     CASE: enthalpy_new < enthalpy_old

     new trust radius        =       0.0598018830 bohr
     new conv_thr            =       0.0000000587 Ry

     new unit-cell volume =   2812.00840 a.u.^3 (   416.69665 Ang^3 )
     density =      0.14346 g/cm^3

CELL_PARAMETERS (angstrom)
   4.554302459  -8.160261295   0.003340990
   4.559475726   8.163461068  -0.001333089
   0.001156160  -0.001506084   5.601862576

ATOMIC_POSITIONS (angstrom)
K        1.090820389   2.114688295   2.801204122
Mg       6.348224109   0.000530114   2.801487988
K        1.089304173  -2.116370268   2.800772004
K        2.694506729   4.927394095  -0.002331298
K        3.640810292   0.001738589   0.000891142
K        2.689378333  -4.924108111   0.002592867
Re       4.698147588  -2.537947327   2.802408136
Re       4.700422062   2.539286163   2.801463093
Re      -0.146223412   0.000178903   0.000304779
H        5.074278938  -3.660697634   4.026794830
H        5.499874573  -1.555930392   4.012667229
H        3.548037523  -2.384046131   4.061245334
H        3.549702119   2.385987739   1.542664793
H        3.547793782  -2.384268054   1.543249795
H        5.074340168  -3.661131118   1.578771844
H        5.499745901  -1.556409784   1.591173029
H        5.075761010   3.663264686   4.025310401
H        5.501805547   1.558020365   4.011972971
H        0.597615231  -1.518964939  -0.000006896
H        7.293966346   0.003467914   0.001771975
H        0.597501504   1.518703616   0.000229617
H        3.735798888  -7.184085306   1.240319673
H        1.113195166  -0.001680694   4.415773684
H        3.741318005   7.185596748   4.363623290
H        3.739935743   7.187428312   1.236762797
H        1.112292418  -0.000200440   1.186706426
H        3.736867052  -7.186396428   4.367950382
H        3.585962316   3.803824987   2.801439222
H        6.335655289   2.914816875   2.801595240
H        3.957199772   1.025958028   2.801411406
H        3.955567818  -1.024383742   2.802747092
H        6.333253354  -2.913094441   2.802614645
H        3.583988193  -3.802377424   2.802342495
H        3.549698316   2.386436570   4.060137445
H        5.075523230   3.663145702   1.577408523
H        5.501355429   1.557785970   1.591658269



     Writing output data file K5MgReH93.save
     NEW-OLD atomic charge density approx. for the potential
     extrapolated charge  129.06609, renormalised to  129.00000

     total cpu time spent up to now is    10711.5 secs

     Self-consistent Calculation

     iteration #  1     ecut=    50.00 Ry     beta=0.70
     Davidson diagonalization with overlap
     ethr =  1.00E-06,  avg # of iterations =  5.0

     total cpu time spent up to now is    10764.7 secs

     total energy              =   -4360.77549400 Ry
     Harris-Foulkes estimate   =   -4358.97087444 Ry
     estimated scf accuracy    <       0.00750440 Ry

     iteration #  2     ecut=    50.00 Ry     beta=0.70
     Davidson diagonalization with overlap
     ethr =  5.82E-06,  avg # of iterations =  5.0

     total cpu time spent up to now is    10812.8 secs

     total energy              =   -4360.77623491 Ry
     Harris-Foulkes estimate   =   -4360.79898604 Ry
     estimated scf accuracy    <       0.08035913 Ry

     iteration #  3     ecut=    50.00 Ry     beta=0.70
     Davidson diagonalization with overlap
     ethr =  5.82E-06,  avg # of iterations =  4.0

     total cpu time spent up to now is    10851.1 secs

     total energy              =   -4360.78367897 Ry
     Harris-Foulkes estimate   =   -4360.78425333 Ry
     estimated scf accuracy    <       0.00322295 Ry

     iteration #  4     ecut=    50.00 Ry     beta=0.70
     Davidson diagonalization with overlap
     ethr =  2.50E-06,  avg # of iterations =  1.8

     total cpu time spent up to now is    10880.6 secs

     total energy              =   -4360.78315944 Ry
     Harris-Foulkes estimate   =   -4360.78379327 Ry
     estimated scf accuracy    <       0.00178094 Ry

     iteration #  5     ecut=    50.00 Ry     beta=0.70
     Davidson diagonalization with overlap
     ethr =  1.38E-06,  avg # of iterations =  2.2

     total cpu time spent up to now is    10910.8 secs

     total energy              =   -4360.78314645 Ry
     Harris-Foulkes estimate   =   -4360.78329987 Ry
     estimated scf accuracy    <       0.00029490 Ry

     iteration #  6     ecut=    50.00 Ry     beta=0.70
     Davidson diagonalization with overlap
     ethr =  2.29E-07,  avg # of iterations =  3.1

     total cpu time spent up to now is    10944.5 secs

     total energy              =   -4360.78316238 Ry
     Harris-Foulkes estimate   =   -4360.78318899 Ry
     estimated scf accuracy    <       0.00001909 Ry

     iteration #  7     ecut=    50.00 Ry     beta=0.70
     Davidson diagonalization with overlap
     ethr =  1.48E-08,  avg # of iterations =  3.5

     total cpu time spent up to now is    10979.2 secs

     total energy              =   -4360.78316589 Ry
     Harris-Foulkes estimate   =   -4360.78316656 Ry
     estimated scf accuracy    <       0.00000112 Ry

     iteration #  8     ecut=    50.00 Ry     beta=0.70
     Davidson diagonalization with overlap
     ethr =  8.65E-10,  avg # of iterations =  3.4

     total cpu time spent up to now is    11014.9 secs

     total energy              =   -4360.78316606 Ry
     Harris-Foulkes estimate   =   -4360.78316612 Ry
     estimated scf accuracy    <       0.00000021 Ry

     iteration #  9     ecut=    50.00 Ry     beta=0.70
     Davidson diagonalization with overlap
     ethr =  1.61E-10,  avg # of iterations =  2.9

     total cpu time spent up to now is    11049.6 secs

     End of self-consistent calculation

          k = 0.0000 0.0000 0.0000 ( 16447 PWs)   bands (ev):

   -77.0224 -77.0194 -76.9028 -73.0159 -40.1235 -40.1091 -40.0847 -38.9253
   -38.9225 -38.9140 -38.9109 -38.8750 -38.8724 -38.8063 -38.7777 -38.7504
   -34.1734 -34.1703 -34.1653 -34.1638 -34.1622 -34.1607 -34.1580 -34.1575
   -34.1547 -34.1544 -34.1457 -34.1426 -34.1408 -34.1378 -34.0570 -34.0548
   -34.0491 -34.0459 -34.0315 -34.0313 -34.0241  -5.6628  -4.9425  -4.9257
    -2.3116  -2.0932  -2.0234  -1.9869  -1.6968  -1.6621  -1.5239  -1.4423
    -1.3161  -1.2882  -1.2752  -1.2691  -1.0445  -0.7800  -0.7780  -0.6360
    -0.5964  -0.5504  -0.5135  -0.4065  -0.3493  -0.3289  -0.2432  -0.2172
     4.8468   5.4364   5.9763   5.9900   6.0456   6.0522   6.1221   6.4403
     6.8845   7.0969   7.1026   7.2042   7.2659   7.3418

          k = 0.0002-0.0002-0.8224 ( 16526 PWs)   bands (ev):

   -77.0224 -77.0194 -76.9028 -73.0159 -40.1235 -40.1091 -40.0847 -38.9253
   -38.9225 -38.9142 -38.9111 -38.8752 -38.8726 -38.8066 -38.7777 -38.7506
   -34.1735 -34.1704 -34.1653 -34.1638 -34.1621 -34.1607 -34.1580 -34.1575
   -34.1548 -34.1545 -34.1458 -34.1426 -34.1411 -34.1381 -34.0570 -34.0549
   -34.0491 -34.0459 -34.0316 -34.0313 -34.0243  -5.3609  -4.8770  -4.8233
    -2.2640  -2.1771  -2.1314  -1.9338  -1.8597  -1.6821  -1.6613  -1.5675
    -1.5416  -1.4002  -1.3185  -1.1493  -1.1077  -1.0713  -0.9747  -0.8568
    -0.5576  -0.4872  -0.4133  -0.3675  -0.2783  -0.2203  -0.1266  -0.1121
     5.1653   5.2897   5.5268   5.9263   6.1411   6.3478   6.5459   6.7226
     6.7590   6.9122   7.2569   7.7765   7.8075   7.8878

          k =-0.5054-0.2821 0.0000 ( 16490 PWs)   bands (ev):

   -77.0224 -77.0194 -76.9028 -73.0159 -40.1235 -40.1091 -40.0847 -38.9253
   -38.9225 -38.9141 -38.9109 -38.8751 -38.8725 -38.8064 -38.7777 -38.7505
   -34.1734 -34.1704 -34.1653 -34.1638 -34.1622 -34.1607 -34.1580 -34.1575
   -34.1548 -34.1545 -34.1457 -34.1426 -34.1409 -34.1379 -34.0570 -34.0549
   -34.0491 -34.0459 -34.0316 -34.0313 -34.0241  -5.4801  -5.1385  -5.0053
    -2.2797  -1.9760  -1.9284  -1.7062  -1.6831  -1.6496  -1.4999  -1.4975
    -1.4741  -1.3699  -1.2862  -1.2811  -1.1546  -0.8100  -0.6918  -0.6735
    -0.6294  -0.5319  -0.4633  -0.4278  -0.3738  -0.3681  -0.3089  -0.2536
     5.1249   5.3824   5.4290   5.5334   6.1604   6.4464   6.5427   6.8297
     6.9402   6.9589   7.1275   7.4195   7.5220   7.6435

          k =-0.5052-0.2823-0.8223 ( 16554 PWs)   bands (ev):

   -77.0224 -77.0194 -76.9028 -73.0159 -40.1235 -40.1091 -40.0847 -38.9256
   -38.9226 -38.9141 -38.9110 -38.8753 -38.8727 -38.8064 -38.7779 -38.7507
   -34.1735 -34.1703 -34.1654 -34.1638 -34.1622 -34.1607 -34.1580 -34.1575
   -34.1548 -34.1545 -34.1458 -34.1426 -34.1411 -34.1381 -34.0570 -34.0549
   -34.0491 -34.0459 -34.0316 -34.0313 -34.0244  -5.2674  -4.9464  -4.8663
    -2.2704  -2.1833  -2.1122  -1.8677  -1.7473  -1.6733  -1.6687  -1.5859
    -1.5437  -1.4851  -1.4029  -1.3035  -1.1779  -1.0339  -0.9747  -0.7853
    -0.6018  -0.4214  -0.3365  -0.2894  -0.2519  -0.2035  -0.1392  -0.1342
     5.1211   5.3113   5.6762   5.7525   5.8539   5.8686   6.5151   6.6400
     6.8127   7.0797   7.4088   7.5303   7.7768   7.8302

          k =-0.5056 0.2824 0.0002 ( 16490 PWs)   bands (ev):

   -77.0224 -77.0194 -76.9028 -73.0159 -40.1235 -40.1091 -40.0847 -38.9254
   -38.9225 -38.9141 -38.9109 -38.8751 -38.8725 -38.8064 -38.7777 -38.7505
   -34.1734 -34.1703 -34.1653 -34.1638 -34.1622 -34.1607 -34.1580 -34.1575
   -34.1547 -34.1545 -34.1457 -34.1426 -34.1409 -34.1379 -34.0570 -34.0549
   -34.0491 -34.0459 -34.0315 -34.0313 -34.0241  -5.4794  -5.1391  -5.0056
    -2.2785  -1.9761  -1.9280  -1.7052  -1.6849  -1.6506  -1.4996  -1.4976
    -1.4739  -1.3694  -1.2863  -1.2814  -1.1550  -0.8113  -0.6915  -0.6725
    -0.6280  -0.5321  -0.4625  -0.4281  -0.3738  -0.3698  -0.3090  -0.2525
     5.1244   5.3830   5.4292   5.5333   6.1608   6.4438   6.5406   6.8290
     6.9405   6.9599   7.1260   7.4209   7.5242   7.6463

          k =-0.5054 0.2821-0.8222 ( 16536 PWs)   bands (ev):

   -77.0224 -77.0194 -76.9028 -73.0159 -40.1235 -40.1091 -40.0847 -38.9254
   -38.9226 -38.9141 -38.9109 -38.8753 -38.8727 -38.8064 -38.7778 -38.7507
   -34.1734 -34.1704 -34.1654 -34.1638 -34.1622 -34.1607 -34.1580 -34.1575
   -34.1548 -34.1545 -34.1457 -34.1426 -34.1411 -34.1381 -34.0570 -34.0549
   -34.0491 -34.0459 -34.0316 -34.0313 -34.0244  -5.2669  -4.9471  -4.8663
    -2.2703  -2.1831  -2.1109  -1.8678  -1.7475  -1.6747  -1.6684  -1.5861
    -1.5440  -1.4852  -1.4026  -1.3040  -1.1778  -1.0334  -0.9741  -0.7861
    -0.6029  -0.4184  -0.3367  -0.2922  -0.2517  -0.2018  -0.1392  -0.1344
     5.1215   5.3125   5.6770   5.7513   5.8542   5.8665   6.5158   6.6407
     6.8106   7.0840   7.4065   7.5258   7.7757   7.8305

          k =-1.0109 0.0003 0.0002 ( 16510 PWs)   bands (ev):

   -77.0224 -77.0194 -76.9028 -73.0159 -40.1235 -40.1091 -40.0847 -38.9254
   -38.9225 -38.9141 -38.9109 -38.8752 -38.8726 -38.8064 -38.7777 -38.7506
   -34.1735 -34.1704 -34.1654 -34.1638 -34.1622 -34.1607 -34.1580 -34.1575
   -34.1548 -34.1545 -34.1458 -34.1426 -34.1409 -34.1379 -34.0570 -34.0549
   -34.0491 -34.0459 -34.0315 -34.0313 -34.0241  -5.4323  -5.2428  -4.9618
    -2.0945  -2.0548  -1.9906  -1.8551  -1.7114  -1.6285  -1.5006  -1.4775
    -1.3794  -1.2916  -1.2599  -1.2363  -1.1097  -0.8981  -0.7637  -0.7299
    -0.5688  -0.5479  -0.5109  -0.4332  -0.3618  -0.3328  -0.3145  -0.2602
     5.0472   5.3841   5.5208   5.5648   6.1199   6.5058   6.5597   6.8098
     6.8848   6.9787   7.1862   7.2796   7.3913   7.5363

          k =-1.0108 0.0001-0.8222 ( 16498 PWs)   bands (ev):

   -77.0224 -77.0194 -76.9028 -73.0159 -40.1235 -40.1091 -40.0847 -38.9253
   -38.9224 -38.9139 -38.9108 -38.8753 -38.8727 -38.8062 -38.7776 -38.7507
   -34.1734 -34.1704 -34.1653 -34.1638 -34.1622 -34.1607 -34.1580 -34.1575
   -34.1547 -34.1545 -34.1458 -34.1426 -34.1411 -34.1381 -34.0570 -34.0549
   -34.0491 -34.0459 -34.0316 -34.0313 -34.0243  -5.1772  -5.0642  -4.8712
    -2.2918  -2.1596  -2.0087  -1.8859  -1.7505  -1.7429  -1.6131  -1.5331
    -1.5244  -1.4025  -1.3247  -1.2563  -1.1203  -1.0498  -1.0242  -1.0038
    -0.7567  -0.4385  -0.4179  -0.2538  -0.2229  -0.1471  -0.1403  -0.1312
     5.1933   5.3255   5.4869   5.7656   5.8379   6.1950   6.5687   6.7432
     6.7859   7.0391   7.1513   7.3798   7.7988   7.9617

     the Fermi energy is     5.1139 ev

!    total energy              =   -4360.78316607 Ry
     Harris-Foulkes estimate   =   -4360.78316609 Ry
     estimated scf accuracy    <       0.00000004 Ry

     The total energy is the sum of the following terms:

     one-electron contribution =   -3282.30718692 Ry
     hartree contribution      =    1641.16138214 Ry
     xc contribution           =    -317.54659190 Ry
     ewald contribution        =    -753.30556517 Ry
     one-center paw contrib.   =   -1648.78440637 Ry
     smearing contrib. (-TS)   =      -0.00079784 Ry

     convergence has been achieved in   9 iterations

     Forces acting on atoms (cartesian axes, Ry/au):

     atom    1 type  2   force =     0.00017078    0.00031759   -0.00000812
     atom    2 type  3   force =     0.00485451   -0.00015829    0.00003026
     atom    3 type  2   force =     0.00017773   -0.00027650    0.00002814
     atom    4 type  2   force =     0.00236211   -0.00148150    0.00003360
     atom    5 type  2   force =     0.00093112   -0.00002482   -0.00000663
     atom    6 type  2   force =     0.00249238    0.00144764   -0.00004047
     atom    7 type  4   force =    -0.00080772    0.00222969   -0.00006354
     atom    8 type  4   force =    -0.00132608   -0.00125609    0.00003420
     atom    9 type  4   force =    -0.00399382   -0.00079189   -0.00012788
     atom   10 type  1   force =    -0.00136303   -0.00152825   -0.00036257
     atom   11 type  1   force =    -0.00263044   -0.00128709   -0.00311940
     atom   12 type  1   force =     0.00070874   -0.00087405   -0.00026224
     atom   13 type  1   force =     0.00084607    0.00080883    0.00036469
     atom   14 type  1   force =     0.00080071   -0.00084691    0.00034806
     atom   15 type  1   force =    -0.00131307   -0.00164346    0.00025561
     atom   16 type  1   force =    -0.00271633   -0.00129583    0.00322596
     atom   17 type  1   force =    -0.00129527    0.00140693   -0.00043275
     atom   18 type  1   force =    -0.00260754    0.00117550   -0.00301359
     atom   19 type  1   force =     0.00333055   -0.00178475    0.00004951
     atom   20 type  1   force =    -0.00416933    0.00001502    0.00001162
     atom   21 type  1   force =     0.00348696    0.00207191   -0.00001752
     atom   22 type  1   force =     0.00191049   -0.00099786   -0.00197639
     atom   23 type  1   force =    -0.00406225    0.00007138    0.00495144
     atom   24 type  1   force =     0.00200787    0.00134563    0.00227358
     atom   25 type  1   force =     0.00202594    0.00133241   -0.00227084
     atom   26 type  1   force =    -0.00409545    0.00004213   -0.00494617
     atom   27 type  1   force =     0.00195351   -0.00106248    0.00210926
     atom   28 type  1   force =     0.00359975   -0.00283218   -0.00003669
     atom   29 type  1   force =     0.00020678   -0.00056794    0.00000395
     atom   30 type  1   force =    -0.00110266   -0.00136509    0.00004534
     atom   31 type  1   force =    -0.00116294    0.00138341   -0.00004858
     atom   32 type  1   force =     0.00026396    0.00052713    0.00000554
     atom   33 type  1   force =     0.00350212    0.00267478    0.00003650
     atom   34 type  1   force =     0.00082985    0.00075376   -0.00032010
     atom   35 type  1   force =    -0.00132751    0.00137921    0.00045752
     atom   36 type  1   force =    -0.00248848    0.00109202    0.00278867

     Total force =     0.019406     Total SCF correction =     0.000827


     Computing stress (Cartesian axis) and pressure

          total   stress  (Ry/bohr**3)                   (kbar)     P=   -4.20
  -0.00002772  -0.00000015  -0.00000008         -4.08     -0.02     -0.01
  -0.00000015  -0.00003670   0.00000033         -0.02     -5.40      0.05
  -0.00000008   0.00000033  -0.00002123         -0.01      0.05     -3.12


     number of scf cycles    =  11
     number of bfgs steps    =  10

     enthalpy old            =   -4360.7823281027 Ry
     enthalpy new            =   -4360.7831660658 Ry

     CASE: enthalpy_new < enthalpy_old

     new trust radius        =       0.0913601777 bohr
     new conv_thr            =       0.0000000495 Ry

     new unit-cell volume =   2806.58889 a.u.^3 (   415.89356 Ang^3 )
     density =      0.14374 g/cm^3

CELL_PARAMETERS (angstrom)
   4.557061852  -8.123898561   0.001877941
   4.561462364   8.126563549  -0.000108664
   0.000993605  -0.000439065   5.613348079

ATOMIC_POSITIONS (angstrom)
K        1.089940505   2.104782413   2.807332262
Mg       6.399819242   0.000794910   2.807077963
K        1.088721291  -2.105412162   2.806065244
K        2.702901078   4.881042549  -0.001597254
K        3.643145910   0.001552176   0.000753265
K        2.698745702  -4.878455570   0.001535884
Re       4.695936628  -2.526536246   2.807570000
Re       4.697550719   2.529104068   2.807491143
Re      -0.146649571  -0.000310446   0.000276978
H        5.073619104  -3.649384719   4.033499201
H        5.496524800  -1.547867854   4.021590809
H        3.552732863  -2.378468274   4.074086917
H        3.554896319   2.380755352   1.541674005
H        3.553185291  -2.379025126   1.541358550
H        5.074162713  -3.651160667   1.581183752
H        5.495994740  -1.548784232   1.593257105
H        5.075254391   3.652836625   4.033227669
H        5.498107370   1.550496505   4.021616464
H        0.614240798  -1.518917205   0.000022791
H        7.293301461   0.002966766   0.001565637
H        0.614252503   1.518329942   0.000267365
H        3.739298261  -7.147477042   1.242257483
H        1.103822709  -0.000463480   4.423090741
H        3.744261075   7.150624442   4.374033628
H        3.743357603   7.152246629   1.239533486
H        1.102742745  -0.000029539   1.190656269
H        3.740820996  -7.150080330   4.376046192
H        3.578538895   3.797283624   2.807539778
H        6.334840139   2.895518682   2.807722184
H        3.950694894   1.016360976   2.807564881
H        3.949034800  -1.013581778   2.807875397
H        6.333157375  -2.893196854   2.807701636
H        3.577276926  -3.794780501   2.807508372
H        3.555117564   2.381423801   4.073166753
H        5.074687341   3.651810129   1.582526349
H        5.498222120   1.549613838   1.593009889



     Writing output data file K5MgReH93.save
     NEW-OLD atomic charge density approx. for the potential
     extrapolated charge  128.75109, renormalised to  129.00000

     total cpu time spent up to now is    11661.5 secs

     Self-consistent Calculation

     iteration #  1     ecut=    50.00 Ry     beta=0.70
     Davidson diagonalization with overlap
     ethr =  1.00E-06,  avg # of iterations =  9.2

     total cpu time spent up to now is    11720.7 secs

     total energy              =   -4360.70739213 Ry
     Harris-Foulkes estimate   =   -4366.23261590 Ry
     estimated scf accuracy    <       0.06701157 Ry

     iteration #  2     ecut=    50.00 Ry     beta=0.70
     Davidson diagonalization with overlap
     ethr =  5.19E-05,  avg # of iterations =  5.8

     total cpu time spent up to now is    11769.9 secs

     total energy              =   -4360.72554498 Ry
     Harris-Foulkes estimate   =   -4360.94075827 Ry
     estimated scf accuracy    <       0.79137292 Ry

     iteration #  3     ecut=    50.00 Ry     beta=0.70
     Davidson diagonalization with overlap
     ethr =  5.19E-05,  avg # of iterations =  4.4

     total cpu time spent up to now is    11809.7 secs

     total energy              =   -4360.78966391 Ry
     Harris-Foulkes estimate   =   -4360.79506316 Ry
     estimated scf accuracy    <       0.04879109 Ry

     iteration #  4     ecut=    50.00 Ry     beta=0.70
     Davidson diagonalization with overlap
     ethr =  3.78E-05,  avg # of iterations =  1.0

     total cpu time spent up to now is    11838.6 secs

     total energy              =   -4360.78554484 Ry
     Harris-Foulkes estimate   =   -4360.79058478 Ry
     estimated scf accuracy    <       0.03027227 Ry

     iteration #  5     ecut=    50.00 Ry     beta=0.70
     Davidson diagonalization with overlap
     ethr =  2.35E-05,  avg # of iterations =  1.2

     total cpu time spent up to now is    11867.3 secs

     total energy              =   -4360.78449862 Ry
     Harris-Foulkes estimate   =   -4360.78644448 Ry
     estimated scf accuracy    <       0.01156323 Ry

     iteration #  6     ecut=    50.00 Ry     beta=0.70
     Davidson diagonalization with overlap
     ethr =  8.96E-06,  avg # of iterations =  4.2

     total cpu time spent up to now is    11900.4 secs

     total energy              =   -4360.78384516 Ry
     Harris-Foulkes estimate   =   -4360.78504947 Ry
     estimated scf accuracy    <       0.00370792 Ry

     iteration #  7     ecut=    50.00 Ry     beta=0.70
     Davidson diagonalization with overlap
     ethr =  2.87E-06,  avg # of iterations =  4.4

     total cpu time spent up to now is    11937.2 secs

     total energy              =   -4360.78430795 Ry
     Harris-Foulkes estimate   =   -4360.78434013 Ry
     estimated scf accuracy    <       0.00008759 Ry

     iteration #  8     ecut=    50.00 Ry     beta=0.70
     Davidson diagonalization with overlap
     ethr =  6.79E-08,  avg # of iterations =  2.5

     total cpu time spent up to now is    11969.4 secs

     total energy              =   -4360.78430131 Ry
     Harris-Foulkes estimate   =   -4360.78431721 Ry
     estimated scf accuracy    <       0.00002371 Ry

     iteration #  9     ecut=    50.00 Ry     beta=0.70
     Davidson diagonalization with overlap
     ethr =  1.84E-08,  avg # of iterations =  3.0

     total cpu time spent up to now is    12004.5 secs

     total energy              =   -4360.78430418 Ry
     Harris-Foulkes estimate   =   -4360.78430650 Ry
     estimated scf accuracy    <       0.00000533 Ry

     iteration # 10     ecut=    50.00 Ry     beta=0.70
     Davidson diagonalization with overlap
     ethr =  4.13E-09,  avg # of iterations =  2.9

     total cpu time spent up to now is    12037.8 secs

     total energy              =   -4360.78430509 Ry
     Harris-Foulkes estimate   =   -4360.78430527 Ry
     estimated scf accuracy    <       0.00000064 Ry

     iteration # 11     ecut=    50.00 Ry     beta=0.70
     Davidson diagonalization with overlap
     ethr =  4.94E-10,  avg # of iterations =  3.0

     total cpu time spent up to now is    12073.3 secs

     total energy              =   -4360.78430515 Ry
     Harris-Foulkes estimate   =   -4360.78430523 Ry
     estimated scf accuracy    <       0.00000031 Ry

     iteration # 12     ecut=    50.00 Ry     beta=0.70
     Davidson diagonalization with overlap
     ethr =  2.39E-10,  avg # of iterations =  2.0

     total cpu time spent up to now is    12103.9 secs

     End of self-consistent calculation

          k = 0.0000 0.0000 0.0000 ( 16447 PWs)   bands (ev):

   -77.0208 -77.0207 -76.9004 -72.9915 -40.1023 -40.0803 -40.0618 -38.9204
   -38.9199 -38.9045 -38.9038 -38.8771 -38.8768 -38.8009 -38.7744 -38.7463
   -34.1737 -34.1732 -34.1651 -34.1647 -34.1633 -34.1629 -34.1585 -34.1580
   -34.1562 -34.1559 -34.1451 -34.1447 -34.1419 -34.1414 -34.0557 -34.0536
   -34.0484 -34.0448 -34.0291 -34.0272 -34.0210  -5.6413  -4.9142  -4.9124
    -2.2677  -2.0748  -2.0125  -1.9743  -1.6775  -1.6596  -1.5100  -1.4319
    -1.3028  -1.2669  -1.2660  -1.2177  -1.0302  -0.7915  -0.7701  -0.5882
    -0.5866  -0.5183  -0.5175  -0.4069  -0.3525  -0.3399  -0.2227  -0.1784
     4.8487   5.4180   5.9873   5.9995   6.0537   6.0745   6.1031   6.4504
     6.8830   7.1087   7.1126   7.2300   7.2769   7.3426

          k = 0.0002-0.0001-0.8207 ( 16526 PWs)   bands (ev):

   -77.0208 -77.0207 -76.9004 -72.9915 -40.1023 -40.0803 -40.0618 -38.9203
   -38.9199 -38.9047 -38.9040 -38.8773 -38.8771 -38.8011 -38.7744 -38.7466
   -34.1738 -34.1733 -34.1651 -34.1646 -34.1634 -34.1629 -34.1585 -34.1580
   -34.1563 -34.1560 -34.1451 -34.1448 -34.1421 -34.1417 -34.0557 -34.0537
   -34.0485 -34.0448 -34.0291 -34.0273 -34.0212  -5.3341  -4.8664  -4.7952
    -2.2664  -2.1508  -2.0932  -1.9212  -1.8428  -1.6666  -1.6468  -1.5737
    -1.5258  -1.3619  -1.2773  -1.1699  -1.1075  -1.0658  -0.9535  -0.8545
    -0.5084  -0.4967  -0.4039  -0.3094  -0.2549  -0.1905  -0.1348  -0.1165
     5.1950   5.3041   5.5291   5.9097   6.1385   6.3530   6.5670   6.7153
     6.7880   6.9181   7.2619   7.7783   7.8125   7.9040

          k =-0.5051-0.2833 0.0001 ( 16490 PWs)   bands (ev):

   -77.0208 -77.0207 -76.9004 -72.9915 -40.1023 -40.0803 -40.0618 -38.9203
   -38.9199 -38.9046 -38.9038 -38.8772 -38.8770 -38.8009 -38.7744 -38.7465
   -34.1737 -34.1733 -34.1651 -34.1647 -34.1634 -34.1629 -34.1585 -34.1581
   -34.1562 -34.1559 -34.1451 -34.1448 -34.1419 -34.1415 -34.0558 -34.0537
   -34.0484 -34.0448 -34.0291 -34.0273 -34.0211  -5.4530  -5.1209  -4.9885
    -2.2466  -1.9625  -1.8981  -1.6878  -1.6668  -1.6509  -1.4868  -1.4821
    -1.4531  -1.3391  -1.2785  -1.2455  -1.1439  -0.7816  -0.7043  -0.6480
    -0.6225  -0.5355  -0.4588  -0.3987  -0.3815  -0.3591  -0.2912  -0.2261
     5.1162   5.3861   5.4167   5.5372   6.1849   6.4586   6.5712   6.8193
     6.9378   6.9607   7.1335   7.4367   7.5298   7.6400

          k =-0.5050-0.2835-0.8206 ( 16554 PWs)   bands (ev):

   -77.0208 -77.0207 -76.9004 -72.9915 -40.1023 -40.0803 -40.0618 -38.9205
   -38.9201 -38.9045 -38.9039 -38.8774 -38.8772 -38.8010 -38.7746 -38.7467
   -34.1737 -34.1733 -34.1652 -34.1647 -34.1634 -34.1629 -34.1585 -34.1580
   -34.1563 -34.1560 -34.1451 -34.1448 -34.1421 -34.1417 -34.0558 -34.0537
   -34.0485 -34.0448 -34.0292 -34.0273 -34.0213  -5.2382  -4.9211  -4.8556
    -2.2722  -2.1551  -2.0869  -1.8534  -1.7460  -1.6510  -1.6412  -1.5799
    -1.5339  -1.4837  -1.3634  -1.2903  -1.1486  -1.0286  -0.9652  -0.7903
    -0.5489  -0.4086  -0.3319  -0.2479  -0.2293  -0.1992  -0.1470  -0.1238
     5.1426   5.3234   5.6862   5.7547   5.8465   5.8739   6.5332   6.6338
     6.8231   7.0818   7.4522   7.5268   7.7645   7.8604

          k =-0.5053 0.2836 0.0001 ( 16490 PWs)   bands (ev):

   -77.0208 -77.0207 -76.9004 -72.9915 -40.1023 -40.0803 -40.0618 -38.9204
   -38.9199 -38.9045 -38.9038 -38.8772 -38.8770 -38.8009 -38.7744 -38.7465
   -34.1737 -34.1733 -34.1651 -34.1647 -34.1634 -34.1629 -34.1585 -34.1581
   -34.1562 -34.1559 -34.1451 -34.1448 -34.1419 -34.1415 -34.0558 -34.0537
   -34.0484 -34.0448 -34.0291 -34.0273 -34.0211  -5.4524  -5.1214  -4.9887
    -2.2461  -1.9627  -1.8981  -1.6872  -1.6676  -1.6511  -1.4872  -1.4819
    -1.4523  -1.3389  -1.2787  -1.2460  -1.1437  -0.7827  -0.7040  -0.6479
    -0.6213  -0.5356  -0.4579  -0.3987  -0.3829  -0.3601  -0.2906  -0.2256
     5.1164   5.3853   5.4176   5.5360   6.1852   6.4588   6.5706   6.8203
     6.9351   6.9600   7.1341   7.4379   7.5326   7.6413

          k =-0.5051 0.2835-0.8206 ( 16536 PWs)   bands (ev):

   -77.0208 -77.0207 -76.9004 -72.9915 -40.1023 -40.0803 -40.0618 -38.9204
   -38.9201 -38.9046 -38.9038 -38.8774 -38.8771 -38.8009 -38.7745 -38.7466
   -34.1737 -34.1733 -34.1651 -34.1647 -34.1634 -34.1629 -34.1585 -34.1580
   -34.1562 -34.1560 -34.1451 -34.1448 -34.1421 -34.1417 -34.0558 -34.0537
   -34.0485 -34.0448 -34.0291 -34.0273 -34.0213  -5.2377  -4.9216  -4.8556
    -2.2723  -2.1552  -2.0863  -1.8527  -1.7453  -1.6545  -1.6415  -1.5782
    -1.5315  -1.4859  -1.3626  -1.2909  -1.1483  -1.0287  -0.9648  -0.7910
    -0.5504  -0.4065  -0.3321  -0.2499  -0.2289  -0.1979  -0.1471  -0.1235
     5.1428   5.3244   5.6851   5.7559   5.8440   5.8751   6.5332   6.6342
     6.8226   7.0815   7.4519   7.5276   7.7650   7.8584

          k =-1.0104 0.0003 0.0002 ( 16510 PWs)   bands (ev):

   -77.0208 -77.0207 -76.9004 -72.9915 -40.1023 -40.0803 -40.0618 -38.9203
   -38.9200 -38.9045 -38.9038 -38.8773 -38.8771 -38.8009 -38.7744 -38.7466
   -34.1738 -34.1733 -34.1651 -34.1647 -34.1634 -34.1629 -34.1585 -34.1580
   -34.1562 -34.1559 -34.1451 -34.1448 -34.1419 -34.1415 -34.0558 -34.0538
   -34.0485 -34.0448 -34.0291 -34.0273 -34.0211  -5.4052  -5.2206  -4.9493
    -2.0862  -2.0306  -1.9793  -1.8092  -1.6919  -1.6229  -1.4923  -1.4630
    -1.3582  -1.2845  -1.2174  -1.2129  -1.0852  -0.8619  -0.7443  -0.7377
    -0.5738  -0.5501  -0.4923  -0.4050  -0.3586  -0.3571  -0.3046  -0.2250
     5.0280   5.3896   5.5052   5.5835   6.1425   6.5252   6.5536   6.8201
     6.8867   6.9867   7.1788   7.3026   7.3873   7.5573

          k =-1.0103 0.0002-0.8205 ( 16498 PWs)   bands (ev):

   -77.0208 -77.0207 -76.9004 -72.9915 -40.1023 -40.0803 -40.0618 -38.9202
   -38.9200 -38.9044 -38.9037 -38.8774 -38.8771 -38.8008 -38.7744 -38.7466
   -34.1737 -34.1733 -34.1651 -34.1647 -34.1634 -34.1629 -34.1585 -34.1581
   -34.1562 -34.1559 -34.1451 -34.1448 -34.1421 -34.1417 -34.0557 -34.0537
   -34.0485 -34.0448 -34.0291 -34.0273 -34.0213  -5.1455  -5.0408  -4.8603
    -2.2994  -2.1338  -1.9873  -1.8753  -1.7282  -1.7137  -1.5981  -1.5189
    -1.5136  -1.3899  -1.3330  -1.2182  -1.0981  -1.0375  -1.0256  -0.9744
    -0.7252  -0.4249  -0.4084  -0.2375  -0.1984  -0.1502  -0.1496  -0.0938
     5.2113   5.3378   5.5068   5.7477   5.8472   6.2074   6.5752   6.7439
     6.7907   7.0534   7.1682   7.3802   7.7935   7.9988

     the Fermi energy is     5.1222 ev

!    total energy              =   -4360.78430515 Ry
     Harris-Foulkes estimate   =   -4360.78430518 Ry
     estimated scf accuracy    <       0.00000003 Ry

     The total energy is the sum of the following terms:

     one-electron contribution =   -3278.42282294 Ry
     hartree contribution      =    1639.24486016 Ry
     xc contribution           =    -317.52741581 Ry
     ewald contribution        =    -755.28979373 Ry
     one-center paw contrib.   =   -1648.78861996 Ry
     smearing contrib. (-TS)   =      -0.00051287 Ry

     convergence has been achieved in  12 iterations

     Forces acting on atoms (cartesian axes, Ry/au):

     atom    1 type  2   force =     0.00038284    0.00014123   -0.00003378
     atom    2 type  3   force =     0.00427879   -0.00002843   -0.00000935
     atom    3 type  2   force =     0.00035832   -0.00009331    0.00005364
     atom    4 type  2   force =     0.00220578   -0.00071411    0.00003549
     atom    5 type  2   force =     0.00111665   -0.00002628   -0.00000695
     atom    6 type  2   force =     0.00227556    0.00069082   -0.00003261
     atom    7 type  4   force =    -0.00078171    0.00028393   -0.00020157
     atom    8 type  4   force =    -0.00041548   -0.00116557    0.00025731
     atom    9 type  4   force =    -0.00251261    0.00067137    0.00023456
     atom   10 type  1   force =    -0.00101800   -0.00111121   -0.00120204
     atom   11 type  1   force =    -0.00297975   -0.00124272   -0.00419452
     atom   12 type  1   force =     0.00038158   -0.00028429   -0.00091925
     atom   13 type  1   force =     0.00007702    0.00029063    0.00058752
     atom   14 type  1   force =     0.00015113   -0.00022449    0.00068050
     atom   15 type  1   force =    -0.00120199   -0.00056485    0.00175473
     atom   16 type  1   force =    -0.00285561   -0.00108345    0.00403539
     atom   17 type  1   force =    -0.00107998    0.00096926   -0.00133208
     atom   18 type  1   force =    -0.00295628    0.00123237   -0.00418160
     atom   19 type  1   force =     0.00070662    0.00121227    0.00003263
     atom   20 type  1   force =    -0.00302543   -0.00001364    0.00000930
     atom   21 type  1   force =     0.00072853   -0.00127267   -0.00003265
     atom   22 type  1   force =     0.00191387   -0.00078223   -0.00229438
     atom   23 type  1   force =    -0.00318549   -0.00008034    0.00500681
     atom   24 type  1   force =     0.00173037    0.00040244    0.00187168
     atom   25 type  1   force =     0.00154369    0.00004213   -0.00156039
     atom   26 type  1   force =    -0.00307795   -0.00001874   -0.00490738
     atom   27 type  1   force =     0.00160508   -0.00020564    0.00172474
     atom   28 type  1   force =     0.00561620   -0.00504174   -0.00003850
     atom   29 type  1   force =    -0.00044004   -0.00023990   -0.00001843
     atom   30 type  1   force =    -0.00031455    0.00034948    0.00002258
     atom   31 type  1   force =    -0.00023653   -0.00043082   -0.00004411
     atom   32 type  1   force =    -0.00048284    0.00030477    0.00000987
     atom   33 type  1   force =     0.00552886    0.00495640    0.00002978
     atom   34 type  1   force =    -0.00000141    0.00023906   -0.00050906
     atom   35 type  1   force =    -0.00092665    0.00142529    0.00083518
     atom   36 type  1   force =    -0.00310858    0.00141298    0.00433694

     Total force =     0.019801     Total SCF correction =     0.001545


     Computing stress (Cartesian axis) and pressure

          total   stress  (Ry/bohr**3)                   (kbar)     P=   -5.62
  -0.00004306   0.00000057   0.00000051         -6.33      0.08      0.07
   0.00000057  -0.00004278  -0.00000193          0.08     -6.29     -0.28
   0.00000051  -0.00000193  -0.00002869          0.07     -0.28     -4.22


     number of scf cycles    =  12
     number of bfgs steps    =  11

     enthalpy old            =   -4360.7831660658 Ry
     enthalpy new            =   -4360.7843051508 Ry

     CASE: enthalpy_new < enthalpy_old

     new trust radius        =       0.1005485052 bohr
     new conv_thr            =       0.0000000562 Ry

     new unit-cell volume =   2794.53839 a.u.^3 (   414.10786 Ang^3 )
     density =      0.14436 g/cm^3

CELL_PARAMETERS (angstrom)
   4.555782660  -8.079695801   0.000855737
   4.559485092   8.081863582   0.000794084
   0.000907313   0.000363795   5.621999632

ATOMIC_POSITIONS (angstrom)
K        1.088293560   2.092659570   2.811939173
Mg       6.450679662   0.000946490   2.811313198
K        1.087336582  -2.092465412   2.810080144
K        2.710220564   4.828684142  -0.001052957
K        3.642870840   0.001368445   0.000656428
K        2.707024841  -4.826798189   0.000728836
Re       4.689250077  -2.513631768   2.811342242
Re       4.690728761   2.516156977   2.812271439
Re      -0.147497922   0.000019590   0.000502553
H        5.068099961  -3.635506549   4.037758456
H        5.486621284  -1.538867880   4.026627509
H        3.554310489  -2.370906420   4.084966252
H        3.556736072   2.373332763   1.539681692
H        3.555291585  -2.371646658   1.538771309
H        5.068977533  -3.638169841   1.583993065
H        5.485726159  -1.540003681   1.596586926
H        5.069880354   3.639488554   4.038328566
H        5.487843335   1.541749247   4.027193433
H        0.630980950  -1.516916316   0.000148258
H        7.284504243   0.002484751   0.001456182
H        0.631060411   1.515754186   0.000213744
H        3.740393403  -7.104045063   1.242969811
H        1.091865525   0.000486041   4.430160001
H        3.744758662   7.108242039   4.382607681
H        3.744196111   7.109607106   1.240869259
H        1.090615242   0.000051591   1.192082361
H        3.742228485  -7.106734578   4.382971485
H        3.570473384   3.784755282   2.812060070
H        6.328220373   2.873127794   2.812364760
H        3.940155924   1.005702271   2.812320030
H        3.938488902  -1.001907240   2.811656510
H        6.327253312  -2.870362341   2.811595487
H        3.569948823  -3.781343744   2.811501994
H        3.557183258   2.374077169   4.084265460
H        5.069041556   3.637951589   1.587133107
H        5.488396812   1.540454848   1.595680007



     Writing output data file K5MgReH93.save
     NEW-OLD atomic charge density approx. for the potential
     extrapolated charge  128.44415, renormalised to  129.00000

     total cpu time spent up to now is    12715.8 secs

     Self-consistent Calculation

     iteration #  1     ecut=    50.00 Ry     beta=0.70
     Davidson diagonalization with overlap
     c_bands:  2 eigenvalues not converged
     c_bands:  2 eigenvalues not converged
     ethr =  1.00E-06,  avg # of iterations = 14.8

     total cpu time spent up to now is    12783.0 secs

     total energy              =   -4360.36928820 Ry
     Harris-Foulkes estimate   =   -4373.50850731 Ry
     estimated scf accuracy    <       0.37005390 Ry

     iteration #  2     ecut=    50.00 Ry     beta=0.70
     Davidson diagonalization with overlap
     ethr =  2.87E-04,  avg # of iterations =  5.5

     total cpu time spent up to now is    12830.5 secs

     total energy              =   -4360.49940067 Ry
     Harris-Foulkes estimate   =   -4361.60187586 Ry
     estimated scf accuracy    <       3.89235764 Ry

     iteration #  3     ecut=    50.00 Ry     beta=0.70
     Davidson diagonalization with overlap
     ethr =  2.87E-04,  avg # of iterations =  4.1

     total cpu time spent up to now is    12871.5 secs

     total energy              =   -4360.80598948 Ry
     Harris-Foulkes estimate   =   -4360.83762638 Ry
     estimated scf accuracy    <       0.25589133 Ry

     iteration #  4     ecut=    50.00 Ry     beta=0.70
     Davidson diagonalization with overlap
     ethr =  1.98E-04,  avg # of iterations =  1.0

     total cpu time spent up to now is    12900.0 secs

     total energy              =   -4360.79774499 Ry
     Harris-Foulkes estimate   =   -4360.81065200 Ry
     estimated scf accuracy    <       0.13571613 Ry

     iteration #  5     ecut=    50.00 Ry     beta=0.70
     Davidson diagonalization with overlap
     ethr =  1.05E-04,  avg # of iterations =  1.0

     total cpu time spent up to now is    12928.6 secs

     total energy              =   -4360.79168070 Ry
     Harris-Foulkes estimate   =   -4360.79970786 Ry
     estimated scf accuracy    <       0.08224710 Ry

     iteration #  6     ecut=    50.00 Ry     beta=0.70
     Davidson diagonalization with overlap
     ethr =  6.38E-05,  avg # of iterations =  1.0

     total cpu time spent up to now is    12957.2 secs

     total energy              =   -4360.78410750 Ry
     Harris-Foulkes estimate   =   -4360.79323999 Ry
     estimated scf accuracy    <       0.04467661 Ry

     iteration #  7     ecut=    50.00 Ry     beta=0.70
     Davidson diagonalization with overlap
     ethr =  3.46E-05,  avg # of iterations =  4.2

     total cpu time spent up to now is    12990.5 secs

     total energy              =   -4360.78563456 Ry
     Harris-Foulkes estimate   =   -4360.78686001 Ry
     estimated scf accuracy    <       0.00782417 Ry

     iteration #  8     ecut=    50.00 Ry     beta=0.70
     Davidson diagonalization with overlap
     ethr =  6.07E-06,  avg # of iterations =  5.9

     total cpu time spent up to now is    13025.8 secs

     total energy              =   -4360.78534768 Ry
     Harris-Foulkes estimate   =   -4360.78593339 Ry
     estimated scf accuracy    <       0.00300087 Ry

     iteration #  9     ecut=    50.00 Ry     beta=0.70
     Davidson diagonalization with overlap
     ethr =  2.33E-06,  avg # of iterations =  4.2

     total cpu time spent up to now is    13058.5 secs

     total energy              =   -4360.78536744 Ry
     Harris-Foulkes estimate   =   -4360.78551784 Ry
     estimated scf accuracy    <       0.00068157 Ry

     iteration # 10     ecut=    50.00 Ry     beta=0.70
     Davidson diagonalization with overlap
     ethr =  5.28E-07,  avg # of iterations =  2.4

     total cpu time spent up to now is    13089.8 secs

     total energy              =   -4360.78537033 Ry
     Harris-Foulkes estimate   =   -4360.78541487 Ry
     estimated scf accuracy    <       0.00014929 Ry

     iteration # 11     ecut=    50.00 Ry     beta=0.70
     Davidson diagonalization with overlap
     ethr =  1.16E-07,  avg # of iterations =  3.1

     total cpu time spent up to now is    13123.1 secs

     total energy              =   -4360.78539092 Ry
     Harris-Foulkes estimate   =   -4360.78539158 Ry
     estimated scf accuracy    <       0.00000366 Ry

     iteration # 12     ecut=    50.00 Ry     beta=0.70
     Davidson diagonalization with overlap
     ethr =  2.83E-09,  avg # of iterations =  3.4

     total cpu time spent up to now is    13160.9 secs

     total energy              =   -4360.78539132 Ry
     Harris-Foulkes estimate   =   -4360.78539163 Ry
     estimated scf accuracy    <       0.00000139 Ry

     iteration # 13     ecut=    50.00 Ry     beta=0.70
     Davidson diagonalization with overlap
     ethr =  1.08E-09,  avg # of iterations =  1.9

     total cpu time spent up to now is    13190.3 secs

     total energy              =   -4360.78539131 Ry
     Harris-Foulkes estimate   =   -4360.78539139 Ry
     estimated scf accuracy    <       0.00000040 Ry

     iteration # 14     ecut=    50.00 Ry     beta=0.70
     Davidson diagonalization with overlap
     ethr =  3.07E-10,  avg # of iterations =  2.0

     total cpu time spent up to now is    13220.9 secs

     total energy              =   -4360.78539129 Ry
     Harris-Foulkes estimate   =   -4360.78539133 Ry
     estimated scf accuracy    <       0.00000013 Ry

     iteration # 15     ecut=    50.00 Ry     beta=0.70
     Davidson diagonalization with overlap
     ethr =  1.03E-10,  avg # of iterations =  3.4

     total cpu time spent up to now is    13256.8 secs

     End of self-consistent calculation

          k = 0.0000 0.0000 0.0000 ( 16447 PWs)   bands (ev):

   -76.9969 -76.9965 -76.8771 -72.9468 -40.0609 -40.0309 -40.0187 -38.8960
   -38.8952 -38.8753 -38.8745 -38.8595 -38.8594 -38.7774 -38.7527 -38.7248
   -34.1478 -34.1470 -34.1387 -34.1378 -34.1374 -34.1365 -34.1324 -34.1315
   -34.1281 -34.1274 -34.1182 -34.1174 -34.1166 -34.1158 -34.0299 -34.0278
   -34.0232 -34.0189 -34.0018 -33.9980 -33.9930  -5.6171  -4.8974  -4.8811
    -2.2133  -2.0474  -1.9928  -1.9588  -1.6558  -1.6541  -1.4850  -1.4101
    -1.2889  -1.2578  -1.2285  -1.1630  -1.0040  -0.7922  -0.7502  -0.5713
    -0.5325  -0.5080  -0.4758  -0.3972  -0.3666  -0.3179  -0.1877  -0.1206
     4.8674   5.4218   6.0099   6.0430   6.0915   6.1073   6.1263   6.4876
     6.9092   7.1431   7.1543   7.2898   7.3134   7.3677

          k = 0.0001-0.0000-0.8194 ( 16526 PWs)   bands (ev):

   -76.9969 -76.9965 -76.8771 -72.9468 -40.0609 -40.0309 -40.0187 -38.8959
   -38.8953 -38.8755 -38.8747 -38.8598 -38.8596 -38.7776 -38.7526 -38.7251
   -34.1479 -34.1471 -34.1387 -34.1378 -34.1374 -34.1365 -34.1324 -34.1316
   -34.1282 -34.1275 -34.1182 -34.1175 -34.1168 -34.1160 -34.0299 -34.0279
   -34.0233 -34.0189 -34.0018 -33.9981 -33.9932  -5.3035  -4.8546  -4.7628
    -2.2639  -2.1191  -2.0455  -1.9017  -1.8221  -1.6413  -1.6229  -1.5672
    -1.5077  -1.3166  -1.2256  -1.1852  -1.0940  -1.0507  -0.9224  -0.8410
    -0.4972  -0.4509  -0.3875  -0.2330  -0.2211  -0.1467  -0.1350  -0.1102
     5.2519   5.3423   5.5512   5.9134   6.1646   6.3803   6.6214   6.7277
     6.8368   6.9607   7.2997   7.8035   7.8434   7.9497

          k =-0.5053-0.2849 0.0001 ( 16490 PWs)   bands (ev):

   -76.9969 -76.9965 -76.8771 -72.9468 -40.0609 -40.0309 -40.0187 -38.8960
   -38.8953 -38.8754 -38.8745 -38.8596 -38.8595 -38.7775 -38.7527 -38.7250
   -34.1479 -34.1470 -34.1387 -34.1378 -34.1375 -34.1365 -34.1324 -34.1316
   -34.1282 -34.1274 -34.1182 -34.1174 -34.1167 -34.1159 -34.0300 -34.0278
   -34.0232 -34.0189 -34.0018 -33.9981 -33.9931  -5.4223  -5.1013  -4.9680
    -2.2044  -1.9463  -1.8598  -1.6691  -1.6463  -1.6417  -1.4629  -1.4558
    -1.4248  -1.3022  -1.2702  -1.2012  -1.1178  -0.7476  -0.7038  -0.6213
    -0.6038  -0.5242  -0.4464  -0.4146  -0.3411  -0.3206  -0.2539  -0.1834
     5.1231   5.4092   5.4309   5.5672   6.2391   6.4984   6.6252   6.8360
     6.9597   6.9899   7.1651   7.4817   7.5678   7.6745

          k =-0.5052-0.2849-0.8193 ( 16554 PWs)   bands (ev):

   -76.9969 -76.9965 -76.8771 -72.9468 -40.0609 -40.0309 -40.0187 -38.8961
   -38.8955 -38.8754 -38.8747 -38.8598 -38.8597 -38.7775 -38.7529 -38.7252
   -34.1479 -34.1471 -34.1388 -34.1379 -34.1375 -34.1365 -34.1324 -34.1316
   -34.1282 -34.1275 -34.1182 -34.1175 -34.1169 -34.1160 -34.0300 -34.0278
   -34.0233 -34.0189 -34.0018 -33.9981 -33.9933  -5.2050  -4.8913  -4.8437
    -2.2687  -2.1205  -2.0537  -1.8351  -1.7364  -1.6243  -1.6046  -1.5685
    -1.5124  -1.4767  -1.3176  -1.2678  -1.1026  -1.0149  -0.9463  -0.7826
    -0.4876  -0.3885  -0.3210  -0.1958  -0.1911  -0.1828  -0.1464  -0.0957
     5.1888   5.3584   5.7175   5.7764   5.8652   5.9031   6.5798   6.6560
     6.8674   7.1058   7.5276   7.5515   7.7749   7.9171

          k =-0.5055 0.2852 0.0001 ( 16490 PWs)   bands (ev):

   -76.9969 -76.9965 -76.8771 -72.9468 -40.0609 -40.0309 -40.0187 -38.8960
   -38.8953 -38.8754 -38.8746 -38.8596 -38.8595 -38.7775 -38.7527 -38.7250
   -34.1479 -34.1470 -34.1387 -34.1378 -34.1374 -34.1365 -34.1324 -34.1316
   -34.1281 -34.1274 -34.1182 -34.1174 -34.1167 -34.1158 -34.0300 -34.0278
   -34.0232 -34.0189 -34.0018 -33.9981 -33.9931  -5.4218  -5.1021  -4.9679
    -2.2039  -1.9465  -1.8598  -1.6685  -1.6466  -1.6426  -1.4626  -1.4562
    -1.4242  -1.3020  -1.2704  -1.2010  -1.1183  -0.7485  -0.7035  -0.6201
    -0.6039  -0.5243  -0.4449  -0.4146  -0.3440  -0.3199  -0.2538  -0.1828
     5.1233   5.4077   5.4330   5.5649   6.2394   6.5005   6.6260   6.8359
     6.9584   6.9888   7.1666   7.4822   7.5683   7.6746

          k =-0.5053 0.2852-0.8194 ( 16536 PWs)   bands (ev):

   -76.9969 -76.9965 -76.8771 -72.9468 -40.0609 -40.0309 -40.0187 -38.8961
   -38.8954 -38.8754 -38.8745 -38.8598 -38.8597 -38.7775 -38.7528 -38.7251
   -34.1479 -34.1470 -34.1387 -34.1379 -34.1374 -34.1365 -34.1324 -34.1316
   -34.1282 -34.1274 -34.1182 -34.1174 -34.1169 -34.1160 -34.0300 -34.0278
   -34.0232 -34.0189 -34.0018 -33.9981 -33.9933  -5.2047  -4.8917  -4.8437
    -2.2688  -2.1206  -2.0531  -1.8343  -1.7352  -1.6291  -1.6048  -1.5670
    -1.5090  -1.4790  -1.3169  -1.2688  -1.1022  -1.0147  -0.9458  -0.7833
    -0.4891  -0.3869  -0.3213  -0.1956  -0.1942  -0.1802  -0.1463  -0.0952
     5.1885   5.3594   5.7171   5.7772   5.8626   5.9039   6.5795   6.6585
     6.8658   7.1067   7.5278   7.5520   7.7734   7.9140

          k =-1.0108 0.0002 0.0002 ( 16510 PWs)   bands (ev):

   -76.9969 -76.9965 -76.8771 -72.9468 -40.0609 -40.0309 -40.0187 -38.8959
   -38.8953 -38.8754 -38.8745 -38.8597 -38.8596 -38.7775 -38.7527 -38.7251
   -34.1479 -34.1471 -34.1387 -34.1379 -34.1374 -34.1365 -34.1324 -34.1316
   -34.1282 -34.1274 -34.1182 -34.1175 -34.1167 -34.1159 -34.0300 -34.0279
   -34.0233 -34.0189 -34.0017 -33.9981 -33.9931  -5.3751  -5.1940  -4.9349
    -2.0682  -2.0004  -1.9652  -1.7496  -1.6696  -1.6148  -1.4723  -1.4379
    -1.3365  -1.2761  -1.1911  -1.1565  -1.0516  -0.8108  -0.7459  -0.7014
    -0.5725  -0.5376  -0.4640  -0.3720  -0.3613  -0.3506  -0.2794  -0.1736
     5.0248   5.4181   5.5131   5.6284   6.1948   6.5655   6.5726   6.8600
     6.9186   7.0242   7.1939   7.3460   7.4167   7.6067

          k =-1.0106 0.0002-0.8193 ( 16498 PWs)   bands (ev):

   -76.9969 -76.9965 -76.8771 -72.9468 -40.0609 -40.0309 -40.0187 -38.8959
   -38.8952 -38.8753 -38.8744 -38.8598 -38.8597 -38.7774 -38.7526 -38.7251
   -34.1479 -34.1470 -34.1387 -34.1378 -34.1374 -34.1365 -34.1324 -34.1316
   -34.1281 -34.1274 -34.1182 -34.1174 -34.1168 -34.1160 -34.0299 -34.0278
   -34.0232 -34.0188 -34.0018 -33.9980 -33.9933  -5.1098  -5.0131  -4.8482
    -2.3005  -2.1019  -1.9615  -1.8619  -1.7043  -1.6659  -1.5712  -1.5018
    -1.4968  -1.3647  -1.3377  -1.1772  -1.0596  -1.0196  -1.0097  -0.9430
    -0.6737  -0.4014  -0.3916  -0.2061  -0.1629  -0.1517  -0.1439  -0.0398
     5.2530   5.3702   5.5543   5.7515   5.8823   6.2457   6.6025   6.7676
     6.8299   7.0950   7.2079   7.4076   7.8193   8.0266

     the Fermi energy is     5.1512 ev

!    total energy              =   -4360.78539130 Ry
     Harris-Foulkes estimate   =   -4360.78539131 Ry
     estimated scf accuracy    <       0.00000001 Ry

     The total energy is the sum of the following terms:

     one-electron contribution =   -3273.75970537 Ry
     hartree contribution      =    1637.04622327 Ry
     xc contribution           =    -317.53755614 Ry
     ewald contribution        =    -757.74411400 Ry
     one-center paw contrib.   =   -1648.79016365 Ry
     smearing contrib. (-TS)   =      -0.00007540 Ry

     convergence has been achieved in  15 iterations

     Forces acting on atoms (cartesian axes, Ry/au):

     atom    1 type  2   force =     0.00059160   -0.00010512   -0.00005193
     atom    2 type  3   force =     0.00388790    0.00000539   -0.00003044
     atom    3 type  2   force =     0.00054252    0.00015395    0.00007972
     atom    4 type  2   force =     0.00193507    0.00006923    0.00003701
     atom    5 type  2   force =     0.00132801   -0.00003942   -0.00000339
     atom    6 type  2   force =     0.00196336   -0.00005571   -0.00001912
     atom    7 type  4   force =     0.00018618    0.00073806    0.00012626
     atom    8 type  4   force =     0.00047454   -0.00107751   -0.00024915
     atom    9 type  4   force =    -0.00193666    0.00026951   -0.00012336
     atom   10 type  1   force =    -0.00045713   -0.00125477   -0.00143212
     atom   11 type  1   force =    -0.00272940   -0.00070476   -0.00423256
     atom   12 type  1   force =    -0.00039852    0.00027400   -0.00113877
     atom   13 type  1   force =    -0.00087300   -0.00029464    0.00062426
     atom   14 type  1   force =    -0.00091814    0.00034971    0.00056002
     atom   15 type  1   force =    -0.00078452   -0.00032916    0.00232177
     atom   16 type  1   force =    -0.00240968   -0.00039484    0.00379340
     atom   17 type  1   force =    -0.00059802    0.00094083   -0.00162539
     atom   18 type  1   force =    -0.00255485    0.00056739   -0.00406608
     atom   19 type  1   force =    -0.00172354    0.00381289    0.00003689
     atom   20 type  1   force =    -0.00259591    0.00001877    0.00003874
     atom   21 type  1   force =    -0.00148636   -0.00336274   -0.00000180
     atom   22 type  1   force =     0.00126694    0.00050607   -0.00136699
     atom   23 type  1   force =    -0.00138067   -0.00011674    0.00404430
     atom   24 type  1   force =     0.00104858   -0.00096636    0.00081143
     atom   25 type  1   force =     0.00066967   -0.00164876   -0.00012670
     atom   26 type  1   force =    -0.00107257    0.00002900   -0.00371309
     atom   27 type  1   force =     0.00077437    0.00143282    0.00047966
     atom   28 type  1   force =     0.00584921   -0.00532273   -0.00000158
     atom   29 type  1   force =     0.00008079    0.00021154   -0.00000685
     atom   30 type  1   force =     0.00014078    0.00129223    0.00002237
     atom   31 type  1   force =     0.00044075   -0.00189994   -0.00004250
     atom   32 type  1   force =    -0.00023245   -0.00013634   -0.00000669
     atom   33 type  1   force =     0.00536302    0.00477447    0.00000261
     atom   34 type  1   force =    -0.00108498   -0.00033799   -0.00035720
     atom   35 type  1   force =    -0.00034507    0.00160325    0.00096513
     atom   36 type  1   force =    -0.00296181    0.00099842    0.00465211

     Total force =     0.018926     Total SCF correction =     0.000829


     Computing stress (Cartesian axis) and pressure

          total   stress  (Ry/bohr**3)                   (kbar)     P=   -5.14
  -0.00004582   0.00000166   0.00000091         -6.74      0.24      0.13
   0.00000166  -0.00003506  -0.00000340          0.24     -5.16     -0.50
   0.00000091  -0.00000340  -0.00002385          0.13     -0.50     -3.51


     number of scf cycles    =  13
     number of bfgs steps    =  12

     enthalpy old            =   -4360.7843051508 Ry
     enthalpy new            =   -4360.7853912998 Ry

     CASE: enthalpy_new < enthalpy_old

     new trust radius        =       0.1202794455 bohr
     new conv_thr            =       0.0000000585 Ry

     new unit-cell volume =   2772.74845 a.u.^3 (   410.87892 Ang^3 )
     density =      0.14549 g/cm^3

CELL_PARAMETERS (angstrom)
   4.547594339  -8.019455416   0.000632720
   4.551405219   8.021555637   0.001127480
   0.000963741   0.000716185   5.630131235

ATOMIC_POSITIONS (angstrom)
K        1.085686675   2.076305110   2.816100464
Mg       6.502731523   0.001147862   2.815432674
K        1.084764876  -2.075566918   2.814102128
K        2.717587453   4.764491069  -0.000813130
K        3.638975974   0.001319482   0.000637027
K        2.715019075  -4.763129543   0.000344540
Re       4.675798371  -2.494912515   2.815374386
Re       4.677472813   2.497567223   2.816347814
Re      -0.150683067   0.000234150   0.000492391
H        5.053764822  -3.616810267   4.041066539
H        5.466032784  -1.526942826   4.029135384
H        3.550791490  -2.359580071   4.095894046
H        3.553451691   2.361951782   1.537064180
H        3.551965591  -2.360214745   1.535849122
H        5.054756694  -3.619696478   1.588491771
H        5.464851473  -1.527850475   1.602218731
H        5.056052361   3.620915807   4.041769329
H        5.467150744   1.529755182   4.030179636
H        0.648905377  -1.510528361   0.000516654
H        7.259725004   0.002362062   0.001566967
H        0.649483944   1.509226493   0.000010191
H        3.736848920  -7.045002540   1.244236265
H        1.075770021   0.001148957   4.440746793
H        3.741330885   7.050089396   4.390193051
H        3.740829294   7.051016828   1.242050449
H        1.074462912   0.000120898   1.189766514
H        3.738844390  -7.047560847   4.389881841
H        3.560394622   3.763087407   2.816044650
H        6.313399288   2.844367269   2.816677980
H        3.922421949   0.991861734   2.816919255
H        3.920862560  -0.987513361   2.815253595
H        6.312711839  -2.840930712   2.815622492
H        3.559890605  -3.759271198   2.815681122
H        3.554055619   2.362481690   4.095483814
H        5.054976078   3.619404879   1.592249971
H        5.467869784   1.528546587   1.600719769



     Writing output data file K5MgReH93.save
     NEW-OLD atomic charge density approx. for the potential
     extrapolated charge  127.98700, renormalised to  129.00000

     total cpu time spent up to now is    13868.8 secs

     Self-consistent Calculation

     iteration #  1     ecut=    50.00 Ry     beta=0.70
     Davidson diagonalization with overlap
     ethr =  1.00E-06,  avg # of iterations = 13.6

     total cpu time spent up to now is    13938.4 secs

     total energy              =   -4359.41084910 Ry
     Harris-Foulkes estimate   =   -4384.26262906 Ry
     estimated scf accuracy    <       1.22815546 Ry

     iteration #  2     ecut=    50.00 Ry     beta=0.70
     Davidson diagonalization with overlap
     ethr =  9.52E-04,  avg # of iterations =  5.1

     total cpu time spent up to now is    13985.5 secs

     total energy              =   -4360.05882357 Ry
     Harris-Foulkes estimate   =   -4363.34304384 Ry
     estimated scf accuracy    <      10.97066645 Ry

     iteration #  3     ecut=    50.00 Ry     beta=0.70
     Davidson diagonalization with overlap
     ethr =  9.52E-04,  avg # of iterations =  4.0

     total cpu time spent up to now is    14026.6 secs

     total energy              =   -4360.83831004 Ry
     Harris-Foulkes estimate   =   -4360.97134122 Ry
     estimated scf accuracy    <       0.90079649 Ry

     iteration #  4     ecut=    50.00 Ry     beta=0.70
     Davidson diagonalization with overlap
     ethr =  6.98E-04,  avg # of iterations =  1.0

     total cpu time spent up to now is    14055.4 secs

     total energy              =   -4360.83290873 Ry
     Harris-Foulkes estimate   =   -4360.85865684 Ry
     estimated scf accuracy    <       0.39404807 Ry

     iteration #  5     ecut=    50.00 Ry     beta=0.70
     Davidson diagonalization with overlap
     ethr =  3.05E-04,  avg # of iterations =  1.0

     total cpu time spent up to now is    14084.0 secs

     total energy              =   -4360.80341752 Ry
     Harris-Foulkes estimate   =   -4360.83737021 Ry
     estimated scf accuracy    <       0.29025398 Ry

     iteration #  6     ecut=    50.00 Ry     beta=0.70
     Davidson diagonalization with overlap
     ethr =  2.25E-04,  avg # of iterations =  1.1

     total cpu time spent up to now is    14111.4 secs

     total energy              =   -4360.78368416 Ry
     Harris-Foulkes estimate   =   -4360.80991833 Ry
     estimated scf accuracy    <       0.13809118 Ry

     iteration #  7     ecut=    50.00 Ry     beta=0.70
     Davidson diagonalization with overlap
     ethr =  1.07E-04,  avg # of iterations =  4.2

     total cpu time spent up to now is    14142.2 secs

     total energy              =   -4360.79048151 Ry
     Harris-Foulkes estimate   =   -4360.79154874 Ry
     estimated scf accuracy    <       0.02874064 Ry

     iteration #  8     ecut=    50.00 Ry     beta=0.70
     Davidson diagonalization with overlap
     ethr =  2.23E-05,  avg # of iterations =  4.9

     total cpu time spent up to now is    14174.2 secs

     total energy              =   -4360.78944802 Ry
     Harris-Foulkes estimate   =   -4360.79087062 Ry
     estimated scf accuracy    <       0.02432518 Ry

     iteration #  9     ecut=    50.00 Ry     beta=0.70
     Davidson diagonalization with overlap
     ethr =  1.89E-05,  avg # of iterations =  1.2

     total cpu time spent up to now is    14201.4 secs

     total energy              =   -4360.78465081 Ry
     Harris-Foulkes estimate   =   -4360.78965063 Ry
     estimated scf accuracy    <       0.01728164 Ry

     iteration # 10     ecut=    50.00 Ry     beta=0.70
     Davidson diagonalization with overlap
     ethr =  1.34E-05,  avg # of iterations =  3.6

     total cpu time spent up to now is    14233.7 secs

     total energy              =   -4360.78625952 Ry
     Harris-Foulkes estimate   =   -4360.78645378 Ry
     estimated scf accuracy    <       0.00065856 Ry

     iteration # 11     ecut=    50.00 Ry     beta=0.70
     Davidson diagonalization with overlap
     ethr =  5.11E-07,  avg # of iterations =  5.8

     total cpu time spent up to now is    14273.8 secs

     total energy              =   -4360.78638370 Ry
     Harris-Foulkes estimate   =   -4360.78638376 Ry
     estimated scf accuracy    <       0.00002869 Ry

     iteration # 12     ecut=    50.00 Ry     beta=0.70
     Davidson diagonalization with overlap
     ethr =  2.22E-08,  avg # of iterations =  2.1

     total cpu time spent up to now is    14304.8 secs

     total energy              =   -4360.78637520 Ry
     Harris-Foulkes estimate   =   -4360.78638504 Ry
     estimated scf accuracy    <       0.00002763 Ry

     iteration # 13     ecut=    50.00 Ry     beta=0.70
     Davidson diagonalization with overlap
     ethr =  2.14E-08,  avg # of iterations =  2.0

     total cpu time spent up to now is    14335.2 secs

     total energy              =   -4360.78637931 Ry
     Harris-Foulkes estimate   =   -4360.78637950 Ry
     estimated scf accuracy    <       0.00000053 Ry

     iteration # 14     ecut=    50.00 Ry     beta=0.70
     Davidson diagonalization with overlap
     ethr =  4.09E-10,  avg # of iterations =  3.1

     total cpu time spent up to now is    14371.1 secs

     total energy              =   -4360.78637941 Ry
     Harris-Foulkes estimate   =   -4360.78637948 Ry
     estimated scf accuracy    <       0.00000027 Ry

     iteration # 15     ecut=    50.00 Ry     beta=0.70
     Davidson diagonalization with overlap
     ethr =  2.13E-10,  avg # of iterations =  3.0

     total cpu time spent up to now is    14404.3 secs

     total energy              =   -4360.78637941 Ry
     Harris-Foulkes estimate   =   -4360.78637947 Ry
     estimated scf accuracy    <       0.00000023 Ry

     iteration # 16     ecut=    50.00 Ry     beta=0.70
     Davidson diagonalization with overlap
     ethr =  1.75E-10,  avg # of iterations =  2.2

     total cpu time spent up to now is    14435.4 secs

     End of self-consistent calculation

          k = 0.0000 0.0000 0.0000 ( 16447 PWs)   bands (ev):

   -76.9402 -76.9392 -76.8266 -72.8770 -39.9948 -39.9561 -39.9506 -38.8421
   -38.8407 -38.8161 -38.8156 -38.8129 -38.8125 -38.7297 -38.7064 -38.6804
   -34.0848 -34.0833 -34.0750 -34.0748 -34.0735 -34.0733 -34.0683 -34.0669
   -34.0625 -34.0612 -34.0543 -34.0538 -34.0528 -34.0524 -33.9731 -33.9706
   -33.9667 -33.9612 -33.9423 -33.9367 -33.9333  -5.5859  -4.8753  -4.8354
    -2.1423  -2.0031  -1.9592  -1.9372  -1.6414  -1.6301  -1.4366  -1.3644
    -1.2709  -1.2476  -1.1701  -1.1023  -0.9519  -0.7797  -0.7120  -0.5522
    -0.4788  -0.4591  -0.4197  -0.3714  -0.3710  -0.2722  -0.1268  -0.0285
     4.9118   5.4529   6.0633   6.1197   6.1378   6.1685   6.2238   6.5634
     6.9688   7.2177   7.2330   7.3756   7.3992   7.4223

          k = 0.0002 0.0000-0.8182 ( 16526 PWs)   bands (ev):

   -76.9402 -76.9392 -76.8266 -72.8770 -39.9949 -39.9561 -39.9506 -38.8421
   -38.8407 -38.8162 -38.8157 -38.8131 -38.8128 -38.7298 -38.7064 -38.6806
   -34.0849 -34.0834 -34.0750 -34.0748 -34.0734 -34.0733 -34.0684 -34.0670
   -34.0626 -34.0612 -34.0545 -34.0538 -34.0530 -34.0524 -33.9731 -33.9707
   -33.9668 -33.9613 -33.9423 -33.9367 -33.9335  -5.2641  -4.8378  -4.7187
    -2.2506  -2.0794  -1.9829  -1.8711  -1.7953  -1.5955  -1.5812  -1.5394
    -1.4851  -1.2574  -1.1921  -1.1512  -1.0676  -1.0194  -0.8721  -0.8105
    -0.4844  -0.3739  -0.3677  -0.1654  -0.1405  -0.1228  -0.0791  -0.0724
     5.3526   5.4200   5.5986   5.9410   6.2265   6.4386   6.7265   6.7657
     6.9159   7.0501   7.3782   7.8591   7.9033   8.0382

          k =-0.5062-0.2871 0.0001 ( 16490 PWs)   bands (ev):

   -76.9402 -76.9392 -76.8266 -72.8770 -39.9948 -39.9561 -39.9506 -38.8421
   -38.8407 -38.8162 -38.8156 -38.8130 -38.8127 -38.7297 -38.7064 -38.6805
   -34.0848 -34.0833 -34.0751 -34.0749 -34.0735 -34.0733 -34.0684 -34.0670
   -34.0625 -34.0612 -34.0543 -34.0538 -34.0529 -34.0524 -33.9731 -33.9706
   -33.9668 -33.9612 -33.9423 -33.9367 -33.9334  -5.3824  -5.0759  -4.9365
    -2.1477  -1.9241  -1.8055  -1.6511  -1.6295  -1.6024  -1.4149  -1.4068
    -1.3808  -1.2606  -1.2594  -1.1388  -1.0653  -0.7046  -0.6891  -0.5914
    -0.5670  -0.4942  -0.4218  -0.4173  -0.3060  -0.2496  -0.1717  -0.1121
     5.1511   5.4465   5.4878   5.6362   6.3405   6.5770   6.7191   6.8845
     7.0169   7.0539   7.2221   7.5650   7.6444   7.7478

          k =-0.5061-0.2870-0.8181 ( 16554 PWs)   bands (ev):

   -76.9402 -76.9392 -76.8266 -72.8770 -39.9949 -39.9561 -39.9506 -38.8422
   -38.8409 -38.8161 -38.8157 -38.8132 -38.8129 -38.7298 -38.7066 -38.6807
   -34.0848 -34.0834 -34.0751 -34.0749 -34.0735 -34.0733 -34.0684 -34.0670
   -34.0626 -34.0612 -34.0545 -34.0538 -34.0530 -34.0524 -33.9731 -33.9706
   -33.9668 -33.9612 -33.9423 -33.9367 -33.9336  -5.1624  -4.8505  -4.8266
    -2.2545  -2.0764  -2.0090  -1.8109  -1.7127  -1.5763  -1.5703  -1.5380
    -1.4685  -1.4600  -1.2571  -1.2301  -1.0308  -0.9901  -0.9097  -0.7560
    -0.4125  -0.3548  -0.3099  -0.1492  -0.1401  -0.1302  -0.1108  -0.0326
     5.2730   5.4311   5.7788   5.8199   5.9217   5.9631   6.6696   6.7142
     6.9540   7.1627   7.6082   7.6486   7.8104   8.0119

          k =-0.5064 0.2873 0.0001 ( 16490 PWs)   bands (ev):

   -76.9402 -76.9392 -76.8266 -72.8770 -39.9948 -39.9561 -39.9506 -38.8421
   -38.8407 -38.8161 -38.8156 -38.8130 -38.8126 -38.7297 -38.7065 -38.6805
   -34.0848 -34.0834 -34.0750 -34.0748 -34.0735 -34.0733 -34.0684 -34.0670
   -34.0625 -34.0612 -34.0544 -34.0538 -34.0529 -34.0524 -33.9731 -33.9706
   -33.9668 -33.9612 -33.9423 -33.9367 -33.9334  -5.3820  -5.0765  -4.9364
    -2.1476  -1.9242  -1.8057  -1.6513  -1.6288  -1.6035  -1.4144  -1.4074
    -1.3801  -1.2608  -1.2593  -1.1379  -1.0658  -0.7048  -0.6889  -0.5896
    -0.5684  -0.4942  -0.4219  -0.4151  -0.3093  -0.2487  -0.1723  -0.1117
     5.1511   5.4461   5.4892   5.6331   6.3408   6.5800   6.7205   6.8841
     7.0158   7.0523   7.2240   7.5654   7.6438   7.7473

          k =-0.5062 0.2873-0.8182 ( 16536 PWs)   bands (ev):

   -76.9402 -76.9392 -76.8266 -72.8770 -39.9949 -39.9561 -39.9506 -38.8423
   -38.8408 -38.8162 -38.8156 -38.8132 -38.8128 -38.7297 -38.7066 -38.6807
   -34.0849 -34.0833 -34.0751 -34.0749 -34.0735 -34.0733 -34.0684 -34.0670
   -34.0625 -34.0612 -34.0545 -34.0538 -34.0531 -34.0524 -33.9731 -33.9706
   -33.9668 -33.9612 -33.9423 -33.9367 -33.9336  -5.1622  -4.8508  -4.8266
    -2.2547  -2.0766  -2.0086  -1.8100  -1.7113  -1.5820  -1.5686  -1.5384
    -1.4645  -1.4624  -1.2560  -1.2310  -1.0305  -0.9901  -0.9099  -0.7558
    -0.4132  -0.3537  -0.3101  -0.1497  -0.1419  -0.1283  -0.1118  -0.0313
     5.2726   5.4322   5.7787   5.8204   5.9191   5.9633   6.6695   6.7171
     6.9520   7.1640   7.6087   7.6490   7.8080   8.0090

          k =-1.0126 0.0002 0.0002 ( 16510 PWs)   bands (ev):

   -76.9402 -76.9392 -76.8266 -72.8770 -39.9948 -39.9561 -39.9506 -38.8421
   -38.8408 -38.8162 -38.8156 -38.8131 -38.8127 -38.7297 -38.7065 -38.6806
   -34.0849 -34.0834 -34.0751 -34.0749 -34.0735 -34.0733 -34.0684 -34.0670
   -34.0625 -34.0612 -34.0544 -34.0538 -34.0529 -34.0524 -33.9731 -33.9707
   -33.9668 -33.9612 -33.9423 -33.9367 -33.9334  -5.3368  -5.1566  -4.9137
    -2.0355  -1.9603  -1.9451  -1.6647  -1.6433  -1.5997  -1.4283  -1.3908
    -1.3077  -1.2648  -1.1537  -1.0769  -1.0040  -0.7378  -0.7340  -0.6525
    -0.5627  -0.5062  -0.4168  -0.3778  -0.3348  -0.2901  -0.2293  -0.0908
     5.0429   5.4771   5.5471   5.7157   6.2940   6.6231   6.6387   6.9373
     6.9864   7.1021   7.2325   7.4242   7.4905   7.6866

          k =-1.0124 0.0003-0.8181 ( 16498 PWs)   bands (ev):

   -76.9402 -76.9392 -76.8266 -72.8770 -39.9949 -39.9561 -39.9506 -38.8420
   -38.8407 -38.8160 -38.8155 -38.8132 -38.8128 -38.7296 -38.7064 -38.6807
   -34.0848 -34.0834 -34.0750 -34.0748 -34.0735 -34.0733 -34.0684 -34.0670
   -34.0625 -34.0611 -34.0545 -34.0538 -34.0530 -34.0524 -33.9731 -33.9706
   -33.9668 -33.9612 -33.9423 -33.9367 -33.9336  -5.0642  -4.9749  -4.8309
    -2.2904  -2.0611  -1.9288  -1.8439  -1.6602  -1.5972  -1.5195  -1.4875
    -1.4598  -1.3374  -1.3224  -1.1243  -1.0062  -0.9937  -0.9573  -0.9018
    -0.5964  -0.3706  -0.3611  -0.1502  -0.1432  -0.1247  -0.1043   0.0450
     5.3350   5.4296   5.6484   5.7820   5.9523   6.3187   6.6565   6.8245
     6.9102   7.1683   7.2786   7.4698   7.8836   8.0912

     the Fermi energy is     5.2114 ev

!    total energy              =   -4360.78637941 Ry
     Harris-Foulkes estimate   =   -4360.78637945 Ry
     estimated scf accuracy    <       0.00000004 Ry

     The total energy is the sum of the following terms:

     one-electron contribution =   -3267.71779084 Ry
     hartree contribution      =    1634.29693233 Ry
     xc contribution           =    -317.58146321 Ry
     ewald contribution        =    -760.99558719 Ry
     one-center paw contrib.   =   -1648.78912822 Ry
     smearing contrib. (-TS)   =       0.00065772 Ry

     convergence has been achieved in  16 iterations

     Forces acting on atoms (cartesian axes, Ry/au):

     atom    1 type  2   force =     0.00087570   -0.00052706   -0.00006334
     atom    2 type  3   force =     0.00305597    0.00004488   -0.00005048
     atom    3 type  2   force =     0.00079897    0.00056103    0.00009743
     atom    4 type  2   force =     0.00139333    0.00086611    0.00003467
     atom    5 type  2   force =     0.00166084   -0.00004985    0.00000165
     atom    6 type  2   force =     0.00136740   -0.00081520   -0.00000187
     atom    7 type  4   force =    -0.00040253    0.00024394    0.00003967
     atom    8 type  4   force =    -0.00047435   -0.00059554    0.00003020
     atom    9 type  4   force =     0.00041711    0.00021054    0.00013854
     atom   10 type  1   force =     0.00056263   -0.00146236   -0.00125420
     atom   11 type  1   force =    -0.00135617    0.00099220   -0.00260947
     atom   12 type  1   force =    -0.00158877    0.00106713   -0.00093903
     atom   13 type  1   force =    -0.00211836   -0.00105473    0.00033924
     atom   14 type  1   force =    -0.00215036    0.00110521    0.00033153
     atom   15 type  1   force =     0.00017563   -0.00040448    0.00229328
     atom   16 type  1   force =    -0.00096613    0.00130074    0.00212626
     atom   17 type  1   force =     0.00035829    0.00110761   -0.00151382
     atom   18 type  1   force =    -0.00115342   -0.00106790   -0.00255107
     atom   19 type  1   force =    -0.00385389    0.00531858   -0.00001575
     atom   20 type  1   force =    -0.00310309    0.00005042    0.00004644
     atom   21 type  1   force =    -0.00358448   -0.00472330    0.00002272
     atom   22 type  1   force =    -0.00001554    0.00257289    0.00053136
     atom   23 type  1   force =     0.00151338   -0.00017622    0.00163258
     atom   24 type  1   force =    -0.00028814   -0.00318856   -0.00131715
     atom   25 type  1   force =    -0.00068888   -0.00387211    0.00199265
     atom   26 type  1   force =     0.00180872    0.00004242   -0.00134001
     atom   27 type  1   force =    -0.00059003    0.00365494   -0.00161992
     atom   28 type  1   force =     0.00390852   -0.00335008    0.00002226
     atom   29 type  1   force =     0.00195262    0.00075894   -0.00003649
     atom   30 type  1   force =     0.00033380    0.00146838   -0.00003790
     atom   31 type  1   force =     0.00066002   -0.00224925    0.00000812
     atom   32 type  1   force =     0.00141677   -0.00070484   -0.00000874
     atom   33 type  1   force =     0.00328550    0.00265048   -0.00002022
     atom   34 type  1   force =    -0.00226798   -0.00104095   -0.00019678
     atom   35 type  1   force =     0.00067993    0.00187118    0.00069409
     atom   36 type  1   force =    -0.00162302   -0.00060521    0.00319355

     Total force =     0.017636     Total SCF correction =     0.001589


     Computing stress (Cartesian axis) and pressure

          total   stress  (Ry/bohr**3)                   (kbar)     P=   -2.10
  -0.00003210   0.00000193   0.00000103         -4.72      0.28      0.15
   0.00000193  -0.00000696  -0.00000371          0.28     -1.02     -0.55
   0.00000103  -0.00000371  -0.00000382          0.15     -0.55     -0.56


     number of scf cycles    =  14
     number of bfgs steps    =  13

     enthalpy old            =   -4360.7853912998 Ry
     enthalpy new            =   -4360.7863794132 Ry

     CASE: enthalpy_new < enthalpy_old

     new trust radius        =       0.0189926848 bohr
     new conv_thr            =       0.0000000532 Ry

     new unit-cell volume =   2763.67252 a.u.^3 (   409.53401 Ang^3 )
     density =      0.14597 g/cm^3

CELL_PARAMETERS (angstrom)
   4.539763674  -8.004778998   0.001622685
   4.544463004   8.007360125   0.000420089
   0.001138316   0.000153698   5.630963421

ATOMIC_POSITIONS (angstrom)
K        1.084913246   2.072445073   2.816278472
Mg       6.500945681   0.001180622   2.816028462
K        1.083726727  -2.072077141   2.814861504
K        2.717843936   4.754878325  -0.001174286
K        3.635350615   0.001460688   0.000735008
K        2.714909479  -4.753314259   0.000869499
Re       4.667509134  -2.489663618   2.816189374
Re       4.669420087   2.492100634   2.816686514
Re      -0.152968366   0.000312726   0.000578717
H        5.043841736  -3.612997715   4.041078727
H        5.454639497  -1.523678141   4.027778168
H        3.544652559  -2.356008855   4.096664801
H        3.547226393   2.358141049   1.537018778
H        3.545474714  -2.356308433   1.536306330
H        5.044553488  -3.615062936   1.590920489
H        5.453541295  -1.524090637   1.604853599
H        5.046493826   3.616570938   4.040860714
H        5.456005985   1.526138040   4.028581158
H        0.649425076  -1.505769697   0.000771058
H        7.239892389   0.002767984   0.001829462
H        0.650427153   1.504861477  -0.000170752
H        3.731315046  -7.029902919   1.245883919
H        1.072062909   0.000737584   4.446361164
H        3.736535623   7.034607252   4.389292359
H        3.735733618   7.035421089   1.242872317
H        1.070808363   0.000082713   1.185225158
H        3.733094407  -7.032165632   4.390272845
H        3.558305984   3.754514227   2.816119057
H        6.305444155   2.838659506   2.816976372
H        3.914600107   0.988311403   2.817406920
H        3.913122423  -0.984471165   2.815807657
H        6.304227360  -2.835040485   2.816532881
H        3.557050060  -3.751258421   2.816644854
H        3.547835832   2.358339064   4.096201564
H        5.045495797   3.615761967   1.593081644
H        5.456436256   1.525466203   1.603389201



     Writing output data file K5MgReH93.save
     NEW-OLD atomic charge density approx. for the potential
     extrapolated charge  128.57668, renormalised to  129.00000

     total cpu time spent up to now is    15046.9 secs

     Self-consistent Calculation

     iteration #  1     ecut=    50.00 Ry     beta=0.70
     Davidson diagonalization with overlap
     c_bands:  1 eigenvalues not converged
     ethr =  1.00E-06,  avg # of iterations =  9.4

     total cpu time spent up to now is    15102.1 secs

     total energy              =   -4360.53486637 Ry
     Harris-Foulkes estimate   =   -4370.93885004 Ry
     estimated scf accuracy    <       0.21410583 Ry

     iteration #  2     ecut=    50.00 Ry     beta=0.70
     Davidson diagonalization with overlap
     ethr =  1.66E-04,  avg # of iterations =  5.9

     total cpu time spent up to now is    15147.7 secs

     total energy              =   -4360.61652755 Ry
     Harris-Foulkes estimate   =   -4361.25266970 Ry
     estimated scf accuracy    <       2.24342429 Ry

     iteration #  3     ecut=    50.00 Ry     beta=0.70
     Davidson diagonalization with overlap
     ethr =  1.66E-04,  avg # of iterations =  4.0

     total cpu time spent up to now is    15186.1 secs

     total energy              =   -4360.79587987 Ry
     Harris-Foulkes estimate   =   -4360.81490136 Ry
     estimated scf accuracy    <       0.13884303 Ry

     iteration #  4     ecut=    50.00 Ry     beta=0.70
     Davidson diagonalization with overlap
     ethr =  1.08E-04,  avg # of iterations =  1.0

     total cpu time spent up to now is    15213.0 secs

     total energy              =   -4360.79358678 Ry
     Harris-Foulkes estimate   =   -4360.79879143 Ry
     estimated scf accuracy    <       0.06678807 Ry

     iteration #  5     ecut=    50.00 Ry     beta=0.70
     Davidson diagonalization with overlap
     ethr =  5.18E-05,  avg # of iterations =  1.0

     total cpu time spent up to now is    15240.6 secs

     total energy              =   -4360.79053807 Ry
     Harris-Foulkes estimate   =   -4360.79446010 Ry
     estimated scf accuracy    <       0.04389637 Ry

     iteration #  6     ecut=    50.00 Ry     beta=0.70
     Davidson diagonalization with overlap
     ethr =  3.40E-05,  avg # of iterations =  1.1

     total cpu time spent up to now is    15269.4 secs

     total energy              =   -4360.78852191 Ry
     Harris-Foulkes estimate   =   -4360.79122335 Ry
     estimated scf accuracy    <       0.02517791 Ry

     iteration #  7     ecut=    50.00 Ry     beta=0.70
     Davidson diagonalization with overlap
     ethr =  1.95E-05,  avg # of iterations =  2.4

     total cpu time spent up to now is    15299.5 secs

     total energy              =   -4360.78818611 Ry
     Harris-Foulkes estimate   =   -4360.78902610 Ry
     estimated scf accuracy    <       0.01271159 Ry

     iteration #  8     ecut=    50.00 Ry     beta=0.70
     Davidson diagonalization with overlap
     ethr =  9.85E-06,  avg # of iterations =  3.4

     total cpu time spent up to now is    15329.1 secs

     total energy              =   -4360.78742884 Ry
     Harris-Foulkes estimate   =   -4360.78832212 Ry
     estimated scf accuracy    <       0.00881713 Ry

     iteration #  9     ecut=    50.00 Ry     beta=0.70
     Davidson diagonalization with overlap
     ethr =  6.83E-06,  avg # of iterations =  5.5

     total cpu time spent up to now is    15361.8 secs

     total energy              =   -4360.78727465 Ry
     Harris-Foulkes estimate   =   -4360.78762607 Ry
     estimated scf accuracy    <       0.00419724 Ry

     iteration # 10     ecut=    50.00 Ry     beta=0.70
     Davidson diagonalization with overlap
     ethr =  3.25E-06,  avg # of iterations =  3.0

     total cpu time spent up to now is    15390.8 secs

     total energy              =   -4360.78642465 Ry
     Harris-Foulkes estimate   =   -4360.78732445 Ry
     estimated scf accuracy    <       0.00265378 Ry

     iteration # 11     ecut=    50.00 Ry     beta=0.70
     Davidson diagonalization with overlap
     ethr =  2.06E-06,  avg # of iterations =  5.0

     total cpu time spent up to now is    15426.6 secs

     total energy              =   -4360.78684530 Ry
     Harris-Foulkes estimate   =   -4360.78684648 Ry
     estimated scf accuracy    <       0.00000556 Ry

     iteration # 12     ecut=    50.00 Ry     beta=0.70
     Davidson diagonalization with overlap
     ethr =  4.31E-09,  avg # of iterations =  3.2

     total cpu time spent up to now is    15463.4 secs

     total energy              =   -4360.78685034 Ry
     Harris-Foulkes estimate   =   -4360.78685111 Ry
     estimated scf accuracy    <       0.00000219 Ry

     iteration # 13     ecut=    50.00 Ry     beta=0.70
     Davidson diagonalization with overlap
     ethr =  1.70E-09,  avg # of iterations =  2.2

     total cpu time spent up to now is    15495.3 secs

     total energy              =   -4360.78685030 Ry
     Harris-Foulkes estimate   =   -4360.78685062 Ry
     estimated scf accuracy    <       0.00000084 Ry

     iteration # 14     ecut=    50.00 Ry     beta=0.70
     Davidson diagonalization with overlap
     ethr =  6.54E-10,  avg # of iterations =  2.2

     total cpu time spent up to now is    15527.5 secs

     total energy              =   -4360.78685035 Ry
     Harris-Foulkes estimate   =   -4360.78685045 Ry
     estimated scf accuracy    <       0.00000029 Ry

     iteration # 15     ecut=    50.00 Ry     beta=0.70
     Davidson diagonalization with overlap
     ethr =  2.27E-10,  avg # of iterations =  2.1

     total cpu time spent up to now is    15559.3 secs

     total energy              =   -4360.78685038 Ry
     Harris-Foulkes estimate   =   -4360.78685039 Ry
     estimated scf accuracy    <       0.00000009 Ry

     iteration # 16     ecut=    50.00 Ry     beta=0.70
     Davidson diagonalization with overlap
     ethr =  7.10E-11,  avg # of iterations =  2.2

     total cpu time spent up to now is    15588.2 secs

     End of self-consistent calculation

          k = 0.0000 0.0000 0.0000 ( 16447 PWs)   bands (ev):

   -76.9114 -76.9112 -76.8008 -72.8575 -39.9761 -39.9358 -39.9311 -38.8165
   -38.8156 -38.7910 -38.7899 -38.7876 -38.7875 -38.7067 -38.6830 -38.6567
   -34.0514 -34.0507 -34.0415 -34.0414 -34.0408 -34.0405 -34.0349 -34.0343
   -34.0292 -34.0286 -34.0211 -34.0205 -34.0204 -34.0199 -33.9437 -33.9411
   -33.9372 -33.9315 -33.9122 -33.9064 -33.9032  -5.5791  -4.8642  -4.8237
    -2.1291  -1.9885  -1.9474  -1.9283  -1.6319  -1.6259  -1.4173  -1.3448
    -1.2667  -1.2408  -1.1537  -1.0868  -0.9324  -0.7691  -0.7026  -0.5460
    -0.4631  -0.4374  -0.4003  -0.3617  -0.3548  -0.2582  -0.1017  -0.0025
     4.9391   5.4732   6.0903   6.1499   6.1642   6.2056   6.2609   6.5972
     6.9944   7.2604   7.2645   7.3976   7.4428   7.4484

          k = 0.0002-0.0001-0.8181 ( 16526 PWs)   bands (ev):

   -76.9114 -76.9112 -76.8008 -72.8575 -39.9761 -39.9358 -39.9311 -38.8164
   -38.8156 -38.7911 -38.7900 -38.7879 -38.7877 -38.7069 -38.6829 -38.6570
   -34.0515 -34.0508 -34.0415 -34.0414 -34.0407 -34.0405 -34.0350 -34.0343
   -34.0292 -34.0286 -34.0214 -34.0206 -34.0206 -34.0199 -33.9438 -33.9412
   -33.9373 -33.9315 -33.9122 -33.9064 -33.9034  -5.2573  -4.8275  -4.7081
    -2.2356  -2.0722  -1.9707  -1.8616  -1.7892  -1.5777  -1.5661  -1.5214
    -1.4773  -1.2445  -1.1860  -1.1256  -1.0585  -1.0050  -0.8543  -0.7928
    -0.4770  -0.3662  -0.3530  -0.1403  -0.1267  -0.1064  -0.0577  -0.0525
     5.3908   5.4597   5.6213   5.9616   6.2578   6.4692   6.7681   6.7902
     6.9470   7.0916   7.4148   7.8851   7.9333   8.0806

          k =-0.5070-0.2876 0.0001 ( 16490 PWs)   bands (ev):

   -76.9114 -76.9112 -76.8008 -72.8575 -39.9761 -39.9358 -39.9311 -38.8165
   -38.8156 -38.7911 -38.7899 -38.7878 -38.7876 -38.7068 -38.6830 -38.6569
   -34.0515 -34.0507 -34.0416 -34.0415 -34.0408 -34.0405 -34.0350 -34.0344
   -34.0292 -34.0286 -34.0212 -34.0205 -34.0205 -34.0199 -33.9438 -33.9412
   -33.9372 -33.9315 -33.9123 -33.9064 -33.9032  -5.3739  -5.0667  -4.9253
    -2.1360  -1.9151  -1.7905  -1.6440  -1.6234  -1.5904  -1.3947  -1.3882
    -1.3653  -1.2537  -1.2514  -1.1204  -1.0468  -0.6931  -0.6778  -0.5818
    -0.5524  -0.4786  -0.4125  -0.4028  -0.2943  -0.2306  -0.1464  -0.0841
     5.1738   5.4679   5.5163   5.6685   6.3780   6.6107   6.7588   6.9190
     7.0487   7.0808   7.2450   7.5996   7.6812   7.7813

          k =-0.5069-0.2876-0.8180 ( 16554 PWs)   bands (ev):

   -76.9114 -76.9112 -76.8008 -72.8575 -39.9761 -39.9358 -39.9311 -38.8165
   -38.8158 -38.7910 -38.7901 -38.7880 -38.7878 -38.7068 -38.6832 -38.6571
   -34.0515 -34.0508 -34.0416 -34.0415 -34.0408 -34.0405 -34.0350 -34.0344
   -34.0292 -34.0286 -34.0214 -34.0206 -34.0206 -34.0199 -33.9438 -33.9412
   -33.9373 -33.9315 -33.9123 -33.9065 -33.9034  -5.1549  -4.8407  -4.8162
    -2.2387  -2.0686  -2.0002  -1.8045  -1.6994  -1.5626  -1.5585  -1.5262
    -1.4519  -1.4483  -1.2439  -1.2154  -1.0075  -0.9811  -0.8938  -0.7389
    -0.3935  -0.3416  -0.3093  -0.1394  -0.1156  -0.1114  -0.0907  -0.0102
     5.3066   5.4696   5.8052   5.8436   5.9481   5.9913   6.7074   6.7460
     6.9921   7.1917   7.6374   7.6926   7.8367   8.0471

          k =-0.5072 0.2879 0.0001 ( 16490 PWs)   bands (ev):

   -76.9114 -76.9112 -76.8008 -72.8575 -39.9761 -39.9358 -39.9311 -38.8165
   -38.8156 -38.7910 -38.7900 -38.7878 -38.7876 -38.7068 -38.6830 -38.6569
   -34.0515 -34.0507 -34.0416 -34.0414 -34.0408 -34.0405 -34.0350 -34.0343
   -34.0292 -34.0286 -34.0212 -34.0206 -34.0205 -34.0199 -33.9438 -33.9412
   -33.9372 -33.9315 -33.9123 -33.9064 -33.9032  -5.3735  -5.0670  -4.9254
    -2.1360  -1.9152  -1.7906  -1.6444  -1.6227  -1.5920  -1.3943  -1.3886
    -1.3642  -1.2540  -1.2513  -1.1193  -1.0468  -0.6928  -0.6775  -0.5803
    -0.5538  -0.4787  -0.4125  -0.4005  -0.2976  -0.2301  -0.1473  -0.0835
     5.1737   5.4677   5.5174   5.6666   6.3781   6.6117   6.7591   6.9186
     7.0476   7.0799   7.2460   7.6005   7.6819   7.7811

          k =-0.5070 0.2878-0.8180 ( 16536 PWs)   bands (ev):

   -76.9114 -76.9112 -76.8008 -72.8575 -39.9761 -39.9358 -39.9311 -38.8166
   -38.8157 -38.7911 -38.7899 -38.7879 -38.7878 -38.7068 -38.6831 -38.6570
   -34.0515 -34.0507 -34.0416 -34.0414 -34.0408 -34.0405 -34.0350 -34.0343
   -34.0292 -34.0286 -34.0214 -34.0207 -34.0206 -34.0199 -33.9438 -33.9412
   -33.9372 -33.9315 -33.9123 -33.9064 -33.9034  -5.1547  -4.8410  -4.8161
    -2.2388  -2.0688  -1.9998  -1.8040  -1.6980  -1.5632  -1.5615  -1.5271
    -1.4540  -1.4449  -1.2422  -1.2159  -1.0071  -0.9816  -0.8940  -0.7382
    -0.3938  -0.3411  -0.3094  -0.1396  -0.1198  -0.1070  -0.0924  -0.0088
     5.3064   5.4709   5.8053   5.8442   5.9458   5.9912   6.7074   6.7479
     6.9905   7.1934   7.6365   7.6919   7.8352   8.0447

          k =-1.0142 0.0003 0.0002 ( 16510 PWs)   bands (ev):

   -76.9114 -76.9112 -76.8008 -72.8575 -39.9761 -39.9358 -39.9311 -38.8165
   -38.8157 -38.7910 -38.7900 -38.7879 -38.7877 -38.7068 -38.6830 -38.6569
   -34.0516 -34.0508 -34.0416 -34.0414 -34.0408 -34.0405 -34.0350 -34.0343
   -34.0292 -34.0286 -34.0212 -34.0206 -34.0205 -34.0199 -33.9438 -33.9412
   -33.9373 -33.9315 -33.9122 -33.9064 -33.9033  -5.3281  -5.1470  -4.9035
    -2.0232  -1.9511  -1.9361  -1.6442  -1.6392  -1.5903  -1.4092  -1.3723
    -1.2987  -1.2570  -1.1445  -1.0523  -0.9896  -0.7229  -0.7201  -0.6428
    -0.5515  -0.4908  -0.3967  -0.3686  -0.3291  -0.2729  -0.2050  -0.0619
     5.0650   5.5042   5.5696   5.7526   6.3320   6.6539   6.6702   6.9691
     7.0177   7.1348   7.2523   7.4592   7.5328   7.7130

          k =-1.0141 0.0002-0.8179 ( 16498 PWs)   bands (ev):

   -76.9114 -76.9112 -76.8008 -72.8575 -39.9761 -39.9358 -39.9311 -38.8164
   -38.8156 -38.7909 -38.7899 -38.7880 -38.7878 -38.7067 -38.6829 -38.6571
   -34.0515 -34.0508 -34.0415 -34.0414 -34.0408 -34.0405 -34.0350 -34.0343
   -34.0291 -34.0285 -34.0214 -34.0206 -34.0205 -34.0199 -33.9437 -33.9412
   -33.9372 -33.9314 -33.9123 -33.9064 -33.9034  -5.0561  -4.9659  -4.8206
    -2.2754  -2.0535  -1.9241  -1.8385  -1.6430  -1.5774  -1.4983  -1.4803
    -1.4431  -1.3317  -1.3093  -1.1142  -1.0009  -0.9671  -0.9371  -0.8849
    -0.5779  -0.3689  -0.3427  -0.1361  -0.1279  -0.1192  -0.0781   0.0721
     5.3736   5.4551   5.6889   5.8053   5.9820   6.3489   6.6822   6.8546
     6.9448   7.2023   7.3039   7.5052   7.9168   8.1158

     the Fermi energy is     5.2412 ev

!    total energy              =   -4360.78685035 Ry
     Harris-Foulkes estimate   =   -4360.78685039 Ry
     estimated scf accuracy    <       0.00000005 Ry

     The total energy is the sum of the following terms:

     one-electron contribution =   -3266.26219024 Ry
     hartree contribution      =    1633.68235177 Ry
     xc contribution           =    -317.60801192 Ry
     ewald contribution        =    -761.81205390 Ry
     one-center paw contrib.   =   -1648.78778535 Ry
     smearing contrib. (-TS)   =       0.00083929 Ry

     convergence has been achieved in  16 iterations

     Forces acting on atoms (cartesian axes, Ry/au):

     atom    1 type  2   force =     0.00082031   -0.00074031   -0.00005635
     atom    2 type  3   force =     0.00352990    0.00005155   -0.00005963
     atom    3 type  2   force =     0.00074318    0.00075844    0.00008299
     atom    4 type  2   force =     0.00106742    0.00074876    0.00002978
     atom    5 type  2   force =     0.00171719   -0.00004555    0.00000064
     atom    6 type  2   force =     0.00103456   -0.00067568   -0.00000285
     atom    7 type  4   force =     0.00141853    0.00033314    0.00016577
     atom    8 type  4   force =     0.00196511   -0.00056472   -0.00015928
     atom    9 type  4   force =    -0.00220876    0.00015285   -0.00006101
     atom   10 type  1   force =     0.00087317   -0.00130919   -0.00105982
     atom   11 type  1   force =    -0.00050578    0.00188757   -0.00119027
     atom   12 type  1   force =    -0.00217026    0.00121394   -0.00043999
     atom   13 type  1   force =    -0.00253436   -0.00117361    0.00003664
     atom   14 type  1   force =    -0.00254970    0.00120608    0.00001391
     atom   15 type  1   force =     0.00062781   -0.00067276    0.00167664
     atom   16 type  1   force =    -0.00022251    0.00205883    0.00085511
     atom   17 type  1   force =     0.00070322    0.00114007   -0.00114958
     atom   18 type  1   force =    -0.00037294   -0.00188828   -0.00119914
     atom   19 type  1   force =    -0.00344627    0.00413633   -0.00003852
     atom   20 type  1   force =    -0.00318142    0.00005786    0.00005477
     atom   21 type  1   force =    -0.00327147   -0.00368431    0.00005559
     atom   22 type  1   force =    -0.00052720    0.00305657    0.00131568
     atom   23 type  1   force =     0.00257865   -0.00015931    0.00030445
     atom   24 type  1   force =    -0.00070023   -0.00344686   -0.00184624
     atom   25 type  1   force =    -0.00098703   -0.00390081    0.00233946
     atom   26 type  1   force =     0.00278990    0.00003419   -0.00007870
     atom   27 type  1   force =    -0.00088797    0.00372300   -0.00197729
     atom   28 type  1   force =     0.00128472   -0.00087127    0.00005213
     atom   29 type  1   force =     0.00207412    0.00064973   -0.00003249
     atom   30 type  1   force =    -0.00002022    0.00091960   -0.00005630
     atom   31 type  1   force =     0.00018144   -0.00151482    0.00003567
     atom   32 type  1   force =     0.00175042   -0.00068992   -0.00002324
     atom   33 type  1   force =     0.00089046    0.00039540   -0.00004175
     atom   34 type  1   force =    -0.00267370   -0.00113178    0.00010396
     atom   35 type  1   force =     0.00091210    0.00154341    0.00070213
     atom   36 type  1   force =    -0.00070237   -0.00159814    0.00164712

     Total force =     0.016068     Total SCF correction =     0.000820


     Computing stress (Cartesian axis) and pressure

          total   stress  (Ry/bohr**3)                   (kbar)     P=   -0.04
  -0.00001862   0.00000111   0.00000064         -2.74      0.16      0.09
   0.00000111   0.00000955  -0.00000214          0.16      1.41     -0.31
   0.00000064  -0.00000214   0.00000821          0.09     -0.31      1.21


     number of scf cycles    =  15
     number of bfgs steps    =  14

     enthalpy old            =   -4360.7863794132 Ry
     enthalpy new            =   -4360.7868503496 Ry

     CASE: enthalpy_new < enthalpy_old

     new trust radius        =       0.0208955212 bohr
     new conv_thr            =       0.0000000414 Ry

     new unit-cell volume =   2755.94345 a.u.^3 (   408.38868 Ang^3 )
     density =      0.14638 g/cm^3

CELL_PARAMETERS (angstrom)
   4.530145274  -7.995408814   0.003000113
   4.536045004   7.998665168  -0.000578718
   0.001372663  -0.000657671   5.632741978

ATOMIC_POSITIONS (angstrom)
K        1.084368559   2.069782978   2.816822926
Mg       6.492350852   0.001253990   2.817142136
K        1.082795599  -2.069990577   2.816236608
K        2.717277518   4.752050610  -0.001686806
K        3.631294136   0.001657146   0.000874048
K        2.713746448  -4.750111903   0.001633636
Re       4.659070068  -2.485747740   2.817726376
Re       4.661753651   2.487766766   2.817323313
Re      -0.157571707   0.000510992   0.000578605
H        5.032511178  -3.611526748   4.041611195
H        5.442132810  -1.520513770   4.027235482
H        3.536107140  -2.353100042   4.097508924
H        3.538501819   2.354945041   1.537767584
H        3.536394224  -2.352974976   1.537762508
H        5.032819173  -3.612441404   1.594403497
H        5.441216481  -1.520291081   1.607760673
H        5.035568616   3.614405200   4.040172497
H        5.443858056   1.522545335   4.027616257
H        0.646916036  -1.499818965   0.001055533
H        7.215803216   0.003354815   0.002194893
H        0.648430453   1.499496203  -0.000364801
H        3.723849135  -7.018619396   1.248970737
H        1.070324242   0.000055988   4.453384451
H        3.730056142   7.022670778   4.387737756
H        3.728801687   7.023355351   1.244959311
H        1.069174055   0.000024550   1.180329561
H        3.725307429  -7.020494720   4.390604576
H        3.555888132   3.747789360   2.816587944
H        6.296790070   2.835675810   2.817676065
H        3.906270058   0.985898781   2.818311485
H        3.904897963  -0.982880375   2.816965644
H        6.294823057  -2.831914476   2.818093687
H        3.553605399  -3.745354873   2.818245732
H        3.539066746   2.354738804   4.097000345
H        5.034710941   3.614509437   1.594305251
H        5.443835280   1.522605193   1.606534460



     Writing output data file K5MgReH93.save
     NEW-OLD atomic charge density approx. for the potential
     extrapolated charge  128.63849, renormalised to  129.00000

     total cpu time spent up to now is    16200.2 secs

     Self-consistent Calculation

     iteration #  1     ecut=    50.00 Ry     beta=0.70
     Davidson diagonalization with overlap
     ethr =  1.00E-06,  avg # of iterations =  8.0

     total cpu time spent up to now is    16257.0 secs

     total energy              =   -4360.61426795 Ry
     Harris-Foulkes estimate   =   -4369.45137004 Ry
     estimated scf accuracy    <       0.15441594 Ry

     iteration #  2     ecut=    50.00 Ry     beta=0.70
     Davidson diagonalization with overlap
     ethr =  1.20E-04,  avg # of iterations =  5.2

     total cpu time spent up to now is    16304.5 secs

     total energy              =   -4360.65717183 Ry
     Harris-Foulkes estimate   =   -4361.12616197 Ry
     estimated scf accuracy    <       1.67056066 Ry

     iteration #  3     ecut=    50.00 Ry     beta=0.70
     Davidson diagonalization with overlap
     ethr =  1.20E-04,  avg # of iterations =  3.6

     total cpu time spent up to now is    16344.2 secs

     total energy              =   -4360.79636471 Ry
     Harris-Foulkes estimate   =   -4360.80708209 Ry
     estimated scf accuracy    <       0.09941337 Ry

     iteration #  4     ecut=    50.00 Ry     beta=0.70
     Davidson diagonalization with overlap
     ethr =  7.71E-05,  avg # of iterations =  1.8

     total cpu time spent up to now is    16373.4 secs

     total energy              =   -4360.79172051 Ry
     Harris-Foulkes estimate   =   -4360.79796946 Ry
     estimated scf accuracy    <       0.05756807 Ry

     iteration #  5     ecut=    50.00 Ry     beta=0.70
     Davidson diagonalization with overlap
     ethr =  4.46E-05,  avg # of iterations =  1.0

     total cpu time spent up to now is    16402.3 secs

     total energy              =   -4360.79061741 Ry
     Harris-Foulkes estimate   =   -4360.79267304 Ry
     estimated scf accuracy    <       0.03169349 Ry

     iteration #  6     ecut=    50.00 Ry     beta=0.70
     Davidson diagonalization with overlap
     ethr =  2.46E-05,  avg # of iterations =  1.0

     total cpu time spent up to now is    16430.7 secs

     total energy              =   -4360.78770651 Ry
     Harris-Foulkes estimate   =   -4360.79101277 Ry
     estimated scf accuracy    <       0.02111407 Ry

     iteration #  7     ecut=    50.00 Ry     beta=0.70
     Davidson diagonalization with overlap
     ethr =  1.64E-05,  avg # of iterations =  2.6

     total cpu time spent up to now is    16461.5 secs

     total energy              =   -4360.78794428 Ry
     Harris-Foulkes estimate   =   -4360.78848866 Ry
     estimated scf accuracy    <       0.00669128 Ry

     iteration #  8     ecut=    50.00 Ry     beta=0.70
     Davidson diagonalization with overlap
     ethr =  5.19E-06,  avg # of iterations =  4.6

     total cpu time spent up to now is    16494.1 secs

     total energy              =   -4360.78732635 Ry
     Harris-Foulkes estimate   =   -4360.78806297 Ry
     estimated scf accuracy    <       0.00414810 Ry

     iteration #  9     ecut=    50.00 Ry     beta=0.70
     Davidson diagonalization with overlap
     ethr =  3.22E-06,  avg # of iterations =  4.8

     total cpu time spent up to now is    16527.0 secs

     total energy              =   -4360.78737403 Ry
     Harris-Foulkes estimate   =   -4360.78753121 Ry
     estimated scf accuracy    <       0.00098752 Ry

     iteration # 10     ecut=    50.00 Ry     beta=0.70
     Davidson diagonalization with overlap
     ethr =  7.66E-07,  avg # of iterations =  1.6

     total cpu time spent up to now is    16554.4 secs

     total energy              =   -4360.78729723 Ry
     Harris-Foulkes estimate   =   -4360.78740884 Ry
     estimated scf accuracy    <       0.00035954 Ry

     iteration # 11     ecut=    50.00 Ry     beta=0.70
     Davidson diagonalization with overlap
     ethr =  2.79E-07,  avg # of iterations =  3.0

     total cpu time spent up to now is    16586.5 secs

     total energy              =   -4360.78734951 Ry
     Harris-Foulkes estimate   =   -4360.78735016 Ry
     estimated scf accuracy    <       0.00000354 Ry

     iteration # 12     ecut=    50.00 Ry     beta=0.70
     Davidson diagonalization with overlap
     ethr =  2.74E-09,  avg # of iterations =  3.4

     total cpu time spent up to now is    16624.4 secs

     total energy              =   -4360.78735080 Ry
     Harris-Foulkes estimate   =   -4360.78735098 Ry
     estimated scf accuracy    <       0.00000123 Ry

     iteration # 13     ecut=    50.00 Ry     beta=0.70
     Davidson diagonalization with overlap
     ethr =  9.52E-10,  avg # of iterations =  1.2

     total cpu time spent up to now is    16651.4 secs

     total energy              =   -4360.78735065 Ry
     Harris-Foulkes estimate   =   -4360.78735083 Ry
     estimated scf accuracy    <       0.00000061 Ry

     iteration # 14     ecut=    50.00 Ry     beta=0.70
     Davidson diagonalization with overlap
     ethr =  4.72E-10,  avg # of iterations =  2.4

     total cpu time spent up to now is    16681.9 secs

     total energy              =   -4360.78735071 Ry
     Harris-Foulkes estimate   =   -4360.78735073 Ry
     estimated scf accuracy    <       0.00000009 Ry

     iteration # 15     ecut=    50.00 Ry     beta=0.70
     Davidson diagonalization with overlap
     ethr =  7.20E-11,  avg # of iterations =  2.1

     total cpu time spent up to now is    16711.2 secs

     End of self-consistent calculation

          k = 0.0000 0.0000 0.0000 ( 16447 PWs)   bands (ev):

   -76.8883 -76.8871 -76.7820 -72.8458 -39.9648 -39.9236 -39.9191 -38.7954
   -38.7948 -38.7711 -38.7689 -38.7663 -38.7652 -38.6902 -38.6659 -38.6382
   -34.0242 -34.0230 -34.0143 -34.0136 -34.0131 -34.0126 -34.0078 -34.0064
   -34.0023 -34.0009 -33.9939 -33.9934 -33.9927 -33.9922 -33.9226 -33.9200
   -33.9156 -33.9098 -33.8907 -33.8848 -33.8815  -5.5737  -4.8525  -4.8128
    -2.1221  -1.9766  -1.9379  -1.9187  -1.6257  -1.6171  -1.3962  -1.3220
    -1.2695  -1.2390  -1.1390  -1.0771  -0.9171  -0.7591  -0.6920  -0.5463
    -0.4477  -0.4256  -0.3827  -0.3515  -0.3404  -0.2434  -0.0780   0.0162
     4.9655   5.4916   6.1107   6.1734   6.1872   6.2377   6.2919   6.6269
     7.0147   7.2902   7.2970   7.4013   7.4649   7.4787

          k = 0.0002-0.0002-0.8179 ( 16526 PWs)   bands (ev):

   -76.8883 -76.8871 -76.7820 -72.8458 -39.9648 -39.9236 -39.9191 -38.7954
   -38.7948 -38.7712 -38.7690 -38.7665 -38.7654 -38.6904 -38.6658 -38.6384
   -34.0243 -34.0231 -34.0142 -34.0136 -34.0130 -34.0127 -34.0079 -34.0065
   -34.0024 -34.0010 -33.9941 -33.9935 -33.9929 -33.9923 -33.9227 -33.9201
   -33.9157 -33.9099 -33.8907 -33.8849 -33.8817  -5.2527  -4.8171  -4.6987
    -2.2147  -2.0703  -1.9633  -1.8552  -1.7849  -1.5599  -1.5506  -1.5017
    -1.4748  -1.2326  -1.1816  -1.1027  -1.0564  -0.9906  -0.8365  -0.7749
    -0.4654  -0.3752  -0.3415  -0.1194  -0.1167  -0.0885  -0.0416  -0.0337
     5.4244   5.4979   5.6375   5.9790   6.2837   6.4949   6.8064   6.8115
     6.9699   7.1262   7.4401   7.9098   7.9527   8.1150

          k =-0.5080-0.2878 0.0001 ( 16490 PWs)   bands (ev):

   -76.8883 -76.8871 -76.7820 -72.8458 -39.9648 -39.9236 -39.9191 -38.7954
   -38.7948 -38.7712 -38.7689 -38.7664 -38.7653 -38.6903 -38.6659 -38.6383
   -34.0242 -34.0231 -34.0143 -34.0136 -34.0131 -34.0127 -34.0079 -34.0065
   -34.0023 -34.0010 -33.9940 -33.9935 -33.9928 -33.9922 -33.9227 -33.9200
   -33.9157 -33.9099 -33.8907 -33.8849 -33.8816  -5.3673  -5.0573  -4.9143
    -2.1293  -1.9057  -1.7791  -1.6382  -1.6130  -1.5814  -1.3718  -1.3691
    -1.3513  -1.2516  -1.2505  -1.1046  -1.0301  -0.6919  -0.6665  -0.5740
    -0.5424  -0.4636  -0.4026  -0.3920  -0.2825  -0.2135  -0.1269  -0.0595
     5.1958   5.4840   5.5405   5.6985   6.4091   6.6395   6.7932   6.9467
     7.0751   7.1015   7.2524   7.6277   7.7111   7.8141

          k =-0.5078-0.2880-0.8178 ( 16554 PWs)   bands (ev):

   -76.8883 -76.8871 -76.7821 -72.8458 -39.9648 -39.9236 -39.9191 -38.7956
   -38.7949 -38.7712 -38.7691 -38.7666 -38.7655 -38.6903 -38.6661 -38.6385
   -34.0243 -34.0231 -34.0143 -34.0136 -34.0131 -34.0127 -34.0079 -34.0065
   -34.0023 -34.0010 -33.9941 -33.9935 -33.9930 -33.9923 -33.9227 -33.9201
   -33.9157 -33.9099 -33.8907 -33.8849 -33.8818  -5.1497  -4.8322  -4.8055
    -2.2182  -2.0672  -1.9952  -1.8001  -1.6844  -1.5579  -1.5407  -1.5176
    -1.4433  -1.4262  -1.2348  -1.2029  -0.9930  -0.9731  -0.8779  -0.7209
    -0.3825  -0.3314  -0.3189  -0.1289  -0.0935  -0.0887  -0.0763   0.0083
     5.3359   5.5081   5.8258   5.8643   5.9658   6.0141   6.7385   6.7720
     7.0222   7.2137   7.6634   7.7224   7.8600   8.0760

          k =-0.5082 0.2882 0.0002 ( 16490 PWs)   bands (ev):

   -76.8883 -76.8871 -76.7820 -72.8458 -39.9648 -39.9236 -39.9191 -38.7954
   -38.7948 -38.7711 -38.7690 -38.7664 -38.7653 -38.6903 -38.6659 -38.6383
   -34.0242 -34.0231 -34.0143 -34.0136 -34.0131 -34.0127 -34.0079 -34.0065
   -34.0023 -34.0009 -33.9940 -33.9935 -33.9928 -33.9923 -33.9227 -33.9201
   -33.9157 -33.9098 -33.8907 -33.8849 -33.8816  -5.3669  -5.0574  -4.9148
    -2.1294  -1.9058  -1.7792  -1.6379  -1.6131  -1.5835  -1.3721  -1.3688
    -1.3499  -1.2517  -1.2507  -1.1030  -1.0298  -0.6914  -0.6663  -0.5730
    -0.5438  -0.4637  -0.4027  -0.3892  -0.2856  -0.2139  -0.1277  -0.0590
     5.1953   5.4847   5.5410   5.6975   6.4095   6.6386   6.7922   6.9459
     7.0744   7.1017   7.2519   7.6289   7.7129   7.8146

          k =-0.5080 0.2880-0.8177 ( 16536 PWs)   bands (ev):

   -76.8883 -76.8871 -76.7821 -72.8458 -39.9648 -39.9236 -39.9191 -38.7955
   -38.7949 -38.7712 -38.7690 -38.7666 -38.7655 -38.6903 -38.6660 -38.6385
   -34.0242 -34.0231 -34.0143 -34.0136 -34.0131 -34.0127 -34.0079 -34.0065
   -34.0023 -34.0010 -33.9942 -33.9934 -33.9929 -33.9923 -33.9227 -33.9201
   -33.9157 -33.9098 -33.8907 -33.8849 -33.8818  -5.1494  -4.8325  -4.8055
    -2.2184  -2.0672  -1.9945  -1.7999  -1.6838  -1.5582  -1.5430  -1.5192
    -1.4442  -1.4244  -1.2325  -1.2029  -0.9924  -0.9741  -0.8785  -0.7192
    -0.3836  -0.3299  -0.3189  -0.1294  -0.0992  -0.0829  -0.0787   0.0101
     5.3363   5.5095   5.8258   5.8642   5.9648   6.0129   6.7393   6.7731
     7.0200   7.2170   7.6594   7.7205   7.8591   8.0755

          k =-1.0163 0.0004 0.0002 ( 16510 PWs)   bands (ev):

   -76.8883 -76.8871 -76.7821 -72.8458 -39.9648 -39.9236 -39.9191 -38.7954
   -38.7948 -38.7712 -38.7690 -38.7665 -38.7654 -38.6903 -38.6659 -38.6384
   -34.0243 -34.0231 -34.0143 -34.0136 -34.0131 -34.0127 -34.0079 -34.0065
   -34.0023 -34.0010 -33.9940 -33.9935 -33.9928 -33.9923 -33.9227 -33.9201
   -33.9157 -33.9099 -33.8907 -33.8849 -33.8816  -5.3212  -5.1381  -4.8926
    -2.0136  -1.9438  -1.9259  -1.6390  -1.6294  -1.5758  -1.3868  -1.3535
    -1.2923  -1.2527  -1.1400  -1.0307  -0.9809  -0.7124  -0.7093  -0.6436
    -0.5429  -0.4761  -0.3782  -0.3588  -0.3249  -0.2578  -0.1805  -0.0375
     5.0873   5.5279   5.5879   5.7854   6.3645   6.6774   6.6976   6.9944
     7.0416   7.1614   7.2636   7.4897   7.5707   7.7160

          k =-1.0160 0.0002-0.8176 ( 16498 PWs)   bands (ev):

   -76.8883 -76.8871 -76.7820 -72.8458 -39.9648 -39.9236 -39.9191 -38.7953
   -38.7947 -38.7711 -38.7689 -38.7666 -38.7655 -38.6902 -38.6659 -38.6385
   -34.0242 -34.0231 -34.0143 -34.0136 -34.0130 -34.0127 -34.0079 -34.0065
   -34.0022 -34.0009 -33.9941 -33.9934 -33.9929 -33.9922 -33.9226 -33.9201
   -33.9157 -33.9098 -33.8907 -33.8849 -33.8818  -5.0504  -4.9583  -4.8101
    -2.2551  -2.0505  -1.9222  -1.8355  -1.6254  -1.5608  -1.4784  -1.4738
    -1.4276  -1.3218  -1.3007  -1.1067  -1.0007  -0.9410  -0.9195  -0.8720
    -0.5656  -0.3773  -0.3286  -0.1231  -0.1129  -0.1117  -0.0532   0.0933
     5.4106   5.4769   5.7256   5.8269   6.0059   6.3706   6.7001   6.8802
     6.9712   7.2214   7.3239   7.5304   7.9409   8.1375

     the Fermi energy is     5.2684 ev

!    total energy              =   -4360.78735070 Ry
     Harris-Foulkes estimate   =   -4360.78735072 Ry
     estimated scf accuracy    <       0.00000002 Ry

     The total energy is the sum of the following terms:

     one-electron contribution =   -3265.37024561 Ry
     hartree contribution      =    1633.33271726 Ry
     xc contribution           =    -317.62907233 Ry
     ewald contribution        =    -762.33507986 Ry
     one-center paw contrib.   =   -1648.78664338 Ry
     smearing contrib. (-TS)   =       0.00097322 Ry

     convergence has been achieved in  15 iterations

     Forces acting on atoms (cartesian axes, Ry/au):

     atom    1 type  2   force =     0.00070059   -0.00089040   -0.00003928
     atom    2 type  3   force =     0.00443414   -0.00007787   -0.00006711
     atom    3 type  2   force =     0.00062409    0.00088429    0.00006444
     atom    4 type  2   force =     0.00066649    0.00043587    0.00002820
     atom    5 type  2   force =     0.00174521   -0.00003900    0.00000367
     atom    6 type  2   force =     0.00063299   -0.00033341   -0.00000090
     atom    7 type  4   force =     0.00096261   -0.00007218   -0.00001136
     atom    8 type  4   force =     0.00055118    0.00051049   -0.00009703
     atom    9 type  4   force =    -0.00122808   -0.00031250   -0.00005830
     atom   10 type  1   force =     0.00122804   -0.00096152   -0.00086800
     atom   11 type  1   force =     0.00042459    0.00257900    0.00022030
     atom   12 type  1   force =    -0.00226182    0.00120636   -0.00020291
     atom   13 type  1   force =    -0.00226516   -0.00114541    0.00017348
     atom   14 type  1   force =    -0.00233334    0.00113870    0.00012586
     atom   15 type  1   force =     0.00117417   -0.00088538    0.00096316
     atom   16 type  1   force =     0.00051723    0.00252970   -0.00026529
     atom   17 type  1   force =     0.00115223    0.00097672   -0.00081906
     atom   18 type  1   force =     0.00051544   -0.00251857    0.00014273
     atom   19 type  1   force =    -0.00278725    0.00245904   -0.00006843
     atom   20 type  1   force =    -0.00408068    0.00006165    0.00005727
     atom   21 type  1   force =    -0.00270398   -0.00214000    0.00008451
     atom   22 type  1   force =    -0.00105843    0.00306541    0.00176862
     atom   23 type  1   force =     0.00248877   -0.00010757   -0.00024146
     atom   24 type  1   force =    -0.00109943   -0.00309990   -0.00194035
     atom   25 type  1   force =    -0.00119329   -0.00317687    0.00209714
     atom   26 type  1   force =     0.00251492    0.00003573    0.00029129
     atom   27 type  1   force =    -0.00113891    0.00318172   -0.00188555
     atom   28 type  1   force =    -0.00099765    0.00119914    0.00007425
     atom   29 type  1   force =     0.00275333    0.00051053   -0.00003654
     atom   30 type  1   force =    -0.00023896    0.00043687   -0.00008397
     atom   31 type  1   force =    -0.00029667   -0.00069063    0.00008063
     atom   32 type  1   force =     0.00247430   -0.00063971   -0.00002411
     atom   33 type  1   force =    -0.00120674   -0.00147652   -0.00004934
     atom   34 type  1   force =    -0.00232894   -0.00106958   -0.00012943
     atom   35 type  1   force =     0.00122103    0.00095194    0.00078743
     atom   36 type  1   force =     0.00043801   -0.00252613   -0.00007456

     Total force =     0.015179     Total SCF correction =     0.000511


     Computing stress (Cartesian axis) and pressure

          total   stress  (Ry/bohr**3)                   (kbar)     P=    1.38
  -0.00000705   0.00000000   0.00000006         -1.04      0.00      0.01
   0.00000000   0.00002152   0.00000006          0.00      3.16      0.01
   0.00000006   0.00000006   0.00001360          0.01      0.01      2.00


     number of scf cycles    =  16
     number of bfgs steps    =  15

     enthalpy old            =   -4360.7868503496 Ry
     enthalpy new            =   -4360.7873507002 Ry

     CASE: enthalpy_new < enthalpy_old

     new trust radius        =       0.0313618623 bohr
     new conv_thr            =       0.0000000443 Ry

     new unit-cell volume =   2747.05714 a.u.^3 (   407.07186 Ang^3 )
     density =      0.14685 g/cm^3

CELL_PARAMETERS (angstrom)
   4.518679260  -7.982391397   0.004338975
   4.525800580   7.986333296  -0.001509727
   0.001622467  -0.001417023   5.636991968

ATOMIC_POSITIONS (angstrom)
K        1.083602884   2.065396928   2.818604319
Mg       6.493486260   0.001328645   2.819467212
K        1.081597852  -2.066111894   2.818868501
K        2.717154719   4.742557565  -0.002142458
K        3.626885331   0.001836315   0.001020517
K        2.713072082  -4.740233580   0.002344703
Re       4.647731099  -2.480973381   2.820403779
Re       4.650663785   2.482955464   2.819238848
Re      -0.162377531   0.000481493   0.000602889
H        5.019530369  -3.609912262   4.042975579
H        5.426187459  -1.515186867   4.028117565
H        3.525336856  -2.349314210   4.100700651
H        3.527598358   2.350920460   1.538670729
H        3.525072728  -2.348794148   1.539301583
H        5.019407922  -3.609634662   1.599582212
H        5.425468574  -1.514338768   1.611706204
H        5.023018114   3.612116099   4.040337186
H        5.428332168   1.516836060   4.028092436
H        0.644737356  -1.492209881   0.001350532
H        7.186266013   0.003977701   0.002616652
H        0.646901385   1.492679653  -0.000537510
H        3.714615693  -7.001648612   1.253280318
H        1.067780192  -0.000593887   4.461897729
H        3.721805414   7.005162763   4.387422782
H        3.720042981   7.005623193   1.248492231
H        1.066730056   0.000000717   1.176452153
H        3.715717409  -7.003037111   4.392079764
H        3.550657878   3.740936909   2.818340247
H        6.286293393   2.830643133   2.819636930
H        3.894922307   0.983126150   2.820482863
H        3.893634556  -0.980990916   2.819350378
H        6.283384455  -2.826684990   2.820876703
H        3.547182679  -3.739443077   2.821066880
H        3.528128430   2.350333537   4.100191200
H        5.022313204   3.613153474   1.597176540
H        5.427827843   1.517626631   1.610755904



     Writing output data file K5MgReH93.save
     NEW-OLD atomic charge density approx. for the potential
     extrapolated charge  128.58302, renormalised to  129.00000

     total cpu time spent up to now is    17328.2 secs

     Self-consistent Calculation

     iteration #  1     ecut=    50.00 Ry     beta=0.70
     Davidson diagonalization with overlap
     c_bands:  1 eigenvalues not converged
     ethr =  1.00E-06,  avg # of iterations = 10.1

     total cpu time spent up to now is    17396.2 secs

     total energy              =   -4360.50122478 Ry
     Harris-Foulkes estimate   =   -4370.73925089 Ry
     estimated scf accuracy    <       0.24214288 Ry

     iteration #  2     ecut=    50.00 Ry     beta=0.70
     Davidson diagonalization with overlap
     ethr =  1.88E-04,  avg # of iterations =  5.8

     total cpu time spent up to now is    17448.2 secs

     total energy              =   -4360.60015662 Ry
     Harris-Foulkes estimate   =   -4361.31617980 Ry
     estimated scf accuracy    <       2.50636753 Ry

     iteration #  3     ecut=    50.00 Ry     beta=0.70
     Davidson diagonalization with overlap
     ethr =  1.88E-04,  avg # of iterations =  4.0

     total cpu time spent up to now is    17491.8 secs

     total energy              =   -4360.79855721 Ry
     Harris-Foulkes estimate   =   -4360.82167580 Ry
     estimated scf accuracy    <       0.16015553 Ry

     iteration #  4     ecut=    50.00 Ry     beta=0.70
     Davidson diagonalization with overlap
     ethr =  1.24E-04,  avg # of iterations =  1.0

     total cpu time spent up to now is    17522.8 secs

     total energy              =   -4360.79568259 Ry
     Harris-Foulkes estimate   =   -4360.80198895 Ry
     estimated scf accuracy    <       0.07555360 Ry

     iteration #  5     ecut=    50.00 Ry     beta=0.70
     Davidson diagonalization with overlap
     ethr =  5.86E-05,  avg # of iterations =  1.0

     total cpu time spent up to now is    17553.1 secs

     total energy              =   -4360.79210950 Ry
     Harris-Foulkes estimate   =   -4360.79658871 Ry
     estimated scf accuracy    <       0.04864263 Ry

     iteration #  6     ecut=    50.00 Ry     beta=0.70
     Davidson diagonalization with overlap
     ethr =  3.77E-05,  avg # of iterations =  1.1

     total cpu time spent up to now is    17584.3 secs

     total energy              =   -4360.78943846 Ry
     Harris-Foulkes estimate   =   -4360.79285559 Ry
     estimated scf accuracy    <       0.02781661 Ry

     iteration #  7     ecut=    50.00 Ry     beta=0.70
     Davidson diagonalization with overlap
     ethr =  2.16E-05,  avg # of iterations =  2.6

     total cpu time spent up to now is    17613.2 secs

     total energy              =   -4360.78932414 Ry
     Harris-Foulkes estimate   =   -4360.79011483 Ry
     estimated scf accuracy    <       0.01247199 Ry

     iteration #  8     ecut=    50.00 Ry     beta=0.70
     Davidson diagonalization with overlap
     ethr =  9.67E-06,  avg # of iterations =  3.6

     total cpu time spent up to now is    17643.3 secs

     total energy              =   -4360.78845133 Ry
     Harris-Foulkes estimate   =   -4360.78945859 Ry
     estimated scf accuracy    <       0.00900417 Ry

     iteration #  9     ecut=    50.00 Ry     beta=0.70
     Davidson diagonalization with overlap
     ethr =  6.98E-06,  avg # of iterations =  4.8

     total cpu time spent up to now is    17675.0 secs

     total energy              =   -4360.78806280 Ry
     Harris-Foulkes estimate   =   -4360.78867064 Ry
     estimated scf accuracy    <       0.00408795 Ry

     iteration # 10     ecut=    50.00 Ry     beta=0.70
     Davidson diagonalization with overlap
     ethr =  3.17E-06,  avg # of iterations =  3.0

     total cpu time spent up to now is    17704.7 secs

     total energy              =   -4360.78763950 Ry
     Harris-Foulkes estimate   =   -4360.78817503 Ry
     estimated scf accuracy    <       0.00160828 Ry

     iteration # 11     ecut=    50.00 Ry     beta=0.70
     Davidson diagonalization with overlap
     ethr =  1.25E-06,  avg # of iterations =  4.6

     total cpu time spent up to now is    17738.2 secs

     total energy              =   -4360.78787685 Ry
     Harris-Foulkes estimate   =   -4360.78787891 Ry
     estimated scf accuracy    <       0.00000954 Ry

     iteration # 12     ecut=    50.00 Ry     beta=0.70
     Davidson diagonalization with overlap
     ethr =  7.39E-09,  avg # of iterations =  3.0

     total cpu time spent up to now is    17775.2 secs

     total energy              =   -4360.78788246 Ry
     Harris-Foulkes estimate   =   -4360.78788334 Ry
     estimated scf accuracy    <       0.00000253 Ry

     iteration # 13     ecut=    50.00 Ry     beta=0.70
     Davidson diagonalization with overlap
     ethr =  1.96E-09,  avg # of iterations =  2.4

     total cpu time spent up to now is    17807.3 secs

     total energy              =   -4360.78788270 Ry
     Harris-Foulkes estimate   =   -4360.78788286 Ry
     estimated scf accuracy    <       0.00000059 Ry

     iteration # 14     ecut=    50.00 Ry     beta=0.70
     Davidson diagonalization with overlap
     ethr =  4.56E-10,  avg # of iterations =  3.0

     total cpu time spent up to now is    17843.7 secs

     total energy              =   -4360.78788271 Ry
     Harris-Foulkes estimate   =   -4360.78788287 Ry
     estimated scf accuracy    <       0.00000056 Ry

     iteration # 15     ecut=    50.00 Ry     beta=0.70
     Davidson diagonalization with overlap
     ethr =  4.36E-10,  avg # of iterations =  2.1

     total cpu time spent up to now is    17874.0 secs

     total energy              =   -4360.78788271 Ry
     Harris-Foulkes estimate   =   -4360.78788277 Ry
     estimated scf accuracy    <       0.00000012 Ry

     iteration # 16     ecut=    50.00 Ry     beta=0.70
     Davidson diagonalization with overlap
     ethr =  9.21E-11,  avg # of iterations =  3.0

     total cpu time spent up to now is    17911.1 secs

     End of self-consistent calculation

          k = 0.0000 0.0000 0.0000 ( 16447 PWs)   bands (ev):

   -76.8630 -76.8613 -76.7670 -72.8312 -39.9510 -39.9080 -39.9046 -38.7715
   -38.7704 -38.7480 -38.7457 -38.7423 -38.7409 -38.6783 -38.6505 -38.6214
   -33.9956 -33.9941 -33.9856 -33.9845 -33.9840 -33.9833 -33.9791 -33.9773
   -33.9737 -33.9719 -33.9654 -33.9649 -33.9638 -33.9634 -33.9065 -33.9034
   -33.8992 -33.8926 -33.8730 -33.8666 -33.8636  -5.5622  -4.8376  -4.7924
    -2.1068  -1.9612  -1.9246  -1.9014  -1.6154  -1.5950  -1.3724  -1.2956
    -1.2776  -1.2344  -1.1190  -1.0600  -0.8984  -0.7486  -0.6773  -0.5436
    -0.4262  -0.4056  -0.3625  -0.3438  -0.3239  -0.2230  -0.0483   0.0412
     4.9934   5.5065   6.1296   6.2009   6.2070   6.2761   6.3261   6.6590
     7.0269   7.3194   7.3384   7.3995   7.4770   7.5202

          k = 0.0003-0.0003-0.8172 ( 16526 PWs)   bands (ev):

   -76.8630 -76.8613 -76.7670 -72.8312 -39.9510 -39.9080 -39.9046 -38.7716
   -38.7704 -38.7481 -38.7458 -38.7426 -38.7412 -38.6785 -38.6505 -38.6217
   -33.9957 -33.9942 -33.9856 -33.9846 -33.9840 -33.9833 -33.9792 -33.9773
   -33.9737 -33.9720 -33.9656 -33.9649 -33.9641 -33.9634 -33.9065 -33.9035
   -33.8992 -33.8927 -33.8730 -33.8666 -33.8637  -5.2402  -4.8053  -4.6802
    -2.1919  -2.0590  -1.9475  -1.8457  -1.7701  -1.5406  -1.5334  -1.4765
    -1.4700  -1.2162  -1.1772  -1.0746  -1.0604  -0.9672  -0.8124  -0.7500
    -0.4497  -0.3840  -0.3223  -0.1056  -0.0932  -0.0698  -0.0199  -0.0073
     5.4639   5.5408   5.6547   5.9846   6.3069   6.5237   6.8357   6.8495
     6.9979   7.1608   7.4677   7.9265   7.9683   8.1519

          k =-0.5092-0.2883 0.0001 ( 16490 PWs)   bands (ev):

   -76.8630 -76.8613 -76.7670 -72.8312 -39.9510 -39.9080 -39.9046 -38.7715
   -38.7705 -38.7481 -38.7457 -38.7424 -38.7410 -38.6784 -38.6505 -38.6216
   -33.9956 -33.9942 -33.9856 -33.9845 -33.9841 -33.9833 -33.9792 -33.9773
   -33.9737 -33.9720 -33.9655 -33.9649 -33.9639 -33.9634 -33.9065 -33.9035
   -33.8992 -33.8927 -33.8730 -33.8666 -33.8636  -5.3525  -5.0438  -4.8975
    -2.1158  -1.8888  -1.7640  -1.6253  -1.5918  -1.5676  -1.3474  -1.3459
    -1.3309  -1.2526  -1.2468  -1.0839  -1.0080  -0.6893  -0.6538  -0.5604
    -0.5264  -0.4425  -0.3957  -0.3792  -0.2666  -0.1931  -0.0988  -0.0308
     5.2135   5.4978   5.5664   5.7330   6.4438   6.6703   6.8353   6.9765
     7.1017   7.1142   7.2548   7.6606   7.7461   7.8492

          k =-0.5090-0.2886-0.8172 ( 16554 PWs)   bands (ev):

   -76.8630 -76.8613 -76.7670 -72.8312 -39.9510 -39.9080 -39.9046 -38.7718
   -38.7705 -38.7480 -38.7458 -38.7426 -38.7412 -38.6784 -38.6507 -38.6218
   -33.9957 -33.9941 -33.9857 -33.9846 -33.9841 -33.9833 -33.9792 -33.9773
   -33.9737 -33.9720 -33.9657 -33.9649 -33.9641 -33.9634 -33.9066 -33.9035
   -33.8992 -33.8927 -33.8730 -33.8667 -33.8638  -5.1358  -4.8155  -4.7934
    -2.1970  -2.0562  -1.9841  -1.7863  -1.6672  -1.5506  -1.5194  -1.5048
    -1.4325  -1.4001  -1.2167  -1.1876  -0.9869  -0.9519  -0.8575  -0.6997
    -0.3631  -0.3274  -0.3137  -0.1155  -0.0728  -0.0640  -0.0559   0.0345
     5.3707   5.5510   5.8484   5.8747   5.9818   6.0390   6.7732   6.7993
     7.0507   7.2349   7.6849   7.7589   7.8790   8.1079

          k =-0.5095 0.2887 0.0002 ( 16490 PWs)   bands (ev):

   -76.8630 -76.8613 -76.7670 -72.8312 -39.9510 -39.9080 -39.9046 -38.7716
   -38.7704 -38.7480 -38.7457 -38.7424 -38.7410 -38.6784 -38.6505 -38.6216
   -33.9957 -33.9941 -33.9856 -33.9846 -33.9841 -33.9833 -33.9792 -33.9774
   -33.9737 -33.9719 -33.9655 -33.9649 -33.9639 -33.9634 -33.9065 -33.9035
   -33.8992 -33.8926 -33.8730 -33.8666 -33.8636  -5.3521  -5.0434  -4.8984
    -2.1164  -1.8888  -1.7640  -1.6256  -1.5915  -1.5700  -1.3478  -1.3453
    -1.3292  -1.2529  -1.2468  -1.0824  -1.0066  -0.6884  -0.6536  -0.5602
    -0.5269  -0.4426  -0.3957  -0.3771  -0.2690  -0.1943  -0.1002  -0.0298
     5.2131   5.4981   5.5663   5.7342   6.4440   6.6668   6.8322   6.9764
     7.0997   7.1152   7.2536   7.6625   7.7504   7.8506

          k =-0.5092 0.2884-0.8170 ( 16536 PWs)   bands (ev):

   -76.8630 -76.8613 -76.7670 -72.8312 -39.9510 -39.9080 -39.9046 -38.7716
   -38.7706 -38.7481 -38.7457 -38.7426 -38.7412 -38.6784 -38.6506 -38.6217
   -33.9956 -33.9942 -33.9857 -33.9846 -33.9841 -33.9833 -33.9792 -33.9773
   -33.9737 -33.9720 -33.9657 -33.9649 -33.9641 -33.9634 -33.9066 -33.9035
   -33.8992 -33.8926 -33.8730 -33.8667 -33.8638  -5.1354  -4.8159  -4.7934
    -2.1971  -2.0562  -1.9835  -1.7865  -1.6667  -1.5514  -1.5205  -1.5069
    -1.4329  -1.3993  -1.2138  -1.1867  -0.9869  -0.9533  -0.8583  -0.6973
    -0.3634  -0.3272  -0.3133  -0.1154  -0.0778  -0.0591  -0.0586   0.0361
     5.3713   5.5527   5.8477   5.8751   5.9806   6.0383   6.7740   6.7984
     7.0499   7.2376   7.6798   7.7555   7.8801   8.1072

          k =-1.0187 0.0005 0.0003 ( 16510 PWs)   bands (ev):

   -76.8630 -76.8613 -76.7670 -72.8312 -39.9510 -39.9080 -39.9046 -38.7716
   -38.7705 -38.7480 -38.7457 -38.7425 -38.7411 -38.6784 -38.6505 -38.6216
   -33.9957 -33.9942 -33.9857 -33.9846 -33.9841 -33.9833 -33.9792 -33.9773
   -33.9737 -33.9720 -33.9655 -33.9649 -33.9639 -33.9634 -33.9065 -33.9035
   -33.8992 -33.8927 -33.8730 -33.8666 -33.8637  -5.3075  -5.1217  -4.8781
    -2.0012  -1.9306  -1.9084  -1.6283  -1.6057  -1.5537  -1.3612  -1.3331
    -1.2883  -1.2448  -1.1347  -1.0043  -0.9624  -0.7007  -0.6926  -0.6431
    -0.5293  -0.4551  -0.3583  -0.3516  -0.3180  -0.2360  -0.1522  -0.0065
     5.1069   5.5530   5.6026   5.8235   6.3999   6.7024   6.7282   7.0255
     7.0646   7.1782   7.2733   7.5265   7.6137   7.7122

          k =-1.0184 0.0002-0.8169 ( 16498 PWs)   bands (ev):

   -76.8630 -76.8613 -76.7670 -72.8312 -39.9510 -39.9080 -39.9046 -38.7715
   -38.7704 -38.7479 -38.7456 -38.7426 -38.7412 -38.6783 -38.6505 -38.6218
   -33.9957 -33.9942 -33.9856 -33.9845 -33.9840 -33.9833 -33.9792 -33.9773
   -33.9736 -33.9719 -33.9656 -33.9649 -33.9641 -33.9634 -33.9065 -33.9035
   -33.8992 -33.8926 -33.8730 -33.8666 -33.8638  -5.0353  -4.9434  -4.7982
    -2.2338  -2.0375  -1.9140  -1.8249  -1.6056  -1.5366  -1.4758  -1.4448
    -1.4076  -1.3134  -1.2877  -1.0933  -1.0033  -0.9087  -0.8955  -0.8512
    -0.5436  -0.3858  -0.3088  -0.1053  -0.1038  -0.0943  -0.0280   0.1222
     5.4524   5.5013   5.7702   5.8370   6.0305   6.3897   6.7199   6.9092
     6.9968   7.2423   7.3414   7.5591   7.9618   8.1581

     the Fermi energy is     5.2961 ev

!    total energy              =   -4360.78788271 Ry
     Harris-Foulkes estimate   =   -4360.78788275 Ry
     estimated scf accuracy    <       0.00000004 Ry

     The total energy is the sum of the following terms:

     one-electron contribution =   -3263.43597984 Ry
     hartree contribution      =    1632.46978544 Ry
     xc contribution           =    -317.64472769 Ry
     ewald contribution        =    -763.39174348 Ry
     one-center paw contrib.   =   -1648.78643080 Ry
     smearing contrib. (-TS)   =       0.00121366 Ry

     convergence has been achieved in  16 iterations

     Forces acting on atoms (cartesian axes, Ry/au):

     atom    1 type  2   force =     0.00055091   -0.00099280   -0.00002743
     atom    2 type  3   force =     0.00489817   -0.00015613   -0.00008061
     atom    3 type  2   force =     0.00048564    0.00095826    0.00004027
     atom    4 type  2   force =     0.00017889    0.00027176    0.00002183
     atom    5 type  2   force =     0.00188862   -0.00002798    0.00000219
     atom    6 type  2   force =     0.00013891   -0.00014719   -0.00000200
     atom    7 type  4   force =     0.00173555   -0.00048130    0.00009024
     atom    8 type  4   force =     0.00144870    0.00070199   -0.00000432
     atom    9 type  4   force =    -0.00239221   -0.00011846   -0.00002406
     atom   10 type  1   force =     0.00152342   -0.00037962   -0.00077604
     atom   11 type  1   force =     0.00122557    0.00301464    0.00129506
     atom   12 type  1   force =    -0.00214720    0.00116281   -0.00024941
     atom   13 type  1   force =    -0.00195160   -0.00105470    0.00045316
     atom   14 type  1   force =    -0.00193278    0.00103938    0.00046138
     atom   15 type  1   force =     0.00168148   -0.00093011    0.00024972
     atom   16 type  1   force =     0.00113713    0.00275869   -0.00110233
     atom   17 type  1   force =     0.00150121    0.00068475   -0.00050652
     atom   18 type  1   force =     0.00116658   -0.00280334    0.00107617
     atom   19 type  1   force =    -0.00182103    0.00027192   -0.00010065
     atom   20 type  1   force =    -0.00477247    0.00005010    0.00005604
     atom   21 type  1   force =    -0.00197982   -0.00041060    0.00010650
     atom   22 type  1   force =    -0.00133337    0.00244772    0.00174801
     atom   23 type  1   force =     0.00204834   -0.00008487   -0.00041637
     atom   24 type  1   force =    -0.00127122   -0.00223683   -0.00162069
     atom   25 type  1   force =    -0.00116404   -0.00192123    0.00142087
     atom   26 type  1   force =     0.00188464    0.00000261    0.00027722
     atom   27 type  1   force =    -0.00112444    0.00198557   -0.00130611
     atom   28 type  1   force =    -0.00348377    0.00341158    0.00009094
     atom   29 type  1   force =     0.00269025    0.00019720   -0.00004571
     atom   30 type  1   force =    -0.00050183    0.00005876   -0.00011475
     atom   31 type  1   force =    -0.00079932    0.00015699    0.00010931
     atom   32 type  1   force =     0.00282854   -0.00044835   -0.00004008
     atom   33 type  1   force =    -0.00316616   -0.00312698   -0.00006941
     atom   34 type  1   force =    -0.00194650   -0.00094817   -0.00050663
     atom   35 type  1   force =     0.00142301    0.00021403    0.00089991
     atom   36 type  1   force =     0.00135222   -0.00312013   -0.00140570

     Total force =     0.015944     Total SCF correction =     0.002425
     SCF correction compared to forces is large: reduce conv_thr to get better values


     Computing stress (Cartesian axis) and pressure

          total   stress  (Ry/bohr**3)                   (kbar)     P=    2.40
   0.00000168  -0.00000153  -0.00000056          0.25     -0.23     -0.08
  -0.00000153   0.00003213   0.00000236         -0.23      4.73      0.35
  -0.00000056   0.00000236   0.00001521         -0.08      0.35      2.24


     number of scf cycles    =  17
     number of bfgs steps    =  16

     enthalpy old            =   -4360.7873507002 Ry
     enthalpy new            =   -4360.7878827122 Ry

     CASE: enthalpy_new < enthalpy_old

     new trust radius        =       0.0469301044 bohr
     new conv_thr            =       0.0000000490 Ry

     new unit-cell volume =   2737.55886 a.u.^3 (   405.66436 Ang^3 )
     density =      0.14736 g/cm^3

CELL_PARAMETERS (angstrom)
   4.504122060  -7.970446053   0.005487179
   4.512049813   7.974862331  -0.002268164
   0.001857140  -0.002045721   5.643414938

ATOMIC_POSITIONS (angstrom)
K        1.082611037   2.060563691   2.821476978
Mg       6.498038118   0.001234109   2.822798399
K        1.080221051  -2.061701750   2.822598754
K        2.716632837   4.732397246  -0.002459692
K        3.621931847   0.001893323   0.001154902
K        2.712276478  -4.729765504   0.002914517
Re       4.633646396  -2.476704384   2.824180805
Re       4.636639951   2.478384179   2.822335617
Re      -0.169704948   0.000622499   0.000684565
H        5.003517119  -3.610008884   4.044652986
H        5.405833161  -1.507991105   4.030112403
H        3.510598245  -2.345294098   4.105101697
H        3.512577149   2.346683418   1.540465167
H        3.509791636  -2.344480508   1.541652307
H        5.002978353  -3.608663706   1.606364214
H        5.405345417  -1.506621290   1.616621906
H        5.007203157   3.611573997   4.041079559
H        5.408305373   1.509286272   4.029623171
H        0.641469561  -1.483595710   0.001577993
H        7.145980478   0.004472520   0.003075189
H        0.644181226   1.484816512  -0.000628845
H        3.702414518  -6.983143942   1.258968095
H        1.064804364  -0.001246595   4.473489223
H        3.710171095   6.986061994   4.387775923
H        3.707877047   6.986224863   1.253884798
H        1.063828012  -0.000018714   1.171654627
H        3.703131243  -6.983972233   4.394028381
H        3.541743035   3.735903579   2.821298286
H        6.273222635   2.825602354   2.822698770
H        3.879729099   0.980320134   2.823706218
H        3.878476995  -0.979127910   2.822820153
H        6.269565140  -2.821736483   2.824638105
H        3.537391190  -3.735302219   2.824848310
H        3.513040697   2.345810921   4.104765824
H        5.006682895   3.613422478   1.601797418
H        5.407341955   1.510685149   1.616047599



     Writing output data file K5MgReH93.save
     NEW-OLD atomic charge density approx. for the potential
     extrapolated charge  128.55275, renormalised to  129.00000

     total cpu time spent up to now is    18523.2 secs

     Self-consistent Calculation

     iteration #  1     ecut=    50.00 Ry     beta=0.70
     Davidson diagonalization with overlap
     c_bands:  1 eigenvalues not converged
     c_bands:  1 eigenvalues not converged
     c_bands:  1 eigenvalues not converged
     c_bands:  1 eigenvalues not converged
     ethr =  1.00E-06,  avg # of iterations = 14.0

     total cpu time spent up to now is    18587.4 secs

     total energy              =   -4360.53365452 Ry
     Harris-Foulkes estimate   =   -4371.35170653 Ry
     estimated scf accuracy    <       0.22591747 Ry

     iteration #  2     ecut=    50.00 Ry     beta=0.70
     Davidson diagonalization with overlap
     ethr =  1.75E-04,  avg # of iterations =  5.9

     total cpu time spent up to now is    18635.9 secs

     total energy              =   -4360.60603712 Ry
     Harris-Foulkes estimate   =   -4361.28492200 Ry
     estimated scf accuracy    <       2.40540469 Ry

     iteration #  3     ecut=    50.00 Ry     beta=0.70
     Davidson diagonalization with overlap
     ethr =  1.75E-04,  avg # of iterations =  4.4

     total cpu time spent up to now is    18677.1 secs

     total energy              =   -4360.80028400 Ry
     Harris-Foulkes estimate   =   -4360.81898982 Ry
     estimated scf accuracy    <       0.15151744 Ry

     iteration #  4     ecut=    50.00 Ry     beta=0.70
     Davidson diagonalization with overlap
     ethr =  1.17E-04,  avg # of iterations =  1.0

     total cpu time spent up to now is    18705.5 secs

     total energy              =   -4360.79367621 Ry
     Harris-Foulkes estimate   =   -4360.80306876 Ry
     estimated scf accuracy    <       0.07869555 Ry

     iteration #  5     ecut=    50.00 Ry     beta=0.70
     Davidson diagonalization with overlap
     ethr =  6.10E-05,  avg # of iterations =  1.0

     total cpu time spent up to now is    18734.2 secs

     total energy              =   -4360.79150732 Ry
     Harris-Foulkes estimate   =   -4360.79527452 Ry
     estimated scf accuracy    <       0.04063985 Ry

     iteration #  6     ecut=    50.00 Ry     beta=0.70
     Davidson diagonalization with overlap
     ethr =  3.15E-05,  avg # of iterations =  1.2

     total cpu time spent up to now is    18762.7 secs

     total energy              =   -4360.78633323 Ry
     Harris-Foulkes estimate   =   -4360.79228321 Ry
     estimated scf accuracy    <       0.02296525 Ry

     iteration #  7     ecut=    50.00 Ry     beta=0.70
     Davidson diagonalization with overlap
     ethr =  1.78E-05,  avg # of iterations =  3.9

     total cpu time spent up to now is    18797.5 secs

     total energy              =   -4360.78879129 Ry
     Harris-Foulkes estimate   =   -4360.78871443 Ry
     estimated scf accuracy    <       0.00132796 Ry

     iteration #  8     ecut=    50.00 Ry     beta=0.70
     Davidson diagonalization with overlap
     ethr =  1.03E-06,  avg # of iterations =  2.8

     total cpu time spent up to now is    18828.5 secs

     total energy              =   -4360.78883294 Ry
     Harris-Foulkes estimate   =   -4360.78883144 Ry
     estimated scf accuracy    <       0.00169089 Ry

     iteration #  9     ecut=    50.00 Ry     beta=0.70
     Davidson diagonalization with overlap
     ethr =  1.03E-06,  avg # of iterations =  1.0

     total cpu time spent up to now is    18857.5 secs

     total energy              =   -4360.78826418 Ry
     Harris-Foulkes estimate   =   -4360.78884039 Ry
     estimated scf accuracy    <       0.00170949 Ry

     iteration # 10     ecut=    50.00 Ry     beta=0.70
     Davidson diagonalization with overlap
     ethr =  1.03E-06,  avg # of iterations =  4.0

     total cpu time spent up to now is    18892.1 secs

     total energy              =   -4360.78848670 Ry
     Harris-Foulkes estimate   =   -4360.78848910 Ry
     estimated scf accuracy    <       0.00001303 Ry

     iteration # 11     ecut=    50.00 Ry     beta=0.70
     Davidson diagonalization with overlap
     ethr =  1.01E-08,  avg # of iterations =  3.4

     total cpu time spent up to now is    18931.6 secs

     total energy              =   -4360.78848995 Ry
     Harris-Foulkes estimate   =   -4360.78849128 Ry
     estimated scf accuracy    <       0.00000545 Ry

     iteration # 12     ecut=    50.00 Ry     beta=0.70
     Davidson diagonalization with overlap
     ethr =  4.22E-09,  avg # of iterations =  2.0

     total cpu time spent up to now is    18962.6 secs

     total energy              =   -4360.78849004 Ry
     Harris-Foulkes estimate   =   -4360.78849035 Ry
     estimated scf accuracy    <       0.00000088 Ry

     iteration # 13     ecut=    50.00 Ry     beta=0.70
     Davidson diagonalization with overlap
     ethr =  6.82E-10,  avg # of iterations =  2.5

     total cpu time spent up to now is    18995.5 secs

     total energy              =   -4360.78849013 Ry
     Harris-Foulkes estimate   =   -4360.78849016 Ry
     estimated scf accuracy    <       0.00000012 Ry

     iteration # 14     ecut=    50.00 Ry     beta=0.70
     Davidson diagonalization with overlap
     ethr =  9.12E-11,  avg # of iterations =  2.4

     total cpu time spent up to now is    19028.8 secs

     End of self-consistent calculation

          k = 0.0000 0.0000 0.0000 ( 16447 PWs)   bands (ev):

   -76.8376 -76.8353 -76.7576 -72.8177 -39.9381 -39.8934 -39.8912 -38.7464
   -38.7446 -38.7238 -38.7214 -38.7169 -38.7152 -38.6725 -38.6390 -38.6088
   -33.9677 -33.9651 -33.9576 -33.9560 -33.9550 -33.9538 -33.9509 -33.9479
   -33.9456 -33.9428 -33.9374 -33.9370 -33.9348 -33.9344 -33.8967 -33.8928
   -33.8890 -33.8812 -33.8608 -33.8535 -33.8511  -5.5457  -4.8202  -4.7624
    -2.0875  -1.9428  -1.9084  -1.8781  -1.6000  -1.5652  -1.3434  -1.2933
    -1.2625  -1.2341  -1.0929  -1.0385  -0.8776  -0.7377  -0.6551  -0.5424
    -0.3970  -0.3870  -0.3379  -0.3352  -0.3047  -0.1934  -0.0123   0.0682
     5.0229   5.5173   6.1422   6.2231   6.2260   6.3180   6.3625   6.6916
     7.0329   7.3494   7.3788   7.3849   7.4819   7.5624

          k = 0.0003-0.0004-0.8163 ( 16526 PWs)   bands (ev):

   -76.8376 -76.8353 -76.7576 -72.8177 -39.9381 -39.8934 -39.8912 -38.7464
   -38.7447 -38.7239 -38.7215 -38.7172 -38.7155 -38.6726 -38.6389 -38.6091
   -33.9678 -33.9652 -33.9576 -33.9561 -33.9549 -33.9538 -33.9510 -33.9480
   -33.9457 -33.9429 -33.9377 -33.9370 -33.9350 -33.9344 -33.8967 -33.8929
   -33.8891 -33.8813 -33.8608 -33.8536 -33.8512  -5.2208  -4.7934  -4.6528
    -2.1649  -2.0428  -1.9265  -1.8349  -1.7478  -1.5190  -1.5128  -1.4689
    -1.4436  -1.2062  -1.1640  -1.0720  -1.0384  -0.9332  -0.7801  -0.7171
    -0.4245  -0.4029  -0.3040  -0.0868  -0.0699  -0.0468   0.0042   0.0274
     5.5087   5.5892   5.6693   5.9818   6.3241   6.5515   6.8568   6.8979
     7.0254   7.1930   7.4906   7.9396   7.9721   8.1862

          k =-0.5108-0.2887 0.0001 ( 16490 PWs)   bands (ev):

   -76.8376 -76.8353 -76.7576 -72.8177 -39.9381 -39.8934 -39.8912 -38.7464
   -38.7447 -38.7239 -38.7214 -38.7170 -38.7153 -38.6725 -38.6390 -38.6090
   -33.9677 -33.9652 -33.9576 -33.9560 -33.9550 -33.9538 -33.9510 -33.9480
   -33.9456 -33.9428 -33.9375 -33.9370 -33.9348 -33.9344 -33.8968 -33.8928
   -33.8891 -33.8812 -33.8608 -33.8536 -33.8511  -5.3308  -5.0267  -4.8750
    -2.0994  -1.8663  -1.7455  -1.6078  -1.5607  -1.5499  -1.3211  -1.3151
    -1.3054  -1.2593  -1.2456  -1.0582  -0.9772  -0.6957  -0.6402  -0.5410
    -0.5062  -0.4142  -0.3885  -0.3656  -0.2436  -0.1691  -0.0650   0.0012
     5.2282   5.5061   5.5906   5.7708   6.4802   6.7007   6.8808   7.0036
     7.1185   7.1248   7.2463   7.6946   7.7818   7.8889

          k =-0.5105-0.2891-0.8162 ( 16554 PWs)   bands (ev):

   -76.8377 -76.8353 -76.7576 -72.8177 -39.9381 -39.8934 -39.8912 -38.7466
   -38.7447 -38.7239 -38.7216 -38.7172 -38.7156 -38.6726 -38.6391 -38.6092
   -33.9678 -33.9652 -33.9577 -33.9561 -33.9550 -33.9538 -33.9510 -33.9480
   -33.9457 -33.9429 -33.9377 -33.9370 -33.9350 -33.9344 -33.8968 -33.8929
   -33.8891 -33.8812 -33.8608 -33.8536 -33.8513  -5.1141  -4.7910  -4.7810
    -2.1737  -2.0410  -1.9691  -1.7659  -1.6458  -1.5453  -1.4945  -1.4887
    -1.4208  -1.3672  -1.1911  -1.1707  -0.9842  -0.9201  -0.8314  -0.6730
    -0.3449  -0.3421  -0.2902  -0.0960  -0.0477  -0.0385  -0.0325   0.0677
     5.4086   5.6010   5.8689   5.8784   5.9906   6.0647   6.8088   6.8236
     7.0746   7.2495   7.7019   7.7910   7.8933   8.1420

          k =-0.5111 0.2892 0.0003 ( 16490 PWs)   bands (ev):

   -76.8376 -76.8353 -76.7576 -72.8177 -39.9381 -39.8934 -39.8912 -38.7464
   -38.7446 -38.7239 -38.7215 -38.7170 -38.7153 -38.6725 -38.6390 -38.6090
   -33.9678 -33.9652 -33.9576 -33.9561 -33.9550 -33.9538 -33.9510 -33.9480
   -33.9456 -33.9428 -33.9375 -33.9370 -33.9349 -33.9344 -33.8968 -33.8929
   -33.8891 -33.8812 -33.8608 -33.8536 -33.8511  -5.3304  -5.0258  -4.8764
    -2.1001  -1.8662  -1.7453  -1.6085  -1.5603  -1.5525  -1.3199  -1.3161
    -1.3041  -1.2594  -1.2454  -1.0564  -0.9756  -0.6947  -0.6400  -0.5410
    -0.5063  -0.4146  -0.3883  -0.3639  -0.2457  -0.1708  -0.0669   0.0028
     5.2278   5.5060   5.5901   5.7740   6.4804   6.6948   6.8759   7.0038
     7.1179   7.1249   7.2449   7.6969   7.7877   7.8903

          k =-0.5108 0.2888-0.8160 ( 16536 PWs)   bands (ev):

   -76.8376 -76.8353 -76.7576 -72.8177 -39.9381 -39.8934 -39.8912 -38.7464
   -38.7448 -38.7240 -38.7214 -38.7172 -38.7155 -38.6725 -38.6391 -38.6092
   -33.9677 -33.9652 -33.9577 -33.9561 -33.9550 -33.9538 -33.9510 -33.9480
   -33.9457 -33.9428 -33.9377 -33.9370 -33.9350 -33.9344 -33.8968 -33.8929
   -33.8891 -33.8812 -33.8608 -33.8536 -33.8513  -5.1138  -4.7914  -4.7810
    -2.1738  -2.0410  -1.9686  -1.7666  -1.6454  -1.5467  -1.4937  -1.4914
    -1.4202  -1.3681  -1.1882  -1.1690  -0.9849  -0.9213  -0.8322  -0.6699
    -0.3446  -0.3412  -0.2911  -0.0954  -0.0534  -0.0361  -0.0325   0.0691
     5.4094   5.6029   5.8679   5.8783   5.9900   6.0645   6.8094   6.8212
     7.0746   7.2529   7.6944   7.7862   7.8958   8.1416

          k =-1.0219 0.0005 0.0003 ( 16510 PWs)   bands (ev):

   -76.8377 -76.8353 -76.7576 -72.8177 -39.9381 -39.8934 -39.8912 -38.7464
   -38.7447 -38.7239 -38.7215 -38.7171 -38.7154 -38.6726 -38.6390 -38.6091
   -33.9678 -33.9653 -33.9577 -33.9561 -33.9550 -33.9538 -33.9509 -33.9480
   -33.9457 -33.9428 -33.9375 -33.9370 -33.9349 -33.9344 -33.8968 -33.8929
   -33.8891 -33.8812 -33.8607 -33.8536 -33.8511  -5.2885  -5.0981  -4.8598
    -1.9860  -1.9124  -1.8847  -1.6119  -1.5763  -1.5240  -1.3290  -1.3133
    -1.2886  -1.2359  -1.1264  -0.9720  -0.9379  -0.6884  -0.6739  -0.6489
    -0.5140  -0.4267  -0.3445  -0.3370  -0.3065  -0.2064  -0.1181   0.0296
     5.1248   5.5759   5.6118   5.8667   6.4379   6.7244   6.7611   7.0589
     7.0816   7.1879   7.2777   7.5605   7.6594   7.6920

          k =-1.0216 0.0001-0.8160 ( 16498 PWs)   bands (ev):

   -76.8376 -76.8353 -76.7576 -72.8177 -39.9381 -39.8934 -39.8912 -38.7463
   -38.7446 -38.7238 -38.7214 -38.7173 -38.7156 -38.6724 -38.6389 -38.6092
   -33.9678 -33.9652 -33.9576 -33.9561 -33.9549 -33.9538 -33.9510 -33.9480
   -33.9456 -33.9427 -33.9376 -33.9369 -33.9350 -33.9344 -33.8967 -33.8929
   -33.8891 -33.8812 -33.8608 -33.8536 -33.8513  -5.0118  -4.9217  -4.7860
    -2.2099  -2.0186  -1.9005  -1.8097  -1.5823  -1.5066  -1.4791  -1.4087
    -1.3822  -1.3046  -1.2736  -1.0728  -1.0068  -0.8675  -0.8648  -0.8254
    -0.5162  -0.4046  -0.2878  -0.0891  -0.0803  -0.0732  -0.0023   0.1565
     5.4995   5.5248   5.8230   5.8398   6.0529   6.4034   6.7376   6.9368
     7.0165   7.2562   7.3543   7.5820   7.9735   8.1757

     the Fermi energy is     5.3229 ev

!    total energy              =   -4360.78849011 Ry
     Harris-Foulkes estimate   =   -4360.78849014 Ry
     estimated scf accuracy    <       0.00000005 Ry

     The total energy is the sum of the following terms:

     one-electron contribution =   -3260.94156699 Ry
     hartree contribution      =    1631.32618630 Ry
     xc contribution           =    -317.65234624 Ry
     ewald contribution        =    -764.73475035 Ry
     one-center paw contrib.   =   -1648.78751833 Ry
     smearing contrib. (-TS)   =       0.00150549 Ry

     convergence has been achieved in  14 iterations

     Forces acting on atoms (cartesian axes, Ry/au):

     atom    1 type  2   force =     0.00035531   -0.00100932   -0.00000719
     atom    2 type  3   force =     0.00459481   -0.00013057   -0.00007981
     atom    3 type  2   force =     0.00030739    0.00093477    0.00001734
     atom    4 type  2   force =    -0.00042402    0.00007957    0.00001916
     atom    5 type  2   force =     0.00211818   -0.00001492    0.00000526
     atom    6 type  2   force =    -0.00047326    0.00006528    0.00000236
     atom    7 type  4   force =     0.00025114    0.00165264   -0.00008053
     atom    8 type  4   force =     0.00109703   -0.00115007   -0.00004590
     atom    9 type  4   force =    -0.00214569   -0.00027106   -0.00019567
     atom   10 type  1   force =     0.00192031    0.00038353   -0.00060139
     atom   11 type  1   force =     0.00205130    0.00304447    0.00212026
     atom   12 type  1   force =    -0.00149390    0.00094828   -0.00061083
     atom   13 type  1   force =    -0.00107979   -0.00083590    0.00110245
     atom   14 type  1   force =    -0.00096837    0.00077577    0.00117686
     atom   15 type  1   force =     0.00226228   -0.00070226   -0.00041759
     atom   16 type  1   force =     0.00176932    0.00257977   -0.00164796
     atom   17 type  1   force =     0.00193761    0.00008100   -0.00021950
     atom   18 type  1   force =     0.00186533   -0.00275962    0.00181108
     atom   19 type  1   force =    -0.00089572   -0.00185087   -0.00011039
     atom   20 type  1   force =    -0.00532414    0.00002907    0.00006308
     atom   21 type  1   force =    -0.00120860    0.00140685    0.00012645
     atom   22 type  1   force =    -0.00157035    0.00126047    0.00140096
     atom   23 type  1   force =     0.00089807   -0.00002654   -0.00018481
     atom   24 type  1   force =    -0.00139526   -0.00070662   -0.00088562
     atom   25 type  1   force =    -0.00110377   -0.00003925    0.00039302
     atom   26 type  1   force =     0.00058250   -0.00000820   -0.00008775
     atom   27 type  1   force =    -0.00108881    0.00023792   -0.00040612
     atom   28 type  1   force =    -0.00539117    0.00490194    0.00010825
     atom   29 type  1   force =     0.00258428   -0.00024649   -0.00004350
     atom   30 type  1   force =    -0.00051693    0.00008507   -0.00012605
     atom   31 type  1   force =    -0.00097275    0.00045249    0.00014342
     atom   32 type  1   force =     0.00313765   -0.00012216   -0.00003595
     atom   33 type  1   force =    -0.00465366   -0.00418830   -0.00006840
     atom   34 type  1   force =    -0.00101912   -0.00071137   -0.00121606
     atom   35 type  1   force =     0.00171492   -0.00080658    0.00103547
     atom   36 type  1   force =     0.00227786   -0.00333879   -0.00245441

     Total force =     0.017206     Total SCF correction =     0.002086
     SCF correction compared to forces is large: reduce conv_thr to get better values


     Computing stress (Cartesian axis) and pressure

          total   stress  (Ry/bohr**3)                   (kbar)     P=    2.59
   0.00000629  -0.00000280  -0.00000114          0.93     -0.41     -0.17
  -0.00000280   0.00003583   0.00000443         -0.41      5.27      0.65
  -0.00000114   0.00000443   0.00001071         -0.17      0.65      1.57


     number of scf cycles    =  18
     number of bfgs steps    =  17

     enthalpy old            =   -4360.7878827122 Ry
     enthalpy new            =   -4360.7884901122 Ry

     CASE: enthalpy_new < enthalpy_old

     new trust radius        =       0.0593234621 bohr
     new conv_thr            =       0.0000000539 Ry

     new unit-cell volume =   2727.77021 a.u.^3 (   404.21384 Ang^3 )
     density =      0.14789 g/cm^3

CELL_PARAMETERS (angstrom)
   4.483738827  -7.966243589   0.006021791
   4.491464222   7.970625688  -0.002541355
   0.002005501  -0.002303724   5.651895664

ATOMIC_POSITIONS (angstrom)
K        1.081277825   2.056681292   2.825431982
Mg       6.499837709   0.000840025   2.826947680
K        1.078646803  -2.058023900   2.827324695
K        2.714130114   4.728639930  -0.002413689
K        3.616179045   0.001672499   0.001239174
K        2.710087290  -4.725853665   0.003097779
Re       4.613041282  -2.472169995   2.828636676
Re       4.616851034   2.473650315   2.826505537
Re      -0.180819722   0.000681018   0.000623834
H        4.982214827  -3.614680829   4.045663338
H        5.378675840  -1.498331393   4.033155241
H        3.488377068  -2.341752687   4.109092216
H        3.489837738   2.343020029   1.544669826
H        3.487187417  -2.340939605   1.546181763
H        4.981344238  -3.612691660   1.615003179
H        5.378450171  -1.496814340   1.622348646
H        4.985511254   3.615737166   4.041844185
H        5.381249771   1.499401529   4.032125700
H        0.634293597  -1.474179948   0.001592455
H        7.084459546   0.004642634   0.003544683
H        0.637283309   1.476105602  -0.000488527
H        3.684170415  -6.967961099   1.266635377
H        1.061592665  -0.001819163   4.490395295
H        3.691540875   6.970360596   4.388041770
H        3.688749514   6.970138669   1.262305806
H        1.060647100   0.000000464   1.163533741
H        3.684497144  -6.968209465   4.395185786
H        3.526328376   3.736126270   2.825610874
H        6.256234269   2.823260698   2.826821353
H        3.858509473   0.978644945   2.827827986
H        3.857199362  -0.978507253   2.827329513
H        6.252375481  -2.820172479   2.829104466
H        3.521857081  -3.736266963   2.829277769
H        3.490126046   2.342136168   4.109230514
H        4.985232767   3.617935898   1.609008058
H        5.379935767   1.501029171   1.622261475



     Writing output data file K5MgReH93.save
     NEW-OLD atomic charge density approx. for the potential
     extrapolated charge  128.53743, renormalised to  129.00000

     total cpu time spent up to now is    19641.0 secs

     Self-consistent Calculation

     iteration #  1     ecut=    50.00 Ry     beta=0.70
     Davidson diagonalization with overlap
     c_bands:  1 eigenvalues not converged
     c_bands:  1 eigenvalues not converged
     c_bands:  1 eigenvalues not converged
     ethr =  1.00E-06,  avg # of iterations = 12.8

     total cpu time spent up to now is    19705.5 secs

     total energy              =   -4360.51870131 Ry
     Harris-Foulkes estimate   =   -4371.61150132 Ry
     estimated scf accuracy    <       0.23874185 Ry

     iteration #  2     ecut=    50.00 Ry     beta=0.70
     Davidson diagonalization with overlap
     ethr =  1.85E-04,  avg # of iterations =  5.9

     total cpu time spent up to now is    19754.0 secs

     total energy              =   -4360.59821849 Ry
     Harris-Foulkes estimate   =   -4361.31633649 Ry
     estimated scf accuracy    <       2.54818375 Ry

     iteration #  3     ecut=    50.00 Ry     beta=0.70
     Davidson diagonalization with overlap
     ethr =  1.85E-04,  avg # of iterations =  4.4

     total cpu time spent up to now is    19794.7 secs

     total energy              =   -4360.79982093 Ry
     Harris-Foulkes estimate   =   -4360.82226932 Ry
     estimated scf accuracy    <       0.16384555 Ry

     iteration #  4     ecut=    50.00 Ry     beta=0.70
     Davidson diagonalization with overlap
     ethr =  1.27E-04,  avg # of iterations =  1.0

     total cpu time spent up to now is    19823.6 secs

     total energy              =   -4360.79276405 Ry
     Harris-Foulkes estimate   =   -4360.80335036 Ry
     estimated scf accuracy    <       0.07724995 Ry

     iteration #  5     ecut=    50.00 Ry     beta=0.70
     Davidson diagonalization with overlap
     ethr =  5.99E-05,  avg # of iterations =  1.0

     total cpu time spent up to now is    19851.9 secs

     total energy              =   -4360.78566421 Ry
     Harris-Foulkes estimate   =   -4360.79482166 Ry
     estimated scf accuracy    <       0.03496974 Ry

     iteration #  6     ecut=    50.00 Ry     beta=0.70
     Davidson diagonalization with overlap
     ethr =  2.71E-05,  avg # of iterations =  3.8

     total cpu time spent up to now is    19886.8 secs

     total energy              =   -4360.78900785 Ry
     Harris-Foulkes estimate   =   -4360.78948300 Ry
     estimated scf accuracy    <       0.00189981 Ry

     iteration #  7     ecut=    50.00 Ry     beta=0.70
     Davidson diagonalization with overlap
     ethr =  1.47E-06,  avg # of iterations =  8.8

     total cpu time spent up to now is    19928.4 secs

     total energy              =   -4360.78922912 Ry
     Harris-Foulkes estimate   =   -4360.78920334 Ry
     estimated scf accuracy    <       0.00028365 Ry

     iteration #  8     ecut=    50.00 Ry     beta=0.70
     Davidson diagonalization with overlap
     ethr =  2.20E-07,  avg # of iterations =  1.9

     total cpu time spent up to now is    19957.7 secs

     total energy              =   -4360.78918086 Ry
     Harris-Foulkes estimate   =   -4360.78924422 Ry
     estimated scf accuracy    <       0.00043484 Ry

     iteration #  9     ecut=    50.00 Ry     beta=0.70
     Davidson diagonalization with overlap
     ethr =  2.20E-07,  avg # of iterations =  1.0

     total cpu time spent up to now is    19986.7 secs

     total energy              =   -4360.78911304 Ry
     Harris-Foulkes estimate   =   -4360.78919058 Ry
     estimated scf accuracy    <       0.00021921 Ry

     iteration # 10     ecut=    50.00 Ry     beta=0.70
     Davidson diagonalization with overlap
     ethr =  1.70E-07,  avg # of iterations =  2.0

     total cpu time spent up to now is    20019.0 secs

     total energy              =   -4360.78914760 Ry
     Harris-Foulkes estimate   =   -4360.78914783 Ry
     estimated scf accuracy    <       0.00000096 Ry

     iteration # 11     ecut=    50.00 Ry     beta=0.70
     Davidson diagonalization with overlap
     ethr =  7.41E-10,  avg # of iterations =  3.4

     total cpu time spent up to now is    20061.2 secs

     total energy              =   -4360.78914821 Ry
     Harris-Foulkes estimate   =   -4360.78914841 Ry
     estimated scf accuracy    <       0.00000077 Ry

     iteration # 12     ecut=    50.00 Ry     beta=0.70
     Davidson diagonalization with overlap
     ethr =  5.93E-10,  avg # of iterations =  2.0

     total cpu time spent up to now is    20090.9 secs

     total energy              =   -4360.78914820 Ry
     Harris-Foulkes estimate   =   -4360.78914825 Ry
     estimated scf accuracy    <       0.00000016 Ry

     iteration # 13     ecut=    50.00 Ry     beta=0.70
     Davidson diagonalization with overlap
     ethr =  1.21E-10,  avg # of iterations =  2.0

     total cpu time spent up to now is    20123.4 secs

     End of self-consistent calculation

          k = 0.0000 0.0000 0.0000 ( 16447 PWs)   bands (ev):

   -76.8145 -76.8120 -76.7545 -72.8120 -39.9326 -39.8867 -39.8856 -38.7210
   -38.7192 -38.7013 -38.6992 -38.6906 -38.6892 -38.6739 -38.6301 -38.6000
   -33.9448 -33.9419 -33.9347 -33.9321 -33.9316 -33.9294 -33.9276 -33.9243
   -33.9228 -33.9195 -33.9142 -33.9140 -33.9113 -33.9111 -33.8971 -33.8915
   -33.8890 -33.8789 -33.8572 -33.8486 -33.8470  -5.5245  -4.7976  -4.7209
    -2.0687  -1.9242  -1.8904  -1.8492  -1.5802  -1.5220  -1.3185  -1.3085
    -1.2359  -1.2228  -1.0622  -1.0116  -0.8585  -0.7261  -0.6238  -0.5344
    -0.3754  -0.3554  -0.3228  -0.2959  -0.2842  -0.1581   0.0347   0.0928
     5.0573   5.5192   6.1423   6.2332   6.2502   6.3604   6.4009   6.7173
     7.0217   7.3475   7.3732   7.4213   7.4771   7.5990

          k = 0.0003-0.0004-0.8151 ( 16526 PWs)   bands (ev):

   -76.8145 -76.8120 -76.7545 -72.8120 -39.9326 -39.8867 -39.8856 -38.7211
   -38.7192 -38.7014 -38.6993 -38.6909 -38.6895 -38.6740 -38.6301 -38.6003
   -33.9450 -33.9420 -33.9347 -33.9321 -33.9316 -33.9295 -33.9277 -33.9243
   -33.9228 -33.9196 -33.9143 -33.9142 -33.9113 -33.9112 -33.8971 -33.8916
   -33.8891 -33.8789 -33.8572 -33.8487 -33.8471  -5.1951  -4.7789  -4.6147
    -2.1321  -2.0233  -1.9043  -1.8248  -1.7191  -1.4941  -1.4888  -1.4710
    -1.3996  -1.2096  -1.1366  -1.0902  -0.9912  -0.8851  -0.7370  -0.6692
    -0.4356  -0.3856  -0.2926  -0.0628  -0.0448  -0.0121   0.0272   0.0685
     5.5575   5.6500   5.6781   5.9672   6.3240   6.5782   6.8716   6.9451
     7.0572   7.2096   7.5048   7.9445   7.9587   8.2146

          k =-0.5131-0.2888 0.0001 ( 16490 PWs)   bands (ev):

   -76.8145 -76.8120 -76.7545 -72.8120 -39.9326 -39.8867 -39.8856 -38.7210
   -38.7192 -38.7014 -38.6993 -38.6907 -38.6893 -38.6740 -38.6301 -38.6002
   -33.9449 -33.9420 -33.9347 -33.9321 -33.9316 -33.9295 -33.9277 -33.9243
   -33.9228 -33.9196 -33.9142 -33.9141 -33.9113 -33.9111 -33.8971 -33.8916
   -33.8890 -33.8789 -33.8572 -33.8487 -33.8470  -5.3022  -5.0046  -4.8440
    -2.0840  -1.8379  -1.7275  -1.5860  -1.5291  -1.5161  -1.2952  -1.2925
    -1.2770  -1.2529  -1.2431  -1.0291  -0.9360  -0.7152  -0.6269  -0.5054
    -0.4771  -0.3794  -0.3680  -0.3540  -0.2167  -0.1419  -0.0284   0.0395
     5.2402   5.5031   5.6165   5.8083   6.5160   6.7214   6.9247   7.0307
     7.1106   7.1378   7.2217   7.7269   7.7961   7.8105

          k =-0.5128-0.2893-0.8150 ( 16554 PWs)   bands (ev):

   -76.8145 -76.8120 -76.7545 -72.8120 -39.9326 -39.8867 -39.8856 -38.7212
   -38.7192 -38.7014 -38.6994 -38.6909 -38.6895 -38.6740 -38.6303 -38.6004
   -33.9449 -33.9420 -33.9348 -33.9321 -33.9317 -33.9295 -33.9277 -33.9243
   -33.9228 -33.9196 -33.9143 -33.9142 -33.9114 -33.9112 -33.8972 -33.8916
   -33.8891 -33.8789 -33.8573 -33.8487 -33.8472  -5.0851  -4.7660  -4.7573
    -2.1479  -2.0233  -1.9533  -1.7396  -1.6189  -1.5450  -1.4698  -1.4661
    -1.4065  -1.3249  -1.1580  -1.1547  -0.9758  -0.8793  -0.7956  -0.6363
    -0.3712  -0.3206  -0.2603  -0.0718  -0.0146  -0.0125  -0.0064   0.1095
     5.4479   5.6648   5.8699   5.8841   5.9901   6.0900   6.8371   6.8435
     7.0794   7.2537   7.7068   7.8119   7.8995   8.1668

          k =-0.5134 0.2893 0.0003 ( 16490 PWs)   bands (ev):

   -76.8145 -76.8120 -76.7545 -72.8120 -39.9326 -39.8867 -39.8856 -38.7211
   -38.7192 -38.7013 -38.6993 -38.6907 -38.6893 -38.6739 -38.6301 -38.6002
   -33.9449 -33.9420 -33.9347 -33.9321 -33.9317 -33.9295 -33.9277 -33.9243
   -33.9228 -33.9196 -33.9142 -33.9141 -33.9113 -33.9111 -33.8972 -33.8916
   -33.8890 -33.8789 -33.8572 -33.8487 -33.8470  -5.3019  -5.0030  -4.8460
    -2.0848  -1.8378  -1.7272  -1.5863  -1.5306  -1.5160  -1.2951  -1.2902
    -1.2811  -1.2516  -1.2417  -1.0273  -0.9347  -0.7151  -0.6267  -0.5060
    -0.4762  -0.3803  -0.3674  -0.3538  -0.2161  -0.1448  -0.0296   0.0407
     5.2394   5.5045   5.6155   5.8107   6.5166   6.7160   6.9193   7.0309
     7.1109   7.1354   7.2201   7.7287   7.8038   7.8154

          k =-0.5131 0.2889-0.8148 ( 16536 PWs)   bands (ev):

   -76.8145 -76.8120 -76.7545 -72.8120 -39.9326 -39.8867 -39.8856 -38.7210
   -38.7193 -38.7014 -38.6993 -38.6909 -38.6895 -38.6739 -38.6302 -38.6004
   -33.9449 -33.9420 -33.9348 -33.9321 -33.9317 -33.9295 -33.9277 -33.9243
   -33.9228 -33.9196 -33.9144 -33.9141 -33.9113 -33.9112 -33.8972 -33.8916
   -33.8890 -33.8789 -33.8573 -33.8487 -33.8472  -5.0847  -4.7660  -4.7577
    -2.1480  -2.0231  -1.9529  -1.7402  -1.6202  -1.5470  -1.4713  -1.4617
    -1.4054  -1.3288  -1.1558  -1.1517  -0.9774  -0.8802  -0.7981  -0.6323
    -0.3708  -0.3220  -0.2580  -0.0730  -0.0204  -0.0150  -0.0004   0.1109
     5.4502   5.6669   5.8683   5.8808   5.9911   6.0894   6.8348   6.8459
     7.0781   7.2581   7.6968   7.8077   7.9027   8.1690

          k =-1.0266 0.0005 0.0004 ( 16510 PWs)   bands (ev):

   -76.8145 -76.8120 -76.7545 -72.8120 -39.9326 -39.8867 -39.8856 -38.7211
   -38.7192 -38.7013 -38.6993 -38.6908 -38.6894 -38.6740 -38.6302 -38.6002
   -33.9450 -33.9420 -33.9347 -33.9321 -33.9317 -33.9295 -33.9276 -33.9243
   -33.9228 -33.9196 -33.9142 -33.9141 -33.9113 -33.9111 -33.8972 -33.8917
   -33.8891 -33.8789 -33.8572 -33.8487 -33.8470  -5.2653  -5.0658  -4.8346
    -1.9697  -1.8926  -1.8549  -1.5902  -1.5438  -1.4818  -1.2999  -1.2963
    -1.2894  -1.2183  -1.1101  -0.9347  -0.9040  -0.6750  -0.6641  -0.6613
    -0.4950  -0.3867  -0.3310  -0.3164  -0.2847  -0.1730  -0.0718   0.0719
     5.1444   5.5982   5.6080   5.9126   6.4779   6.7416   6.7985   7.0770
     7.0882   7.1863   7.2684   7.5945   7.6503   7.7044

          k =-1.0262 0.0001-0.8147 ( 16498 PWs)   bands (ev):

   -76.8145 -76.8120 -76.7545 -72.8120 -39.9326 -39.8867 -39.8856 -38.7210
   -38.7191 -38.7013 -38.6992 -38.6910 -38.6896 -38.6738 -38.6301 -38.6004
   -33.9449 -33.9420 -33.9347 -33.9321 -33.9316 -33.9295 -33.9277 -33.9243
   -33.9227 -33.9195 -33.9143 -33.9141 -33.9113 -33.9112 -33.8971 -33.8916
   -33.8890 -33.8788 -33.8572 -33.8487 -33.8472  -4.9802  -4.8922  -4.7714
    -2.1821  -1.9965  -1.8838  -1.7887  -1.5545  -1.4885  -1.4725  -1.3670
    -1.3476  -1.2943  -1.2604  -1.0444  -1.0058  -0.8294  -0.8101  -0.7868
    -0.4918  -0.4376  -0.2645  -0.0647  -0.0582  -0.0399   0.0255   0.1986
     5.5417   5.5579   5.8315   5.8897   6.0680   6.4029   6.7512   6.9710
     7.0096   7.2630   7.3524   7.5995   7.9712   8.1820

     the Fermi energy is     5.3465 ev

!    total energy              =   -4360.78914822 Ry
     Harris-Foulkes estimate   =   -4360.78914822 Ry
     estimated scf accuracy    <          4.2E-09 Ry

     The total energy is the sum of the following terms:

     one-electron contribution =   -3258.13854647 Ry
     hartree contribution      =    1630.01124474 Ry
     xc contribution           =    -317.64564574 Ry
     ewald contribution        =    -766.22784847 Ry
     one-center paw contrib.   =   -1648.79014002 Ry
     smearing contrib. (-TS)   =       0.00178773 Ry

     convergence has been achieved in  13 iterations

     Forces acting on atoms (cartesian axes, Ry/au):

     atom    1 type  2   force =    -0.00011514   -0.00083341    0.00001802
     atom    2 type  3   force =     0.00469689   -0.00019698   -0.00009299
     atom    3 type  2   force =    -0.00015377    0.00074355   -0.00001772
     atom    4 type  2   force =    -0.00121290   -0.00030710    0.00001295
     atom    5 type  2   force =     0.00237058    0.00002435    0.00000667
     atom    6 type  2   force =    -0.00127120    0.00046722    0.00000631
     atom    7 type  4   force =     0.00120106   -0.00279824   -0.00000643
     atom    8 type  4   force =    -0.00013066    0.00304962    0.00011257
     atom    9 type  4   force =    -0.00211855   -0.00032495    0.00008410
     atom   10 type  1   force =     0.00198204    0.00231554   -0.00084060
     atom   11 type  1   force =     0.00254593    0.00255701    0.00248396
     atom   12 type  1   force =    -0.00054762    0.00069755   -0.00087850
     atom   13 type  1   force =     0.00028649   -0.00057411    0.00173062
     atom   14 type  1   force =     0.00016536    0.00051879    0.00163459
     atom   15 type  1   force =     0.00244918    0.00088231   -0.00052364
     atom   16 type  1   force =     0.00215892    0.00201889   -0.00191863
     atom   17 type  1   force =     0.00219172   -0.00168855   -0.00036011
     atom   18 type  1   force =     0.00245578   -0.00232663    0.00231028
     atom   19 type  1   force =     0.00020857   -0.00417372   -0.00010627
     atom   20 type  1   force =    -0.00477551   -0.00002325    0.00004670
     atom   21 type  1   force =    -0.00021450    0.00341048    0.00009340
     atom   22 type  1   force =    -0.00162037   -0.00114861    0.00034826
     atom   23 type  1   force =    -0.00092816    0.00006376    0.00009859
     atom   24 type  1   force =    -0.00143616    0.00189069    0.00033098
     atom   25 type  1   force =    -0.00097330    0.00285534   -0.00112759
     atom   26 type  1   force =    -0.00140761   -0.00001329   -0.00055776
     atom   27 type  1   force =    -0.00098350   -0.00249817    0.00090861
     atom   28 type  1   force =    -0.00582364    0.00425566    0.00009093
     atom   29 type  1   force =     0.00141124   -0.00130271   -0.00004706
     atom   30 type  1   force =    -0.00069388   -0.00024179   -0.00011819
     atom   31 type  1   force =    -0.00148342    0.00137083    0.00013112
     atom   32 type  1   force =     0.00156916    0.00106501   -0.00003607
     atom   33 type  1   force =    -0.00513613   -0.00347421   -0.00006145
     atom   34 type  1   force =     0.00044380   -0.00045803   -0.00196902
     atom   35 type  1   force =     0.00188103   -0.00275711    0.00135474
     atom   36 type  1   force =     0.00300828   -0.00304574   -0.00314136

     Total force =     0.019184     Total SCF correction =     0.000818


     Computing stress (Cartesian axis) and pressure

          total   stress  (Ry/bohr**3)                   (kbar)     P=    1.56
   0.00000494  -0.00000332  -0.00000153          0.73     -0.49     -0.22
  -0.00000332   0.00002736   0.00000559         -0.49      4.02      0.82
  -0.00000153   0.00000559  -0.00000042         -0.22      0.82     -0.06


     number of scf cycles    =  19
     number of bfgs steps    =  18

     enthalpy old            =   -4360.7884901122 Ry
     enthalpy new            =   -4360.7891482156 Ry

     CASE: enthalpy_new < enthalpy_old

     new trust radius        =       0.0560369457 bohr
     new conv_thr            =       0.0000000582 Ry

     new unit-cell volume =   2723.71327 a.u.^3 (   403.61266 Ang^3 )
     density =      0.14811 g/cm^3

CELL_PARAMETERS (angstrom)
   4.474459256  -7.967773713   0.004953504
   4.480671964   7.971364188  -0.001669971
   0.001873787  -0.001622445   5.655332792

ATOMIC_POSITIONS (angstrom)
K        1.080006749   2.054558269   2.827284099
Mg       6.514823876   0.000398782   2.828299881
K        1.077577868  -2.055435024   2.828926298
K        2.711570451   4.722376604  -0.001805911
K        3.614729384   0.001263598   0.001152813
K        2.708478751  -4.719870723   0.002394399
Re       4.602855198  -2.473516218   2.829947731
Re       4.605626882   2.474965344   2.828458918
Re      -0.186128544   0.000571631   0.000708185
H        4.974069012  -3.617907115   4.043874931
H        5.365201763  -1.492409329   4.033991885
H        3.476813003  -2.340593147   4.110329538
H        3.478144924   2.342069011   1.546903898
H        3.475854294  -2.340237670   1.547786131
H        4.973338397  -3.616594103   1.618761555
H        5.365037688  -1.491413640   1.624463570
H        4.976653146   3.619283823   4.041215964
H        5.367583908   1.493668005   4.033086831
H        0.631360566  -1.472357387   0.001314472
H        7.053453059   0.004124143   0.003558512
H        0.634052836   1.474191274  -0.000176454
H        3.674951514  -6.963100642   1.268597381
H        1.058556726  -0.001525991   4.495856676
H        3.680825618   6.965780622   4.389268729
H        3.678095467   6.965362271   1.266077812
H        1.057516628   0.000084007   1.161367110
H        3.675248324  -6.963222959   4.395079126
H        3.514107428   3.740537721   2.827844644
H        6.247205698   2.821639412   2.828636388
H        3.846374841   0.979191613   2.829444053
H        3.844785243  -0.978894919   2.828953254
H        6.243664143  -2.819306522   2.830258848
H        3.510486846  -3.740542841   2.830371919
H        3.478336453   2.341608020   4.110851011
H        4.976445096   3.620848882   1.613957706
H        5.366422002   1.494739854   1.624539079



     Writing output data file K5MgReH93.save
     NEW-OLD atomic charge density approx. for the potential
     extrapolated charge  128.80800, renormalised to  129.00000

     total cpu time spent up to now is    20735.6 secs

     Self-consistent Calculation

     iteration #  1     ecut=    50.00 Ry     beta=0.70
     Davidson diagonalization with overlap
     ethr =  1.00E-06,  avg # of iterations =  6.6

     total cpu time spent up to now is    20791.3 secs

     total energy              =   -4360.74528768 Ry
     Harris-Foulkes estimate   =   -4365.15815550 Ry
     estimated scf accuracy    <       0.03890806 Ry

     iteration #  2     ecut=    50.00 Ry     beta=0.70
     Davidson diagonalization with overlap
     ethr =  3.02E-05,  avg # of iterations =  5.9

     total cpu time spent up to now is    20840.4 secs

     total energy              =   -4360.75577074 Ry
     Harris-Foulkes estimate   =   -4360.87894399 Ry
     estimated scf accuracy    <       0.44768746 Ry

     iteration #  3     ecut=    50.00 Ry     beta=0.70
     Davidson diagonalization with overlap
     ethr =  3.02E-05,  avg # of iterations =  4.8

     total cpu time spent up to now is    20880.6 secs

     total energy              =   -4360.79146475 Ry
     Harris-Foulkes estimate   =   -4360.79537613 Ry
     estimated scf accuracy    <       0.02699508 Ry

     iteration #  4     ecut=    50.00 Ry     beta=0.70
     Davidson diagonalization with overlap
     ethr =  2.09E-05,  avg # of iterations =  1.0

     total cpu time spent up to now is    20909.1 secs

     total energy              =   -4360.78978421 Ry
     Harris-Foulkes estimate   =   -4360.79208391 Ry
     estimated scf accuracy    <       0.01241331 Ry

     iteration #  5     ecut=    50.00 Ry     beta=0.70
     Davidson diagonalization with overlap
     ethr =  9.62E-06,  avg # of iterations =  1.8

     total cpu time spent up to now is    20938.5 secs

     total energy              =   -4360.78941531 Ry
     Harris-Foulkes estimate   =   -4360.79030808 Ry
     estimated scf accuracy    <       0.00376438 Ry

     iteration #  6     ecut=    50.00 Ry     beta=0.70
     Davidson diagonalization with overlap
     ethr =  2.92E-06,  avg # of iterations =  5.5

     total cpu time spent up to now is    20973.6 secs

     total energy              =   -4360.78953019 Ry
     Harris-Foulkes estimate   =   -4360.78973751 Ry
     estimated scf accuracy    <       0.00054293 Ry

     iteration #  7     ecut=    50.00 Ry     beta=0.70
     Davidson diagonalization with overlap
     ethr =  4.21E-07,  avg # of iterations =  3.2

     total cpu time spent up to now is    21009.2 secs

     total energy              =   -4360.78963790 Ry
     Harris-Foulkes estimate   =   -4360.78963975 Ry
     estimated scf accuracy    <       0.00000330 Ry

     iteration #  8     ecut=    50.00 Ry     beta=0.70
     Davidson diagonalization with overlap
     ethr =  2.56E-09,  avg # of iterations =  3.0

     total cpu time spent up to now is    21049.5 secs

     total energy              =   -4360.78963627 Ry
     Harris-Foulkes estimate   =   -4360.78964021 Ry
     estimated scf accuracy    <       0.00000385 Ry

     iteration #  9     ecut=    50.00 Ry     beta=0.70
     Davidson diagonalization with overlap
     ethr =  2.56E-09,  avg # of iterations =  2.2

     total cpu time spent up to now is    21082.8 secs

     total energy              =   -4360.78963609 Ry
     Harris-Foulkes estimate   =   -4360.78963670 Ry
     estimated scf accuracy    <       0.00000172 Ry

     iteration # 10     ecut=    50.00 Ry     beta=0.70
     Davidson diagonalization with overlap
     ethr =  1.34E-09,  avg # of iterations =  2.0

     total cpu time spent up to now is    21113.5 secs

     total energy              =   -4360.78963624 Ry
     Harris-Foulkes estimate   =   -4360.78963627 Ry
     estimated scf accuracy    <       0.00000021 Ry

     iteration # 11     ecut=    50.00 Ry     beta=0.70
     Davidson diagonalization with overlap
     ethr =  1.61E-10,  avg # of iterations =  2.0

     total cpu time spent up to now is    21143.8 secs

     total energy              =   -4360.78963621 Ry
     Harris-Foulkes estimate   =   -4360.78963626 Ry
     estimated scf accuracy    <       0.00000013 Ry

     iteration # 12     ecut=    50.00 Ry     beta=0.70
     Davidson diagonalization with overlap
     ethr =  1.03E-10,  avg # of iterations =  2.0

     total cpu time spent up to now is    21175.3 secs

     End of self-consistent calculation

          k = 0.0000 0.0000 0.0000 ( 16447 PWs)   bands (ev):

   -76.8038 -76.8020 -76.7623 -72.8045 -39.9248 -39.8790 -39.8784 -38.7072
   -38.7059 -38.6898 -38.6885 -38.6844 -38.6777 -38.6768 -38.6325 -38.6051
   -33.9354 -33.9333 -33.9252 -33.9229 -33.9223 -33.9203 -33.9178 -33.9153
   -33.9130 -33.9106 -33.9078 -33.9047 -33.9043 -33.9025 -33.9020 -33.9008
   -33.8999 -33.8877 -33.8649 -33.8550 -33.8542  -5.5086  -4.7900  -4.6912
    -2.0502  -1.9133  -1.8771  -1.8244  -1.5566  -1.5049  -1.3323  -1.3006
    -1.2418  -1.2103  -1.0460  -0.9911  -0.8515  -0.7215  -0.6005  -0.5279
    -0.3708  -0.3255  -0.3168  -0.2784  -0.2750  -0.1306   0.0558   0.1032
     5.0682   5.5137   6.1333   6.2334   6.2537   6.3805   6.4136   6.7258
     7.0127   7.3316   7.3872   7.4303   7.4721   7.6097

          k = 0.0003-0.0003-0.8146 ( 16526 PWs)   bands (ev):

   -76.8038 -76.8020 -76.7623 -72.8045 -39.9248 -39.8790 -39.8784 -38.7073
   -38.7060 -38.6899 -38.6886 -38.6846 -38.6780 -38.6771 -38.6325 -38.6054
   -33.9355 -33.9334 -33.9252 -33.9229 -33.9223 -33.9204 -33.9178 -33.9153
   -33.9131 -33.9107 -33.9079 -33.9048 -33.9045 -33.9026 -33.9022 -33.9009
   -33.8999 -33.8878 -33.8649 -33.8550 -33.8543  -5.1718  -4.7785  -4.5865
    -2.1258  -1.9993  -1.8840  -1.8171  -1.6873  -1.4908  -1.4790  -1.4771
    -1.3801  -1.2217  -1.1119  -1.1002  -0.9677  -0.8535  -0.7137  -0.6416
    -0.4507  -0.3570  -0.2886  -0.0451  -0.0399  -0.0011   0.0378   0.0948
     5.5785   5.6708   5.6829   5.9477   6.3169   6.5881   6.8711   6.9651
     7.0684   7.2146   7.5098   7.9343   7.9433   8.2191

          k =-0.5143-0.2888 0.0001 ( 16490 PWs)   bands (ev):

   -76.8038 -76.8020 -76.7623 -72.8045 -39.9248 -39.8790 -39.8784 -38.7072
   -38.7059 -38.6899 -38.6885 -38.6845 -38.6779 -38.6770 -38.6325 -38.6052
   -33.9354 -33.9333 -33.9252 -33.9229 -33.9223 -33.9204 -33.9178 -33.9153
   -33.9130 -33.9107 -33.9079 -33.9047 -33.9043 -33.9025 -33.9021 -33.9009
   -33.8999 -33.8878 -33.8649 -33.8550 -33.8542  -5.2800  -4.9953  -4.8246
    -2.0687  -1.8141  -1.7147  -1.5607  -1.5133  -1.4957  -1.3021  -1.2918
    -1.2684  -1.2440  -1.2307  -1.0119  -0.9164  -0.7255  -0.6226  -0.4884
    -0.4578  -0.3688  -0.3490  -0.3414  -0.1961  -0.1280  -0.0087   0.0532
     5.2372   5.4979   5.6208   5.8230   6.5274   6.7292   6.9437   7.0375
     7.1009   7.1333   7.2100   7.7410   7.7962   7.8235

          k =-0.5140-0.2892-0.8145 ( 16554 PWs)   bands (ev):

   -76.8038 -76.8020 -76.7623 -72.8045 -39.9248 -39.8790 -39.8784 -38.7074
   -38.7059 -38.6899 -38.6887 -38.6845 -38.6781 -38.6772 -38.6327 -38.6055
   -33.9355 -33.9333 -33.9253 -33.9230 -33.9224 -33.9204 -33.9178 -33.9153
   -33.9131 -33.9107 -33.9079 -33.9048 -33.9045 -33.9026 -33.9023 -33.9009
   -33.8999 -33.8878 -33.8649 -33.8551 -33.8544  -5.0592  -4.7654  -4.7323
    -2.1475  -2.0011  -1.9367  -1.7114  -1.6053  -1.5509  -1.4579  -1.4541
    -1.4030  -1.3107  -1.1481  -1.1314  -0.9631  -0.8589  -0.7788  -0.6177
    -0.3818  -0.3068  -0.2401  -0.0518  -0.0124   0.0014   0.0052   0.1339
     5.4645   5.6902   5.8537   5.8900   5.9806   6.1010   6.8424   6.8559
     7.0776   7.2457   7.6993   7.8172   7.8956   8.1772

          k =-0.5145 0.2892 0.0003 ( 16490 PWs)   bands (ev):

   -76.8038 -76.8020 -76.7623 -72.8045 -39.9248 -39.8790 -39.8784 -38.7073
   -38.7059 -38.6899 -38.6886 -38.6845 -38.6779 -38.6770 -38.6325 -38.6052
   -33.9355 -33.9333 -33.9252 -33.9230 -33.9223 -33.9204 -33.9178 -33.9153
   -33.9130 -33.9106 -33.9079 -33.9047 -33.9043 -33.9026 -33.9021 -33.9009
   -33.8999 -33.8877 -33.8649 -33.8550 -33.8542  -5.2799  -4.9937  -4.8265
    -2.0692  -1.8139  -1.7145  -1.5615  -1.5139  -1.4953  -1.3027  -1.2904
    -1.2709  -1.2425  -1.2302  -1.0109  -0.9152  -0.7255  -0.6225  -0.4879
    -0.4575  -0.3691  -0.3499  -0.3412  -0.1959  -0.1299  -0.0097   0.0547
     5.2368   5.4984   5.6196   5.8257   6.5277   6.7241   6.9392   7.0380
     7.1011   7.1313   7.2095   7.7426   7.8020   7.8278

          k =-0.5142 0.2889-0.8143 ( 16536 PWs)   bands (ev):

   -76.8038 -76.8020 -76.7623 -72.8045 -39.9248 -39.8790 -39.8784 -38.7072
   -38.7060 -38.6900 -38.6886 -38.6845 -38.6781 -38.6772 -38.6326 -38.6054
   -33.9355 -33.9333 -33.9253 -33.9230 -33.9223 -33.9204 -33.9178 -33.9153
   -33.9131 -33.9107 -33.9079 -33.9047 -33.9045 -33.9026 -33.9023 -33.9009
   -33.8999 -33.8878 -33.8649 -33.8550 -33.8544  -5.0588  -4.7653  -4.7326
    -2.1476  -2.0010  -1.9365  -1.7120  -1.6061  -1.5524  -1.4546  -1.4539
    -1.4020  -1.3142  -1.1455  -1.1309  -0.9645  -0.8596  -0.7803  -0.6149
    -0.3814  -0.3069  -0.2396  -0.0521  -0.0149  -0.0003   0.0078   0.1348
     5.4662   5.6925   5.8522   5.8873   5.9807   6.1016   6.8404   6.8569
     7.0774   7.2490   7.6909   7.8134   7.8995   8.1771

          k =-1.0289 0.0004 0.0003 ( 16510 PWs)   bands (ev):

   -76.8038 -76.8020 -76.7623 -72.8045 -39.9248 -39.8790 -39.8784 -38.7073
   -38.7059 -38.6899 -38.6886 -38.6845 -38.6779 -38.6771 -38.6326 -38.6053
   -33.9355 -33.9334 -33.9253 -33.9230 -33.9223 -33.9204 -33.9178 -33.9153
   -33.9131 -33.9106 -33.9079 -33.9047 -33.9043 -33.9026 -33.9021 -33.9009
   -33.8999 -33.8878 -33.8649 -33.8550 -33.8542  -5.2497  -5.0429  -4.8223
    -1.9553  -1.8757  -1.8310  -1.5632  -1.5238  -1.4649  -1.3059  -1.3028
    -1.2765  -1.2134  -1.1012  -0.9192  -0.8772  -0.6707  -0.6672  -0.6491
    -0.4916  -0.3572  -0.3238  -0.3100  -0.2642  -0.1518  -0.0522   0.0900
     5.1460   5.6002   5.6011   5.9335   6.4909   6.7478   6.8120   7.0728
     7.1058   7.1720   7.2706   7.5961   7.6262   7.7224

          k =-1.0286 0.0001-0.8143 ( 16498 PWs)   bands (ev):

   -76.8038 -76.8020 -76.7623 -72.8045 -39.9248 -39.8790 -39.8784 -38.7071
   -38.7058 -38.6898 -38.6885 -38.6844 -38.6781 -38.6772 -38.6325 -38.6055
   -33.9355 -33.9333 -33.9252 -33.9229 -33.9223 -33.9204 -33.9178 -33.9153
   -33.9130 -33.9106 -33.9078 -33.9047 -33.9045 -33.9026 -33.9022 -33.9009
   -33.8999 -33.8877 -33.8649 -33.8550 -33.8543  -4.9521  -4.8700  -4.7709
    -2.1792  -1.9694  -1.8624  -1.7666  -1.5486  -1.5032  -1.4552  -1.3566
    -1.3280  -1.2923  -1.2482  -1.0230  -0.9990  -0.8099  -0.7813  -0.7654
    -0.4668  -0.4528  -0.2601  -0.0416  -0.0372  -0.0295   0.0267   0.2192
     5.5501   5.5778   5.8134   5.9183   6.0697   6.3978   6.7610   6.9788
     7.0064   7.2651   7.3478   7.5983   7.9570   8.1795

     the Fermi energy is     5.3510 ev

!    total energy              =   -4360.78963622 Ry
     Harris-Foulkes estimate   =   -4360.78963623 Ry
     estimated scf accuracy    <          7.1E-09 Ry

     The total energy is the sum of the following terms:

     one-electron contribution =   -3255.88730130 Ry
     hartree contribution      =    1628.91827164 Ry
     xc contribution           =    -317.63323520 Ry
     ewald contribution        =    -767.39696427 Ry
     one-center paw contrib.   =   -1648.79237716 Ry
     smearing contrib. (-TS)   =       0.00197007 Ry

     convergence has been achieved in  12 iterations

     Forces acting on atoms (cartesian axes, Ry/au):

     atom    1 type  2   force =    -0.00034688   -0.00052617    0.00002831
     atom    2 type  3   force =     0.00382254   -0.00013058   -0.00008880
     atom    3 type  2   force =    -0.00035508    0.00043554   -0.00002769
     atom    4 type  2   force =    -0.00142971   -0.00015622    0.00001240
     atom    5 type  2   force =     0.00253692    0.00003430    0.00000589
     atom    6 type  2   force =    -0.00148907    0.00028712    0.00000544
     atom    7 type  4   force =    -0.00044893   -0.00003388   -0.00007314
     atom    8 type  4   force =    -0.00038117    0.00031975    0.00003688
     atom    9 type  4   force =    -0.00131983   -0.00004113   -0.00001508
     atom   10 type  1   force =     0.00204380    0.00235090   -0.00025390
     atom   11 type  1   force =     0.00229512    0.00129383    0.00155629
     atom   12 type  1   force =     0.00034109    0.00024719   -0.00118116
     atom   13 type  1   force =     0.00090354   -0.00019420    0.00180453
     atom   14 type  1   force =     0.00093876    0.00012329    0.00183109
     atom   15 type  1   force =     0.00240604    0.00125891   -0.00078286
     atom   16 type  1   force =     0.00199752    0.00090784   -0.00114738
     atom   17 type  1   force =     0.00216798   -0.00196379    0.00001674
     atom   18 type  1   force =     0.00216770   -0.00114174    0.00144094
     atom   19 type  1   force =     0.00022426   -0.00406693   -0.00005671
     atom   20 type  1   force =    -0.00392859   -0.00005396    0.00004134
     atom   21 type  1   force =    -0.00017334    0.00325050    0.00005570
     atom   22 type  1   force =    -0.00156830   -0.00248621   -0.00026763
     atom   23 type  1   force =    -0.00191602    0.00008672    0.00053596
     atom   24 type  1   force =    -0.00143510    0.00311614    0.00088052
     atom   25 type  1   force =    -0.00102218    0.00389903   -0.00152937
     atom   26 type  1   force =    -0.00225774   -0.00002358   -0.00085805
     atom   27 type  1   force =    -0.00102919   -0.00361705    0.00132605
     atom   28 type  1   force =    -0.00481706    0.00296674    0.00005717
     atom   29 type  1   force =     0.00068185   -0.00161554   -0.00003527
     atom   30 type  1   force =    -0.00034167    0.00066135   -0.00007765
     atom   31 type  1   force =    -0.00082755    0.00013352    0.00009110
     atom   32 type  1   force =     0.00117193    0.00141420   -0.00001553
     atom   33 type  1   force =    -0.00414326   -0.00221542   -0.00003408
     atom   34 type  1   force =     0.00106688   -0.00012172   -0.00203893
     atom   35 type  1   force =     0.00191352   -0.00276714    0.00074932
     atom   36 type  1   force =     0.00255122   -0.00163163   -0.00199241

     Total force =     0.016985     Total SCF correction =     0.000465


     Computing stress (Cartesian axis) and pressure

          total   stress  (Ry/bohr**3)                   (kbar)     P=    0.37
  -0.00000023  -0.00000266  -0.00000116         -0.03     -0.39     -0.17
  -0.00000266   0.00001421   0.00000422         -0.39      2.09      0.62
  -0.00000116   0.00000422  -0.00000640         -0.17      0.62     -0.94


     number of scf cycles    =  20
     number of bfgs steps    =  19

     enthalpy old            =   -4360.7891482156 Ry
     enthalpy new            =   -4360.7896362209 Ry

     CASE: enthalpy_new < enthalpy_old

     new trust radius        =       0.0838676035 bohr
     new conv_thr            =       0.0000000482 Ry

     new unit-cell volume =   2721.07741 a.u.^3 (   403.22207 Ang^3 )
     density =      0.14825 g/cm^3

CELL_PARAMETERS (angstrom)
   4.466478442  -7.977918436   0.002052021
   4.469005835   7.979532868   0.000575199
   0.001454988   0.000155014   5.655782598

ATOMIC_POSITIONS (angstrom)
K        1.077738796   2.053222386   2.828026939
Mg       6.544604806  -0.000494212   2.827687182
K        1.076029837  -2.052937654   2.828533035
K        2.705825876   4.714551415  -0.000408011
K        3.615865165   0.000399490   0.000890138
K        2.704838619  -4.712836955   0.000626493
Re       4.591611133  -2.477437776   2.828972330
Re       4.593124827   2.479015227   2.829174013
Re      -0.190631051   0.000517101   0.000770370
H        4.970361492  -3.623314263   4.038389352
H        5.352868460  -1.486353607   4.032221037
H        3.464862608  -2.341092889   4.108307142
H        3.466002181   2.343027288   1.549561954
H        3.464755869  -2.341828068   1.548902401
H        4.970186077  -3.624048108   1.620409055
H        5.352688803  -1.486706001   1.625324042
H        4.971296370   3.625564696   4.038566659
H        5.354586149   1.488091841   4.031919525
H        0.627908201  -1.475783705   0.000629298
H        7.021726601   0.002670199   0.003274982
H        0.629521842   1.476657055   0.000487320
H        3.665070690  -6.966947001   1.267155002
H        1.053472985  -0.000471753   4.496138275
H        3.667462321   6.970565346   4.391019681
H        3.665266597   6.970008323   1.268299624
H        1.052238053   0.000234495   1.161036402
H        3.665620742  -6.967298186   4.393094836
H        3.495543171   3.751874861   2.829256732
H        6.237686415   2.820747439   2.829154323
H        3.833004671   0.983298461   2.829476282
H        3.830992072  -0.982191987   2.828801937
H        6.235676112  -2.819980736   2.828999533
H        3.494386587  -3.750929730   2.828975883
H        3.466093182   2.343584650   4.109449725
H        4.971089027   3.625360239   1.619524223
H        5.353973244   1.487729305   1.625610758



     Writing output data file K5MgReH93.save
     NEW-OLD atomic charge density approx. for the potential
     extrapolated charge  128.87513, renormalised to  129.00000

     total cpu time spent up to now is    21788.0 secs

     Self-consistent Calculation

     iteration #  1     ecut=    50.00 Ry     beta=0.70
     Davidson diagonalization with overlap
     ethr =  1.00E-06,  avg # of iterations =  6.8

     total cpu time spent up to now is    21844.2 secs

     total energy              =   -4360.77291209 Ry
     Harris-Foulkes estimate   =   -4363.29564068 Ry
     estimated scf accuracy    <       0.01471052 Ry

     iteration #  2     ecut=    50.00 Ry     beta=0.70
     Davidson diagonalization with overlap
     ethr =  1.14E-05,  avg # of iterations =  5.2

     total cpu time spent up to now is    21891.9 secs

     total energy              =   -4360.77814054 Ry
     Harris-Foulkes estimate   =   -4360.82574607 Ry
     estimated scf accuracy    <       0.17414817 Ry

     iteration #  3     ecut=    50.00 Ry     beta=0.70
     Davidson diagonalization with overlap
     ethr =  1.14E-05,  avg # of iterations =  3.9

     total cpu time spent up to now is    21930.9 secs

     total energy              =   -4360.79106696 Ry
     Harris-Foulkes estimate   =   -4360.79330520 Ry
     estimated scf accuracy    <       0.01094109 Ry

     iteration #  4     ecut=    50.00 Ry     beta=0.70
     Davidson diagonalization with overlap
     ethr =  8.48E-06,  avg # of iterations =  1.0

     total cpu time spent up to now is    21959.4 secs

     total energy              =   -4360.79032034 Ry
     Harris-Foulkes estimate   =   -4360.79141538 Ry
     estimated scf accuracy    <       0.00432858 Ry

     iteration #  5     ecut=    50.00 Ry     beta=0.70
     Davidson diagonalization with overlap
     ethr =  3.36E-06,  avg # of iterations =  2.0

     total cpu time spent up to now is    21989.4 secs

     total energy              =   -4360.79021155 Ry
     Harris-Foulkes estimate   =   -4360.79055988 Ry
     estimated scf accuracy    <       0.00112638 Ry

     iteration #  6     ecut=    50.00 Ry     beta=0.70
     Davidson diagonalization with overlap
     ethr =  8.73E-07,  avg # of iterations =  5.1

     total cpu time spent up to now is    22023.8 secs

     total energy              =   -4360.79017815 Ry
     Harris-Foulkes estimate   =   -4360.79030629 Ry
     estimated scf accuracy    <       0.00020850 Ry

     iteration #  7     ecut=    50.00 Ry     beta=0.70
     Davidson diagonalization with overlap
     ethr =  1.62E-07,  avg # of iterations =  2.9

     total cpu time spent up to now is    22057.9 secs

     total energy              =   -4360.79021492 Ry
     Harris-Foulkes estimate   =   -4360.79022006 Ry
     estimated scf accuracy    <       0.00000184 Ry

     iteration #  8     ecut=    50.00 Ry     beta=0.70
     Davidson diagonalization with overlap
     ethr =  1.43E-09,  avg # of iterations =  4.0

     total cpu time spent up to now is    22100.9 secs

     total energy              =   -4360.79021545 Ry
     Harris-Foulkes estimate   =   -4360.79021688 Ry
     estimated scf accuracy    <       0.00000417 Ry

     iteration #  9     ecut=    50.00 Ry     beta=0.70
     Davidson diagonalization with overlap
     ethr =  1.43E-09,  avg # of iterations =  2.0

     total cpu time spent up to now is    22133.1 secs

     total energy              =   -4360.79021566 Ry
     Harris-Foulkes estimate   =   -4360.79021576 Ry
     estimated scf accuracy    <       0.00000053 Ry

     iteration # 10     ecut=    50.00 Ry     beta=0.70
     Davidson diagonalization with overlap
     ethr =  4.15E-10,  avg # of iterations =  2.0

     total cpu time spent up to now is    22163.1 secs

     total energy              =   -4360.79021562 Ry
     Harris-Foulkes estimate   =   -4360.79021569 Ry
     estimated scf accuracy    <       0.00000020 Ry

     iteration # 11     ecut=    50.00 Ry     beta=0.70
     Davidson diagonalization with overlap
     ethr =  1.52E-10,  avg # of iterations =  2.2

     total cpu time spent up to now is    22195.1 secs

     End of self-consistent calculation

          k = 0.0000 0.0000 0.0000 ( 16447 PWs)   bands (ev):

   -76.7963 -76.7959 -76.7784 -72.7986 -39.9180 -39.8741 -39.8722 -38.7042
   -38.6938 -38.6932 -38.6819 -38.6813 -38.6669 -38.6661 -38.6403 -38.6197
   -33.9308 -33.9304 -33.9283 -33.9208 -33.9203 -33.9201 -33.9189 -33.9172
   -33.9169 -33.9123 -33.9121 -33.9077 -33.9076 -33.9056 -33.9000 -33.8998
   -33.8988 -33.8985 -33.8806 -33.8693 -33.8687  -5.4900  -4.7883  -4.6543
    -2.0229  -1.9044  -1.8614  -1.7966  -1.5243  -1.4940  -1.3422  -1.3048
    -1.2522  -1.2092  -1.0347  -0.9651  -0.8465  -0.7189  -0.5670  -0.5171
    -0.3684  -0.3088  -0.2847  -0.2736  -0.2641  -0.0977   0.0712   0.1078
     5.0706   5.4999   6.1103   6.2267   6.2557   6.3951   6.4241   6.7219
     6.9950   7.3217   7.3972   7.4254   7.4677   7.6082

          k = 0.0002-0.0001-0.8145 ( 16526 PWs)   bands (ev):

   -76.7963 -76.7959 -76.7784 -72.7986 -39.9180 -39.8741 -39.8722 -38.7044
   -38.6939 -38.6933 -38.6819 -38.6814 -38.6673 -38.6664 -38.6403 -38.6200
   -33.9309 -33.9306 -33.9283 -33.9209 -33.9203 -33.9201 -33.9190 -33.9173
   -33.9169 -33.9124 -33.9121 -33.9078 -33.9077 -33.9056 -33.9001 -33.8998
   -33.8990 -33.8987 -33.8806 -33.8694 -33.8688  -5.1391  -4.7874  -4.5508
    -2.1395  -1.9633  -1.8539  -1.8095  -1.6420  -1.4943  -1.4916  -1.4733
    -1.3600  -1.2432  -1.1057  -1.0827  -0.9489  -0.8157  -0.6932  -0.6087
    -0.4619  -0.3171  -0.2889  -0.0641  -0.0084   0.0021   0.0417   0.1258
     5.5958   5.6833   5.6859   5.9158   6.2959   6.5923   6.8623   6.9760
     7.0799   7.2058   7.5139   7.9069   7.9222   8.2135

          k =-0.5155-0.2886 0.0001 ( 16490 PWs)   bands (ev):

   -76.7963 -76.7959 -76.7784 -72.7986 -39.9180 -39.8741 -39.8722 -38.7043
   -38.6939 -38.6932 -38.6819 -38.6814 -38.6671 -38.6663 -38.6403 -38.6198
   -33.9308 -33.9305 -33.9283 -33.9208 -33.9203 -33.9202 -33.9190 -33.9173
   -33.9169 -33.9123 -33.9121 -33.9078 -33.9076 -33.9056 -33.9000 -33.8998
   -33.8989 -33.8986 -33.8806 -33.8693 -33.8688  -5.2534  -4.9903  -4.8013
    -2.0463  -1.7871  -1.7031  -1.5262  -1.4933  -1.4803  -1.3092  -1.3033
    -1.2704  -1.2501  -1.1997  -0.9971  -0.9016  -0.7328  -0.6227  -0.4682
    -0.4312  -0.3565  -0.3493  -0.3017  -0.1777  -0.1151   0.0074   0.0605
     5.2250   5.4844   5.6222   5.8279   6.5368   6.7256   6.9524   7.0401
     7.0844   7.1142   7.2012   7.7504   7.8005   7.8288

          k =-0.5153-0.2887-0.8144 ( 16554 PWs)   bands (ev):

   -76.7963 -76.7959 -76.7784 -72.7986 -39.9180 -39.8741 -39.8722 -38.7043
   -38.6938 -38.6933 -38.6820 -38.6814 -38.6673 -38.6665 -38.6404 -38.6201
   -33.9308 -33.9306 -33.9283 -33.9208 -33.9204 -33.9202 -33.9190 -33.9173
   -33.9170 -33.9124 -33.9121 -33.9079 -33.9077 -33.9056 -33.9001 -33.8998
   -33.8991 -33.8988 -33.8806 -33.8695 -33.8689  -5.0229  -4.7742  -4.7004
    -2.1677  -1.9671  -1.9133  -1.6715  -1.5916  -1.5677  -1.4553  -1.4324
    -1.4069  -1.3029  -1.1397  -1.0958  -0.9416  -0.8417  -0.7648  -0.6006
    -0.3863  -0.2894  -0.2181  -0.0290  -0.0243   0.0091   0.0133   0.1617
     5.4782   5.7078   5.8242   5.8924   5.9661   6.1084   6.8396   6.8640
     7.0604   7.2256   7.6796   7.8176   7.8836   8.1791

          k =-0.5156 0.2888 0.0001 ( 16490 PWs)   bands (ev):

   -76.7963 -76.7959 -76.7784 -72.7986 -39.9180 -39.8741 -39.8722 -38.7043
   -38.6938 -38.6932 -38.6819 -38.6813 -38.6671 -38.6663 -38.6403 -38.6198
   -33.9308 -33.9305 -33.9283 -33.9208 -33.9204 -33.9201 -33.9190 -33.9173
   -33.9169 -33.9124 -33.9121 -33.9078 -33.9076 -33.9056 -33.9001 -33.8998
   -33.8989 -33.8986 -33.8806 -33.8693 -33.8688  -5.2535  -4.9891  -4.8026
    -2.0461  -1.7869  -1.7034  -1.5273  -1.4918  -1.4796  -1.3092  -1.3029
    -1.2710  -1.2497  -1.2010  -0.9975  -0.9012  -0.7334  -0.6227  -0.4686
    -0.4304  -0.3562  -0.3506  -0.3019  -0.1757  -0.1166   0.0076   0.0615
     5.2249   5.4849   5.6211   5.8281   6.5371   6.7245   6.9515   7.0400
     7.0831   7.1141   7.2028   7.7507   7.8030   7.8300

          k =-0.5154 0.2887-0.8144 ( 16536 PWs)   bands (ev):

   -76.7963 -76.7959 -76.7784 -72.7986 -39.9180 -39.8741 -39.8722 -38.7043
   -38.6939 -38.6932 -38.6819 -38.6815 -38.6673 -38.6665 -38.6404 -38.6201
   -33.9309 -33.9305 -33.9283 -33.9208 -33.9204 -33.9202 -33.9190 -33.9173
   -33.9169 -33.9123 -33.9121 -33.9078 -33.9077 -33.9056 -33.9001 -33.8998
   -33.8991 -33.8988 -33.8806 -33.8695 -33.8688  -5.0226  -4.7741  -4.7008
    -2.1677  -1.9672  -1.9132  -1.6714  -1.5925  -1.5688  -1.4525  -1.4301
    -1.4060  -1.3053  -1.1391  -1.0982  -0.9423  -0.8413  -0.7656  -0.6001
    -0.3862  -0.2907  -0.2167  -0.0289  -0.0254   0.0092   0.0147   0.1620
     5.4790   5.7101   5.8218   5.8909   5.9659   6.1088   6.8395   6.8643
     7.0600   7.2289   7.6744   7.8169   7.8860   8.1783

          k =-1.0311 0.0002 0.0003 ( 16510 PWs)   bands (ev):

   -76.7963 -76.7959 -76.7784 -72.7986 -39.9180 -39.8741 -39.8722 -38.7043
   -38.6938 -38.6932 -38.6819 -38.6814 -38.6672 -38.6664 -38.6403 -38.6199
   -33.9309 -33.9306 -33.9283 -33.9208 -33.9204 -33.9202 -33.9190 -33.9173
   -33.9169 -33.9123 -33.9121 -33.9078 -33.9077 -33.9056 -33.9001 -33.8998
   -33.8989 -33.8986 -33.8806 -33.8693 -33.8688  -5.2350  -5.0146  -4.8101
    -1.9391  -1.8527  -1.8051  -1.5237  -1.5011  -1.4539  -1.3236  -1.3050
    -1.2736  -1.2178  -1.0933  -0.9094  -0.8401  -0.6704  -0.6676  -0.6370
    -0.4923  -0.3173  -0.3125  -0.3119  -0.2339  -0.1314  -0.0373   0.1017
     5.1397   5.5833   5.5990   5.9467   6.5001   6.7506   6.8190   7.0546
     7.1185   7.1482   7.2735   7.5886   7.6089   7.7299

          k =-1.0309 0.0001-0.8143 ( 16498 PWs)   bands (ev):

   -76.7963 -76.7959 -76.7784 -72.7986 -39.9180 -39.8741 -39.8722 -38.7042
   -38.6937 -38.6931 -38.6818 -38.6813 -38.6673 -38.6665 -38.6403 -38.6201
   -33.9308 -33.9305 -33.9283 -33.9208 -33.9203 -33.9201 -33.9190 -33.9173
   -33.9169 -33.9123 -33.9121 -33.9077 -33.9076 -33.9055 -33.9000 -33.8998
   -33.8990 -33.8987 -33.8806 -33.8694 -33.8688  -4.9129  -4.8417  -4.7798
    -2.1950  -1.9298  -1.8302  -1.7332  -1.5508  -1.5313  -1.4411  -1.3583
    -1.3058  -1.2935  -1.2294  -0.9975  -0.9821  -0.7936  -0.7547  -0.7362
    -0.4641  -0.4355  -0.2604  -0.0273  -0.0269   0.0037   0.0098   0.2388
     5.5531   5.5897   5.7793   5.9449   6.0636   6.3851   6.7722   6.9861
     6.9886   7.2696   7.3356   7.5890   7.9331   8.1663

     the Fermi energy is     5.3482 ev

!    total energy              =   -4360.79021565 Ry
     Harris-Foulkes estimate   =   -4360.79021565 Ry
     estimated scf accuracy    <          5.8E-09 Ry

     The total energy is the sum of the following terms:

     one-electron contribution =   -3253.25995555 Ry
     hartree contribution      =    1627.61957633 Ry
     xc contribution           =    -317.61194158 Ry
     ewald contribution        =    -768.74478647 Ry
     one-center paw contrib.   =   -1648.79535131 Ry
     smearing contrib. (-TS)   =       0.00224293 Ry

     convergence has been achieved in  11 iterations

     Forces acting on atoms (cartesian axes, Ry/au):

     atom    1 type  2   force =    -0.00062037    0.00015635    0.00003544
     atom    2 type  3   force =     0.00103254   -0.00005818   -0.00007357
     atom    3 type  2   force =    -0.00060816   -0.00020720   -0.00002876
     atom    4 type  2   force =    -0.00124489    0.00042093    0.00001290
     atom    5 type  2   force =     0.00265724    0.00004413    0.00000276
     atom    6 type  2   force =    -0.00130856   -0.00035939    0.00000223
     atom    7 type  4   force =     0.00041334    0.00146587   -0.00007762
     atom    8 type  4   force =     0.00047788   -0.00153149    0.00007640
     atom    9 type  4   force =    -0.00115480   -0.00020762   -0.00001376
     atom   10 type  1   force =     0.00158767    0.00226329    0.00045426
     atom   11 type  1   force =     0.00136462   -0.00063906   -0.00025963
     atom   12 type  1   force =     0.00112838   -0.00025214   -0.00099368
     atom   13 type  1   force =     0.00124373    0.00019413    0.00112787
     atom   14 type  1   force =     0.00126558   -0.00023286    0.00117276
     atom   15 type  1   force =     0.00161491    0.00220678   -0.00052242
     atom   16 type  1   force =     0.00135262   -0.00059889    0.00019810
     atom   17 type  1   force =     0.00164670   -0.00234212    0.00033859
     atom   18 type  1   force =     0.00137248    0.00057202   -0.00014213
     atom   19 type  1   force =    -0.00048066   -0.00208300    0.00003841
     atom   20 type  1   force =    -0.00206722   -0.00008201    0.00002076
     atom   21 type  1   force =    -0.00053561    0.00174788   -0.00003248
     atom   22 type  1   force =    -0.00141355   -0.00357115   -0.00059958
     atom   23 type  1   force =    -0.00248727    0.00012148    0.00099477
     atom   24 type  1   force =    -0.00142077    0.00385821    0.00085848
     atom   25 type  1   force =    -0.00121334    0.00406166   -0.00106928
     atom   26 type  1   force =    -0.00249473    0.00000312   -0.00100341
     atom   27 type  1   force =    -0.00123848   -0.00387867    0.00089851
     atom   28 type  1   force =    -0.00124811   -0.00084558   -0.00002785
     atom   29 type  1   force =    -0.00035760   -0.00198294   -0.00001579
     atom   30 type  1   force =    -0.00012317    0.00117382    0.00000428
     atom   31 type  1   force =    -0.00012384   -0.00100239   -0.00001128
     atom   32 type  1   force =    -0.00016279    0.00206806    0.00002092
     atom   33 type  1   force =    -0.00117382    0.00102178    0.00001947
     atom   34 type  1   force =     0.00137951    0.00016885   -0.00132161
     atom   35 type  1   force =     0.00161066   -0.00232303   -0.00033445
     atom   36 type  1   force =     0.00132989    0.00064935    0.00025039

     Total force =     0.013532     Total SCF correction =     0.000410


     Computing stress (Cartesian axis) and pressure

          total   stress  (Ry/bohr**3)                   (kbar)     P=   -1.62
  -0.00001277  -0.00000012  -0.00000006         -1.88     -0.02     -0.01
  -0.00000012  -0.00001070   0.00000013         -0.02     -1.57      0.02
  -0.00000006   0.00000013  -0.00000958         -0.01      0.02     -1.41


     number of scf cycles    =  21
     number of bfgs steps    =  20

     enthalpy old            =   -4360.7896362209 Ry
     enthalpy new            =   -4360.7902156487 Ry

     CASE: enthalpy_new < enthalpy_old

     new trust radius        =       0.0179354553 bohr
     new conv_thr            =       0.0000000406 Ry

     new unit-cell volume =   2723.23823 a.u.^3 (   403.54227 Ang^3 )
     density =      0.14814 g/cm^3

CELL_PARAMETERS (angstrom)
   4.466140648  -7.992001618   0.000672635
   4.467022024   7.992747092   0.001571468
   0.001214449   0.000945954   5.652076062

ATOMIC_POSITIONS (angstrom)
K        1.076868984   2.056524661   2.826453889
Mg       6.539135591  -0.000949046   2.825428510
K        1.075540259  -2.055778241   2.826315194
K        2.701348799   4.726276968   0.000193548
K        3.618355235   0.000073636   0.000750519
K        2.701138313  -4.724837457  -0.000144969
Re       4.592154107  -2.481612410   2.826503674
Re       4.592747853   2.483251857   2.827569591
Re      -0.191730835   0.000247307   0.000778341
H        4.972815398  -3.625803592   4.035097003
H        5.355066512  -1.487617103   4.030033285
H        3.463444201  -2.343373579   4.103067053
H        3.464663482   2.345524967   1.551301886
H        3.463874857  -2.344600935   1.549964427
H        4.972977514  -3.627655144   1.617762321
H        5.354840939  -1.488639524   1.623147965
H        4.973055469   3.628536643   4.036553733
H        5.356465177   1.489613991   4.030083576
H        0.624245821  -1.481247378   0.000260841
H        7.016006759   0.001960022   0.003032267
H        0.625176438   1.481374923   0.000782019
H        3.662343208  -6.982676844   1.264837451
H        1.052719638   0.000080134   4.493720742
H        3.663229466   6.986874508   4.389733778
H        3.661522633   6.986547330   1.267123761
H        1.051380211   0.000292511   1.159411442
H        3.663188964  -6.983488248   4.390100006
H        3.490918835   3.758730150   2.827907256
H        6.237457696   2.824531516   2.827389425
H        3.832679407   0.986918839   2.827453542
H        3.830424297  -0.985151834   2.826798888
H        6.236248915  -2.824392873   2.826453221
H        3.490976951  -3.757135231   2.826348876
H        3.464773044   2.346550525   4.104131897
H        4.972813258   3.627405332   1.618995466
H        5.356169264   1.488545062   1.623426525



     Writing output data file K5MgReH93.save
     NEW-OLD atomic charge density approx. for the potential
     extrapolated charge  129.10228, renormalised to  129.00000

     total cpu time spent up to now is    22807.9 secs

     Self-consistent Calculation

     iteration #  1     ecut=    50.00 Ry     beta=0.70
     Davidson diagonalization with overlap
     c_bands:  1 eigenvalues not converged
     ethr =  1.00E-06,  avg # of iterations =  6.2

     total cpu time spent up to now is    22861.0 secs

     total energy              =   -4360.77687722 Ry
     Harris-Foulkes estimate   =   -4358.35294044 Ry
     estimated scf accuracy    <       0.01206552 Ry

     iteration #  2     ecut=    50.00 Ry     beta=0.70
     Davidson diagonalization with overlap
     ethr =  9.35E-06,  avg # of iterations =  4.6

     total cpu time spent up to now is    22907.3 secs

     total energy              =   -4360.77897880 Ry
     Harris-Foulkes estimate   =   -4360.81787235 Ry
     estimated scf accuracy    <       0.14248838 Ry

     iteration #  3     ecut=    50.00 Ry     beta=0.70
     Davidson diagonalization with overlap
     ethr =  9.35E-06,  avg # of iterations =  3.9

     total cpu time spent up to now is    22945.8 secs

     total energy              =   -4360.79099990 Ry
     Harris-Foulkes estimate   =   -4360.79196689 Ry
     estimated scf accuracy    <       0.00747157 Ry

     iteration #  4     ecut=    50.00 Ry     beta=0.70
     Davidson diagonalization with overlap
     ethr =  5.79E-06,  avg # of iterations =  1.0

     total cpu time spent up to now is    22974.0 secs

     total energy              =   -4360.79053094 Ry
     Harris-Foulkes estimate   =   -4360.79115496 Ry
     estimated scf accuracy    <       0.00360960 Ry

     iteration #  5     ecut=    50.00 Ry     beta=0.70
     Davidson diagonalization with overlap
     ethr =  2.80E-06,  avg # of iterations =  2.0

     total cpu time spent up to now is    23004.0 secs

     total energy              =   -4360.79047186 Ry
     Harris-Foulkes estimate   =   -4360.79068156 Ry
     estimated scf accuracy    <       0.00107132 Ry

     iteration #  6     ecut=    50.00 Ry     beta=0.70
     Davidson diagonalization with overlap
     ethr =  8.30E-07,  avg # of iterations =  2.6

     total cpu time spent up to now is    23034.6 secs

     total energy              =   -4360.79045811 Ry
     Harris-Foulkes estimate   =   -4360.79054047 Ry
     estimated scf accuracy    <       0.00023823 Ry

     iteration #  7     ecut=    50.00 Ry     beta=0.70
     Davidson diagonalization with overlap
     ethr =  1.85E-07,  avg # of iterations =  3.4

     total cpu time spent up to now is    23069.5 secs

     total energy              =   -4360.79050572 Ry
     Harris-Foulkes estimate   =   -4360.79050616 Ry
     estimated scf accuracy    <       0.00000094 Ry

     iteration #  8     ecut=    50.00 Ry     beta=0.70
     Davidson diagonalization with overlap
     ethr =  7.28E-10,  avg # of iterations =  3.1

     total cpu time spent up to now is    23110.5 secs

     total energy              =   -4360.79050653 Ry
     Harris-Foulkes estimate   =   -4360.79050657 Ry
     estimated scf accuracy    <       0.00000008 Ry

     iteration #  9     ecut=    50.00 Ry     beta=0.70
     Davidson diagonalization with overlap
     ethr =  6.39E-11,  avg # of iterations =  3.0

     total cpu time spent up to now is    23146.7 secs

     total energy              =   -4360.79050653 Ry
     Harris-Foulkes estimate   =   -4360.79050655 Ry
     estimated scf accuracy    <       0.00000007 Ry

     iteration # 10     ecut=    50.00 Ry     beta=0.70
     Davidson diagonalization with overlap
     ethr =  5.71E-11,  avg # of iterations =  2.0

     total cpu time spent up to now is    23179.1 secs

     End of self-consistent calculation

          k = 0.0000 0.0000 0.0000 ( 16447 PWs)   bands (ev):

   -76.8050 -76.8038 -76.7791 -72.8105 -39.9296 -39.8858 -39.8842 -38.7050
   -38.7009 -38.6996 -38.6911 -38.6900 -38.6735 -38.6722 -38.6406 -38.6216
   -33.9408 -33.9396 -33.9303 -33.9292 -33.9290 -33.9271 -33.9260 -33.9222
   -33.9216 -33.9210 -33.9196 -33.9181 -33.9170 -33.9102 -33.9091 -33.9083
   -33.9071 -33.9066 -33.8817 -33.8700 -33.8697  -5.4933  -4.7920  -4.6579
    -2.0289  -1.9113  -1.8630  -1.8016  -1.5234  -1.4985  -1.3332  -1.3196
    -1.2572  -1.2238  -1.0442  -0.9656  -0.8512  -0.7158  -0.5620  -0.5179
    -0.3779  -0.3066  -0.2824  -0.2783  -0.2713  -0.0953   0.0634   0.0939
     5.0687   5.4925   6.1042   6.2199   6.2459   6.3833   6.4097   6.7127
     6.9971   7.3299   7.3887   7.4110   7.4710   7.5865

          k = 0.0002 0.0000-0.8151 ( 16526 PWs)   bands (ev):

   -76.8050 -76.8038 -76.7791 -72.8105 -39.9296 -39.8858 -39.8842 -38.7051
   -38.7009 -38.6997 -38.6912 -38.6901 -38.6738 -38.6725 -38.6405 -38.6219
   -33.9409 -33.9397 -33.9302 -33.9291 -33.9291 -33.9271 -33.9260 -33.9223
   -33.9217 -33.9210 -33.9197 -33.9182 -33.9171 -33.9102 -33.9091 -33.9085
   -33.9073 -33.9067 -33.8817 -33.8701 -33.8697  -5.1410  -4.7909  -4.5540
    -2.1538  -1.9639  -1.8583  -1.8108  -1.6395  -1.5034  -1.4993  -1.4815
    -1.3646  -1.2399  -1.0977  -1.0906  -0.9524  -0.8180  -0.7023  -0.6091
    -0.4630  -0.3093  -0.3021  -0.0700  -0.0150   0.0033   0.0271   0.1221
     5.5844   5.6764   5.6840   5.9205   6.2867   6.5851   6.8545   6.9584
     7.0757   7.1906   7.5068   7.8979   7.9180   8.1968

          k =-0.5157-0.2882 0.0002 ( 16490 PWs)   bands (ev):

   -76.8050 -76.8038 -76.7791 -72.8105 -39.9296 -39.8858 -39.8842 -38.7051
   -38.7009 -38.6996 -38.6911 -38.6901 -38.6736 -38.6723 -38.6406 -38.6217
   -33.9409 -33.9396 -33.9303 -33.9292 -33.9291 -33.9271 -33.9260 -33.9222
   -33.9217 -33.9210 -33.9197 -33.9181 -33.9171 -33.9102 -33.9091 -33.9084
   -33.9072 -33.9067 -33.8817 -33.8700 -33.8698  -5.2577  -4.9922  -4.8057
    -2.0500  -1.7920  -1.7096  -1.5255  -1.4951  -1.4836  -1.3128  -1.3038
    -1.2855  -1.2609  -1.1998  -1.0048  -0.9084  -0.7360  -0.6196  -0.4734
    -0.4281  -0.3546  -0.3541  -0.2996  -0.1817  -0.1147  -0.0045   0.0505
     5.2234   5.4816   5.6154   5.8146   6.5214   6.7152   6.9366   7.0336
     7.0870   7.1036   7.2080   7.7395   7.8061   7.8164

          k =-0.5155-0.2881-0.8149 ( 16554 PWs)   bands (ev):

   -76.8050 -76.8038 -76.7791 -72.8105 -39.9296 -39.8858 -39.8842 -38.7051
   -38.7009 -38.6997 -38.6913 -38.6901 -38.6739 -38.6725 -38.6407 -38.6219
   -33.9409 -33.9397 -33.9304 -33.9292 -33.9291 -33.9271 -33.9260 -33.9223
   -33.9217 -33.9210 -33.9197 -33.9182 -33.9171 -33.9102 -33.9091 -33.9086
   -33.9074 -33.9067 -33.8817 -33.8702 -33.8698  -5.0249  -4.7777  -4.7036
    -2.1818  -1.9688  -1.9141  -1.6690  -1.5939  -1.5750  -1.4645  -1.4362
    -1.4084  -1.3138  -1.1330  -1.0985  -0.9417  -0.8461  -0.7717  -0.6054
    -0.3852  -0.2988  -0.2210  -0.0354  -0.0228   0.0006   0.0104   0.1548
     5.4688   5.7067   5.8256   5.8873   5.9577   6.1021   6.8316   6.8530
     7.0447   7.2173   7.6716   7.8035   7.8817   8.1717

          k =-0.5157 0.2882 0.0001 ( 16490 PWs)   bands (ev):

   -76.8050 -76.8038 -76.7791 -72.8105 -39.9296 -39.8858 -39.8842 -38.7051
   -38.7009 -38.6996 -38.6912 -38.6900 -38.6736 -38.6723 -38.6406 -38.6217
   -33.9408 -33.9397 -33.9303 -33.9292 -33.9291 -33.9271 -33.9260 -33.9222
   -33.9217 -33.9210 -33.9197 -33.9181 -33.9171 -33.9102 -33.9091 -33.9084
   -33.9072 -33.9066 -33.8817 -33.8700 -33.8698  -5.2578  -4.9913  -4.8066
    -2.0494  -1.7919  -1.7101  -1.5265  -1.4930  -1.4827  -1.3126  -1.3035
    -1.2856  -1.2608  -1.2017  -1.0059  -0.9083  -0.7368  -0.6197  -0.4736
    -0.4273  -0.3561  -0.3539  -0.3001  -0.1792  -0.1154  -0.0041   0.0511
     5.2234   5.4816   5.6143   5.8139   6.5214   6.7159   6.9375   7.0337
     7.0852   7.1037   7.2103   7.7394   7.8057   7.8164

          k =-0.5155 0.2883-0.8150 ( 16536 PWs)   bands (ev):

   -76.8050 -76.8038 -76.7791 -72.8105 -39.9296 -39.8858 -39.8842 -38.7050
   -38.7010 -38.6996 -38.6911 -38.6902 -38.6738 -38.6725 -38.6407 -38.6219
   -33.9409 -33.9397 -33.9303 -33.9292 -33.9291 -33.9271 -33.9260 -33.9222
   -33.9217 -33.9210 -33.9197 -33.9182 -33.9171 -33.9102 -33.9091 -33.9086
   -33.9074 -33.9066 -33.8817 -33.8702 -33.8698  -5.0246  -4.7777  -4.7039
    -2.1819  -1.9690  -1.9141  -1.6686  -1.5941  -1.5752  -1.4633  -1.4329
    -1.4082  -1.3146  -1.1337  -1.1020  -0.9420  -0.8454  -0.7717  -0.6063
    -0.3853  -0.2996  -0.2208  -0.0344  -0.0234   0.0035   0.0095   0.1544
     5.4688   5.7086   5.8239   5.8867   5.9565   6.1030   6.8327   6.8521
     7.0448   7.2190   7.6697   7.8039   7.8838   8.1695

          k =-1.0314 0.0001 0.0002 ( 16510 PWs)   bands (ev):

   -76.8050 -76.8038 -76.7791 -72.8105 -39.9296 -39.8858 -39.8842 -38.7051
   -38.7009 -38.6996 -38.6912 -38.6901 -38.6737 -38.6724 -38.6406 -38.6218
   -33.9409 -33.9397 -33.9303 -33.9292 -33.9291 -33.9271 -33.9260 -33.9222
   -33.9217 -33.9210 -33.9197 -33.9181 -33.9171 -33.9102 -33.9091 -33.9084
   -33.9072 -33.9066 -33.8817 -33.8700 -33.8697  -5.2406  -5.0180  -4.8115
    -1.9409  -1.8545  -1.8101  -1.5219  -1.5123  -1.4592  -1.3310  -1.2953
    -1.2871  -1.2312  -1.0991  -0.9160  -0.8409  -0.6686  -0.6682  -0.6456
    -0.4993  -0.3173  -0.3158  -0.3084  -0.2281  -0.1381  -0.0401   0.0877
     5.1398   5.5786   5.5912   5.9376   6.4854   6.7450   6.8129   7.0416
     7.1083   7.1475   7.2781   7.5703   7.6151   7.7160

          k =-1.0312 0.0001-0.8148 ( 16498 PWs)   bands (ev):

   -76.8050 -76.8038 -76.7791 -72.8105 -39.9296 -39.8858 -39.8842 -38.7049
   -38.7008 -38.6995 -38.6911 -38.6900 -38.6739 -38.6726 -38.6405 -38.6220
   -33.9409 -33.9397 -33.9302 -33.9291 -33.9290 -33.9271 -33.9260 -33.9222
   -33.9217 -33.9210 -33.9197 -33.9181 -33.9170 -33.9102 -33.9091 -33.9085
   -33.9073 -33.9066 -33.8817 -33.8701 -33.8697  -4.9151  -4.8449  -4.7834
    -2.2073  -1.9307  -1.8275  -1.7287  -1.5623  -1.5395  -1.4486  -1.3729
    -1.3061  -1.2931  -1.2263  -1.0013  -0.9758  -0.8057  -0.7586  -0.7390
    -0.4650  -0.4410  -0.2709  -0.0365  -0.0254   0.0029   0.0132   0.2257
     5.5469   5.5813   5.7814   5.9342   6.0526   6.3796   6.7736   6.9720
     6.9838   7.2682   7.3319   7.5785   7.9208   8.1508

     the Fermi energy is     5.3429 ev

!    total energy              =   -4360.79050653 Ry
     Harris-Foulkes estimate   =   -4360.79050654 Ry
     estimated scf accuracy    <       0.00000002 Ry

     The total energy is the sum of the following terms:

     one-electron contribution =   -3254.05044441 Ry
     hartree contribution      =    1627.98930116 Ry
     xc contribution           =    -317.60633087 Ry
     ewald contribution        =    -768.32960475 Ry
     one-center paw contrib.   =   -1648.79552184 Ry
     smearing contrib. (-TS)   =       0.00209417 Ry

     convergence has been achieved in  10 iterations

     Forces acting on atoms (cartesian axes, Ry/au):

     atom    1 type  2   force =    -0.00087072    0.00033277    0.00003402
     atom    2 type  3   force =     0.00119774    0.00001228   -0.00006006
     atom    3 type  2   force =    -0.00085175   -0.00035711   -0.00002419
     atom    4 type  2   force =    -0.00091365    0.00034771    0.00001122
     atom    5 type  2   force =     0.00238579    0.00004114    0.00000008
     atom    6 type  2   force =    -0.00096970   -0.00033423   -0.00000123
     atom    7 type  4   force =    -0.00002657    0.00269309   -0.00000683
     atom    8 type  4   force =     0.00085830   -0.00285451   -0.00003443
     atom    9 type  4   force =    -0.00109356    0.00026305   -0.00003775
     atom   10 type  1   force =     0.00134753    0.00165813    0.00086968
     atom   11 type  1   force =     0.00076595   -0.00135183   -0.00091715
     atom   12 type  1   force =     0.00124350   -0.00048265   -0.00045301
     atom   13 type  1   force =     0.00098929    0.00036218    0.00021952
     atom   14 type  1   force =     0.00106780   -0.00038648    0.00029550
     atom   15 type  1   force =     0.00118869    0.00216212   -0.00041901
     atom   16 type  1   force =     0.00090707   -0.00109356    0.00060493
     atom   17 type  1   force =     0.00131976   -0.00198890    0.00057275
     atom   18 type  1   force =     0.00079177    0.00120177   -0.00072552
     atom   19 type  1   force =    -0.00105556   -0.00063481    0.00008316
     atom   20 type  1   force =    -0.00106473   -0.00008550    0.00001045
     atom   21 type  1   force =    -0.00098977    0.00045968   -0.00007015
     atom   22 type  1   force =    -0.00149550   -0.00320028   -0.00018683
     atom   23 type  1   force =    -0.00204089    0.00008447    0.00064551
     atom   24 type  1   force =    -0.00159862    0.00314317    0.00014368
     atom   25 type  1   force =    -0.00155380    0.00296669   -0.00004151
     atom   26 type  1   force =    -0.00185689   -0.00000965   -0.00047154
     atom   27 type  1   force =    -0.00155951   -0.00298301    0.00000761
     atom   28 type  1   force =     0.00073610   -0.00265401   -0.00006199
     atom   29 type  1   force =    -0.00042344   -0.00185047    0.00000430
     atom   30 type  1   force =    -0.00005078    0.00139161    0.00005310
     atom   31 type  1   force =     0.00030126   -0.00171476   -0.00006603
     atom   32 type  1   force =    -0.00021428    0.00202582    0.00003179
     atom   33 type  1   force =     0.00055991    0.00254728    0.00004064
     atom   34 type  1   force =     0.00103671    0.00028521   -0.00028665
     atom   35 type  1   force =     0.00140116   -0.00155737   -0.00093508
     atom   36 type  1   force =     0.00053140    0.00156096    0.00117101

     Total force =     0.012490     Total SCF correction =     0.000718


     Computing stress (Cartesian axis) and pressure

          total   stress  (Ry/bohr**3)                   (kbar)     P=   -2.18
  -0.00001727   0.00000119   0.00000056         -2.54      0.17      0.08
   0.00000119  -0.00002191  -0.00000208          0.17     -3.22     -0.31
   0.00000056  -0.00000208  -0.00000523          0.08     -0.31     -0.77


     number of scf cycles    =  22
     number of bfgs steps    =  21

     enthalpy old            =   -4360.7902156487 Ry
     enthalpy new            =   -4360.7905065281 Ry

     CASE: enthalpy_new < enthalpy_old

     new trust radius        =       0.0277470666 bohr
     new conv_thr            =       0.0000000291 Ry

     new unit-cell volume =   2717.75072 a.u.^3 (   402.72910 Ang^3 )
     density =      0.14844 g/cm^3

CELL_PARAMETERS (angstrom)
   4.458019843  -7.994319878  -0.000726825
   4.457115826   7.994125527   0.002626201
   0.000989997   0.001795686   5.650785973

ATOMIC_POSITIONS (angstrom)
K        1.073740621   2.056323829   2.826109235
Mg       6.537668720  -0.001535368   2.824242141
K        1.072788981  -2.055095559   2.825336614
K        2.694051360   4.728450959   0.000899898
K        3.620566026  -0.000276583   0.000614727
K        2.694742584  -4.727273978  -0.000986442
Re       4.584908617  -2.479852354   2.825258770
Re       4.585122821   2.481451254   2.827161008
Re      -0.197148966   0.000198662   0.000775467
H        4.968318829  -3.622262955   4.032894465
H        5.348458820  -1.485068396   4.029219294
H        3.456223282  -2.342704176   4.098837013
H        3.457529253   2.344979926   1.554531323
H        3.457287591  -2.344405722   1.552534253
H        4.968820703  -3.625276672   1.616396501
H        5.348187879  -1.486687147   1.621924965
H        4.967885356   3.625340958   4.035549984
H        5.349504082   1.487226934   4.029735851
H        0.619931514  -1.485914739  -0.000036937
H        6.987195907   0.001124799   0.002905946
H        0.620136937   1.484858257   0.001059812
H        3.650767506  -6.989013063   1.264438929
H        1.046386815   0.000787582   4.496560847
H        3.649933339   6.994102761   4.389176522
H        3.648910849   6.994097219   1.267631994
H        1.044936868   0.000354865   1.154996187
H        3.652074641  -6.990511039   4.387878727
H        3.477608819   3.760801823   2.827767546
H        6.228419023   2.820494906   2.826827515
H        3.823341301   0.989197571   2.826692886
H        3.820908675  -0.986727540   2.825955274
H        6.228341543  -2.820972827   2.825135750
H        3.479031580  -3.758375073   2.824953990
H        3.457771841   2.346430963   4.099667596
H        4.967575311   3.623299090   1.619923240
H        5.349448057   1.485556008   1.622318850



     Writing output data file K5MgReH93.save
     NEW-OLD atomic charge density approx. for the potential
     extrapolated charge  128.73973, renormalised to  129.00000

     total cpu time spent up to now is    23791.9 secs

     Self-consistent Calculation

     iteration #  1     ecut=    50.00 Ry     beta=0.70
     Davidson diagonalization with overlap
     ethr =  1.00E-06,  avg # of iterations =  7.8

     total cpu time spent up to now is    23849.2 secs

     total energy              =   -4360.70128751 Ry
     Harris-Foulkes estimate   =   -4366.96434951 Ry
     estimated scf accuracy    <       0.08029434 Ry

     iteration #  2     ecut=    50.00 Ry     beta=0.70
     Davidson diagonalization with overlap
     ethr =  6.22E-05,  avg # of iterations =  5.9

     total cpu time spent up to now is    23897.8 secs

     total energy              =   -4360.72056916 Ry
     Harris-Foulkes estimate   =   -4360.96833892 Ry
     estimated scf accuracy    <       0.89093133 Ry

     iteration #  3     ecut=    50.00 Ry     beta=0.70
     Davidson diagonalization with overlap
     ethr =  6.22E-05,  avg # of iterations =  4.8

     total cpu time spent up to now is    23938.3 secs

     total energy              =   -4360.79490998 Ry
     Harris-Foulkes estimate   =   -4360.80089578 Ry
     estimated scf accuracy    <       0.05060278 Ry

     iteration #  4     ecut=    50.00 Ry     beta=0.70
     Davidson diagonalization with overlap
     ethr =  3.92E-05,  avg # of iterations =  1.0

     total cpu time spent up to now is    23967.1 secs

     total energy              =   -4360.79219790 Ry
     Harris-Foulkes estimate   =   -4360.79582661 Ry
     estimated scf accuracy    <       0.02679937 Ry

     iteration #  5     ecut=    50.00 Ry     beta=0.70
     Davidson diagonalization with overlap
     ethr =  2.08E-05,  avg # of iterations =  1.0

     total cpu time spent up to now is    23995.5 secs

     total energy              =   -4360.79135833 Ry
     Harris-Foulkes estimate   =   -4360.79289318 Ry
     estimated scf accuracy    <       0.01162563 Ry

     iteration #  6     ecut=    50.00 Ry     beta=0.70
     Davidson diagonalization with overlap
     ethr =  9.01E-06,  avg # of iterations =  3.1

     total cpu time spent up to now is    24026.6 secs

     total energy              =   -4360.79031461 Ry
     Harris-Foulkes estimate   =   -4360.79169681 Ry
     estimated scf accuracy    <       0.00494286 Ry

     iteration #  7     ecut=    50.00 Ry     beta=0.70
     Davidson diagonalization with overlap
     ethr =  3.83E-06,  avg # of iterations =  4.4

     total cpu time spent up to now is    24063.9 secs

     total energy              =   -4360.79092623 Ry
     Harris-Foulkes estimate   =   -4360.79092578 Ry
     estimated scf accuracy    <       0.00013909 Ry

     iteration #  8     ecut=    50.00 Ry     beta=0.70
     Davidson diagonalization with overlap
     ethr =  1.08E-07,  avg # of iterations =  3.0

     total cpu time spent up to now is    24096.0 secs

     total energy              =   -4360.79090853 Ry
     Harris-Foulkes estimate   =   -4360.79093677 Ry
     estimated scf accuracy    <       0.00014438 Ry

     iteration #  9     ecut=    50.00 Ry     beta=0.70
     Davidson diagonalization with overlap
     ethr =  1.08E-07,  avg # of iterations =  1.8

     total cpu time spent up to now is    24125.7 secs

     total energy              =   -4360.79090263 Ry
     Harris-Foulkes estimate   =   -4360.79091481 Ry
     estimated scf accuracy    <       0.00004168 Ry

     iteration # 10     ecut=    50.00 Ry     beta=0.70
     Davidson diagonalization with overlap
     ethr =  3.23E-08,  avg # of iterations =  2.4

     total cpu time spent up to now is    24157.5 secs

     total energy              =   -4360.79090750 Ry
     Harris-Foulkes estimate   =   -4360.79090782 Ry
     estimated scf accuracy    <       0.00000132 Ry

     iteration # 11     ecut=    50.00 Ry     beta=0.70
     Davidson diagonalization with overlap
     ethr =  1.03E-09,  avg # of iterations =  3.0

     total cpu time spent up to now is    24194.4 secs

     total energy              =   -4360.79090768 Ry
     Harris-Foulkes estimate   =   -4360.79090773 Ry
     estimated scf accuracy    <       0.00000019 Ry

     iteration # 12     ecut=    50.00 Ry     beta=0.70
     Davidson diagonalization with overlap
     ethr =  1.47E-10,  avg # of iterations =  2.1

     total cpu time spent up to now is    24225.3 secs

     total energy              =   -4360.79090768 Ry
     Harris-Foulkes estimate   =   -4360.79090770 Ry
     estimated scf accuracy    <       0.00000004 Ry

     iteration # 13     ecut=    50.00 Ry     beta=0.70
     Davidson diagonalization with overlap
     ethr =  2.78E-11,  avg # of iterations =  3.0

     total cpu time spent up to now is    24261.1 secs

     End of self-consistent calculation

          k = 0.0000 0.0000 0.0000 ( 16447 PWs)   bands (ev):

   -76.7899 -76.7863 -76.7577 -72.7931 -39.9119 -39.8685 -39.8669 -38.6855
   -38.6849 -38.6813 -38.6777 -38.6749 -38.6592 -38.6558 -38.6191 -38.6053
   -33.9243 -33.9202 -33.9136 -33.9104 -33.9096 -33.9065 -33.9054 -33.9054
   -33.9013 -33.9012 -33.8983 -33.8974 -33.8952 -33.8934 -33.8914 -33.8894
   -33.8873 -33.8824 -33.8567 -33.8451 -33.8443  -5.4878  -4.7867  -4.6441
    -2.0136  -1.9063  -1.8512  -1.8014  -1.5115  -1.4916  -1.3198  -1.3136
    -1.2549  -1.2260  -1.0361  -0.9551  -0.8333  -0.7097  -0.5374  -0.5105
    -0.3680  -0.2967  -0.2664  -0.2643  -0.2527  -0.0779   0.0815   0.1163
     5.0894   5.5008   6.1108   6.2293   6.2669   6.4003   6.4308   6.7314
     7.0197   7.3608   7.4045   7.4284   7.4964   7.6002

          k = 0.0002 0.0002-0.8152 ( 16526 PWs)   bands (ev):

   -76.7899 -76.7863 -76.7577 -72.7931 -39.9119 -39.8685 -39.8669 -38.6856
   -38.6849 -38.6814 -38.6778 -38.6750 -38.6595 -38.6561 -38.6191 -38.6056
   -33.9244 -33.9203 -33.9135 -33.9105 -33.9095 -33.9066 -33.9055 -33.9054
   -33.9014 -33.9012 -33.8984 -33.8974 -33.8953 -33.8934 -33.8916 -33.8895
   -33.8875 -33.8825 -33.8567 -33.8452 -33.8443  -5.1297  -4.7891  -4.5408
    -2.1704  -1.9501  -1.8432  -1.8022  -1.6250  -1.4984  -1.4961  -1.4775
    -1.3536  -1.2351  -1.0780  -1.0771  -0.9299  -0.8021  -0.6938  -0.5905
    -0.4654  -0.2971  -0.2878  -0.0487   0.0092   0.0192   0.0329   0.1376
     5.6097   5.7009   5.7093   5.9440   6.2999   6.6024   6.8665   6.9753
     7.1117   7.1971   7.5265   7.8990   7.9324   8.2060

          k =-0.5167-0.2882 0.0002 ( 16490 PWs)   bands (ev):

   -76.7899 -76.7863 -76.7577 -72.7931 -39.9119 -39.8685 -39.8669 -38.6855
   -38.6849 -38.6813 -38.6778 -38.6750 -38.6593 -38.6560 -38.6191 -38.6055
   -33.9243 -33.9203 -33.9136 -33.9105 -33.9096 -33.9065 -33.9055 -33.9054
   -33.9014 -33.9012 -33.8983 -33.8974 -33.8953 -33.8934 -33.8915 -33.8895
   -33.8874 -33.8825 -33.8567 -33.8451 -33.8444  -5.2508  -4.9855  -4.7959
    -2.0356  -1.7910  -1.7027  -1.5141  -1.4814  -1.4776  -1.3103  -1.2877
    -1.2861  -1.2622  -1.1810  -0.9950  -0.8888  -0.7348  -0.6147  -0.4611
    -0.4098  -0.3435  -0.3431  -0.2819  -0.1654  -0.0935   0.0193   0.0662
     5.2345   5.4902   5.6352   5.8368   6.5420   6.7284   6.9530   7.0492
     7.1108   7.1156   7.2358   7.7570   7.8296   7.8355

          k =-0.5166-0.2880-0.8151 ( 16554 PWs)   bands (ev):

   -76.7899 -76.7863 -76.7577 -72.7931 -39.9119 -39.8685 -39.8669 -38.6856
   -38.6849 -38.6815 -38.6779 -38.6749 -38.6595 -38.6562 -38.6192 -38.6057
   -33.9243 -33.9203 -33.9137 -33.9105 -33.9096 -33.9066 -33.9055 -33.9054
   -33.9015 -33.9012 -33.8983 -33.8975 -33.8953 -33.8934 -33.8917 -33.8895
   -33.8875 -33.8825 -33.8567 -33.8453 -33.8444  -5.0121  -4.7758  -4.6917
    -2.1995  -1.9551  -1.9012  -1.6549  -1.5859  -1.5770  -1.4581  -1.4222
    -1.4017  -1.3073  -1.1125  -1.0788  -0.9247  -0.8253  -0.7628  -0.5944
    -0.3877  -0.2868  -0.2095  -0.0150  -0.0028   0.0144   0.0291   0.1690
     5.4896   5.7440   5.8464   5.9022   5.9796   6.1236   6.8437   6.8736
     7.0535   7.2284   7.6842   7.8269   7.8938   8.1845

          k =-0.5167 0.2881-0.0000 ( 16490 PWs)   bands (ev):

   -76.7899 -76.7863 -76.7577 -72.7931 -39.9119 -39.8685 -39.8669 -38.6855
   -38.6849 -38.6814 -38.6778 -38.6749 -38.6593 -38.6560 -38.6191 -38.6055
   -33.9243 -33.9203 -33.9136 -33.9105 -33.9096 -33.9066 -33.9055 -33.9054
   -33.9014 -33.9012 -33.8983 -33.8974 -33.8953 -33.8934 -33.8915 -33.8894
   -33.8874 -33.8824 -33.8567 -33.8451 -33.8444  -5.2510  -4.9848  -4.7965
    -2.0348  -1.7910  -1.7036  -1.5146  -1.4791  -1.4764  -1.3102  -1.2870
    -1.2859  -1.2622  -1.1837  -0.9966  -0.8894  -0.7356  -0.6149  -0.4624
    -0.4082  -0.3453  -0.3422  -0.2825  -0.1617  -0.0945   0.0200   0.0664
     5.2345   5.4907   5.6344   5.8340   6.5421   6.7322   6.9559   7.0488
     7.1082   7.1161   7.2394   7.7559   7.8280   7.8327

          k =-0.5166 0.2883-0.8152 ( 16536 PWs)   bands (ev):

   -76.7899 -76.7863 -76.7577 -72.7931 -39.9119 -39.8685 -39.8669 -38.6855
   -38.6850 -38.6814 -38.6778 -38.6750 -38.6595 -38.6562 -38.6192 -38.6057
   -33.9244 -33.9203 -33.9136 -33.9105 -33.9096 -33.9066 -33.9055 -33.9054
   -33.9014 -33.9012 -33.8983 -33.8975 -33.8953 -33.8934 -33.8917 -33.8894
   -33.8875 -33.8824 -33.8567 -33.8453 -33.8444  -5.0120  -4.7758  -4.6920
    -2.1996  -1.9555  -1.9012  -1.6539  -1.5860  -1.5766  -1.4578  -1.4178
    -1.4020  -1.3073  -1.1146  -1.0835  -0.9246  -0.8240  -0.7631  -0.5956
    -0.3879  -0.2884  -0.2084  -0.0136  -0.0044   0.0188   0.0277   0.1686
     5.4893   5.7457   5.8445   5.9020   5.9785   6.1240   6.8469   6.8723
     7.0521   7.2307   7.6844   7.8295   7.8942   8.1833

          k =-1.0335-0.0001 0.0002 ( 16510 PWs)   bands (ev):

   -76.7899 -76.7863 -76.7577 -72.7931 -39.9119 -39.8685 -39.8669 -38.6855
   -38.6849 -38.6814 -38.6778 -38.6749 -38.6594 -38.6560 -38.6191 -38.6056
   -33.9244 -33.9203 -33.9136 -33.9105 -33.9096 -33.9066 -33.9055 -33.9054
   -33.9014 -33.9012 -33.8983 -33.8974 -33.8953 -33.8934 -33.8915 -33.8894
   -33.8874 -33.8824 -33.8567 -33.8451 -33.8443  -5.2377  -5.0075  -4.8010
    -1.9309  -1.8444  -1.8099  -1.5086  -1.4978  -1.4519  -1.3292  -1.2894
    -1.2747  -1.2327  -1.0884  -0.8947  -0.8236  -0.6670  -0.6641  -0.6310
    -0.4957  -0.3013  -0.2992  -0.2950  -0.2043  -0.1172  -0.0187   0.0988
     5.1549   5.5856   5.6094   5.9693   6.5065   6.7583   6.8341   7.0482
     7.1205   7.1736   7.2981   7.5875   7.6474   7.7273

          k =-1.0333 0.0001-0.8151 ( 16498 PWs)   bands (ev):

   -76.7899 -76.7863 -76.7577 -72.7931 -39.9119 -39.8685 -39.8669 -38.6854
   -38.6848 -38.6813 -38.6777 -38.6749 -38.6595 -38.6562 -38.6190 -38.6057
   -33.9244 -33.9203 -33.9136 -33.9105 -33.9095 -33.9065 -33.9054 -33.9054
   -33.9013 -33.9012 -33.8983 -33.8973 -33.8953 -33.8934 -33.8916 -33.8894
   -33.8875 -33.8824 -33.8567 -33.8452 -33.8443  -4.9014  -4.8345  -4.7817
    -2.2221  -1.9177  -1.8125  -1.7125  -1.5591  -1.5438  -1.4362  -1.3714
    -1.2889  -1.2861  -1.2083  -0.9864  -0.9552  -0.7974  -0.7383  -0.7225
    -0.4669  -0.4220  -0.2662  -0.0260  -0.0104   0.0234   0.0381   0.2363
     5.5593   5.6141   5.8026   5.9676   6.0614   6.3997   6.7997   6.9798
     7.0126   7.2922   7.3520   7.5880   7.9275   8.1532

     the Fermi energy is     5.3563 ev

!    total energy              =   -4360.79090769 Ry
     Harris-Foulkes estimate   =   -4360.79090769 Ry
     estimated scf accuracy    <          4.6E-09 Ry

     The total energy is the sum of the following terms:

     one-electron contribution =   -3253.75277123 Ry
     hartree contribution      =    1627.91891474 Ry
     xc contribution           =    -317.61910988 Ry
     ewald contribution        =    -768.54540883 Ry
     one-center paw contrib.   =   -1648.79458793 Ry
     smearing contrib. (-TS)   =       0.00205544 Ry

     convergence has been achieved in  13 iterations

     Forces acting on atoms (cartesian axes, Ry/au):

     atom    1 type  2   force =    -0.00120662    0.00050885    0.00003284
     atom    2 type  3   force =     0.00064188    0.00013326   -0.00005673
     atom    3 type  2   force =    -0.00119857   -0.00050057   -0.00001812
     atom    4 type  2   force =    -0.00065720    0.00028070    0.00000673
     atom    5 type  2   force =     0.00201253    0.00003807   -0.00000234
     atom    6 type  2   force =    -0.00072336   -0.00031075   -0.00000163
     atom    7 type  4   force =    -0.00042134    0.00087947    0.00007628
     atom    8 type  4   force =    -0.00004034   -0.00101295   -0.00012895
     atom    9 type  4   force =     0.00090636    0.00019576    0.00006694
     atom   10 type  1   force =     0.00116918    0.00100628    0.00133252
     atom   11 type  1   force =     0.00028015   -0.00162684   -0.00142818
     atom   12 type  1   force =     0.00088428   -0.00038737    0.00063039
     atom   13 type  1   force =     0.00035901    0.00021068   -0.00118641
     atom   14 type  1   force =     0.00034366   -0.00021518   -0.00117172
     atom   15 type  1   force =     0.00081045    0.00209992   -0.00032422
     atom   16 type  1   force =     0.00056079   -0.00118140    0.00090534
     atom   17 type  1   force =     0.00112888   -0.00152917    0.00092174
     atom   18 type  1   force =     0.00041893    0.00135870   -0.00114077
     atom   19 type  1   force =    -0.00234392    0.00134907    0.00011610
     atom   20 type  1   force =     0.00016747   -0.00007909   -0.00000242
     atom   21 type  1   force =    -0.00198062   -0.00101311   -0.00010802
     atom   22 type  1   force =    -0.00193537   -0.00193035    0.00086820
     atom   23 type  1   force =    -0.00072909    0.00004821   -0.00060730
     atom   24 type  1   force =    -0.00214922    0.00152930   -0.00130616
     atom   25 type  1   force =    -0.00231981    0.00088836    0.00179606
     atom   26 type  1   force =    -0.00036350    0.00000700    0.00094137
     atom   27 type  1   force =    -0.00231655   -0.00105335   -0.00168182
     atom   28 type  1   force =     0.00335048   -0.00495520   -0.00009601
     atom   29 type  1   force =     0.00075625   -0.00159568    0.00002288
     atom   30 type  1   force =    -0.00041521    0.00005025    0.00009508
     atom   31 type  1   force =     0.00021125   -0.00085822   -0.00011252
     atom   32 type  1   force =     0.00051131    0.00193400    0.00004297
     atom   33 type  1   force =     0.00269949    0.00436961    0.00006177
     atom   34 type  1   force =     0.00027434    0.00008336    0.00128522
     atom   35 type  1   force =     0.00133816   -0.00066684   -0.00167786
     atom   36 type  1   force =    -0.00002411    0.00194524    0.00184872

     Total force =     0.013222     Total SCF correction =     0.000334


     Computing stress (Cartesian axis) and pressure

          total   stress  (Ry/bohr**3)                   (kbar)     P=   -1.35
  -0.00001218   0.00000289   0.00000118         -1.79      0.42      0.17
   0.00000289  -0.00002169  -0.00000441          0.42     -3.19     -0.65
   0.00000118  -0.00000441   0.00000633          0.17     -0.65      0.93


     number of scf cycles    =  23
     number of bfgs steps    =  22

     enthalpy old            =   -4360.7905065281 Ry
     enthalpy new            =   -4360.7909076929 Ry

     CASE: enthalpy_new < enthalpy_old

     new trust radius        =       0.0232070727 bohr
     new conv_thr            =       0.0000000401 Ry

     new unit-cell volume =   2713.19310 a.u.^3 (   402.05373 Ang^3 )
     density =      0.14869 g/cm^3

CELL_PARAMETERS (angstrom)
   4.448961776  -7.998839902  -0.000528624
   4.448079471   7.998718956   0.002458122
   0.001001288   0.001652767   5.649562446

ATOMIC_POSITIONS (angstrom)
K        1.070439745   2.057372456   2.825494872
Mg       6.522813467  -0.001780742   2.823370179
K        1.069410275  -2.056403233   2.824790464
K        2.685655910   4.738643588   0.000887079
K        3.622755008  -0.000199755   0.000636246
K        2.686073285  -4.737108721  -0.000848747
Re       4.578232858  -2.478747840   2.824744029
Re       4.578586724   2.480377112   2.826464363
Re      -0.201691395   0.000064218   0.000807335
H        4.963955695  -3.618517529   4.032994135
H        5.343262571  -1.484690203   4.028367954
H        3.449178839  -2.342448431   4.095000118
H        3.450556571   2.344567663   1.557267968
H        3.450296620  -2.344084079   1.555449608
H        4.964399165  -3.621418604   1.615313633
H        5.343080375  -1.486201186   1.621426583
H        4.963579029   3.621327124   4.035301138
H        5.344409257   1.486675019   4.028982874
H        0.611467504  -1.488748492  -0.000019866
H        6.960760058   0.001051783   0.003050187
H        0.611550142   1.487114033   0.001055711
H        3.637383339  -6.999361933   1.266136225
H        1.042350308   0.000789561   4.499256033
H        3.636405681   7.004753048   4.386437765
H        3.635735741   7.005106878   1.268644640
H        1.040932935   0.000347993   1.151119107
H        3.638923583  -7.001331703   4.385622781
H        3.469334207   3.758924679   2.827088374
H        6.220933665   2.818362239   2.826077262
H        3.815829731   0.991772669   2.825961819
H        3.813440964  -0.989382011   2.825459961
H        6.221014458  -2.818841885   2.824651722
H        3.470699363  -3.756417739   2.824433664
H        3.450916090   2.345956676   4.095323036
H        4.963294162   3.619417507   1.618706274
H        5.344158574   1.485213785   1.622145914



     Writing output data file K5MgReH93.save
     NEW-OLD atomic charge density approx. for the potential
     extrapolated charge  128.78347, renormalised to  129.00000

     total cpu time spent up to now is    24873.7 secs

     Self-consistent Calculation

     iteration #  1     ecut=    50.00 Ry     beta=0.70
     Davidson diagonalization with overlap
     ethr =  1.00E-06,  avg # of iterations =  7.4

     total cpu time spent up to now is    24930.3 secs

     total energy              =   -4360.72678838 Ry
     Harris-Foulkes estimate   =   -4365.95619476 Ry
     estimated scf accuracy    <       0.05818976 Ry

     iteration #  2     ecut=    50.00 Ry     beta=0.70
     Davidson diagonalization with overlap
     ethr =  4.51E-05,  avg # of iterations =  5.9

     total cpu time spent up to now is    24978.9 secs

     total energy              =   -4360.73957128 Ry
     Harris-Foulkes estimate   =   -4360.91851980 Ry
     estimated scf accuracy    <       0.64287988 Ry

     iteration #  3     ecut=    50.00 Ry     beta=0.70
     Davidson diagonalization with overlap
     ethr =  4.51E-05,  avg # of iterations =  4.9

     total cpu time spent up to now is    25019.5 secs

     total energy              =   -4360.79422898 Ry
     Harris-Foulkes estimate   =   -4360.79816861 Ry
     estimated scf accuracy    <       0.03514697 Ry

     iteration #  4     ecut=    50.00 Ry     beta=0.70
     Davidson diagonalization with overlap
     ethr =  2.72E-05,  avg # of iterations =  1.0

     total cpu time spent up to now is    25048.2 secs

     total energy              =   -4360.79212978 Ry
     Harris-Foulkes estimate   =   -4360.79485265 Ry
     estimated scf accuracy    <       0.01947742 Ry

     iteration #  5     ecut=    50.00 Ry     beta=0.70
     Davidson diagonalization with overlap
     ethr =  1.51E-05,  avg # of iterations =  1.0

     total cpu time spent up to now is    25076.5 secs

     total energy              =   -4360.79140315 Ry
     Harris-Foulkes estimate   =   -4360.79266208 Ry
     estimated scf accuracy    <       0.00805139 Ry

     iteration #  6     ecut=    50.00 Ry     beta=0.70
     Davidson diagonalization with overlap
     ethr =  6.24E-06,  avg # of iterations =  3.9

     total cpu time spent up to now is    25108.5 secs

     total energy              =   -4360.79095828 Ry
     Harris-Foulkes estimate   =   -4360.79171885 Ry
     estimated scf accuracy    <       0.00262562 Ry

     iteration #  7     ecut=    50.00 Ry     beta=0.70
     Davidson diagonalization with overlap
     ethr =  2.04E-06,  avg # of iterations =  4.1

     total cpu time spent up to now is    25145.9 secs

     total energy              =   -4360.79128460 Ry
     Harris-Foulkes estimate   =   -4360.79128938 Ry
     estimated scf accuracy    <       0.00006103 Ry

     iteration #  8     ecut=    50.00 Ry     beta=0.70
     Davidson diagonalization with overlap
     ethr =  4.73E-08,  avg # of iterations =  3.0

     total cpu time spent up to now is    25179.8 secs

     total energy              =   -4360.79127960 Ry
     Harris-Foulkes estimate   =   -4360.79129239 Ry
     estimated scf accuracy    <       0.00004061 Ry

     iteration #  9     ecut=    50.00 Ry     beta=0.70
     Davidson diagonalization with overlap
     ethr =  3.15E-08,  avg # of iterations =  2.0

     total cpu time spent up to now is    25212.3 secs

     total energy              =   -4360.79128485 Ry
     Harris-Foulkes estimate   =   -4360.79128512 Ry
     estimated scf accuracy    <       0.00000060 Ry

     iteration # 10     ecut=    50.00 Ry     beta=0.70
     Davidson diagonalization with overlap
     ethr =  4.69E-10,  avg # of iterations =  3.4

     total cpu time spent up to now is    25249.8 secs

     total energy              =   -4360.79128505 Ry
     Harris-Foulkes estimate   =   -4360.79128510 Ry
     estimated scf accuracy    <       0.00000012 Ry

     iteration # 11     ecut=    50.00 Ry     beta=0.70
     Davidson diagonalization with overlap
     ethr =  9.42E-11,  avg # of iterations =  2.4

     total cpu time spent up to now is    25283.5 secs

     End of self-consistent calculation

          k = 0.0000 0.0000 0.0000 ( 16447 PWs)   bands (ev):

   -76.7769 -76.7725 -76.7306 -72.7770 -39.8956 -39.8522 -39.8510 -38.6736
   -38.6695 -38.6669 -38.6634 -38.6611 -38.6475 -38.6435 -38.5929 -38.5819
   -33.9090 -33.9040 -33.8981 -33.8950 -33.8932 -33.8902 -33.8900 -33.8860
   -33.8849 -33.8811 -33.8778 -33.8758 -33.8756 -33.8730 -33.8708 -33.8687
   -33.8650 -33.8526 -33.8264 -33.8146 -33.8138  -5.4882  -4.7799  -4.6424
    -2.0084  -1.9078  -1.8447  -1.8067  -1.5036  -1.4840  -1.3226  -1.2913
    -1.2427  -1.2302  -1.0377  -0.9512  -0.8210  -0.7011  -0.5275  -0.5023
    -0.3631  -0.2874  -0.2570  -0.2545  -0.2381  -0.0714   0.0954   0.1340
     5.1125   5.5137   6.1259   6.2418   6.2863   6.4177   6.4427   6.7524
     7.0400   7.3921   7.4166   7.4541   7.5186   7.6102

          k = 0.0002 0.0002-0.8154 ( 16526 PWs)   bands (ev):

   -76.7769 -76.7725 -76.7306 -72.7770 -39.8956 -39.8522 -39.8510 -38.6736
   -38.6695 -38.6670 -38.6635 -38.6612 -38.6478 -38.6438 -38.5929 -38.5822
   -33.9091 -33.9041 -33.8981 -33.8951 -33.8932 -33.8903 -33.8900 -33.8861
   -33.8849 -33.8812 -33.8778 -33.8760 -33.8756 -33.8730 -33.8710 -33.8688
   -33.8651 -33.8527 -33.8264 -33.8147 -33.8138  -5.1295  -4.7820  -4.5396
    -2.1845  -1.9462  -1.8389  -1.7941  -1.6199  -1.4917  -1.4908  -1.4751
    -1.3492  -1.2183  -1.0759  -1.0570  -0.9190  -0.7966  -0.6945  -0.5777
    -0.4581  -0.2954  -0.2775  -0.0198   0.0226   0.0336   0.0358   0.1398
     5.6278   5.7180   5.7394   5.9723   6.3204   6.6219   6.8869   6.9853
     7.1484   7.2060   7.5478   7.9055   7.9462   8.2138

          k =-0.5178-0.2880 0.0002 ( 16490 PWs)   bands (ev):

   -76.7769 -76.7725 -76.7306 -72.7770 -39.8956 -39.8522 -39.8510 -38.6736
   -38.6694 -38.6669 -38.6635 -38.6611 -38.6476 -38.6437 -38.5929 -38.5821
   -33.9090 -33.9040 -33.8981 -33.8951 -33.8932 -33.8903 -33.8900 -33.8860
   -33.8849 -33.8812 -33.8778 -33.8759 -33.8756 -33.8730 -33.8708 -33.8687
   -33.8651 -33.8526 -33.8264 -33.8147 -33.8139  -5.2523  -4.9781  -4.7941
    -2.0287  -1.7955  -1.7041  -1.5071  -1.4751  -1.4714  -1.3048  -1.2896
    -1.2721  -1.2575  -1.1708  -0.9947  -0.8803  -0.7275  -0.6050  -0.4537
    -0.4000  -0.3342  -0.3340  -0.2751  -0.1533  -0.0796   0.0349   0.0789
     5.2504   5.5046   5.6550   5.8594   6.5537   6.7426   6.9688   7.0677
     7.1315   7.1362   7.2634   7.7709   7.8465   7.8604

          k =-0.5176-0.2878-0.8152 ( 16554 PWs)   bands (ev):

   -76.7769 -76.7725 -76.7306 -72.7770 -39.8956 -39.8522 -39.8510 -38.6737
   -38.6696 -38.6671 -38.6635 -38.6611 -38.6478 -38.6439 -38.5931 -38.5823
   -33.9090 -33.9041 -33.8982 -33.8951 -33.8933 -33.8903 -33.8900 -33.8861
   -33.8849 -33.8812 -33.8778 -33.8761 -33.8757 -33.8730 -33.8710 -33.8688
   -33.8651 -33.8526 -33.8264 -33.8149 -33.8139  -5.0115  -4.7684  -4.6907
    -2.2139  -1.9516  -1.8948  -1.6484  -1.5801  -1.5696  -1.4552  -1.4188
    -1.3880  -1.3053  -1.0957  -1.0724  -0.9144  -0.8147  -0.7589  -0.5877
    -0.3820  -0.2812  -0.2038   0.0077   0.0120   0.0225   0.0488   0.1689
     5.5077   5.7794   5.8717   5.9172   6.0024   6.1422   6.8601   6.8890
     7.0677   7.2436   7.7009   7.8501   7.9121   8.1960

          k =-0.5178 0.2879 0.0000 ( 16490 PWs)   bands (ev):

   -76.7769 -76.7725 -76.7306 -72.7770 -39.8956 -39.8522 -39.8510 -38.6736
   -38.6695 -38.6670 -38.6635 -38.6611 -38.6476 -38.6437 -38.5929 -38.5821
   -33.9090 -33.9041 -33.8982 -33.8951 -33.8932 -33.8903 -33.8900 -33.8860
   -33.8849 -33.8812 -33.8778 -33.8759 -33.8756 -33.8730 -33.8708 -33.8687
   -33.8651 -33.8526 -33.8264 -33.8147 -33.8139  -5.2525  -4.9775  -4.7946
    -2.0283  -1.7956  -1.7050  -1.5071  -1.4729  -1.4705  -1.3046  -1.2900
    -1.2706  -1.2575  -1.1735  -0.9962  -0.8809  -0.7283  -0.6052  -0.4554
    -0.3983  -0.3361  -0.3333  -0.2757  -0.1496  -0.0803   0.0353   0.0790
     5.2503   5.5054   5.6544   5.8562   6.5538   6.7471   6.9717   7.0668
     7.1292   7.1360   7.2671   7.7697   7.8451   7.8574

          k =-0.5176 0.2881-0.8154 ( 16536 PWs)   bands (ev):

   -76.7769 -76.7725 -76.7306 -72.7770 -39.8956 -39.8522 -39.8510 -38.6737
   -38.6695 -38.6669 -38.6635 -38.6611 -38.6478 -38.6439 -38.5930 -38.5823
   -33.9090 -33.9040 -33.8982 -33.8951 -33.8933 -33.8903 -33.8900 -33.8860
   -33.8849 -33.8812 -33.8778 -33.8760 -33.8757 -33.8730 -33.8710 -33.8687
   -33.8651 -33.8526 -33.8264 -33.8148 -33.8139  -5.0114  -4.7684  -4.6910
    -2.2140  -1.9520  -1.8951  -1.6472  -1.5801  -1.5687  -1.4555  -1.4142
    -1.3889  -1.3047  -1.0979  -1.0768  -0.9143  -0.8135  -0.7596  -0.5884
    -0.3821  -0.2829  -0.2026   0.0057   0.0139   0.0268   0.0471   0.1688
     5.5076   5.7812   5.8700   5.9167   6.0010   6.1425   6.8636   6.8879
     7.0660   7.2460   7.7015   7.8530   7.9125   8.1949

          k =-1.0356-0.0001 0.0002 ( 16510 PWs)   bands (ev):

   -76.7769 -76.7725 -76.7306 -72.7770 -39.8956 -39.8522 -39.8510 -38.6736
   -38.6695 -38.6670 -38.6635 -38.6611 -38.6477 -38.6437 -38.5930 -38.5822
   -33.9091 -33.9041 -33.8982 -33.8951 -33.8933 -33.8903 -33.8900 -33.8860
   -33.8849 -33.8812 -33.8778 -33.8759 -33.8756 -33.8730 -33.8708 -33.8688
   -33.8652 -33.8526 -33.8264 -33.8147 -33.8138  -5.2394  -5.0065  -4.7924
    -1.9247  -1.8443  -1.8145  -1.5025  -1.4943  -1.4445  -1.3180  -1.2940
    -1.2545  -1.2328  -1.0859  -0.8833  -0.8163  -0.6604  -0.6564  -0.6233
    -0.4949  -0.2923  -0.2847  -0.2836  -0.1886  -0.1049   0.0003   0.1011
     5.1754   5.6005   5.6309   5.9955   6.5184   6.7741   6.8487   7.0618
     7.1317   7.1944   7.3168   7.6120   7.6795   7.7422

          k =-1.0354 0.0001-0.8152 ( 16498 PWs)   bands (ev):

   -76.7769 -76.7725 -76.7306 -72.7770 -39.8956 -39.8522 -39.8510 -38.6736
   -38.6694 -38.6669 -38.6634 -38.6610 -38.6478 -38.6439 -38.5929 -38.5823
   -33.9090 -33.9041 -33.8981 -33.8951 -33.8932 -33.8902 -33.8900 -33.8860
   -33.8849 -33.8811 -33.8778 -33.8760 -33.8756 -33.8730 -33.8710 -33.8688
   -33.8651 -33.8525 -33.8264 -33.8148 -33.8138  -4.9008  -4.8341  -4.7746
    -2.2335  -1.9155  -1.8078  -1.7019  -1.5577  -1.5340  -1.4290  -1.3734
    -1.2780  -1.2738  -1.1966  -0.9865  -0.9384  -0.7956  -0.7301  -0.7127
    -0.4591  -0.4126  -0.2625  -0.0212   0.0065   0.0504   0.0523   0.2331
     5.5738   5.6434   5.8296   5.9914   6.0703   6.4194   6.8238   6.9968
     7.0421   7.3200   7.3710   7.6059   7.9401   8.1533

     the Fermi energy is     5.3723 ev

!    total energy              =   -4360.79128506 Ry
     Harris-Foulkes estimate   =   -4360.79128508 Ry
     estimated scf accuracy    <       0.00000002 Ry

     The total energy is the sum of the following terms:

     one-electron contribution =   -3254.35155812 Ry
     hartree contribution      =    1628.28840952 Ry
     xc contribution           =    -317.63782389 Ry
     ewald contribution        =    -768.29948655 Ry
     one-center paw contrib.   =   -1648.79276222 Ry
     smearing contrib. (-TS)   =       0.00193620 Ry

     convergence has been achieved in  11 iterations

     Forces acting on atoms (cartesian axes, Ry/au):

     atom    1 type  2   force =    -0.00159771    0.00053822    0.00003346
     atom    2 type  3   force =     0.00093307    0.00018606   -0.00004996
     atom    3 type  2   force =    -0.00159476   -0.00050586   -0.00001552
     atom    4 type  2   force =    -0.00034000   -0.00004937    0.00000317
     atom    5 type  2   force =     0.00150716    0.00003678   -0.00000386
     atom    6 type  2   force =    -0.00038892   -0.00000479   -0.00000590
     atom    7 type  4   force =     0.00097575    0.00055720    0.00003894
     atom    8 type  4   force =     0.00116993   -0.00095171   -0.00011488
     atom    9 type  4   force =     0.00011723    0.00038036    0.00006725
     atom   10 type  1   force =     0.00084878    0.00039921    0.00150300
     atom   11 type  1   force =    -0.00007572   -0.00153731   -0.00135354
     atom   12 type  1   force =     0.00040175   -0.00032349    0.00170268
     atom   13 type  1   force =    -0.00013934    0.00016956   -0.00229097
     atom   14 type  1   force =    -0.00018711   -0.00014674   -0.00229176
     atom   15 type  1   force =     0.00050542    0.00144492   -0.00052510
     atom   16 type  1   force =     0.00014820   -0.00116004    0.00093038
     atom   17 type  1   force =     0.00084913   -0.00079662    0.00121009
     atom   18 type  1   force =     0.00003115    0.00134308   -0.00117264
     atom   19 type  1   force =    -0.00245715    0.00155665    0.00011427
     atom   20 type  1   force =     0.00087434   -0.00007432   -0.00000505
     atom   21 type  1   force =    -0.00202637   -0.00109904   -0.00010352
     atom   22 type  1   force =    -0.00214191   -0.00068634    0.00174363
     atom   23 type  1   force =     0.00044915    0.00000395   -0.00157695
     atom   24 type  1   force =    -0.00238210    0.00015296   -0.00232746
     atom   25 type  1   force =    -0.00263284   -0.00062025    0.00295761
     atom   26 type  1   force =     0.00081597   -0.00000782    0.00191027
     atom   27 type  1   force =    -0.00260525    0.00031689   -0.00268240
     atom   28 type  1   force =     0.00381795   -0.00477006   -0.00009752
     atom   29 type  1   force =     0.00152629   -0.00138895    0.00003103
     atom   30 type  1   force =    -0.00082480   -0.00133596    0.00010092
     atom   31 type  1   force =    -0.00025280    0.00060242   -0.00011108
     atom   32 type  1   force =     0.00111796    0.00175710    0.00004272
     atom   33 type  1   force =     0.00313958    0.00416535    0.00006595
     atom   34 type  1   force =    -0.00030431    0.00003276    0.00248678
     atom   35 type  1   force =     0.00103841    0.00001291   -0.00191463
     atom   36 type  1   force =    -0.00031612    0.00180227    0.00170059

     Total force =     0.014458     Total SCF correction =     0.001283


     Computing stress (Cartesian axis) and pressure

          total   stress  (Ry/bohr**3)                   (kbar)     P=    0.03
  -0.00000257   0.00000301   0.00000113         -0.38      0.44      0.17
   0.00000301  -0.00001328  -0.00000431          0.44     -1.95     -0.63
   0.00000113  -0.00000431   0.00001646          0.17     -0.63      2.42


     number of scf cycles    =  24
     number of bfgs steps    =  23

     enthalpy old            =   -4360.7909076929 Ry
     enthalpy new            =   -4360.7912850609 Ry

     CASE: enthalpy_new < enthalpy_old

     new trust radius        =       0.0347399746 bohr
     new conv_thr            =       0.0000000377 Ry

     new unit-cell volume =   2706.02603 a.u.^3 (   400.99168 Ang^3 )
     density =      0.14908 g/cm^3

CELL_PARAMETERS (angstrom)
   4.434161856  -7.999745004   0.000780971
   4.434559081   8.000416196   0.001465455
   0.001186557   0.000847351   5.651712189

ATOMIC_POSITIONS (angstrom)
K        1.065068182   2.057316528   2.826368878
Mg       6.505968428  -0.001805804   2.824243281
K        1.063591117  -2.057100237   2.826242496
K        2.674727034   4.748172524   0.000434981
K        3.625690843   0.000186726   0.000771297
K        2.674055621  -4.745776737  -0.000069058
Re       4.567816366  -2.475167199   2.826333805
Re       4.568785535   2.476596904   2.827263376
Re      -0.209445983   0.000113756   0.000882246
H        4.955987256  -3.612149679   4.036610675
H        5.332980377  -1.483352243   4.029013265
H        3.437793522  -2.341063737   4.094124415
H        3.439248040   2.342824005   1.560313625
H        3.438567364  -2.342249305   1.559268525
H        4.956081001  -3.614038817   1.615868094
H        5.332963089  -1.484257320   1.623216874
H        4.956258393   3.614301929   4.037506410
H        5.334548567   1.484978550   4.029463663
H        0.598714567  -1.490087907   0.000265578
H        6.920280233   0.001467009   0.003481889
H        0.599174597   1.488128661   0.000851268
H        3.616134267  -7.007733622   1.271685518
H        1.036797312   0.000352915   4.505715125
H        3.615989102   7.013163981   4.383098384
H        3.615500621   7.013834659   1.272550925
H        1.035527634   0.000296600   1.147135022
H        3.617763121  -7.010039912   4.384344392
H        3.459105548   3.752025783   2.827697924
H        6.210076882   2.812867029   2.826843207
H        3.802947563   0.993361429   2.826934768
H        3.800728937  -0.991498775   2.826858422
H        6.209620209  -2.812806450   2.826427452
H        3.459399237  -3.749865334   2.826205833
H        3.439722058   2.343786193   4.093740835
H        4.956049372   3.613285815   1.617399416
H        5.333790267   1.484289564   1.624432830



     Writing output data file K5MgReH93.save
     NEW-OLD atomic charge density approx. for the potential
     extrapolated charge  128.65859, renormalised to  129.00000

     total cpu time spent up to now is    25896.2 secs

     Self-consistent Calculation

     iteration #  1     ecut=    50.00 Ry     beta=0.70
     Davidson diagonalization with overlap
     ethr =  1.00E-06,  avg # of iterations =  8.9

     total cpu time spent up to now is    25956.1 secs

     total energy              =   -4360.63429345 Ry
     Harris-Foulkes estimate   =   -4368.93664561 Ry
     estimated scf accuracy    <       0.14162106 Ry

     iteration #  2     ecut=    50.00 Ry     beta=0.70
     Davidson diagonalization with overlap
     ethr =  1.10E-04,  avg # of iterations =  6.0

     total cpu time spent up to now is    26004.7 secs

     total energy              =   -4360.67173097 Ry
     Harris-Foulkes estimate   =   -4361.09958789 Ry
     estimated scf accuracy    <       1.52460114 Ry

     iteration #  3     ecut=    50.00 Ry     beta=0.70
     Davidson diagonalization with overlap
     ethr =  1.10E-04,  avg # of iterations =  4.5

     total cpu time spent up to now is    26045.9 secs

     total energy              =   -4360.79885023 Ry
     Harris-Foulkes estimate   =   -4360.80917944 Ry
     estimated scf accuracy    <       0.08829586 Ry

     iteration #  4     ecut=    50.00 Ry     beta=0.70
     Davidson diagonalization with overlap
     ethr =  6.84E-05,  avg # of iterations =  1.0

     total cpu time spent up to now is    26074.2 secs

     total energy              =   -4360.79448538 Ry
     Harris-Foulkes estimate   =   -4360.80049276 Ry
     estimated scf accuracy    <       0.04761884 Ry

     iteration #  5     ecut=    50.00 Ry     beta=0.70
     Davidson diagonalization with overlap
     ethr =  3.69E-05,  avg # of iterations =  1.0

     total cpu time spent up to now is    26103.1 secs

     total energy              =   -4360.79274884 Ry
     Harris-Foulkes estimate   =   -4360.79559977 Ry
     estimated scf accuracy    <       0.02213845 Ry

     iteration #  6     ecut=    50.00 Ry     beta=0.70
     Davidson diagonalization with overlap
     ethr =  1.72E-05,  avg # of iterations =  1.6

     total cpu time spent up to now is    26132.1 secs

     total energy              =   -4360.79039822 Ry
     Harris-Foulkes estimate   =   -4360.79333773 Ry
     estimated scf accuracy    <       0.00965255 Ry

     iteration #  7     ecut=    50.00 Ry     beta=0.70
     Davidson diagonalization with overlap
     ethr =  7.48E-06,  avg # of iterations =  5.2

     total cpu time spent up to now is    26170.4 secs

     total energy              =   -4360.79175954 Ry
     Harris-Foulkes estimate   =   -4360.79175544 Ry
     estimated scf accuracy    <       0.00009227 Ry

     iteration #  8     ecut=    50.00 Ry     beta=0.70
     Davidson diagonalization with overlap
     ethr =  7.15E-08,  avg # of iterations =  3.0

     total cpu time spent up to now is    26207.2 secs

     total energy              =   -4360.79178317 Ry
     Harris-Foulkes estimate   =   -4360.79178618 Ry
     estimated scf accuracy    <       0.00011326 Ry

     iteration #  9     ecut=    50.00 Ry     beta=0.70
     Davidson diagonalization with overlap
     ethr =  7.15E-08,  avg # of iterations =  1.0

     total cpu time spent up to now is    26236.1 secs

     total energy              =   -4360.79174980 Ry
     Harris-Foulkes estimate   =   -4360.79178428 Ry
     estimated scf accuracy    <       0.00010311 Ry

     iteration # 10     ecut=    50.00 Ry     beta=0.70
     Davidson diagonalization with overlap
     ethr =  7.15E-08,  avg # of iterations =  2.0

     total cpu time spent up to now is    26267.8 secs

     total energy              =   -4360.79176302 Ry
     Harris-Foulkes estimate   =   -4360.79176310 Ry
     estimated scf accuracy    <       0.00000146 Ry

     iteration # 11     ecut=    50.00 Ry     beta=0.70
     Davidson diagonalization with overlap
     ethr =  1.13E-09,  avg # of iterations =  2.4

     total cpu time spent up to now is    26302.1 secs

     total energy              =   -4360.79176275 Ry
     Harris-Foulkes estimate   =   -4360.79176318 Ry
     estimated scf accuracy    <       0.00000135 Ry

     iteration # 12     ecut=    50.00 Ry     beta=0.70
     Davidson diagonalization with overlap
     ethr =  1.04E-09,  avg # of iterations =  2.0

     total cpu time spent up to now is    26333.3 secs

     total energy              =   -4360.79176289 Ry
     Harris-Foulkes estimate   =   -4360.79176291 Ry
     estimated scf accuracy    <       0.00000006 Ry

     iteration # 13     ecut=    50.00 Ry     beta=0.70
     Davidson diagonalization with overlap
     ethr =  4.84E-11,  avg # of iterations =  3.0

     total cpu time spent up to now is    26368.3 secs

     End of self-consistent calculation

          k = 0.0000 0.0000 0.0000 ( 16447 PWs)   bands (ev):

   -76.7553 -76.7513 -76.6985 -72.7446 -39.8631 -39.8197 -39.8189 -38.6549
   -38.6514 -38.6469 -38.6438 -38.6323 -38.6283 -38.6247 -38.5607 -38.5532
   -33.8839 -33.8796 -33.8730 -33.8700 -33.8688 -33.8657 -33.8649 -33.8607
   -33.8605 -33.8565 -33.8523 -33.8507 -33.8481 -33.8463 -33.8409 -33.8343
   -33.8295 -33.8173 -33.7903 -33.7786 -33.7774  -5.4860  -4.7670  -4.6349
    -1.9956  -1.9079  -1.8338  -1.8124  -1.4930  -1.4688  -1.3143  -1.2661
    -1.2234  -1.2202  -1.0352  -0.9473  -0.8026  -0.6929  -0.5157  -0.4898
    -0.3526  -0.2775  -0.2476  -0.2344  -0.2112  -0.0598   0.1200   0.1701
     5.1440   5.5332   6.1425   6.2590   6.3152   6.4496   6.4678   6.7851
     7.0606   7.4229   7.4345   7.4962   7.5387   7.6334

          k = 0.0002 0.0000-0.8151 ( 16526 PWs)   bands (ev):

   -76.7553 -76.7513 -76.6985 -72.7446 -39.8631 -39.8197 -39.8189 -38.6549
   -38.6514 -38.6471 -38.6439 -38.6325 -38.6286 -38.6250 -38.5607 -38.5535
   -33.8841 -33.8798 -33.8730 -33.8700 -33.8688 -33.8658 -33.8649 -33.8608
   -33.8606 -33.8566 -33.8523 -33.8509 -33.8481 -33.8465 -33.8409 -33.8344
   -33.8296 -33.8174 -33.7903 -33.7787 -33.7775  -5.1257  -4.7702  -4.5332
    -2.2015  -1.9411  -1.8287  -1.7817  -1.6123  -1.4778  -1.4751  -1.4626
    -1.3402  -1.1963  -1.0681  -1.0335  -0.9044  -0.7871  -0.6876  -0.5571
    -0.4504  -0.2870  -0.2634   0.0260   0.0411   0.0488   0.0575   0.1484
     5.6614   5.7385   5.7847   6.0023   6.3517   6.6508   6.9161   7.0114
     7.2037   7.2233   7.5771   7.9042   7.9613   8.2259

          k =-0.5194-0.2879 0.0002 ( 16490 PWs)   bands (ev):

   -76.7553 -76.7513 -76.6985 -72.7446 -39.8631 -39.8197 -39.8189 -38.6550
   -38.6514 -38.6470 -38.6439 -38.6324 -38.6285 -38.6249 -38.5607 -38.5533
   -33.8840 -33.8797 -33.8730 -33.8700 -33.8688 -33.8658 -33.8649 -33.8607
   -33.8606 -33.8566 -33.8523 -33.8507 -33.8481 -33.8464 -33.8409 -33.8343
   -33.8296 -33.8173 -33.7903 -33.7787 -33.7775  -5.2509  -4.9652  -4.7868
    -2.0156  -1.8006  -1.7036  -1.4971  -1.4638  -1.4592  -1.2911  -1.2821
    -1.2552  -1.2393  -1.1547  -0.9898  -0.8658  -0.7191  -0.5951  -0.4415
    -0.3860  -0.3245  -0.3184  -0.2666  -0.1319  -0.0585   0.0642   0.1077
     5.2698   5.5214   5.6819   5.9014   6.5797   6.7662   6.9987   7.0896
     7.1552   7.1647   7.2889   7.7944   7.8738   7.8832

          k =-0.5192-0.2879-0.8150 ( 16554 PWs)   bands (ev):

   -76.7553 -76.7513 -76.6985 -72.7446 -39.8631 -39.8197 -39.8189 -38.6550
   -38.6515 -38.6471 -38.6438 -38.6324 -38.6287 -38.6251 -38.5608 -38.5535
   -33.8840 -33.8798 -33.8731 -33.8700 -33.8689 -33.8658 -33.8649 -33.8608
   -33.8606 -33.8567 -33.8523 -33.8509 -33.8482 -33.8466 -33.8410 -33.8344
   -33.8296 -33.8174 -33.7903 -33.7789 -33.7776  -5.0068  -4.7563  -4.6850
    -2.2333  -1.9467  -1.8841  -1.6387  -1.5682  -1.5555  -1.4429  -1.4105
    -1.3650  -1.2939  -1.0764  -1.0597  -0.9005  -0.7991  -0.7479  -0.5735
    -0.3787  -0.2689  -0.1927   0.0239   0.0434   0.0544   0.0770   0.1746
     5.5397   5.8298   5.9011   5.9375   6.0356   6.1694   6.8842   6.9156
     7.0925   7.2617   7.7208   7.8859   7.9321   8.2126

          k =-0.5195 0.2879 0.0001 ( 16490 PWs)   bands (ev):

   -76.7553 -76.7513 -76.6985 -72.7446 -39.8631 -39.8197 -39.8189 -38.6549
   -38.6514 -38.6470 -38.6438 -38.6324 -38.6285 -38.6249 -38.5607 -38.5533
   -33.8840 -33.8797 -33.8731 -33.8700 -33.8688 -33.8658 -33.8649 -33.8607
   -33.8606 -33.8566 -33.8523 -33.8508 -33.8481 -33.8464 -33.8409 -33.8343
   -33.8296 -33.8173 -33.7903 -33.7787 -33.7775  -5.2511  -4.9645  -4.7874
    -2.0159  -1.8006  -1.7044  -1.4969  -1.4619  -1.4589  -1.2909  -1.2823
    -1.2531  -1.2393  -1.1566  -0.9908  -0.8664  -0.7193  -0.5952  -0.4426
    -0.3852  -0.3239  -0.3197  -0.2670  -0.1296  -0.0589   0.0640   0.1081
     5.2695   5.5222   5.6816   5.8990   6.5798   6.7693   7.0002   7.0880
     7.1522   7.1660   7.2916   7.7934   7.8732   7.8821

          k =-0.5193 0.2880-0.8150 ( 16536 PWs)   bands (ev):

   -76.7553 -76.7513 -76.6985 -72.7446 -39.8631 -39.8197 -39.8189 -38.6551
   -38.6514 -38.6470 -38.6439 -38.6324 -38.6287 -38.6251 -38.5608 -38.5535
   -33.8840 -33.8797 -33.8731 -33.8700 -33.8689 -33.8658 -33.8649 -33.8608
   -33.8605 -33.8567 -33.8523 -33.8509 -33.8481 -33.8466 -33.8410 -33.8343
   -33.8296 -33.8173 -33.7903 -33.7789 -33.7775  -5.0066  -4.7563  -4.6852
    -2.2334  -1.9470  -1.8846  -1.6379  -1.5681  -1.5544  -1.4426  -1.4069
    -1.3661  -1.2937  -1.0781  -1.0627  -0.9008  -0.7984  -0.7491  -0.5730
    -0.3786  -0.2702  -0.1917   0.0220   0.0461   0.0556   0.0759   0.1751
     5.5400   5.8320   5.8995   5.9365   6.0342   6.1693   6.8871   6.9147
     7.0905   7.2658   7.7194   7.8874   7.9330   8.2129

          k =-1.0389 0.0000 0.0002 ( 16510 PWs)   bands (ev):

   -76.7553 -76.7513 -76.6985 -72.7446 -39.8631 -39.8197 -39.8189 -38.6550
   -38.6514 -38.6470 -38.6438 -38.6324 -38.6286 -38.6249 -38.5608 -38.5534
   -33.8841 -33.8798 -33.8731 -33.8700 -33.8689 -33.8658 -33.8649 -33.8607
   -33.8605 -33.8566 -33.8523 -33.8508 -33.8481 -33.8464 -33.8410 -33.8344
   -33.8296 -33.8173 -33.7903 -33.7787 -33.7775  -5.2387  -5.0006  -4.7768
    -1.9148  -1.8436  -1.8194  -1.4945  -1.4807  -1.4290  -1.2972  -1.2883
    -1.2324  -1.2202  -1.0791  -0.8649  -0.8046  -0.6530  -0.6495  -0.6092
    -0.4927  -0.2839  -0.2718  -0.2547  -0.1664  -0.0788   0.0293   0.1136
     5.2007   5.6198   5.6629   6.0400   6.5439   6.7947   6.8655   7.0848
     7.1511   7.2159   7.3328   7.6549   7.7100   7.7712

          k =-1.0387 0.0001-0.8149 ( 16498 PWs)   bands (ev):

   -76.7553 -76.7513 -76.6985 -72.7446 -39.8631 -39.8197 -39.8189 -38.6549
   -38.6514 -38.6469 -38.6437 -38.6323 -38.6287 -38.6251 -38.5607 -38.5535
   -33.8840 -33.8797 -33.8730 -33.8700 -33.8688 -33.8658 -33.8649 -33.8607
   -33.8605 -33.8565 -33.8523 -33.8509 -33.8481 -33.8465 -33.8409 -33.8344
   -33.8296 -33.8173 -33.7903 -33.7788 -33.7775  -4.8959  -4.8293  -4.7629
    -2.2485  -1.9124  -1.8018  -1.6884  -1.5457  -1.5163  -1.4131  -1.3643
    -1.2627  -1.2532  -1.1833  -0.9830  -0.9181  -0.7853  -0.7179  -0.6963
    -0.4506  -0.3938  -0.2534  -0.0047   0.0283   0.0708   0.0942   0.2353
     5.5958   5.6895   5.8604   6.0338   6.0853   6.4457   6.8517   7.0267
     7.0836   7.3543   7.3943   7.6307   7.9564   8.1562

     the Fermi energy is     5.3945 ev

!    total energy              =   -4360.79176289 Ry
     Harris-Foulkes estimate   =   -4360.79176290 Ry
     estimated scf accuracy    <          8.8E-09 Ry

     The total energy is the sum of the following terms:

     one-electron contribution =   -3254.92325394 Ry
     hartree contribution      =    1628.68737734 Ry
     xc contribution           =    -317.66207830 Ry
     ewald contribution        =    -768.10559427 Ry
     one-center paw contrib.   =   -1648.79006107 Ry
     smearing contrib. (-TS)   =       0.00184734 Ry

     convergence has been achieved in  13 iterations

     Forces acting on atoms (cartesian axes, Ry/au):

     atom    1 type  2   force =    -0.00201125    0.00056158    0.00003142
     atom    2 type  3   force =     0.00113094    0.00016183   -0.00003840
     atom    3 type  2   force =    -0.00200560   -0.00052088   -0.00001886
     atom    4 type  2   force =    -0.00004134   -0.00050631   -0.00000718
     atom    5 type  2   force =     0.00083495    0.00002971   -0.00000891
     atom    6 type  2   force =    -0.00005889    0.00044623   -0.00001539
     atom    7 type  4   force =     0.00142167   -0.00104164    0.00018178
     atom    8 type  4   force =     0.00124974    0.00098855   -0.00008093
     atom    9 type  4   force =     0.00013144    0.00026739    0.00006203
     atom   10 type  1   force =     0.00043849    0.00001406    0.00121598
     atom   11 type  1   force =    -0.00020174   -0.00105411   -0.00088189
     atom   12 type  1   force =     0.00022130   -0.00018496    0.00237841
     atom   13 type  1   force =    -0.00013558    0.00007482   -0.00279332
     atom   14 type  1   force =    -0.00021886   -0.00005332   -0.00283631
     atom   15 type  1   force =     0.00027353    0.00052850   -0.00074953
     atom   16 type  1   force =    -0.00015787   -0.00090873    0.00072712
     atom   17 type  1   force =     0.00050707   -0.00014201    0.00118275
     atom   18 type  1   force =    -0.00017399    0.00097202   -0.00086817
     atom   19 type  1   force =    -0.00234801    0.00116641    0.00007782
     atom   20 type  1   force =     0.00136787   -0.00006566   -0.00000613
     atom   21 type  1   force =    -0.00189277   -0.00061931   -0.00007315
     atom   22 type  1   force =    -0.00224159    0.00068311    0.00239134
     atom   23 type  1   force =     0.00121441   -0.00002389   -0.00213661
     atom   24 type  1   force =    -0.00242450   -0.00108993   -0.00290669
     atom   25 type  1   force =    -0.00265223   -0.00175048    0.00346966
     atom   26 type  1   force =     0.00144141   -0.00001856    0.00232942
     atom   27 type  1   force =    -0.00262429    0.00143645   -0.00310835
     atom   28 type  1   force =     0.00338756   -0.00339751   -0.00007523
     atom   29 type  1   force =     0.00250046   -0.00125462    0.00003273
     atom   30 type  1   force =    -0.00112441   -0.00303349    0.00007896
     atom   31 type  1   force =    -0.00079020    0.00259014   -0.00008634
     atom   32 type  1   force =     0.00212177    0.00151974    0.00002049
     atom   33 type  1   force =     0.00288593    0.00294716    0.00004446
     atom   34 type  1   force =    -0.00035464   -0.00004121    0.00304981
     atom   35 type  1   force =     0.00056576    0.00025579   -0.00149900
     atom   36 type  1   force =    -0.00023656    0.00106316    0.00091620

     Total force =     0.015106     Total SCF correction =     0.000373


     Computing stress (Cartesian axis) and pressure

          total   stress  (Ry/bohr**3)                   (kbar)     P=    1.66
   0.00001025   0.00000218   0.00000060          1.51      0.32      0.09
   0.00000218   0.00000152  -0.00000246          0.32      0.22     -0.36
   0.00000060  -0.00000246   0.00002216          0.09     -0.36      3.26


     number of scf cycles    =  25
     number of bfgs steps    =  24

     enthalpy old            =   -4360.7912850609 Ry
     enthalpy new            =   -4360.7917628941 Ry

     CASE: enthalpy_new < enthalpy_old

     new trust radius        =       0.0331781923 bohr
     new conv_thr            =       0.0000000347 Ry

     new unit-cell volume =   2700.35955 a.u.^3 (   400.15200 Ang^3 )
     density =      0.14939 g/cm^3

CELL_PARAMETERS (angstrom)
   4.418896695  -8.000242238   0.002884506
   4.421774763   8.002376884  -0.000129390
   0.001490227  -0.000437748   5.656902895

ATOMIC_POSITIONS (angstrom)
K        1.058105039   2.057182039   2.828642481
Mg       6.494037210  -0.001484014   2.826696931
K        1.055866852  -2.058027338   2.829396196
K        2.663513580   4.756129467  -0.000383591
K        3.630485507   0.000880181   0.000979999
K        2.660978864  -4.752459023   0.001176410
Re       4.557933119  -2.471859909   2.829901661
Re       4.559890583   2.473419257   2.829437032
Re      -0.217530417   0.000234141   0.000993181
H        4.949529439  -3.605134017   4.043646276
H        5.322784248  -1.482693890   4.030763566
H        3.426679773  -2.339809237   4.097264275
H        3.428235022   2.341146989   1.562210319
H        3.426734012  -2.340243750   1.562329847
H        4.949091270  -3.605396705   1.617265179
H        5.322933826  -1.482668521   1.627249528
H        4.951028910   3.606543975   4.042424095
H        5.325029218   1.483999835   4.030831764
H        0.583209061  -1.490764814   0.000758525
H        6.880894979   0.002334033   0.004077920
H        0.584635433   1.488971375   0.000476120
H        3.592170637  -7.016149407   1.280123571
H        1.031629438  -0.000397845   4.512519186
H        3.593817611   7.021461817   4.379699626
H        3.593304886   7.022240486   1.278922955
H        1.030620709   0.000221768   1.146056086
H        3.593681279  -7.018535517   4.384088371
H        3.451388041   3.742023191   2.829515365
H        6.201564850   2.805785553   2.829026926
H        3.789263577   0.993671864   2.829466253
H        3.787330023  -0.992627106   2.829893899
H        6.199926335  -2.804536247   2.830119830
H        3.449645867  -3.740520309   2.829933053
H        3.428731472   2.341398116   4.096240113
H        4.950893609   3.606955666   1.615733694
H        5.323633504   1.484383236   1.628944575



     Writing output data file K5MgReH93.save
     NEW-OLD atomic charge density approx. for the potential
     extrapolated charge  128.72951, renormalised to  129.00000

     total cpu time spent up to now is    26980.9 secs

     Self-consistent Calculation

     iteration #  1     ecut=    50.00 Ry     beta=0.70
     Davidson diagonalization with overlap
     ethr =  1.00E-06,  avg # of iterations =  8.4

     total cpu time spent up to now is    27039.7 secs

     total energy              =   -4360.69376097 Ry
     Harris-Foulkes estimate   =   -4367.22316428 Ry
     estimated scf accuracy    <       0.08850594 Ry

     iteration #  2     ecut=    50.00 Ry     beta=0.70
     Davidson diagonalization with overlap
     ethr =  6.86E-05,  avg # of iterations =  6.1

     total cpu time spent up to now is    27088.7 secs

     total energy              =   -4360.71538186 Ry
     Harris-Foulkes estimate   =   -4360.98567593 Ry
     estimated scf accuracy    <       0.96993617 Ry

     iteration #  3     ecut=    50.00 Ry     beta=0.70
     Davidson diagonalization with overlap
     ethr =  6.86E-05,  avg # of iterations =  4.9

     total cpu time spent up to now is    27130.0 secs

     total energy              =   -4360.79696822 Ry
     Harris-Foulkes estimate   =   -4360.80314365 Ry
     estimated scf accuracy    <       0.05519231 Ry

     iteration #  4     ecut=    50.00 Ry     beta=0.70
     Davidson diagonalization with overlap
     ethr =  4.28E-05,  avg # of iterations =  1.0

     total cpu time spent up to now is    27158.4 secs

     total energy              =   -4360.79315591 Ry
     Harris-Foulkes estimate   =   -4360.79802624 Ry
     estimated scf accuracy    <       0.03128427 Ry

     iteration #  5     ecut=    50.00 Ry     beta=0.70
     Davidson diagonalization with overlap
     ethr =  2.43E-05,  avg # of iterations =  1.1

     total cpu time spent up to now is    27187.6 secs

     total energy              =   -4360.79199645 Ry
     Harris-Foulkes estimate   =   -4360.79417484 Ry
     estimated scf accuracy    <       0.01120239 Ry

     iteration #  6     ecut=    50.00 Ry     beta=0.70
     Davidson diagonalization with overlap
     ethr =  8.68E-06,  avg # of iterations =  4.5

     total cpu time spent up to now is    27220.0 secs

     total energy              =   -4360.79183453 Ry
     Harris-Foulkes estimate   =   -4360.79262480 Ry
     estimated scf accuracy    <       0.00248679 Ry

     iteration #  7     ecut=    50.00 Ry     beta=0.70
     Davidson diagonalization with overlap
     ethr =  1.93E-06,  avg # of iterations =  4.6

     total cpu time spent up to now is    27259.1 secs

     total energy              =   -4360.79223441 Ry
     Harris-Foulkes estimate   =   -4360.79223473 Ry
     estimated scf accuracy    <       0.00001277 Ry

     iteration #  8     ecut=    50.00 Ry     beta=0.70
     Davidson diagonalization with overlap
     ethr =  9.90E-09,  avg # of iterations =  3.0

     total cpu time spent up to now is    27297.9 secs

     total energy              =   -4360.79223739 Ry
     Harris-Foulkes estimate   =   -4360.79224138 Ry
     estimated scf accuracy    <       0.00001888 Ry

     iteration #  9     ecut=    50.00 Ry     beta=0.70
     Davidson diagonalization with overlap
     ethr =  9.90E-09,  avg # of iterations =  2.0

     total cpu time spent up to now is    27328.2 secs

     total energy              =   -4360.79223651 Ry
     Harris-Foulkes estimate   =   -4360.79223840 Ry
     estimated scf accuracy    <       0.00000511 Ry

     iteration # 10     ecut=    50.00 Ry     beta=0.70
     Davidson diagonalization with overlap
     ethr =  3.96E-09,  avg # of iterations =  2.0

     total cpu time spent up to now is    27361.0 secs

     total energy              =   -4360.79223738 Ry
     Harris-Foulkes estimate   =   -4360.79223742 Ry
     estimated scf accuracy    <       0.00000010 Ry

     iteration # 11     ecut=    50.00 Ry     beta=0.70
     Davidson diagonalization with overlap
     ethr =  8.09E-11,  avg # of iterations =  3.0

     total cpu time spent up to now is    27397.9 secs

     total energy              =   -4360.79223739 Ry
     Harris-Foulkes estimate   =   -4360.79223743 Ry
     estimated scf accuracy    <       0.00000009 Ry

     iteration # 12     ecut=    50.00 Ry     beta=0.70
     Davidson diagonalization with overlap
     ethr =  7.34E-11,  avg # of iterations =  2.0

     total cpu time spent up to now is    27429.6 secs

     End of self-consistent calculation

          k = 0.0000 0.0000 0.0000 ( 16447 PWs)   bands (ev):

   -76.7373 -76.7352 -76.6763 -72.7093 -39.8275 -39.7844 -39.7837 -38.6400
   -38.6382 -38.6285 -38.6267 -38.6130 -38.6130 -38.6108 -38.5361 -38.5316
   -33.8636 -33.8613 -33.8527 -33.8504 -33.8498 -33.8473 -33.8445 -33.8423
   -33.8398 -33.8377 -33.8312 -33.8306 -33.8290 -33.8282 -33.8188 -33.8126
   -33.8063 -33.7942 -33.7661 -33.7546 -33.7528  -5.4838  -4.7533  -4.6274
    -1.9811  -1.9112  -1.8237  -1.8213  -1.4816  -1.4533  -1.3034  -1.2432
    -1.2124  -1.1893  -1.0358  -0.9452  -0.7878  -0.6895  -0.5129  -0.4795
    -0.3421  -0.2742  -0.2444  -0.2125  -0.1846  -0.0485   0.1405   0.2100
     5.1675   5.5487   6.1494   6.2703   6.3380   6.4798   6.4892   6.8129
     7.0671   7.4426   7.4486   7.5368   7.5429   7.6521

          k = 0.0003-0.0002-0.8144 ( 16526 PWs)   bands (ev):

   -76.7373 -76.7352 -76.6763 -72.7093 -39.8276 -39.7844 -39.7837 -38.6400
   -38.6382 -38.6287 -38.6268 -38.6133 -38.6132 -38.6111 -38.5361 -38.5320
   -33.8637 -33.8614 -33.8526 -33.8504 -33.8498 -33.8473 -33.8446 -33.8424
   -33.8399 -33.8378 -33.8313 -33.8307 -33.8290 -33.8284 -33.8189 -33.8127
   -33.8064 -33.7943 -33.7661 -33.7547 -33.7529  -5.1213  -4.7581  -4.5270
    -2.2261  -1.9372  -1.8179  -1.7690  -1.6038  -1.4589  -1.4586  -1.4468
    -1.3350  -1.1752  -1.0582  -1.0128  -0.9009  -0.7830  -0.6804  -0.5389
    -0.4384  -0.2764  -0.2555   0.0513   0.0706   0.0726   0.0765   0.1560
     5.6925   5.7527   5.8202   6.0158   6.3796   6.6749   6.9428   7.0371
     7.2377   7.2562   7.6014   7.8856   7.9623   8.2284

          k =-0.5210-0.2878 0.0001 ( 16490 PWs)   bands (ev):

   -76.7373 -76.7352 -76.6763 -72.7093 -39.8276 -39.7844 -39.7837 -38.6401
   -38.6382 -38.6286 -38.6268 -38.6132 -38.6131 -38.6110 -38.5361 -38.5318
   -33.8637 -33.8613 -33.8527 -33.8504 -33.8498 -33.8473 -33.8445 -33.8424
   -33.8399 -33.8378 -33.8312 -33.8306 -33.8290 -33.8283 -33.8189 -33.8126
   -33.8063 -33.7943 -33.7661 -33.7546 -33.7529  -5.2500  -4.9514  -4.7791
    -2.0018  -1.8093  -1.7055  -1.4865  -1.4533  -1.4456  -1.2766  -1.2717
    -1.2425  -1.2101  -1.1404  -0.9864  -0.8587  -0.7084  -0.5889  -0.4318
    -0.3770  -0.3218  -0.3033  -0.2643  -0.1105  -0.0391   0.0901   0.1415
     5.2808   5.5311   5.7005   5.9435   6.6037   6.7859   7.0259   7.1000
     7.1605   7.1936   7.3016   7.8160   7.8911   7.8962

          k =-0.5208-0.2879-0.8143 ( 16554 PWs)   bands (ev):

   -76.7373 -76.7352 -76.6763 -72.7093 -39.8276 -39.7844 -39.7837 -38.6401
   -38.6383 -38.6287 -38.6268 -38.6134 -38.6131 -38.6112 -38.5362 -38.5320
   -33.8637 -33.8614 -33.8527 -33.8505 -33.8498 -33.8473 -33.8446 -33.8424
   -33.8399 -33.8378 -33.8312 -33.8308 -33.8290 -33.8284 -33.8189 -33.8127
   -33.8064 -33.7943 -33.7661 -33.7548 -33.7530  -5.0014  -4.7438  -4.6791
    -2.2616  -1.9432  -1.8733  -1.6287  -1.5560  -1.5366  -1.4290  -1.4018
    -1.3392  -1.2833  -1.0622  -1.0472  -0.8905  -0.7920  -0.7370  -0.5613
    -0.3739  -0.2557  -0.1834   0.0387   0.0688   0.0871   0.1076   0.1778
     5.5705   5.8687   5.9173   5.9532   6.0628   6.1911   6.9042   6.9369
     7.1163   7.2689   7.7291   7.9178   7.9434   8.2223

          k =-0.5212 0.2880 0.0002 ( 16490 PWs)   bands (ev):

   -76.7373 -76.7352 -76.6763 -72.7093 -39.8276 -39.7844 -39.7837 -38.6400
   -38.6382 -38.6286 -38.6267 -38.6132 -38.6131 -38.6110 -38.5361 -38.5318
   -33.8637 -33.8613 -33.8527 -33.8504 -33.8498 -33.8473 -33.8446 -33.8424
   -33.8398 -33.8378 -33.8312 -33.8306 -33.8290 -33.8282 -33.8189 -33.8126
   -33.8064 -33.7942 -33.7661 -33.7546 -33.7529  -5.2500  -4.9505  -4.7799
    -2.0032  -1.8093  -1.7061  -1.4864  -1.4525  -1.4457  -1.2766  -1.2717
    -1.2399  -1.2101  -1.1406  -0.9868  -0.8590  -0.7078  -0.5889  -0.4326
    -0.3771  -0.3215  -0.3037  -0.2646  -0.1098  -0.0404   0.0899   0.1422
     5.2804   5.5316   5.7004   5.9429   6.6039   6.7859   7.0249   7.0983
     7.1584   7.1943   7.3027   7.8160   7.8930   7.8973

          k =-0.5209 0.2878-0.8142 ( 16536 PWs)   bands (ev):

   -76.7373 -76.7352 -76.6763 -72.7093 -39.8276 -39.7844 -39.7837 -38.6401
   -38.6382 -38.6285 -38.6268 -38.6134 -38.6131 -38.6112 -38.5362 -38.5320
   -33.8637 -33.8613 -33.8527 -33.8505 -33.8498 -33.8473 -33.8446 -33.8423
   -33.8399 -33.8378 -33.8312 -33.8308 -33.8290 -33.8284 -33.8189 -33.8126
   -33.8064 -33.7943 -33.7661 -33.7548 -33.7529  -5.0012  -4.7438  -4.6793
    -2.2617  -1.9435  -1.8741  -1.6283  -1.5558  -1.5357  -1.4284  -1.4001
    -1.3402  -1.2834  -1.0625  -1.0474  -0.8916  -0.7921  -0.7386  -0.5595
    -0.3734  -0.2567  -0.1826   0.0373   0.0687   0.0852   0.1097   0.1789
     5.5716   5.8712   5.9165   5.9514   6.0610   6.1907   6.9051   6.9368
     7.1148   7.2751   7.7241   7.9166   7.9454   8.2239

          k =-1.0422 0.0002 0.0003 ( 16510 PWs)   bands (ev):

   -76.7373 -76.7352 -76.6763 -72.7093 -39.8276 -39.7844 -39.7837 -38.6401
   -38.6382 -38.6286 -38.6268 -38.6132 -38.6131 -38.6110 -38.5362 -38.5319
   -33.8637 -33.8614 -33.8527 -33.8505 -33.8498 -33.8473 -33.8445 -33.8423
   -33.8399 -33.8378 -33.8312 -33.8306 -33.8290 -33.8283 -33.8189 -33.8127
   -33.8064 -33.7943 -33.7660 -33.7547 -33.7529  -5.2384  -4.9944  -4.7602
    -1.9081  -1.8433  -1.8276  -1.4861  -1.4656  -1.4130  -1.2789  -1.2732
    -1.2149  -1.1990  -1.0754  -0.8538  -0.7924  -0.6479  -0.6445  -0.5972
    -0.4927  -0.2819  -0.2653  -0.2223  -0.1474  -0.0523   0.0538   0.1265
     5.2173   5.6340   5.6894   6.0807   6.5655   6.8102   6.8672   7.1076
     7.1693   7.2177   7.3390   7.6957   7.7269   7.8015

          k =-1.0419 0.0000-0.8141 ( 16498 PWs)   bands (ev):

   -76.7373 -76.7352 -76.6763 -72.7093 -39.8276 -39.7844 -39.7837 -38.6400
   -38.6382 -38.6285 -38.6267 -38.6134 -38.6130 -38.6112 -38.5361 -38.5320
   -33.8637 -33.8613 -33.8526 -33.8504 -33.8498 -33.8473 -33.8445 -33.8424
   -33.8398 -33.8377 -33.8312 -33.8308 -33.8290 -33.8284 -33.8189 -33.8126
   -33.8064 -33.7942 -33.7661 -33.7548 -33.7529  -4.8904  -4.8243  -4.7508
    -2.2719  -1.9099  -1.7969  -1.6756  -1.5313  -1.4922  -1.3971  -1.3530
    -1.2525  -1.2302  -1.1740  -0.9820  -0.9014  -0.7743  -0.7158  -0.6798
    -0.4377  -0.3733  -0.2461   0.0180   0.0433   0.0863   0.1373   0.2333
     5.6158   5.7271   5.8763   6.0721   6.0954   6.4646   6.8710   7.0609
     7.1143   7.3845   7.4081   7.6507   7.9637   8.1517

     the Fermi energy is     5.4109 ev

!    total energy              =   -4360.79223740 Ry
     Harris-Foulkes estimate   =   -4360.79223741 Ry
     estimated scf accuracy    <          2.2E-09 Ry

     The total energy is the sum of the following terms:

     one-electron contribution =   -3255.56994897 Ry
     hartree contribution      =    1629.10209039 Ry
     xc contribution           =    -317.67869075 Ry
     ewald contribution        =    -767.85988012 Ry
     one-center paw contrib.   =   -1648.78768146 Ry
     smearing contrib. (-TS)   =       0.00187352 Ry

     convergence has been achieved in  12 iterations

     Forces acting on atoms (cartesian axes, Ry/au):

     atom    1 type  2   force =    -0.00217646    0.00061449    0.00002928
     atom    2 type  3   force =     0.00094541    0.00006073   -0.00002512
     atom    3 type  2   force =    -0.00216057   -0.00056414   -0.00001532
     atom    4 type  2   force =     0.00036418   -0.00087791   -0.00001772
     atom    5 type  2   force =     0.00012874    0.00002301   -0.00001223
     atom    6 type  2   force =     0.00039736    0.00083507   -0.00002384
     atom    7 type  4   force =     0.00131061    0.00014222   -0.00007900
     atom    8 type  4   force =     0.00088893   -0.00044251   -0.00002549
     atom    9 type  4   force =    -0.00083199    0.00005585    0.00002112
     atom   10 type  1   force =    -0.00007760   -0.00029750    0.00048539
     atom   11 type  1   force =    -0.00018089   -0.00036645   -0.00017832
     atom   12 type  1   force =     0.00049012   -0.00009044    0.00231621
     atom   13 type  1   force =     0.00052371    0.00010343   -0.00230241
     atom   14 type  1   force =     0.00045991   -0.00005700   -0.00233051
     atom   15 type  1   force =     0.00002873   -0.00058027   -0.00074015
     atom   16 type  1   force =    -0.00043338   -0.00060509    0.00050863
     atom   17 type  1   force =     0.00006090    0.00058755    0.00078128
     atom   18 type  1   force =    -0.00031229    0.00052927   -0.00045912
     atom   19 type  1   force =    -0.00173302    0.00016170    0.00001857
     atom   20 type  1   force =     0.00155272   -0.00005408    0.00000302
     atom   21 type  1   force =    -0.00138932    0.00025944   -0.00001603
     atom   22 type  1   force =    -0.00182230    0.00168570    0.00225001
     atom   23 type  1   force =     0.00116890   -0.00003938   -0.00167060
     atom   24 type  1   force =    -0.00187982   -0.00175805   -0.00249484
     atom   25 type  1   force =    -0.00197473   -0.00205777    0.00277747
     atom   26 type  1   force =     0.00114739   -0.00003272    0.00162774
     atom   27 type  1   force =    -0.00196803    0.00184373   -0.00240460
     atom   28 type  1   force =     0.00164585   -0.00031879   -0.00002848
     atom   29 type  1   force =     0.00281990   -0.00115539    0.00003141
     atom   30 type  1   force =    -0.00069838   -0.00343639    0.00003636
     atom   31 type  1   force =    -0.00085153    0.00371911   -0.00001679
     atom   32 type  1   force =     0.00264667    0.00124926    0.00000736
     atom   33 type  1   force =     0.00164444    0.00037197    0.00002532
     atom   34 type  1   force =     0.00032632    0.00004260    0.00253847
     atom   35 type  1   force =    -0.00008139    0.00033668   -0.00048236
     atom   36 type  1   force =     0.00002091    0.00011208   -0.00013473

     Total force =     0.012754     Total SCF correction =     0.000340


     Computing stress (Cartesian axis) and pressure

          total   stress  (Ry/bohr**3)                   (kbar)     P=    2.62
   0.00001891   0.00000028  -0.00000027          2.78      0.04     -0.04
   0.00000028   0.00001631   0.00000069          0.04      2.40      0.10
  -0.00000027   0.00000069   0.00001822         -0.04      0.10      2.68


     number of scf cycles    =  26
     number of bfgs steps    =  25

     enthalpy old            =   -4360.7917628941 Ry
     enthalpy new            =   -4360.7922374026 Ry

     CASE: enthalpy_new < enthalpy_old

     new trust radius        =       0.0193139046 bohr
     new conv_thr            =       0.0000000372 Ry

     new unit-cell volume =   2699.93289 a.u.^3 (   400.08877 Ang^3 )
     density =      0.14942 g/cm^3

CELL_PARAMETERS (angstrom)
   4.412119488  -8.001253311   0.004067819
   4.416763443   8.004409133  -0.001041725
   0.001652093  -0.001159325   5.662484989

ATOMIC_POSITIONS (angstrom)
K        1.052911835   2.057577281   2.831281633
Mg       6.495394526  -0.001089956   2.829358723
K        1.050164713  -2.058932585   2.832480144
K        2.658617976   4.758142827  -0.000874965
K        3.635180161   0.001378378   0.001082171
K        2.654829842  -4.753669260   0.001857331
Re       4.554378374  -2.469604977   2.833120673
Re       4.556836344   2.471125958   2.831969423
Re      -0.222350186   0.000356785   0.001088790
H        4.948452210  -3.601773000   4.049819251
H        5.318705547  -1.482930150   4.032857359
H        3.422564592  -2.339665961   4.102822218
H        3.424251308   2.340896615   1.562080629
H        3.422148053  -2.339637413   1.562849781
H        4.947743048  -3.601153195   1.618469954
H        5.318815519  -1.482479486   1.631199280
H        4.950898244   3.603097854   4.047522924
H        5.321324139   1.484362549   4.032559288
H        0.573683131  -1.491216297   0.001079962
H        6.863792324   0.002919447   0.004406846
H        0.576018378   1.489864773   0.000229233
H        3.578780749  -7.020602371   1.286674870
H        1.029146987  -0.000808022   4.516552764
H        3.581683812   7.025941706   4.378423628
H        3.581078310   7.026495551   1.284775282
H        1.028326104   0.000182912   1.147923343
H        3.580072450  -7.022823578   4.384606724
H        3.449720007   3.736272011   2.831821093
H        6.200946555   2.800734722   2.831596267
H        3.782423708   0.992283280   2.832260989
H        3.780570837  -0.991416707   2.832895078
H        6.198388101  -2.798419215   2.833531643
H        3.446587165  -3.735006707   2.833390262
H        3.424630830   2.340693633   4.101653971
H        4.950736329   3.604277671   1.615195340
H        5.319734504   1.485155038   1.632864345



     Writing output data file K5MgReH93.save
     NEW-OLD atomic charge density approx. for the potential
     extrapolated charge  128.97963, renormalised to  129.00000

     total cpu time spent up to now is    28041.8 secs

     Self-consistent Calculation

     iteration #  1     ecut=    50.00 Ry     beta=0.70
     Davidson diagonalization with overlap
     ethr =  1.00E-06,  avg # of iterations =  4.1

     total cpu time spent up to now is    28091.4 secs

     total energy              =   -4360.79198170 Ry
     Harris-Foulkes estimate   =   -4361.24670208 Ry
     estimated scf accuracy    <       0.00059509 Ry

     iteration #  2     ecut=    50.00 Ry     beta=0.70
     Davidson diagonalization with overlap
     ethr =  4.61E-07,  avg # of iterations =  3.9

     total cpu time spent up to now is    28134.1 secs

     total energy              =   -4360.79209875 Ry
     Harris-Foulkes estimate   =   -4360.79363273 Ry
     estimated scf accuracy    <       0.00528693 Ry

     iteration #  3     ecut=    50.00 Ry     beta=0.70
     Davidson diagonalization with overlap
     ethr =  4.61E-07,  avg # of iterations =  3.4

     total cpu time spent up to now is    28172.2 secs

     total energy              =   -4360.79251673 Ry
     Harris-Foulkes estimate   =   -4360.79262121 Ry
     estimated scf accuracy    <       0.00023059 Ry

     iteration #  4     ecut=    50.00 Ry     beta=0.70
     Davidson diagonalization with overlap
     ethr =  1.79E-07,  avg # of iterations =  2.8

     total cpu time spent up to now is    28205.4 secs

     total energy              =   -4360.79251090 Ry
     Harris-Foulkes estimate   =   -4360.79255571 Ry
     estimated scf accuracy    <       0.00010602 Ry

     iteration #  5     ecut=    50.00 Ry     beta=0.70
     Davidson diagonalization with overlap
     ethr =  8.22E-08,  avg # of iterations =  2.6

     total cpu time spent up to now is    28236.8 secs

     total energy              =   -4360.79252597 Ry
     Harris-Foulkes estimate   =   -4360.79253047 Ry
     estimated scf accuracy    <       0.00000769 Ry

     iteration #  6     ecut=    50.00 Ry     beta=0.70
     Davidson diagonalization with overlap
     ethr =  5.96E-09,  avg # of iterations =  3.0

     total cpu time spent up to now is    28272.4 secs

     total energy              =   -4360.79252741 Ry
     Harris-Foulkes estimate   =   -4360.79252873 Ry
     estimated scf accuracy    <       0.00000390 Ry

     iteration #  7     ecut=    50.00 Ry     beta=0.70
     Davidson diagonalization with overlap
     ethr =  3.02E-09,  avg # of iterations =  2.0

     total cpu time spent up to now is    28303.2 secs

     total energy              =   -4360.79252774 Ry
     Harris-Foulkes estimate   =   -4360.79252787 Ry
     estimated scf accuracy    <       0.00000039 Ry

     iteration #  8     ecut=    50.00 Ry     beta=0.70
     Davidson diagonalization with overlap
     ethr =  3.00E-10,  avg # of iterations =  2.4

     total cpu time spent up to now is    28337.7 secs

     total energy              =   -4360.79252779 Ry
     Harris-Foulkes estimate   =   -4360.79252783 Ry
     estimated scf accuracy    <       0.00000011 Ry

     iteration #  9     ecut=    50.00 Ry     beta=0.70
     Davidson diagonalization with overlap
     ethr =  8.36E-11,  avg # of iterations =  2.1

     total cpu time spent up to now is    28369.7 secs

     End of self-consistent calculation

          k = 0.0000 0.0000 0.0000 ( 16447 PWs)   bands (ev):

   -76.7350 -76.7348 -76.6799 -72.6964 -39.8144 -39.7717 -39.7707 -38.6380
   -38.6378 -38.6237 -38.6236 -38.6168 -38.6116 -38.6110 -38.5359 -38.5331
   -33.8616 -33.8613 -33.8506 -33.8505 -33.8478 -33.8473 -33.8427 -33.8426
   -33.8373 -33.8372 -33.8289 -33.8287 -33.8286 -33.8284 -33.8251 -33.8190
   -33.8115 -33.7993 -33.7702 -33.7592 -33.7568  -5.4826  -4.7472  -4.6225
    -1.9723  -1.9165  -1.8308  -1.8199  -1.4787  -1.4466  -1.2927  -1.2367
    -1.2027  -1.1711  -1.0381  -0.9467  -0.7860  -0.6949  -0.5154  -0.4793
    -0.3348  -0.2811  -0.2494  -0.2040  -0.1716  -0.0439   0.1453   0.2296
     5.1676   5.5473   6.1366   6.2633   6.3411   6.4876   6.4980   6.8144
     7.0509   7.4356   7.4440   7.5266   7.5492   7.6544

          k = 0.0003-0.0003-0.8136 ( 16526 PWs)   bands (ev):

   -76.7350 -76.7348 -76.6799 -72.6964 -39.8144 -39.7717 -39.7708 -38.6380
   -38.6378 -38.6239 -38.6237 -38.6170 -38.6120 -38.6114 -38.5359 -38.5334
   -33.8617 -33.8614 -33.8506 -33.8504 -33.8479 -33.8473 -33.8427 -33.8427
   -33.8374 -33.8373 -33.8291 -33.8288 -33.8287 -33.8285 -33.8251 -33.8191
   -33.8116 -33.7994 -33.7702 -33.7593 -33.7569  -5.1174  -4.7539  -4.5228
    -2.2471  -1.9385  -1.8117  -1.7641  -1.6030  -1.4471  -1.4469  -1.4354
    -1.3361  -1.1700  -1.0502  -1.0069  -0.9099  -0.7871  -0.6758  -0.5332
    -0.4336  -0.2678  -0.2577   0.0577   0.0691   0.0886   0.0896   0.1619
     5.7037   5.7487   5.8268   6.0007   6.3801   6.6771   6.9484   7.0468
     7.2327   7.2765   7.6023   7.8532   7.9471   8.2171

          k =-0.5217-0.2877 0.0001 ( 16490 PWs)   bands (ev):

   -76.7350 -76.7348 -76.6799 -72.6964 -39.8144 -39.7717 -39.7707 -38.6381
   -38.6378 -38.6238 -38.6236 -38.6169 -38.6118 -38.6112 -38.5359 -38.5333
   -33.8617 -33.8613 -33.8506 -33.8505 -33.8479 -33.8473 -33.8427 -33.8427
   -33.8373 -33.8373 -33.8289 -33.8287 -33.8287 -33.8284 -33.8251 -33.8190
   -33.8116 -33.7993 -33.7702 -33.7592 -33.7569  -5.2498  -4.9446  -4.7744
    -1.9950  -1.8188  -1.7095  -1.4839  -1.4481  -1.4408  -1.2647  -1.2619
    -1.2422  -1.1918  -1.1346  -0.9868  -0.8608  -0.7058  -0.5927  -0.4274
    -0.3743  -0.3288  -0.2988  -0.2698  -0.1024  -0.0307   0.0997   0.1567
     5.2742   5.5222   5.6997   5.9587   6.6157   6.7841   7.0307   7.0904
     7.1423   7.1972   7.2901   7.8202   7.8769   7.8966

          k =-0.5214-0.2879-0.8135 ( 16554 PWs)   bands (ev):

   -76.7350 -76.7348 -76.6799 -72.6964 -39.8144 -39.7717 -39.7708 -38.6381
   -38.6379 -38.6238 -38.6236 -38.6169 -38.6120 -38.6114 -38.5360 -38.5335
   -33.8617 -33.8614 -33.8507 -33.8505 -33.8479 -33.8474 -33.8427 -33.8427
   -33.8374 -33.8373 -33.8291 -33.8288 -33.8287 -33.8285 -33.8252 -33.8191
   -33.8116 -33.7994 -33.7703 -33.7594 -33.7570  -4.9971  -4.7395  -4.6748
    -2.2860  -1.9441  -1.8685  -1.6268  -1.5513  -1.5269  -1.4192  -1.3951
    -1.3269  -1.2771  -1.0608  -1.0392  -0.8911  -0.7972  -0.7324  -0.5588
    -0.3743  -0.2486  -0.1783   0.0428   0.0815   0.0899   0.1219   0.1808
     5.5822   5.8736   5.9063   5.9509   6.0676   6.1928   6.9014   6.9422
     7.1168   7.2573   7.7161   7.9242   7.9340   8.2169

          k =-0.5219 0.2880 0.0002 ( 16490 PWs)   bands (ev):

   -76.7350 -76.7348 -76.6799 -72.6964 -39.8144 -39.7717 -39.7707 -38.6380
   -38.6378 -38.6238 -38.6236 -38.6169 -38.6118 -38.6112 -38.5359 -38.5333
   -33.8617 -33.8613 -33.8507 -33.8505 -33.8479 -33.8473 -33.8427 -33.8427
   -33.8373 -33.8373 -33.8290 -33.8287 -33.8286 -33.8284 -33.8251 -33.8190
   -33.8116 -33.7993 -33.7702 -33.7592 -33.7569  -5.2497  -4.9438  -4.7753
    -1.9970  -1.8187  -1.7099  -1.4841  -1.4485  -1.4409  -1.2653  -1.2611
    -1.2395  -1.1918  -1.1335  -0.9867  -0.8606  -0.7045  -0.5926  -0.4274
    -0.3755  -0.3287  -0.2982  -0.2699  -0.1037  -0.0326   0.1003   0.1574
     5.2736   5.5224   5.6997   5.9598   6.6158   6.7815   7.0282   7.0889
     7.1416   7.1973   7.2898   7.8208   7.8814   7.8977

          k =-0.5216 0.2877-0.8134 ( 16536 PWs)   bands (ev):

   -76.7350 -76.7348 -76.6799 -72.6964 -39.8144 -39.7717 -39.7708 -38.6381
   -38.6378 -38.6237 -38.6236 -38.6169 -38.6120 -38.6114 -38.5360 -38.5335
   -33.8617 -33.8613 -33.8507 -33.8505 -33.8479 -33.8473 -33.8427 -33.8427
   -33.8374 -33.8373 -33.8291 -33.8288 -33.8287 -33.8284 -33.8252 -33.8190
   -33.8116 -33.7993 -33.7702 -33.7594 -33.7570  -4.9969  -4.7395  -4.6750
    -2.2861  -1.9444  -1.8692  -1.6270  -1.5508  -1.5263  -1.4180  -1.3954
    -1.3276  -1.2777  -1.0601  -1.0376  -0.8926  -0.7979  -0.7336  -0.5564
    -0.3737  -0.2488  -0.1787   0.0423   0.0797   0.0873   0.1247   0.1821
     5.5835   5.8760   5.9063   5.9487   6.0656   6.1927   6.9015   6.9420
     7.1155   7.2648   7.7079   7.9206   7.9368   8.2191

          k =-1.0436 0.0003 0.0003 ( 16510 PWs)   bands (ev):

   -76.7350 -76.7348 -76.6799 -72.6964 -39.8144 -39.7717 -39.7707 -38.6381
   -38.6378 -38.6238 -38.6236 -38.6169 -38.6119 -38.6113 -38.5360 -38.5333
   -33.8617 -33.8614 -33.8507 -33.8505 -33.8479 -33.8473 -33.8427 -33.8426
   -33.8373 -33.8373 -33.8290 -33.8287 -33.8287 -33.8284 -33.8251 -33.8191
   -33.8116 -33.7993 -33.7702 -33.7593 -33.7569  -5.2391  -4.9900  -4.7519
    -1.9095  -1.8437  -1.8368  -1.4850  -1.4560  -1.4052  -1.2709  -1.2579
    -1.2109  -1.1832  -1.0745  -0.8552  -0.7860  -0.6548  -0.6447  -0.5957
    -0.4932  -0.2875  -0.2699  -0.2066  -0.1420  -0.0381   0.0595   0.1327
     5.2130   5.6277   5.6945   6.0927   6.5737   6.8073   6.8517   7.1069
     7.1698   7.1983   7.3259   7.7107   7.7180   7.8106

          k =-1.0433 0.0000-0.8133 ( 16498 PWs)   bands (ev):

   -76.7350 -76.7348 -76.6799 -72.6964 -39.8144 -39.7717 -39.7708 -38.6380
   -38.6378 -38.6236 -38.6235 -38.6168 -38.6120 -38.6114 -38.5359 -38.5335
   -33.8617 -33.8614 -33.8506 -33.8504 -33.8479 -33.8473 -33.8427 -33.8426
   -33.8372 -33.8372 -33.8291 -33.8288 -33.8287 -33.8284 -33.8251 -33.8191
   -33.8116 -33.7993 -33.7702 -33.7593 -33.7569  -4.8862  -4.8203  -4.7466
    -2.2935  -1.9120  -1.7955  -1.6726  -1.5198  -1.4790  -1.3890  -1.3435
    -1.2536  -1.2201  -1.1750  -0.9796  -0.8982  -0.7687  -0.7239  -0.6701
    -0.4323  -0.3662  -0.2431   0.0319   0.0412   0.0892   0.1534   0.2334
     5.6177   5.7364   5.8634   6.0878   6.0914   6.4611   6.8677   7.0679
     7.1184   7.3884   7.4012   7.6492   7.9536   8.1398

     the Fermi energy is     5.4087 ev

!    total energy              =   -4360.79252781 Ry
     Harris-Foulkes estimate   =   -4360.79252781 Ry
     estimated scf accuracy    <          4.6E-09 Ry

     The total energy is the sum of the following terms:

     one-electron contribution =   -3256.12461117 Ry
     hartree contribution      =    1629.38545038 Ry
     xc contribution           =    -317.67343739 Ry
     ewald contribution        =    -767.59437407 Ry
     one-center paw contrib.   =   -1648.78755641 Ry
     smearing contrib. (-TS)   =       0.00200084 Ry

     convergence has been achieved in   9 iterations

     Forces acting on atoms (cartesian axes, Ry/au):

     atom    1 type  2   force =    -0.00191688    0.00068958    0.00003096
     atom    2 type  3   force =     0.00020470   -0.00007382   -0.00000839
     atom    3 type  2   force =    -0.00188813   -0.00064735   -0.00000112
     atom    4 type  2   force =     0.00062424   -0.00093786   -0.00001594
     atom    5 type  2   force =    -0.00021833    0.00001407   -0.00000654
     atom    6 type  2   force =     0.00069437    0.00091626   -0.00001789
     atom    7 type  4   force =     0.00100419    0.00004327   -0.00009899
     atom    8 type  4   force =     0.00084648    0.00040798   -0.00004516
     atom    9 type  4   force =    -0.00162479   -0.00011146   -0.00003501
     atom   10 type  1   force =    -0.00045533    0.00002165   -0.00053820
     atom   11 type  1   force =    -0.00004963    0.00025998    0.00031562
     atom   12 type  1   force =     0.00106968    0.00003650    0.00147846
     atom   13 type  1   force =     0.00126800    0.00001845   -0.00125608
     atom   14 type  1   force =     0.00125588    0.00000699   -0.00127496
     atom   15 type  1   force =    -0.00018948   -0.00073529   -0.00016706
     atom   16 type  1   force =    -0.00040361   -0.00012039    0.00017925
     atom   17 type  1   force =    -0.00035873    0.00034325   -0.00017528
     atom   18 type  1   force =    -0.00022657   -0.00007384   -0.00001151
     atom   19 type  1   force =    -0.00130424   -0.00040430   -0.00001143
     atom   20 type  1   force =     0.00135366   -0.00005303    0.00001761
     atom   21 type  1   force =    -0.00111504    0.00058631    0.00002978
     atom   22 type  1   force =    -0.00110791    0.00165402    0.00131749
     atom   23 type  1   force =     0.00026433   -0.00003931   -0.00045812
     atom   24 type  1   force =    -0.00107167   -0.00145750   -0.00131032
     atom   25 type  1   force =    -0.00104995   -0.00145662    0.00135985
     atom   26 type  1   force =     0.00010932   -0.00003961    0.00030619
     atom   27 type  1   force =    -0.00107591    0.00138079   -0.00104413
     atom   28 type  1   force =     0.00045132    0.00147015    0.00001065
     atom   29 type  1   force =     0.00179452   -0.00137010    0.00003421
     atom   30 type  1   force =    -0.00006174   -0.00287684    0.00001170
     atom   31 type  1   force =    -0.00038462    0.00333821    0.00002189
     atom   32 type  1   force =     0.00195489    0.00127595   -0.00000904
     atom   33 type  1   force =     0.00076893   -0.00115708    0.00000570
     atom   34 type  1   force =     0.00116530    0.00000913    0.00140271
     atom   35 type  1   force =    -0.00059052   -0.00022920    0.00078110
     atom   36 type  1   force =     0.00026329   -0.00068892   -0.00081796

     Total force =     0.009616     Total SCF correction =     0.000554


     Computing stress (Cartesian axis) and pressure

          total   stress  (Ry/bohr**3)                   (kbar)     P=    2.07
   0.00001614  -0.00000100  -0.00000070          2.37     -0.15     -0.10
  -0.00000100   0.00001973   0.00000246         -0.15      2.90      0.36
  -0.00000070   0.00000246   0.00000643         -0.10      0.36      0.95


     number of scf cycles    =  27
     number of bfgs steps    =  26

     enthalpy old            =   -4360.7922374026 Ry
     enthalpy new            =   -4360.7925278063 Ry

     CASE: enthalpy_new < enthalpy_old

     new trust radius        =       0.0112987725 bohr
     new conv_thr            =       0.0000000290 Ry

     new unit-cell volume =   2704.22212 a.u.^3 (   400.72437 Ang^3 )
     density =      0.14918 g/cm^3

CELL_PARAMETERS (angstrom)
   4.412857925  -8.006963299   0.004183280
   4.418242941   8.010541269  -0.001168133
   0.001644905  -0.001246364   5.665864479

ATOMIC_POSITIONS (angstrom)
K        1.049458786   2.060098794   2.833023403
Mg       6.498501818  -0.000822899   2.830901911
K        1.046542386  -2.061414300   2.834169417
K        2.658313151   4.761890836  -0.000957657
K        3.639559921   0.001617133   0.001070103
K        2.654015324  -4.757118024   0.001914998
Re       4.557105457  -2.469949602   2.834752060
Re       4.559792675   2.471981525   2.833530369
Re      -0.224760129   0.000427695   0.001121110
H        4.951824837  -3.601909374   4.053159776
H        5.321477356  -1.484692590   4.034362734
H        3.425021559  -2.341107142   4.107267587
H        3.426810310   2.342497043   1.560890522
H        3.424450616  -2.340964156   1.561741983
H        4.951165337  -3.601365457   1.618505673
H        5.321374371  -1.484363543   1.633289358
H        4.954734468   3.603675595   4.050890211
H        5.324128232   1.486568029   4.033827520
H        0.568333968  -1.492569725   0.001166661
H        6.865651687   0.003083192   0.004444654
H        0.571280432   1.491625374   0.000167844
H        3.574787545  -7.026811396   1.290322464
H        1.029177842  -0.000828272   4.517746769
H        3.578162195   7.032400453   4.377812226
H        3.577531160   7.032583376   1.288964629
H        1.028450162   0.000171482   1.150165246
H        3.575872662  -7.028848017   4.384305408
H        3.453275767   3.736021243   2.833385320
H        6.206679533   2.799280643   2.833257235
H        3.782910616   0.990302456   2.833971556
H        3.780996949  -0.989110910   2.834577326
H        6.203819700  -2.796291727   2.835295758
H        3.449663642  -3.734522736   2.835186424
H        3.427001748   2.342167186   4.106334715
H        4.954450683   3.604832101   1.615245152
H        5.322788543   1.487065985   1.634454206



     Writing output data file K5MgReH93.save
     NEW-OLD atomic charge density approx. for the potential
     extrapolated charge  129.20446, renormalised to  129.00000

     total cpu time spent up to now is    28982.0 secs

     Self-consistent Calculation

     iteration #  1     ecut=    50.00 Ry     beta=0.70
     Davidson diagonalization with overlap
     ethr =  1.00E-06,  avg # of iterations =  6.5

     total cpu time spent up to now is    29035.0 secs

     total energy              =   -4360.76619031 Ry
     Harris-Foulkes estimate   =   -4355.92630218 Ry
     estimated scf accuracy    <       0.01257175 Ry

     iteration #  2     ecut=    50.00 Ry     beta=0.70
     Davidson diagonalization with overlap
     ethr =  9.75E-06,  avg # of iterations =  5.5

     total cpu time spent up to now is    29084.5 secs

     total energy              =   -4360.78339810 Ry
     Harris-Foulkes estimate   =   -4360.81433921 Ry
     estimated scf accuracy    <       0.10710906 Ry

     iteration #  3     ecut=    50.00 Ry     beta=0.70
     Davidson diagonalization with overlap
     ethr =  9.75E-06,  avg # of iterations =  5.0

     total cpu time spent up to now is    29126.2 secs

     total energy              =   -4360.79328156 Ry
     Harris-Foulkes estimate   =   -4360.79439569 Ry
     estimated scf accuracy    <       0.00493368 Ry

     iteration #  4     ecut=    50.00 Ry     beta=0.70
     Davidson diagonalization with overlap
     ethr =  3.82E-06,  avg # of iterations =  2.0

     total cpu time spent up to now is    29156.1 secs

     total energy              =   -4360.79313626 Ry
     Harris-Foulkes estimate   =   -4360.79350029 Ry
     estimated scf accuracy    <       0.00301340 Ry

     iteration #  5     ecut=    50.00 Ry     beta=0.70
     Davidson diagonalization with overlap
     ethr =  2.34E-06,  avg # of iterations =  1.0

     total cpu time spent up to now is    29185.0 secs

     total energy              =   -4360.79298105 Ry
     Harris-Foulkes estimate   =   -4360.79319337 Ry
     estimated scf accuracy    <       0.00182518 Ry

     iteration #  6     ecut=    50.00 Ry     beta=0.70
     Davidson diagonalization with overlap
     ethr =  1.41E-06,  avg # of iterations =  1.0

     total cpu time spent up to now is    29213.5 secs

     total energy              =   -4360.79283295 Ry
     Harris-Foulkes estimate   =   -4360.79300352 Ry
     estimated scf accuracy    <       0.00111664 Ry

     iteration #  7     ecut=    50.00 Ry     beta=0.70
     Davidson diagonalization with overlap
     ethr =  8.66E-07,  avg # of iterations =  1.0

     total cpu time spent up to now is    29242.3 secs

     total energy              =   -4360.79271144 Ry
     Harris-Foulkes estimate   =   -4360.79285314 Ry
     estimated scf accuracy    <       0.00054219 Ry

     iteration #  8     ecut=    50.00 Ry     beta=0.70
     Davidson diagonalization with overlap
     ethr =  4.20E-07,  avg # of iterations =  2.0

     total cpu time spent up to now is    29271.8 secs

     total energy              =   -4360.79270425 Ry
     Harris-Foulkes estimate   =   -4360.79273991 Ry
     estimated scf accuracy    <       0.00011985 Ry

     iteration #  9     ecut=    50.00 Ry     beta=0.70
     Davidson diagonalization with overlap
     ethr =  9.29E-08,  avg # of iterations =  2.9

     total cpu time spent up to now is    29303.7 secs

     total energy              =   -4360.79270871 Ry
     Harris-Foulkes estimate   =   -4360.79271492 Ry
     estimated scf accuracy    <       0.00001513 Ry

     iteration # 10     ecut=    50.00 Ry     beta=0.70
     Davidson diagonalization with overlap
     ethr =  1.17E-08,  avg # of iterations =  2.9

     total cpu time spent up to now is    29337.6 secs

     total energy              =   -4360.79271097 Ry
     Harris-Foulkes estimate   =   -4360.79271113 Ry
     estimated scf accuracy    <       0.00000028 Ry

     iteration # 11     ecut=    50.00 Ry     beta=0.70
     Davidson diagonalization with overlap
     ethr =  2.17E-10,  avg # of iterations =  3.8

     total cpu time spent up to now is    29378.3 secs

     End of self-consistent calculation

          k = 0.0000 0.0000 0.0000 ( 16447 PWs)   bands (ev):

   -76.7488 -76.7481 -76.6984 -72.7069 -39.8249 -39.7822 -39.7812 -38.6503
   -38.6498 -38.6342 -38.6334 -38.6333 -38.6243 -38.6242 -38.5515 -38.5482
   -33.8777 -33.8771 -33.8669 -33.8662 -33.8638 -33.8635 -33.8593 -33.8583
   -33.8534 -33.8525 -33.8474 -33.8453 -33.8447 -33.8446 -33.8440 -33.8413
   -33.8334 -33.8210 -33.7917 -33.7810 -33.7785  -5.4858  -4.7484  -4.6269
    -1.9766  -1.9253  -1.8415  -1.8229  -1.4854  -1.4502  -1.2913  -1.2395
    -1.2015  -1.1654  -1.0452  -0.9517  -0.7977  -0.7039  -0.5256  -0.4879
    -0.3366  -0.2932  -0.2631  -0.2081  -0.1747  -0.0478   0.1357   0.2260
     5.1535   5.5333   6.1147   6.2440   6.3232   6.4733   6.4878   6.7967
     7.0267   7.4156   7.4245   7.5026   7.5350   7.6357

          k = 0.0003-0.0003-0.8131 ( 16526 PWs)   bands (ev):

   -76.7488 -76.7481 -76.6984 -72.7069 -39.8249 -39.7822 -39.7812 -38.6504
   -38.6498 -38.6343 -38.6335 -38.6335 -38.6247 -38.6245 -38.5515 -38.5486
   -33.8778 -33.8772 -33.8669 -33.8661 -33.8639 -33.8635 -33.8593 -33.8583
   -33.8535 -33.8526 -33.8474 -33.8455 -33.8449 -33.8447 -33.8440 -33.8414
   -33.8335 -33.8211 -33.7917 -33.7811 -33.7785  -5.1201  -4.7552  -4.5269
    -2.2621  -1.9482  -1.8162  -1.7663  -1.6110  -1.4470  -1.4427  -1.4343
    -1.3461  -1.1720  -1.0508  -1.0100  -0.9270  -0.8013  -0.6796  -0.5418
    -0.4362  -0.2691  -0.2679   0.0550   0.0568   0.0831   0.0862   0.1585
     5.6930   5.7330   5.8093   5.9748   6.3616   6.6617   6.9378   7.0362
     7.2129   7.2667   7.5827   7.8176   7.9255   8.1950

          k =-0.5215-0.2874 0.0001 ( 16490 PWs)   bands (ev):

   -76.7488 -76.7481 -76.6984 -72.7069 -39.8249 -39.7822 -39.7812 -38.6503
   -38.6498 -38.6343 -38.6335 -38.6334 -38.6245 -38.6244 -38.5515 -38.5484
   -33.8777 -33.8772 -33.8669 -33.8662 -33.8638 -33.8635 -33.8593 -33.8583
   -33.8534 -33.8526 -33.8474 -33.8454 -33.8448 -33.8446 -33.8440 -33.8413
   -33.8335 -33.8210 -33.7917 -33.7810 -33.7786  -5.2549  -4.9451  -4.7774
    -1.9994  -1.8297  -1.7175  -1.4908  -1.4504  -1.4449  -1.2636  -1.2609
    -1.2498  -1.1852  -1.1387  -0.9933  -0.8718  -0.7119  -0.6004  -0.4325
    -0.3815  -0.3416  -0.3038  -0.2836  -0.1081  -0.0344   0.0929   0.1521
     5.2591   5.5038   5.6825   5.9482   6.6078   6.7660   7.0134   7.0664
     7.1162   7.1803   7.2676   7.8060   7.8535   7.8787

          k =-0.5213-0.2877-0.8130 ( 16554 PWs)   bands (ev):

   -76.7488 -76.7481 -76.6984 -72.7069 -39.8249 -39.7822 -39.7812 -38.6505
   -38.6499 -38.6342 -38.6336 -38.6334 -38.6247 -38.6246 -38.5516 -38.5486
   -33.8778 -33.8772 -33.8670 -33.8663 -33.8639 -33.8635 -33.8593 -33.8584
   -33.8535 -33.8527 -33.8475 -33.8455 -33.8449 -33.8447 -33.8440 -33.8413
   -33.8335 -33.8211 -33.7917 -33.7812 -33.7786  -5.0003  -4.7408  -4.6780
    -2.3032  -1.9534  -1.8721  -1.6346  -1.5555  -1.5256  -1.4193  -1.3949
    -1.3248  -1.2817  -1.0681  -1.0414  -0.9014  -0.8125  -0.7366  -0.5677
    -0.3793  -0.2527  -0.1830   0.0361   0.0780   0.0789   0.1178   0.1758
     5.5734   5.8566   5.8834   5.9357   6.0500   6.1784   6.8832   6.9285
     7.0999   7.2350   7.6925   7.9053   7.9145   8.1973

          k =-0.5218 0.2878 0.0002 ( 16490 PWs)   bands (ev):

   -76.7488 -76.7481 -76.6984 -72.7069 -39.8249 -39.7822 -39.7812 -38.6504
   -38.6498 -38.6342 -38.6335 -38.6334 -38.6245 -38.6244 -38.5515 -38.5484
   -33.8778 -33.8772 -33.8669 -33.8662 -33.8639 -33.8635 -33.8593 -33.8584
   -33.8534 -33.8526 -33.8474 -33.8454 -33.8448 -33.8446 -33.8440 -33.8413
   -33.8335 -33.8210 -33.7917 -33.7810 -33.7786  -5.2548  -4.9442  -4.7784
    -2.0017  -1.8296  -1.7178  -1.4914  -1.4511  -1.4446  -1.2636  -1.2607
    -1.2474  -1.1851  -1.1370  -0.9931  -0.8710  -0.7103  -0.6003  -0.4328
    -0.3826  -0.3416  -0.3029  -0.2837  -0.1096  -0.0371   0.0936   0.1529
     5.2585   5.5041   5.6822   5.9496   6.6080   6.7629   7.0104   7.0654
     7.1152   7.1799   7.2674   7.8066   7.8585   7.8804

          k =-0.5215 0.2875-0.8129 ( 16536 PWs)   bands (ev):

   -76.7488 -76.7481 -76.6984 -72.7069 -39.8249 -39.7822 -39.7812 -38.6504
   -38.6499 -38.6343 -38.6334 -38.6334 -38.6247 -38.6246 -38.5515 -38.5486
   -33.8778 -33.8772 -33.8670 -33.8662 -33.8639 -33.8635 -33.8593 -33.8583
   -33.8535 -33.8526 -33.8475 -33.8455 -33.8449 -33.8446 -33.8440 -33.8413
   -33.8335 -33.8210 -33.7917 -33.7812 -33.7786  -5.0001  -4.7407  -4.6782
    -2.3033  -1.9537  -1.8728  -1.6347  -1.5550  -1.5253  -1.4190  -1.3959
    -1.3253  -1.2816  -1.0667  -1.0389  -0.9032  -0.8137  -0.7376  -0.5653
    -0.3786  -0.2528  -0.1832   0.0357   0.0758   0.0764   0.1206   0.1770
     5.5749   5.8591   5.8833   5.9331   6.0477   6.1783   6.8827   6.9287
     7.0992   7.2429   7.6825   7.9014   7.9182   8.1991

          k =-1.0433 0.0004 0.0003 ( 16510 PWs)   bands (ev):

   -76.7488 -76.7481 -76.6984 -72.7069 -39.8249 -39.7822 -39.7812 -38.6504
   -38.6498 -38.6342 -38.6335 -38.6334 -38.6246 -38.6245 -38.5515 -38.5485
   -33.8778 -33.8772 -33.8670 -33.8662 -33.8638 -33.8635 -33.8592 -33.8583
   -33.8535 -33.8526 -33.8474 -33.8454 -33.8448 -33.8446 -33.8440 -33.8413
   -33.8335 -33.8210 -33.7916 -33.7811 -33.7785  -5.2438  -4.9926  -4.7530
    -1.9181  -1.8482  -1.8461  -1.4930  -1.4605  -1.4084  -1.2702  -1.2549
    -1.2147  -1.1778  -1.0795  -0.8682  -0.7889  -0.6645  -0.6508  -0.6067
    -0.4994  -0.3013  -0.2812  -0.2070  -0.1496  -0.0397   0.0501   0.1280
     5.1979   5.6102   5.6802   6.0778   6.5632   6.7906   6.8258   7.0898
     7.1545   7.1695   7.3074   7.6933   7.6968   7.7978

          k =-1.0430 0.0001-0.8128 ( 16498 PWs)   bands (ev):

   -76.7488 -76.7481 -76.6984 -72.7069 -39.8249 -39.7822 -39.7812 -38.6503
   -38.6498 -38.6341 -38.6334 -38.6333 -38.6247 -38.6246 -38.5515 -38.5486
   -33.8778 -33.8772 -33.8669 -33.8662 -33.8638 -33.8635 -33.8593 -33.8583
   -33.8534 -33.8525 -33.8474 -33.8455 -33.8449 -33.8446 -33.8440 -33.8413
   -33.8335 -33.8210 -33.7917 -33.7812 -33.7785  -4.8902  -4.8228  -4.7479
    -2.3098  -1.9217  -1.7984  -1.6799  -1.5185  -1.4754  -1.3926  -1.3435
    -1.2656  -1.2195  -1.1850  -0.9806  -0.9044  -0.7741  -0.7400  -0.6727
    -0.4348  -0.3758  -0.2483   0.0291   0.0326   0.0806   0.1493   0.2270
     5.6062   5.7205   5.8391   6.0738   6.0786   6.4421   6.8505   7.0562
     7.0979   7.3724   7.3829   7.6296   7.9306   8.1216

     the Fermi energy is     5.3944 ev

!    total energy              =   -4360.79271108 Ry
     Harris-Foulkes estimate   =   -4360.79271111 Ry
     estimated scf accuracy    <       0.00000003 Ry

     The total energy is the sum of the following terms:

     one-electron contribution =   -3257.16241850 Ry
     hartree contribution      =    1629.83716240 Ry
     xc contribution           =    -317.65475594 Ry
     ewald contribution        =    -767.02580752 Ry
     one-center paw contrib.   =   -1648.78896736 Ry
     smearing contrib. (-TS)   =       0.00207584 Ry

     convergence has been achieved in  11 iterations

     Forces acting on atoms (cartesian axes, Ry/au):

     atom    1 type  2   force =    -0.00144947    0.00069608    0.00001609
     atom    2 type  3   force =     0.00022016    0.00005159   -0.00000325
     atom    3 type  2   force =    -0.00142102   -0.00066756    0.00000033
     atom    4 type  2   force =     0.00075208   -0.00092102   -0.00002408
     atom    5 type  2   force =    -0.00040160    0.00000167   -0.00001370
     atom    6 type  2   force =     0.00083389    0.00090321   -0.00001894
     atom    7 type  4   force =     0.00015419    0.00039414    0.00023122
     atom    8 type  4   force =     0.00047317   -0.00083880    0.00020644
     atom    9 type  4   force =    -0.00138785    0.00016836   -0.00002018
     atom   10 type  1   force =    -0.00057190    0.00025892   -0.00122608
     atom   11 type  1   force =    -0.00004860    0.00051701    0.00045736
     atom   12 type  1   force =     0.00156073    0.00007674    0.00052245
     atom   13 type  1   force =     0.00177697    0.00001839   -0.00029866
     atom   14 type  1   force =     0.00177190    0.00002759   -0.00032921
     atom   15 type  1   force =    -0.00031537   -0.00049594    0.00049334
     atom   16 type  1   force =    -0.00032186    0.00022717   -0.00011336
     atom   17 type  1   force =    -0.00052771    0.00008271   -0.00090477
     atom   18 type  1   force =    -0.00018245   -0.00036189    0.00018708
     atom   19 type  1   force =    -0.00118122   -0.00037839   -0.00003098
     atom   20 type  1   force =     0.00066240   -0.00006348    0.00001182
     atom   21 type  1   force =    -0.00111107    0.00033963    0.00003156
     atom   22 type  1   force =    -0.00043418    0.00101912    0.00013966
     atom   23 type  1   force =    -0.00092499   -0.00003684    0.00078284
     atom   24 type  1   force =    -0.00036647   -0.00072005   -0.00005379
     atom   25 type  1   force =    -0.00028806   -0.00055984   -0.00005756
     atom   26 type  1   force =    -0.00109438   -0.00004069   -0.00096533
     atom   27 type  1   force =    -0.00034450    0.00061417    0.00024440
     atom   28 type  1   force =    -0.00005862    0.00207940    0.00000899
     atom   29 type  1   force =     0.00044945   -0.00145901    0.00001664
     atom   30 type  1   force =     0.00090189   -0.00091141   -0.00001314
     atom   31 type  1   force =     0.00050851    0.00148642    0.00001435
     atom   32 type  1   force =     0.00065687    0.00133477   -0.00003217
     atom   33 type  1   force =     0.00039814   -0.00162111   -0.00001756
     atom   34 type  1   force =     0.00181167    0.00004365    0.00026658
     atom   35 type  1   force =    -0.00071342   -0.00041516    0.00138449
     atom   36 type  1   force =     0.00021273   -0.00084957   -0.00089289

     Total force =     0.007621     Total SCF correction =     0.001015
     SCF correction compared to forces is large: reduce conv_thr to get better values


     Computing stress (Cartesian axis) and pressure

          total   stress  (Ry/bohr**3)                   (kbar)     P=    0.59
   0.00000624  -0.00000139  -0.00000062          0.92     -0.20     -0.09
  -0.00000139   0.00001231   0.00000246         -0.20      1.81      0.36
  -0.00000062   0.00000246  -0.00000658         -0.09      0.36     -0.97


     number of scf cycles    =  28
     number of bfgs steps    =  27

     enthalpy old            =   -4360.7925278063 Ry
     enthalpy new            =   -4360.7927110814 Ry

     CASE: enthalpy_new < enthalpy_old

     new trust radius        =       0.0186750014 bohr
     new conv_thr            =       0.0000000183 Ry

     new unit-cell volume =   2706.21970 a.u.^3 (   401.02038 Ang^3 )
     density =      0.14907 g/cm^3

CELL_PARAMETERS (angstrom)
   4.413608813  -8.009265023   0.003372835
   4.418557290   8.012597552  -0.000555068
   0.001521737  -0.000746437   5.667823417

ATOMIC_POSITIONS (angstrom)
K        1.046319804   2.061493597   2.834216953
Mg       6.509106989  -0.000685189   2.831632928
K        1.043537175  -2.062316455   2.834934627
K        2.659519480   4.758738807  -0.000611705
K        3.642241973   0.001546218   0.000968084
K        2.655553348  -4.754126633   0.001387437
Re       4.557964934  -2.469720533   2.835553437
Re       4.560753304   2.471647808   2.834744416
Re      -0.227244620   0.000655701   0.001151149
H        4.953296925  -3.602189325   4.053134349
H        5.321831629  -1.484329581   4.035077486
H        3.427346747  -2.341782959   4.110370452
H        3.429182279   2.343486490   1.559703340
H        3.426913927  -2.341852150   1.560103438
H        4.952910295  -3.602484937   1.619009940
H        5.321457516  -1.484493881   1.634376610
H        4.956145560   3.604681863   4.051823774
H        5.324252610   1.486738812   4.034502702
H        0.565843443  -1.493426660   0.001062403
H        6.865555285   0.002757253   0.004340154
H        0.569070991   1.492630766   0.000278636
H        3.572549934  -7.027328530   1.291912904
H        1.027419637  -0.000467669   4.518831474
H        3.575408645   7.033485967   4.377916663
H        3.574878087   7.033265987   1.292080183
H        1.026683583   0.000193732   1.150894322
H        3.573518228  -7.029263959   4.383450393
H        3.453786698   3.738213745   2.834585334
H        6.209788370   2.796108106   2.834363483
H        3.782463526   0.988272375   2.834992413
H        3.780317117  -0.986326874   2.835354035
H        6.207179095  -2.792947840   2.835876969
H        3.450639660  -3.736073103   2.835776976
H        3.429255295   2.343334696   4.109834219
H        4.955702991   3.605237518   1.617130765
H        5.323393486   1.486494442   1.634947808



     Writing output data file K5MgReH93.save
     NEW-OLD atomic charge density approx. for the potential
     extrapolated charge  129.09515, renormalised to  129.00000

     total cpu time spent up to now is    29990.7 secs

     Self-consistent Calculation

     iteration #  1     ecut=    50.00 Ry     beta=0.70
     Davidson diagonalization with overlap
     ethr =  1.00E-06,  avg # of iterations =  6.5

     total cpu time spent up to now is    30041.9 secs

     total energy              =   -4360.78012822 Ry
     Harris-Foulkes estimate   =   -4358.49859718 Ry
     estimated scf accuracy    <       0.01149394 Ry

     iteration #  2     ecut=    50.00 Ry     beta=0.70
     Davidson diagonalization with overlap
     ethr =  8.91E-06,  avg # of iterations =  4.9

     total cpu time spent up to now is    30089.2 secs

     total energy              =   -4360.78172914 Ry
     Harris-Foulkes estimate   =   -4360.81849366 Ry
     estimated scf accuracy    <       0.13435495 Ry

     iteration #  3     ecut=    50.00 Ry     beta=0.70
     Davidson diagonalization with overlap
     ethr =  8.91E-06,  avg # of iterations =  4.0

     total cpu time spent up to now is    30127.9 secs

     total energy              =   -4360.79354512 Ry
     Harris-Foulkes estimate   =   -4360.79417351 Ry
     estimated scf accuracy    <       0.00670529 Ry

     iteration #  4     ecut=    50.00 Ry     beta=0.70
     Davidson diagonalization with overlap
     ethr =  5.20E-06,  avg # of iterations =  1.0

     total cpu time spent up to now is    30156.2 secs

     total energy              =   -4360.79305567 Ry
     Harris-Foulkes estimate   =   -4360.79364871 Ry
     estimated scf accuracy    <       0.00422466 Ry

     iteration #  5     ecut=    50.00 Ry     beta=0.70
     Davidson diagonalization with overlap
     ethr =  3.27E-06,  avg # of iterations =  1.0

     total cpu time spent up to now is    30185.1 secs

     total energy              =   -4360.79287415 Ry
     Harris-Foulkes estimate   =   -4360.79315662 Ry
     estimated scf accuracy    <       0.00176699 Ry

     iteration #  6     ecut=    50.00 Ry     beta=0.70
     Davidson diagonalization with overlap
     ethr =  1.37E-06,  avg # of iterations =  2.0

     total cpu time spent up to now is    30214.7 secs

     total energy              =   -4360.79275278 Ry
     Harris-Foulkes estimate   =   -4360.79293433 Ry
     estimated scf accuracy    <       0.00062493 Ry

     iteration #  7     ecut=    50.00 Ry     beta=0.70
     Davidson diagonalization with overlap
     ethr =  4.84E-07,  avg # of iterations =  3.1

     total cpu time spent up to now is    30248.2 secs

     total energy              =   -4360.79282171 Ry
     Harris-Foulkes estimate   =   -4360.79282825 Ry
     estimated scf accuracy    <       0.00001926 Ry

     iteration #  8     ecut=    50.00 Ry     beta=0.70
     Davidson diagonalization with overlap
     ethr =  1.49E-08,  avg # of iterations =  2.9

     total cpu time spent up to now is    30283.2 secs

     total energy              =   -4360.79282541 Ry
     Harris-Foulkes estimate   =   -4360.79282552 Ry
     estimated scf accuracy    <       0.00000053 Ry

     iteration #  9     ecut=    50.00 Ry     beta=0.70
     Davidson diagonalization with overlap
     ethr =  4.08E-10,  avg # of iterations =  3.0

     total cpu time spent up to now is    30320.8 secs

     total energy              =   -4360.79282550 Ry
     Harris-Foulkes estimate   =   -4360.79282555 Ry
     estimated scf accuracy    <       0.00000028 Ry

     iteration # 10     ecut=    50.00 Ry     beta=0.70
     Davidson diagonalization with overlap
     ethr =  2.16E-10,  avg # of iterations =  2.0

     total cpu time spent up to now is    30350.8 secs

     total energy              =   -4360.79282546 Ry
     Harris-Foulkes estimate   =   -4360.79282552 Ry
     estimated scf accuracy    <       0.00000017 Ry

     iteration # 11     ecut=    50.00 Ry     beta=0.70
     Davidson diagonalization with overlap
     ethr =  1.32E-10,  avg # of iterations =  2.1

     total cpu time spent up to now is    30382.3 secs

     End of self-consistent calculation

          k = 0.0000 0.0000 0.0000 ( 16447 PWs)   bands (ev):

   -76.7535 -76.7525 -76.7142 -72.7116 -39.8294 -39.7872 -39.7860 -38.6529
   -38.6522 -38.6481 -38.6365 -38.6353 -38.6288 -38.6285 -38.5643 -38.5621
   -33.8842 -33.8833 -33.8735 -33.8724 -33.8704 -33.8698 -33.8661 -33.8658
   -33.8645 -33.8601 -33.8596 -33.8584 -33.8521 -33.8514 -33.8512 -33.8511
   -33.8501 -33.8387 -33.8090 -33.7985 -33.7956  -5.4842  -4.7501  -4.6220
    -1.9724  -1.9258  -1.8444  -1.8202  -1.4864  -1.4512  -1.2871  -1.2462
    -1.1975  -1.1674  -1.0430  -0.9498  -0.8050  -0.7117  -0.5275  -0.4912
    -0.3306  -0.2994  -0.2645  -0.2108  -0.1740  -0.0446   0.1352   0.2259
     5.1448   5.5231   6.0944   6.2323   6.3136   6.4685   6.4907   6.7854
     7.0096   7.4030   7.4145   7.4903   7.5243   7.6286

          k = 0.0003-0.0002-0.8128 ( 16526 PWs)   bands (ev):

   -76.7535 -76.7525 -76.7142 -72.7116 -39.8294 -39.7872 -39.7860 -38.6529
   -38.6522 -38.6483 -38.6367 -38.6354 -38.6291 -38.6288 -38.5643 -38.5624
   -33.8843 -33.8834 -33.8734 -33.8723 -33.8705 -33.8698 -33.8662 -33.8658
   -33.8645 -33.8601 -33.8597 -33.8585 -33.8523 -33.8515 -33.8514 -33.8511
   -33.8502 -33.8388 -33.8090 -33.7986 -33.7957  -5.1145  -4.7597  -4.5218
    -2.2722  -1.9484  -1.8109  -1.7663  -1.6107  -1.4447  -1.4412  -1.4318
    -1.3480  -1.1810  -1.0405  -1.0162  -0.9335  -0.8037  -0.6755  -0.5445
    -0.4439  -0.2702  -0.2608   0.0488   0.0594   0.0787   0.0844   0.1656
     5.6920   5.7244   5.8030   5.9505   6.3455   6.6533   6.9303   7.0367
     7.2013   7.2634   7.5720   7.7914   7.9125   8.1831

          k =-0.5215-0.2874 0.0001 ( 16490 PWs)   bands (ev):

   -76.7535 -76.7525 -76.7142 -72.7116 -39.8294 -39.7872 -39.7860 -38.6529
   -38.6523 -38.6482 -38.6366 -38.6353 -38.6290 -38.6287 -38.5643 -38.5622
   -33.8843 -33.8833 -33.8735 -33.8724 -33.8705 -33.8698 -33.8662 -33.8658
   -33.8645 -33.8601 -33.8597 -33.8585 -33.8522 -33.8515 -33.8512 -33.8511
   -33.8501 -33.8388 -33.8090 -33.7985 -33.7957  -5.2535  -4.9451  -4.7741
    -1.9970  -1.8329  -1.7175  -1.4917  -1.4461  -1.4452  -1.2601  -1.2569
    -1.2566  -1.1864  -1.1357  -0.9917  -0.8735  -0.7193  -0.6094  -0.4306
    -0.3807  -0.3465  -0.3054  -0.2848  -0.1092  -0.0337   0.0965   0.1497
     5.2478   5.4884   5.6738   5.9444   6.6119   6.7539   7.0048   7.0526
     7.0979   7.1656   7.2542   7.8005   7.8421   7.8688

          k =-0.5212-0.2876-0.8127 ( 16554 PWs)   bands (ev):

   -76.7535 -76.7525 -76.7142 -72.7116 -39.8294 -39.7872 -39.7860 -38.6531
   -38.6523 -38.6482 -38.6366 -38.6354 -38.6292 -38.6289 -38.5644 -38.5625
   -33.8843 -33.8833 -33.8735 -33.8724 -33.8705 -33.8698 -33.8662 -33.8658
   -33.8646 -33.8601 -33.8598 -33.8585 -33.8523 -33.8515 -33.8514 -33.8511
   -33.8501 -33.8388 -33.8090 -33.7987 -33.7957  -4.9945  -4.7453  -4.6728
    -2.3154  -1.9530  -1.8690  -1.6352  -1.5564  -1.5291  -1.4167  -1.3860
    -1.3265  -1.2807  -1.0718  -1.0330  -0.9066  -0.8185  -0.7356  -0.5710
    -0.3876  -0.2491  -0.1788   0.0356   0.0719   0.0799   0.1104   0.1834
     5.5718   5.8471   5.8629   5.9268   6.0401   6.1737   6.8721   6.9258
     7.0890   7.2184   7.6752   7.8950   7.9022   8.1876

          k =-0.5217 0.2877 0.0002 ( 16490 PWs)   bands (ev):

   -76.7535 -76.7525 -76.7142 -72.7116 -39.8294 -39.7872 -39.7860 -38.6530
   -38.6522 -38.6482 -38.6366 -38.6354 -38.6290 -38.6287 -38.5643 -38.5622
   -33.8843 -33.8833 -33.8735 -33.8724 -33.8705 -33.8698 -33.8662 -33.8658
   -33.8645 -33.8601 -33.8597 -33.8584 -33.8521 -33.8515 -33.8512 -33.8511
   -33.8501 -33.8387 -33.8090 -33.7985 -33.7957  -5.2534  -4.9443  -4.7749
    -1.9991  -1.8329  -1.7177  -1.4922  -1.4463  -1.4457  -1.2602  -1.2567
    -1.2542  -1.1863  -1.1344  -0.9917  -0.8729  -0.7177  -0.6094  -0.4307
    -0.3822  -0.3465  -0.3037  -0.2849  -0.1115  -0.0361   0.0974   0.1506
     5.2471   5.4892   5.6734   5.9450   6.6122   6.7518   7.0025   7.0517
     7.0969   7.1657   7.2542   7.8002   7.8476   7.8698

          k =-0.5214 0.2875-0.8126 ( 16536 PWs)   bands (ev):

   -76.7535 -76.7525 -76.7142 -72.7116 -39.8294 -39.7872 -39.7860 -38.6529
   -38.6523 -38.6482 -38.6366 -38.6353 -38.6292 -38.6289 -38.5644 -38.5624
   -33.8843 -33.8834 -33.8735 -33.8724 -33.8705 -33.8698 -33.8662 -33.8658
   -33.8645 -33.8601 -33.8597 -33.8585 -33.8523 -33.8515 -33.8514 -33.8511
   -33.8501 -33.8388 -33.8090 -33.7987 -33.7957  -4.9943  -4.7453  -4.6729
    -2.3155  -1.9532  -1.8695  -1.6351  -1.5563  -1.5293  -1.4162  -1.3869
    -1.3266  -1.2808  -1.0706  -1.0310  -0.9081  -0.8196  -0.7363  -0.5692
    -0.3868  -0.2491  -0.1789   0.0349   0.0688   0.0782   0.1136   0.1847
     5.5732   5.8497   5.8622   5.9245   6.0383   6.1734   6.8728   6.9261
     7.0870   7.2272   7.6641   7.8919   7.9058   8.1896

          k =-1.0432 0.0003 0.0003 ( 16510 PWs)   bands (ev):

   -76.7535 -76.7525 -76.7142 -72.7116 -39.8294 -39.7872 -39.7860 -38.6530
   -38.6523 -38.6482 -38.6366 -38.6354 -38.6290 -38.6288 -38.5644 -38.5623
   -33.8843 -33.8834 -33.8735 -33.8724 -33.8705 -33.8698 -33.8662 -33.8658
   -33.8645 -33.8601 -33.8597 -33.8584 -33.8522 -33.8515 -33.8513 -33.8511
   -33.8501 -33.8388 -33.8089 -33.7986 -33.7957  -5.2442  -4.9878  -4.7527
    -1.9213  -1.8506  -1.8401  -1.4937  -1.4558  -1.4090  -1.2663  -1.2539
    -1.2184  -1.1768  -1.0793  -0.8733  -0.7827  -0.6736  -0.6594  -0.6096
    -0.4986  -0.3022  -0.2867  -0.2083  -0.1529  -0.0340   0.0477   0.1323
     5.1866   5.5939   5.6721   6.0728   6.5657   6.7812   6.8123   7.0781
     7.1468   7.1500   7.2991   7.6771   7.6875   7.7900

          k =-1.0429 0.0001-0.8125 ( 16498 PWs)   bands (ev):

   -76.7535 -76.7525 -76.7142 -72.7116 -39.8294 -39.7872 -39.7860 -38.6529
   -38.6522 -38.6481 -38.6365 -38.6352 -38.6292 -38.6289 -38.5643 -38.5625
   -33.8843 -33.8834 -33.8734 -33.8723 -33.8705 -33.8698 -33.8661 -33.8658
   -33.8645 -33.8601 -33.8596 -33.8584 -33.8523 -33.8515 -33.8514 -33.8511
   -33.8501 -33.8387 -33.8090 -33.7987 -33.7956  -4.8844  -4.8176  -4.7524
    -2.3218  -1.9212  -1.7919  -1.6819  -1.5152  -1.4806  -1.3893  -1.3394
    -1.2712  -1.2234  -1.1885  -0.9705  -0.9089  -0.7698  -0.7443  -0.6682
    -0.4425  -0.3768  -0.2471   0.0212   0.0367   0.0774   0.1418   0.2359
     5.6004   5.7155   5.8159   6.0631   6.0813   6.4292   6.8436   7.0459
     7.0880   7.3627   7.3708   7.6159   7.9135   8.1138

     the Fermi energy is     5.3841 ev

!    total energy              =   -4360.79282548 Ry
     Harris-Foulkes estimate   =   -4360.79282548 Ry
     estimated scf accuracy    <          4.3E-09 Ry

     The total energy is the sum of the following terms:

     one-electron contribution =   -3257.38379225 Ry
     hartree contribution      =    1629.92207237 Ry
     xc contribution           =    -317.64196666 Ry
     ewald contribution        =    -766.90148729 Ry
     one-center paw contrib.   =   -1648.78981291 Ry
     smearing contrib. (-TS)   =       0.00216126 Ry

     convergence has been achieved in  11 iterations

     Forces acting on atoms (cartesian axes, Ry/au):

     atom    1 type  2   force =    -0.00091111    0.00073606    0.00000926
     atom    2 type  3   force =    -0.00076020   -0.00012762   -0.00000215
     atom    3 type  2   force =    -0.00088712   -0.00070956    0.00000780
     atom    4 type  2   force =     0.00073005   -0.00074337   -0.00002784
     atom    5 type  2   force =    -0.00040218   -0.00000071   -0.00001759
     atom    6 type  2   force =     0.00080629    0.00074959   -0.00001335
     atom    7 type  4   force =    -0.00019265    0.00107341   -0.00023519
     atom    8 type  4   force =    -0.00041690   -0.00039741   -0.00009389
     atom    9 type  4   force =    -0.00090657   -0.00044298    0.00006011
     atom   10 type  1   force =    -0.00039898    0.00023522   -0.00118826
     atom   11 type  1   force =    -0.00006115    0.00051406    0.00030903
     atom   12 type  1   force =     0.00161517    0.00015407    0.00009918
     atom   13 type  1   force =     0.00184229   -0.00009491    0.00016608
     atom   14 type  1   force =     0.00179844    0.00011568    0.00012100
     atom   15 type  1   force =    -0.00031853   -0.00003913    0.00097915
     atom   16 type  1   force =    -0.00020010    0.00038824   -0.00012138
     atom   17 type  1   force =    -0.00044330   -0.00023698   -0.00116936
     atom   18 type  1   force =    -0.00001110   -0.00059093    0.00028261
     atom   19 type  1   force =    -0.00139425    0.00016230   -0.00002052
     atom   20 type  1   force =     0.00013979   -0.00006234    0.00001317
     atom   21 type  1   force =    -0.00128720   -0.00012724    0.00001443
     atom   22 type  1   force =     0.00002045    0.00036186   -0.00073753
     atom   23 type  1   force =    -0.00149331   -0.00000311    0.00127864
     atom   24 type  1   force =     0.00008151   -0.00000866    0.00081945
     atom   25 type  1   force =     0.00014428    0.00011988   -0.00092992
     atom   26 type  1   force =    -0.00156557   -0.00000167   -0.00137756
     atom   27 type  1   force =     0.00005135    0.00009859    0.00098363
     atom   28 type  1   force =     0.00056785    0.00108836    0.00001110
     atom   29 type  1   force =    -0.00045795   -0.00151746    0.00002908
     atom   30 type  1   force =     0.00138446    0.00030562    0.00000831
     atom   31 type  1   force =     0.00120385   -0.00017787    0.00001662
     atom   32 type  1   force =    -0.00041396    0.00142196   -0.00000751
     atom   33 type  1   force =     0.00067725   -0.00101099    0.00000524
     atom   34 type  1   force =     0.00189762   -0.00007141   -0.00018973
     atom   35 type  1   force =    -0.00052293   -0.00046524    0.00140425
     atom   36 type  1   force =     0.00008441   -0.00069534   -0.00048635

     Total force =     0.007490     Total SCF correction =     0.000305


     Computing stress (Cartesian axis) and pressure

          total   stress  (Ry/bohr**3)                   (kbar)     P=   -0.57
  -0.00000099  -0.00000064  -0.00000019         -0.15     -0.09     -0.03
  -0.00000064   0.00000362   0.00000108         -0.09      0.53      0.16
  -0.00000019   0.00000108  -0.00001430         -0.03      0.16     -2.10


     number of scf cycles    =  29
     number of bfgs steps    =  28

     enthalpy old            =   -4360.7927110814 Ry
     enthalpy new            =   -4360.7928254811 Ry

     CASE: enthalpy_new < enthalpy_old

     new trust radius        =       0.0102272135 bohr
     new conv_thr            =       0.0000000114 Ry

     new unit-cell volume =   2709.66941 a.u.^3 (   401.53157 Ang^3 )
     density =      0.14888 g/cm^3

CELL_PARAMETERS (angstrom)
   4.416528068  -8.017242113   0.002437023
   4.420945825   8.020281928   0.000147754
   0.001379687  -0.000193490   5.666100946

ATOMIC_POSITIONS (angstrom)
K        1.043139750   2.065446282   2.833608791
Mg       6.511160060  -0.000668586   2.830546322
K        1.040555267  -2.065721824   2.833810765
K        2.661125067   4.762594955  -0.000248784
K        3.644982049   0.001467609   0.000845242
K        2.657540851  -4.758164506   0.000809819
Re       4.561674522  -2.470536084   2.834222251
Re       4.564212680   2.473001820   2.833997694
Re      -0.229348913   0.000503596   0.001223556
H        4.956545814  -3.603819384   4.050430570
H        5.325822662  -1.485586392   4.033980745
H        3.432608174  -2.343597640   4.110496666
H        3.434606830   2.345679400   1.557972959
H        3.432422080  -2.343933063   1.557833845
H        4.956463508  -3.605083243   1.618325325
H        5.325110005  -1.486350220   1.633649992
H        4.959232460   3.607045512   4.050153810
H        5.328046295   1.488496807   4.033419100
H        0.561766274  -1.495187776   0.000895150
H        6.871523545   0.002349554   0.004183733
H        0.565269937   1.494559376   0.000418058
H        3.572338034  -7.033950469   1.291754557
H        1.026465408  -0.000075622   4.517609039
H        3.574659922   7.040849941   4.376096204
H        3.574280919   7.040295392   1.293481765
H        1.025702204   0.000218559   1.150168987
H        3.573196233  -7.035899508   4.380550432
H        3.457474808   3.742563179   2.833993974
H        6.215118575   2.795086802   2.833673915
H        3.786166004   0.987311322   2.834160134
H        3.783728402  -0.984568169   2.834301324
H        6.212782037  -2.791819741   2.834570956
H        3.454855918  -3.739772959   2.834464449
H        3.434570779   2.345759150   4.110219503
H        4.958602463   3.606846303   1.618138649
H        5.327700441   1.487454245   1.633478384



     Writing output data file K5MgReH93.save
     NEW-OLD atomic charge density approx. for the potential
     extrapolated charge  129.16411, renormalised to  129.00000

     total cpu time spent up to now is    30995.2 secs

     Self-consistent Calculation

     iteration #  1     ecut=    50.00 Ry     beta=0.70
     Davidson diagonalization with overlap
     c_bands:  1 eigenvalues not converged
     ethr =  1.00E-06,  avg # of iterations =  7.5

     total cpu time spent up to now is    31050.1 secs

     total energy              =   -4360.76216353 Ry
     Harris-Foulkes estimate   =   -4356.88215407 Ry
     estimated scf accuracy    <       0.02520738 Ry

     iteration #  2     ecut=    50.00 Ry     beta=0.70
     Davidson diagonalization with overlap
     ethr =  1.95E-05,  avg # of iterations =  5.0

     total cpu time spent up to now is    31098.2 secs

     total energy              =   -4360.76836070 Ry
     Harris-Foulkes estimate   =   -4360.85007989 Ry
     estimated scf accuracy    <       0.30278144 Ry

     iteration #  3     ecut=    50.00 Ry     beta=0.70
     Davidson diagonalization with overlap
     ethr =  1.95E-05,  avg # of iterations =  4.8

     total cpu time spent up to now is    31137.4 secs

     total energy              =   -4360.79433971 Ry
     Harris-Foulkes estimate   =   -4360.79610775 Ry
     estimated scf accuracy    <       0.01539266 Ry

     iteration #  4     ecut=    50.00 Ry     beta=0.70
     Davidson diagonalization with overlap
     ethr =  1.19E-05,  avg # of iterations =  1.0

     total cpu time spent up to now is    31166.1 secs

     total energy              =   -4360.79360446 Ry
     Harris-Foulkes estimate   =   -4360.79467259 Ry
     estimated scf accuracy    <       0.00897356 Ry

     iteration #  5     ecut=    50.00 Ry     beta=0.70
     Davidson diagonalization with overlap
     ethr =  6.96E-06,  avg # of iterations =  1.0

     total cpu time spent up to now is    31194.4 secs

     total energy              =   -4360.79337486 Ry
     Harris-Foulkes estimate   =   -4360.79377635 Ry
     estimated scf accuracy    <       0.00444402 Ry

     iteration #  6     ecut=    50.00 Ry     beta=0.70
     Davidson diagonalization with overlap
     ethr =  3.44E-06,  avg # of iterations =  1.0

     total cpu time spent up to now is    31223.6 secs

     total energy              =   -4360.79310793 Ry
     Harris-Foulkes estimate   =   -4360.79343289 Ry
     estimated scf accuracy    <       0.00265263 Ry

     iteration #  7     ecut=    50.00 Ry     beta=0.70
     Davidson diagonalization with overlap
     ethr =  2.06E-06,  avg # of iterations =  1.5

     total cpu time spent up to now is    31252.3 secs

     total energy              =   -4360.79293233 Ry
     Harris-Foulkes estimate   =   -4360.79316333 Ry
     estimated scf accuracy    <       0.00122422 Ry

     iteration #  8     ecut=    50.00 Ry     beta=0.70
     Davidson diagonalization with overlap
     ethr =  9.49E-07,  avg # of iterations =  2.6

     total cpu time spent up to now is    31283.2 secs

     total energy              =   -4360.79292814 Ry
     Harris-Foulkes estimate   =   -4360.79299425 Ry
     estimated scf accuracy    <       0.00028125 Ry

     iteration #  9     ecut=    50.00 Ry     beta=0.70
     Davidson diagonalization with overlap
     ethr =  2.18E-07,  avg # of iterations =  2.5

     total cpu time spent up to now is    31314.0 secs

     total energy              =   -4360.79294212 Ry
     Harris-Foulkes estimate   =   -4360.79295059 Ry
     estimated scf accuracy    <       0.00003579 Ry

     iteration # 10     ecut=    50.00 Ry     beta=0.70
     Davidson diagonalization with overlap
     ethr =  2.77E-08,  avg # of iterations =  2.0

     total cpu time spent up to now is    31344.8 secs

     total energy              =   -4360.79294323 Ry
     Harris-Foulkes estimate   =   -4360.79294529 Ry
     estimated scf accuracy    <       0.00000564 Ry

     iteration # 11     ecut=    50.00 Ry     beta=0.70
     Davidson diagonalization with overlap
     ethr =  4.37E-09,  avg # of iterations =  3.0

     total cpu time spent up to now is    31380.7 secs

     total energy              =   -4360.79294455 Ry
     Harris-Foulkes estimate   =   -4360.79294458 Ry
     estimated scf accuracy    <       0.00000010 Ry

     iteration # 12     ecut=    50.00 Ry     beta=0.70
     Davidson diagonalization with overlap
     ethr =  7.89E-11,  avg # of iterations =  3.2

     total cpu time spent up to now is    31418.5 secs

     total energy              =   -4360.79294457 Ry
     Harris-Foulkes estimate   =   -4360.79294457 Ry
     estimated scf accuracy    <       0.00000002 Ry

     iteration # 13     ecut=    50.00 Ry     beta=0.70
     Davidson diagonalization with overlap
     ethr =  1.49E-11,  avg # of iterations =  2.8

     total cpu time spent up to now is    31450.7 secs

     End of self-consistent calculation

          k = 0.0000 0.0000 0.0000 ( 16447 PWs)   bands (ev):

   -76.7615 -76.7607 -76.7255 -72.7266 -39.8444 -39.8021 -39.8010 -38.6598
   -38.6593 -38.6586 -38.6435 -38.6422 -38.6368 -38.6366 -38.5750 -38.5722
   -33.8935 -33.8927 -33.8827 -33.8818 -33.8799 -33.8792 -33.8789 -33.8749
   -33.8738 -33.8728 -33.8689 -33.8678 -33.8640 -33.8614 -33.8607 -33.8606
   -33.8597 -33.8512 -33.8215 -33.8112 -33.8084  -5.4883  -4.7553  -4.6278
    -1.9787  -1.9301  -1.8520  -1.8212  -1.4949  -1.4576  -1.2899  -1.2499
    -1.2009  -1.1720  -1.0479  -0.9511  -0.8208  -0.7152  -0.5327  -0.4997
    -0.3311  -0.3036  -0.2706  -0.2199  -0.1799  -0.0506   0.1298   0.2143
     5.1377   5.5131   6.0807   6.2195   6.3004   6.4574   6.4864   6.7715
     6.9981   7.3956   7.3999   7.4847   7.5084   7.6121

          k = 0.0002-0.0001-0.8130 ( 16526 PWs)   bands (ev):

   -76.7615 -76.7607 -76.7255 -72.7266 -39.8444 -39.8021 -39.8010 -38.6598
   -38.6594 -38.6587 -38.6436 -38.6423 -38.6371 -38.6369 -38.5750 -38.5725
   -33.8936 -33.8928 -33.8827 -33.8817 -33.8799 -33.8793 -33.8789 -33.8749
   -33.8738 -33.8729 -33.8690 -33.8679 -33.8641 -33.8616 -33.8609 -33.8606
   -33.8597 -33.8512 -33.8215 -33.8113 -33.8084  -5.1173  -4.7649  -4.5268
    -2.2805  -1.9574  -1.8141  -1.7688  -1.6197  -1.4482  -1.4418  -1.4358
    -1.3552  -1.1842  -1.0404  -1.0200  -0.9459  -0.8129  -0.6807  -0.5556
    -0.4507  -0.2776  -0.2601   0.0412   0.0577   0.0683   0.0756   0.1608
     5.6824   5.7158   5.7938   5.9349   6.3284   6.6425   6.9231   7.0273
     7.1867   7.2549   7.5592   7.7723   7.9057   8.1704

          k =-0.5212-0.2871 0.0001 ( 16490 PWs)   bands (ev):

   -76.7615 -76.7607 -76.7255 -72.7266 -39.8444 -39.8021 -39.8010 -38.6598
   -38.6594 -38.6586 -38.6436 -38.6422 -38.6369 -38.6367 -38.5750 -38.5724
   -33.8935 -33.8927 -33.8827 -33.8818 -33.8799 -33.8793 -33.8789 -33.8749
   -33.8738 -33.8728 -33.8689 -33.8679 -33.8640 -33.8615 -33.8607 -33.8606
   -33.8597 -33.8512 -33.8215 -33.8112 -33.8084  -5.2596  -4.9486  -4.7789
    -2.0018  -1.8405  -1.7231  -1.5001  -1.4526  -1.4457  -1.2644  -1.2637
    -1.2595  -1.1901  -1.1388  -0.9964  -0.8825  -0.7278  -0.6134  -0.4335
    -0.3871  -0.3509  -0.3107  -0.2906  -0.1183  -0.0421   0.0910   0.1403
     5.2416   5.4769   5.6649   5.9326   6.6076   6.7386   6.9874   7.0374
     7.0862   7.1518   7.2468   7.7879   7.8371   7.8553

          k =-0.5209-0.2872-0.8129 ( 16554 PWs)   bands (ev):

   -76.7615 -76.7607 -76.7255 -72.7266 -39.8444 -39.8021 -39.8010 -38.6599
   -38.6594 -38.6587 -38.6435 -38.6423 -38.6372 -38.6370 -38.5751 -38.5726
   -33.8936 -33.8927 -33.8828 -33.8818 -33.8799 -33.8793 -33.8790 -33.8749
   -33.8739 -33.8729 -33.8690 -33.8679 -33.8640 -33.8617 -33.8609 -33.8606
   -33.8597 -33.8512 -33.8216 -33.8114 -33.8085  -4.9983  -4.7507  -4.6765
    -2.3243  -1.9612  -1.8711  -1.6440  -1.5620  -1.5347  -1.4200  -1.3833
    -1.3287  -1.2875  -1.0767  -1.0345  -0.9149  -0.8313  -0.7408  -0.5808
    -0.3933  -0.2531  -0.1813   0.0283   0.0638   0.0720   0.1001   0.1813
     5.5639   5.8372   5.8494   5.9165   6.0266   6.1650   6.8617   6.9171
     7.0745   7.2061   7.6615   7.8775   7.8960   8.1738

          k =-0.5214 0.2874 0.0001 ( 16490 PWs)   bands (ev):

   -76.7615 -76.7607 -76.7255 -72.7266 -39.8444 -39.8021 -39.8010 -38.6598
   -38.6593 -38.6586 -38.6435 -38.6423 -38.6369 -38.6367 -38.5750 -38.5724
   -33.8936 -33.8927 -33.8827 -33.8818 -33.8799 -33.8793 -33.8789 -33.8749
   -33.8739 -33.8728 -33.8689 -33.8678 -33.8640 -33.8615 -33.8608 -33.8606
   -33.8597 -33.8512 -33.8215 -33.8112 -33.8084  -5.2595  -4.9480  -4.7795
    -2.0037  -1.8405  -1.7233  -1.5008  -1.4520  -1.4461  -1.2632  -1.2619
    -1.2604  -1.1900  -1.1379  -0.9969  -0.8810  -0.7264  -0.6133  -0.4340
    -0.3882  -0.3508  -0.3093  -0.2908  -0.1200  -0.0441   0.0913   0.1415
     5.2409   5.4779   5.6640   5.9326   6.6079   6.7381   6.9859   7.0368
     7.0844   7.1519   7.2478   7.7871   7.8410   7.8563

          k =-0.5211 0.2873-0.8129 ( 16536 PWs)   bands (ev):

   -76.7615 -76.7607 -76.7255 -72.7266 -39.8444 -39.8021 -39.8010 -38.6598
   -38.6595 -38.6586 -38.6436 -38.6422 -38.6371 -38.6369 -38.5751 -38.5726
   -33.8935 -33.8928 -33.8828 -33.8818 -33.8799 -33.8793 -33.8790 -33.8749
   -33.8738 -33.8728 -33.8690 -33.8679 -33.8640 -33.8617 -33.8609 -33.8606
   -33.8597 -33.8512 -33.8215 -33.8114 -33.8085  -4.9982  -4.7507  -4.6766
    -2.3243  -1.9614  -1.8718  -1.6435  -1.5618  -1.5346  -1.4213  -1.3839
    -1.3288  -1.2861  -1.0752  -1.0329  -0.9163  -0.8329  -0.7410  -0.5799
    -0.3925  -0.2530  -0.1815   0.0273   0.0612   0.0712   0.1029   0.1823
     5.5652   5.8406   5.8480   5.9140   6.0242   6.1652   6.8625   6.9173
     7.0733   7.2132   7.6516   7.8754   7.9012   8.1740

          k =-1.0426 0.0003 0.0003 ( 16510 PWs)   bands (ev):

   -76.7615 -76.7607 -76.7255 -72.7266 -39.8444 -39.8021 -39.8010 -38.6599
   -38.6594 -38.6586 -38.6435 -38.6423 -38.6370 -38.6368 -38.5751 -38.5725
   -33.8936 -33.8928 -33.8828 -33.8818 -33.8799 -33.8793 -33.8789 -33.8749
   -33.8738 -33.8729 -33.8690 -33.8678 -33.8641 -33.8615 -33.8608 -33.8606
   -33.8597 -33.8512 -33.8215 -33.8113 -33.8084  -5.2502  -4.9911  -4.7579
    -1.9273  -1.8580  -1.8385  -1.5026  -1.4626  -1.4154  -1.2692  -1.2578
    -1.2211  -1.1801  -1.0833  -0.8869  -0.7845  -0.6778  -0.6672  -0.6212
    -0.5022  -0.3079  -0.2910  -0.2171  -0.1631  -0.0404   0.0412   0.1312
     5.1800   5.5806   5.6639   6.0588   6.5611   6.7712   6.7978   7.0644
     7.1331   7.1368   7.2959   7.6658   7.6731   7.7743

          k =-1.0423 0.0002-0.8128 ( 16498 PWs)   bands (ev):

   -76.7615 -76.7607 -76.7255 -72.7266 -39.8444 -39.8021 -39.8010 -38.6598
   -38.6593 -38.6585 -38.6434 -38.6421 -38.6372 -38.6370 -38.5750 -38.5726
   -33.8936 -33.8928 -33.8827 -33.8817 -33.8799 -33.8793 -33.8789 -33.8749
   -33.8738 -33.8728 -33.8689 -33.8678 -33.8640 -33.8616 -33.8609 -33.8606
   -33.8597 -33.8511 -33.8215 -33.8114 -33.8084  -4.8892  -4.8202  -4.7577
    -2.3312  -1.9297  -1.7902  -1.6901  -1.5182  -1.4865  -1.3921  -1.3434
    -1.2825  -1.2276  -1.1957  -0.9672  -0.9136  -0.7743  -0.7547  -0.6716
    -0.4496  -0.3907  -0.2497   0.0137   0.0305   0.0676   0.1308   0.2370
     5.5927   5.7061   5.8006   6.0499   6.0743   6.4146   6.8367   7.0331
     7.0785   7.3517   7.3599   7.6028   7.8992   8.1051

     the Fermi energy is     5.3755 ev

!    total energy              =   -4360.79294456 Ry
     Harris-Foulkes estimate   =   -4360.79294457 Ry
     estimated scf accuracy    <          3.0E-09 Ry

     The total energy is the sum of the following terms:

     one-electron contribution =   -3258.57509356 Ry
     hartree contribution      =    1630.46994379 Ry
     xc contribution           =    -317.63262821 Ry
     ewald contribution        =    -766.26652350 Ry
     one-center paw contrib.   =   -1648.79077086 Ry
     smearing contrib. (-TS)   =       0.00212778 Ry

     convergence has been achieved in  13 iterations

     Forces acting on atoms (cartesian axes, Ry/au):

     atom    1 type  2   force =    -0.00036885    0.00065781    0.00000215
     atom    2 type  3   force =    -0.00065349   -0.00014632   -0.00000776
     atom    3 type  2   force =    -0.00035123   -0.00062934    0.00001479
     atom    4 type  2   force =     0.00072561   -0.00070499   -0.00002734
     atom    5 type  2   force =    -0.00051375   -0.00000159   -0.00001751
     atom    6 type  2   force =     0.00079698    0.00071109   -0.00000422
     atom    7 type  4   force =    -0.00006983    0.00050761   -0.00004307
     atom    8 type  4   force =     0.00001841   -0.00060105   -0.00005790
     atom    9 type  4   force =    -0.00068041   -0.00001103   -0.00001830
     atom   10 type  1   force =    -0.00016991    0.00009971   -0.00094379
     atom   11 type  1   force =    -0.00014513    0.00054942    0.00028368
     atom   12 type  1   force =     0.00134509    0.00025162   -0.00000838
     atom   13 type  1   force =     0.00136081   -0.00018836    0.00004820
     atom   14 type  1   force =     0.00134433    0.00024456    0.00001849
     atom   15 type  1   force =    -0.00025402    0.00027393    0.00114946
     atom   16 type  1   force =    -0.00005825    0.00069868   -0.00045462
     atom   17 type  1   force =    -0.00029405   -0.00026656   -0.00108934
     atom   18 type  1   force =    -0.00000724   -0.00070629    0.00039803
     atom   19 type  1   force =    -0.00132955    0.00037827    0.00000327
     atom   20 type  1   force =    -0.00084190   -0.00006957    0.00001721
     atom   21 type  1   force =    -0.00133800   -0.00059854    0.00000028
     atom   22 type  1   force =     0.00029856   -0.00021391   -0.00126104
     atom   23 type  1   force =    -0.00173183   -0.00002015    0.00134261
     atom   24 type  1   force =     0.00032455    0.00042548    0.00126019
     atom   25 type  1   force =     0.00034334    0.00046872   -0.00129812
     atom   26 type  1   force =    -0.00165767   -0.00001083   -0.00129531
     atom   27 type  1   force =     0.00025476   -0.00028194    0.00134569
     atom   28 type  1   force =     0.00104187    0.00006008   -0.00000358
     atom   29 type  1   force =    -0.00126730   -0.00141997    0.00002356
     atom   30 type  1   force =     0.00153901    0.00139351    0.00001878
     atom   31 type  1   force =     0.00153604   -0.00147553   -0.00001482
     atom   32 type  1   force =    -0.00127528    0.00140711   -0.00001211
     atom   33 type  1   force =     0.00102530   -0.00008675    0.00000586
     atom   34 type  1   force =     0.00148062   -0.00016702   -0.00014670
     atom   35 type  1   force =    -0.00022328   -0.00009587    0.00091373
     atom   36 type  1   force =    -0.00020431   -0.00043200   -0.00014207

     Total force =     0.007705     Total SCF correction =     0.000307


     Computing stress (Cartesian axis) and pressure

          total   stress  (Ry/bohr**3)                   (kbar)     P=   -1.21
  -0.00000503  -0.00000002   0.00000031         -0.74     -0.00      0.05
  -0.00000002  -0.00000422  -0.00000058         -0.00     -0.62     -0.09
   0.00000031  -0.00000058  -0.00001547          0.05     -0.09     -2.28


     number of scf cycles    =  30
     number of bfgs steps    =  29

     enthalpy old            =   -4360.7928254811 Ry
     enthalpy new            =   -4360.7929445639 Ry

     CASE: enthalpy_new < enthalpy_old

     new trust radius        =       0.0151333684 bohr
     new conv_thr            =       0.0000000119 Ry

     new unit-cell volume =   2711.19645 a.u.^3 (   401.75786 Ang^3 )
     density =      0.14879 g/cm^3

CELL_PARAMETERS (angstrom)
   4.417602466  -8.026392173   0.001368017
   4.421226539   8.029004405   0.001009300
   0.001253369   0.000452703   5.662114675

ATOMIC_POSITIONS (angstrom)
K        1.037631643   2.070614531   2.831937769
Mg       6.513954448  -0.000869355   2.828250823
K        1.035325114  -2.070240331   2.831542212
K        2.662560765   4.765853707   0.000189922
K        3.648133757   0.001348024   0.000707666
K        2.659586024  -4.761645166   0.000130603
Re       4.564358360  -2.470735181   2.831773331
Re       4.566687673   2.473405121   2.832160993
Re      -0.234417950   0.000454165   0.001272856
H        4.958555203  -3.605042706   4.044777224
H        5.328021338  -1.485784008   4.031439653
H        3.438211700  -2.345260602   4.109509435
H        3.440381394   2.347771510   1.555217579
H        3.438315551  -2.345914105   1.554416247
H        4.958793952  -3.607461726   1.618108972
H        5.326903247  -1.487185524   1.632066269
H        4.960919838   3.608976484   4.045687850
H        5.330071205   1.489091517   4.030908345
H        0.554047148  -1.497228725   0.000717190
H        6.870451910   0.001698005   0.004108503
H        0.557909958   1.496541384   0.000595142
H        3.568754434  -7.041599203   1.291193686
H        1.022656178   0.000357830   4.516510944
H        3.570292777   7.049599680   4.372400238
H        3.570132939   7.048674152   1.294792105
H        1.021886587   0.000213108   1.147065465
H        3.569481128  -7.043714934   4.375781682
H        3.460539962   3.747548049   2.832336966
H        6.218857438   2.790790323   2.831931010
H        3.789109617   0.986480895   2.832238987
H        3.786253264  -0.982797746   2.832095907
H        6.216915077  -2.787521056   2.832090941
H        3.458682933  -3.743964857   2.831970475
H        3.440327891   2.348129402   4.109387307
H        4.960065426   3.607949799   1.619880075
H        5.330238196   1.487218222   1.631130672



     Writing output data file K5MgReH93.save
     NEW-OLD atomic charge density approx. for the potential
     extrapolated charge  129.07260, renormalised to  129.00000

     total cpu time spent up to now is    32063.0 secs

     Self-consistent Calculation

     iteration #  1     ecut=    50.00 Ry     beta=0.70
     Davidson diagonalization with overlap
     ethr =  1.00E-06,  avg # of iterations =  4.8

     total cpu time spent up to now is    32114.6 secs

     total energy              =   -4360.78670840 Ry
     Harris-Foulkes estimate   =   -4359.05488755 Ry
     estimated scf accuracy    <       0.00559808 Ry

     iteration #  2     ecut=    50.00 Ry     beta=0.70
     Davidson diagonalization with overlap
     ethr =  4.34E-06,  avg # of iterations =  4.4

     total cpu time spent up to now is    32160.5 secs

     total energy              =   -4360.78779587 Ry
     Harris-Foulkes estimate   =   -4360.80601221 Ry
     estimated scf accuracy    <       0.06733819 Ry

     iteration #  3     ecut=    50.00 Ry     beta=0.70
     Davidson diagonalization with overlap
     ethr =  4.34E-06,  avg # of iterations =  4.1

     total cpu time spent up to now is    32199.1 secs

     total energy              =   -4360.79337415 Ry
     Harris-Foulkes estimate   =   -4360.79383445 Ry
     estimated scf accuracy    <       0.00375195 Ry

     iteration #  4     ecut=    50.00 Ry     beta=0.70
     Davidson diagonalization with overlap
     ethr =  2.91E-06,  avg # of iterations =  1.0

     total cpu time spent up to now is    32228.0 secs

     total energy              =   -4360.79304510 Ry
     Harris-Foulkes estimate   =   -4360.79345957 Ry
     estimated scf accuracy    <       0.00198198 Ry

     iteration #  5     ecut=    50.00 Ry     beta=0.70
     Davidson diagonalization with overlap
     ethr =  1.54E-06,  avg # of iterations =  2.0

     total cpu time spent up to now is    32257.5 secs

     total energy              =   -4360.79305124 Ry
     Harris-Foulkes estimate   =   -4360.79315979 Ry
     estimated scf accuracy    <       0.00037485 Ry

     iteration #  6     ecut=    50.00 Ry     beta=0.70
     Davidson diagonalization with overlap
     ethr =  2.91E-07,  avg # of iterations =  3.0

     total cpu time spent up to now is    32290.3 secs

     total energy              =   -4360.79309106 Ry
     Harris-Foulkes estimate   =   -4360.79309947 Ry
     estimated scf accuracy    <       0.00001660 Ry

     iteration #  7     ecut=    50.00 Ry     beta=0.70
     Davidson diagonalization with overlap
     ethr =  1.29E-08,  avg # of iterations =  3.0

     total cpu time spent up to now is    32328.5 secs

     total energy              =   -4360.79309736 Ry
     Harris-Foulkes estimate   =   -4360.79309924 Ry
     estimated scf accuracy    <       0.00000650 Ry

     iteration #  8     ecut=    50.00 Ry     beta=0.70
     Davidson diagonalization with overlap
     ethr =  5.04E-09,  avg # of iterations =  2.0

     total cpu time spent up to now is    32359.5 secs

     total energy              =   -4360.79309788 Ry
     Harris-Foulkes estimate   =   -4360.79309802 Ry
     estimated scf accuracy    <       0.00000030 Ry

     iteration #  9     ecut=    50.00 Ry     beta=0.70
     Davidson diagonalization with overlap
     ethr =  2.32E-10,  avg # of iterations =  3.0

     total cpu time spent up to now is    32396.0 secs

     total energy              =   -4360.79309797 Ry
     Harris-Foulkes estimate   =   -4360.79309799 Ry
     estimated scf accuracy    <       0.00000004 Ry

     iteration # 10     ecut=    50.00 Ry     beta=0.70
     Davidson diagonalization with overlap
     ethr =  3.05E-11,  avg # of iterations =  2.0

     total cpu time spent up to now is    32428.1 secs

     End of self-consistent calculation

          k = 0.0000 0.0000 0.0000 ( 16447 PWs)   bands (ev):

   -76.7602 -76.7600 -76.7305 -72.7351 -39.8526 -39.8106 -39.8095 -38.6642
   -38.6584 -38.6579 -38.6421 -38.6412 -38.6368 -38.6363 -38.5799 -38.5776
   -33.8924 -33.8921 -33.8845 -33.8815 -33.8814 -33.8791 -33.8787 -33.8783
   -33.8733 -33.8732 -33.8690 -33.8675 -33.8674 -33.8605 -33.8602 -33.8597
   -33.8595 -33.8561 -33.8265 -33.8163 -33.8134  -5.4917  -4.7609  -4.6305
    -1.9808  -1.9302  -1.8592  -1.8165  -1.5022  -1.4624  -1.2891  -1.2524
    -1.2004  -1.1795  -1.0494  -0.9493  -0.8376  -0.7154  -0.5352  -0.5068
    -0.3268  -0.3018  -0.2686  -0.2259  -0.1816  -0.0521   0.1340   0.2076
     5.1394   5.5088   6.0696   6.2131   6.2950   6.4573   6.4955   6.7670
     6.9958   7.3922   7.3983   7.4908   7.4994   7.6035

          k = 0.0002-0.0000-0.8136 ( 16526 PWs)   bands (ev):

   -76.7602 -76.7600 -76.7305 -72.7351 -39.8526 -39.8106 -39.8095 -38.6643
   -38.6585 -38.6579 -38.6422 -38.6413 -38.6372 -38.6366 -38.5799 -38.5779
   -33.8925 -33.8922 -33.8845 -33.8815 -33.8813 -33.8791 -33.8788 -33.8784
   -33.8734 -33.8732 -33.8691 -33.8676 -33.8675 -33.8607 -33.8603 -33.8598
   -33.8595 -33.8561 -33.8265 -33.8164 -33.8135  -5.1165  -4.7726  -4.5285
    -2.2916  -1.9644  -1.8109  -1.7691  -1.6256  -1.4482  -1.4417  -1.4368
    -1.3581  -1.1866  -1.0324  -1.0226  -0.9545  -0.8162  -0.6833  -0.5657
    -0.4618  -0.2798  -0.2533   0.0394   0.0609   0.0634   0.0715   0.1623
     5.6832   5.7139   5.7992   5.9247   6.3176   6.6382   6.9221   7.0294
     7.1808   7.2599   7.5571   7.7549   7.9091   8.1649

          k =-0.5211-0.2868 0.0001 ( 16490 PWs)   bands (ev):

   -76.7602 -76.7600 -76.7305 -72.7351 -39.8526 -39.8106 -39.8095 -38.6643
   -38.6585 -38.6579 -38.6421 -38.6412 -38.6370 -38.6365 -38.5799 -38.5777
   -33.8924 -33.8921 -33.8845 -33.8815 -33.8814 -33.8792 -33.8787 -33.8784
   -33.8733 -33.8732 -33.8690 -33.8675 -33.8675 -33.8606 -33.8602 -33.8597
   -33.8595 -33.8561 -33.8265 -33.8163 -33.8135  -5.2654  -4.9513  -4.7811
    -2.0019  -1.8480  -1.7261  -1.5071  -1.4572  -1.4400  -1.2713  -1.2652
    -1.2585  -1.1957  -1.1366  -0.9972  -0.8876  -0.7389  -0.6152  -0.4334
    -0.3908  -0.3483  -0.3128  -0.2882  -0.1235  -0.0467   0.0939   0.1374
     5.2426   5.4698   5.6652   5.9325   6.6159   6.7299   6.9768   7.0278
     7.0838   7.1438   7.2500   7.7829   7.8434   7.8493

          k =-0.5209-0.2868-0.8135 ( 16554 PWs)   bands (ev):

   -76.7602 -76.7600 -76.7305 -72.7351 -39.8526 -39.8106 -39.8095 -38.6643
   -38.6585 -38.6581 -38.6421 -38.6414 -38.6372 -38.6367 -38.5800 -38.5779
   -33.8924 -33.8922 -33.8845 -33.8816 -33.8814 -33.8792 -33.8788 -33.8784
   -33.8734 -33.8732 -33.8691 -33.8676 -33.8676 -33.8608 -33.8604 -33.8598
   -33.8595 -33.8561 -33.8265 -33.8165 -33.8136  -4.9985  -4.7585  -4.6766
    -2.3362  -1.9671  -1.8684  -1.6500  -1.5643  -1.5434  -1.4202  -1.3734
    -1.3281  -1.2903  -1.0777  -1.0289  -0.9204  -0.8412  -0.7428  -0.5890
    -0.4023  -0.2531  -0.1790   0.0256   0.0619   0.0698   0.0929   0.1873
     5.5647   5.8344   5.8474   5.9117   6.0234   6.1664   6.8611   6.9179
     7.0698   7.1986   7.6547   7.8682   7.9013   8.1654

          k =-0.5213 0.2870 0.0001 ( 16490 PWs)   bands (ev):

   -76.7602 -76.7600 -76.7305 -72.7351 -39.8526 -39.8106 -39.8095 -38.6642
   -38.6584 -38.6579 -38.6421 -38.6413 -38.6370 -38.6365 -38.5799 -38.5777
   -33.8924 -33.8921 -33.8845 -33.8816 -33.8814 -33.8791 -33.8788 -33.8784
   -33.8734 -33.8732 -33.8690 -33.8675 -33.8675 -33.8606 -33.8602 -33.8597
   -33.8595 -33.8561 -33.8265 -33.8163 -33.8135  -5.2654  -4.9508  -4.7816
    -2.0035  -1.8480  -1.7263  -1.5079  -1.4565  -1.4400  -1.2691  -1.2642
    -1.2597  -1.1957  -1.1365  -0.9985  -0.8854  -0.7378  -0.6151  -0.4337
    -0.3919  -0.3480  -0.3116  -0.2885  -0.1251  -0.0482   0.0936   0.1390
     5.2419   5.4712   5.6637   5.9314   6.6163   6.7314   6.9766   7.0270
     7.0812   7.1445   7.2521   7.7811   7.8458   7.8497

          k =-0.5211 0.2870-0.8135 ( 16536 PWs)   bands (ev):

   -76.7602 -76.7600 -76.7305 -72.7351 -39.8526 -39.8106 -39.8095 -38.6642
   -38.6585 -38.6579 -38.6422 -38.6412 -38.6372 -38.6367 -38.5799 -38.5779
   -33.8925 -33.8921 -33.8845 -33.8816 -33.8814 -33.8791 -33.8788 -33.8784
   -33.8734 -33.8732 -33.8691 -33.8676 -33.8675 -33.8608 -33.8604 -33.8597
   -33.8595 -33.8561 -33.8265 -33.8165 -33.8135  -4.9984  -4.7585  -4.6766
    -2.3363  -1.9674  -1.8689  -1.6490  -1.5641  -1.5433  -1.4226  -1.3734
    -1.3281  -1.2881  -1.0762  -1.0285  -0.9218  -0.8430  -0.7429  -0.5887
    -0.4016  -0.2526  -0.1793   0.0242   0.0594   0.0701   0.0957   0.1882
     5.5659   5.8355   5.8481   5.9093   6.0204   6.1670   6.8631   6.9176
     7.0685   7.2048   7.6457   7.8675   7.9074   8.1647

          k =-1.0424 0.0002 0.0002 ( 16510 PWs)   bands (ev):

   -76.7602 -76.7600 -76.7305 -72.7351 -39.8526 -39.8106 -39.8095 -38.6643
   -38.6585 -38.6580 -38.6421 -38.6413 -38.6371 -38.6366 -38.5799 -38.5778
   -33.8925 -33.8922 -33.8845 -33.8816 -33.8814 -33.8791 -33.8787 -33.8784
   -33.8733 -33.8732 -33.8691 -33.8675 -33.8675 -33.8606 -33.8602 -33.8597
   -33.8595 -33.8561 -33.8265 -33.8164 -33.8135  -5.2572  -4.9910  -4.7623
    -1.9301  -1.8651  -1.8302  -1.5099  -1.4641  -1.4204  -1.2679  -1.2617
    -1.2214  -1.1831  -1.0858  -0.8988  -0.7814  -0.6795  -0.6784  -0.6302
    -0.5029  -0.3052  -0.2890  -0.2243  -0.1716  -0.0413   0.0435   0.1400
     5.1810   5.5709   5.6651   6.0572   6.5702   6.7678   6.7885   7.0594
     7.1249   7.1336   7.3034   7.6628   7.6674   7.7648

          k =-1.0422 0.0002-0.8134 ( 16498 PWs)   bands (ev):

   -76.7602 -76.7600 -76.7305 -72.7351 -39.8526 -39.8106 -39.8095 -38.6641
   -38.6584 -38.6579 -38.6420 -38.6412 -38.6372 -38.6367 -38.5798 -38.5779
   -33.8925 -33.8922 -33.8845 -33.8815 -33.8813 -33.8792 -33.8787 -33.8784
   -33.8733 -33.8732 -33.8691 -33.8675 -33.8674 -33.8607 -33.8603 -33.8597
   -33.8595 -33.8560 -33.8265 -33.8164 -33.8135  -4.8907  -4.8190  -4.7655
    -2.3437  -1.9355  -1.7814  -1.6960  -1.5180  -1.4979  -1.3876  -1.3431
    -1.2917  -1.2311  -1.1994  -0.9573  -0.9150  -0.7718  -0.7598  -0.6713
    -0.4609  -0.4016  -0.2485   0.0119   0.0283   0.0607   0.1228   0.2486
     5.5918   5.7114   5.7909   6.0410   6.0820   6.4065   6.8393   7.0301
     7.0824   7.3496   7.3561   7.5955   7.8906   8.1025

     the Fermi energy is     5.3731 ev

!    total energy              =   -4360.79309798 Ry
     Harris-Foulkes estimate   =   -4360.79309798 Ry
     estimated scf accuracy    <          5.6E-09 Ry

     The total energy is the sum of the following terms:

     one-electron contribution =   -3260.08621421 Ry
     hartree contribution      =    1631.21868491 Ry
     xc contribution           =    -317.63306139 Ry
     ewald contribution        =    -765.50382310 Ry
     one-center paw contrib.   =   -1648.79072508 Ry
     smearing contrib. (-TS)   =       0.00204090 Ry

     convergence has been achieved in  10 iterations

     Forces acting on atoms (cartesian axes, Ry/au):

     atom    1 type  2   force =     0.00040121    0.00049419   -0.00000473
     atom    2 type  3   force =    -0.00095906   -0.00004147   -0.00001082
     atom    3 type  2   force =     0.00040574   -0.00049095    0.00002175
     atom    4 type  2   force =     0.00067314   -0.00067337   -0.00002664
     atom    5 type  2   force =    -0.00070468   -0.00000901   -0.00001711
     atom    6 type  2   force =     0.00072521    0.00067781    0.00000598
     atom    7 type  4   force =    -0.00035040    0.00017679    0.00001464
     atom    8 type  4   force =     0.00003006   -0.00038333   -0.00003501
     atom    9 type  4   force =    -0.00030831    0.00040938    0.00005865
     atom   10 type  1   force =     0.00032427   -0.00039561   -0.00014649
     atom   11 type  1   force =    -0.00017739    0.00058015    0.00032083
     atom   12 type  1   force =     0.00072493    0.00038458    0.00019486
     atom   13 type  1   force =     0.00050832   -0.00037868   -0.00040709
     atom   14 type  1   force =     0.00052646    0.00041199   -0.00039519
     atom   15 type  1   force =     0.00004107    0.00033226    0.00088206
     atom   16 type  1   force =     0.00014777    0.00101253   -0.00085009
     atom   17 type  1   force =     0.00011659   -0.00005443   -0.00052981
     atom   18 type  1   force =     0.00008271   -0.00089789    0.00060526
     atom   19 type  1   force =    -0.00122208    0.00061996    0.00002215
     atom   20 type  1   force =    -0.00199214   -0.00009040    0.00002031
     atom   21 type  1   force =    -0.00126319   -0.00096991   -0.00002495
     atom   22 type  1   force =     0.00042456   -0.00059025   -0.00148939
     atom   23 type  1   force =    -0.00142952   -0.00003282    0.00071913
     atom   24 type  1   force =     0.00039364    0.00061262    0.00132961
     atom   25 type  1   force =     0.00035860    0.00055070   -0.00129682
     atom   26 type  1   force =    -0.00122492   -0.00001017   -0.00055644
     atom   27 type  1   force =     0.00027222   -0.00037139    0.00130933
     atom   28 type  1   force =     0.00168396   -0.00143264   -0.00001969
     atom   29 type  1   force =    -0.00147744   -0.00112448    0.00001381
     atom   30 type  1   force =     0.00131347    0.00196477    0.00002921
     atom   31 type  1   force =     0.00160611   -0.00252651   -0.00004186
     atom   32 type  1   force =    -0.00160003    0.00118504   -0.00001120
     atom   33 type  1   force =     0.00135898    0.00107574    0.00001428
     atom   34 type  1   force =     0.00065897   -0.00036624    0.00026874
     atom   35 type  1   force =     0.00035843    0.00057272   -0.00011129
     atom   36 type  1   force =    -0.00042726   -0.00022167    0.00014404

     Total force =     0.008033     Total SCF correction =     0.000090


     Computing stress (Cartesian axis) and pressure

          total   stress  (Ry/bohr**3)                   (kbar)     P=   -1.30
  -0.00000444   0.00000105   0.00000083         -0.65      0.15      0.12
   0.00000105  -0.00001031  -0.00000251          0.15     -1.52     -0.37
   0.00000083  -0.00000251  -0.00001180          0.12     -0.37     -1.74


     number of scf cycles    =  31
     number of bfgs steps    =  30

     enthalpy old            =   -4360.7929445639 Ry
     enthalpy new            =   -4360.7930979762 Ry

     CASE: enthalpy_new < enthalpy_old

     new trust radius        =       0.0180430838 bohr
     new conv_thr            =       0.0000000153 Ry

     new unit-cell volume =   2711.15862 a.u.^3 (   401.75225 Ang^3 )
     density =      0.14880 g/cm^3

CELL_PARAMETERS (angstrom)
   4.417368560  -8.035076776   0.001159579
   4.420856977   8.037636674   0.001259125
   0.001282695   0.000577643   5.656321531

ATOMIC_POSITIONS (angstrom)
K        1.032493927   2.075799801   2.829197217
Mg       6.512201110  -0.001062161   2.825214752
K        1.030286878  -2.075228908   2.828608025
K        2.663560774   4.770478772   0.000257613
K        3.650632568   0.001375934   0.000665874
K        2.660791967  -4.766230633  -0.000021274
Re       4.566356015  -2.470647806   2.828822413
Re       4.568951727   2.473302065   2.829324433
Re      -0.240164171   0.000703557   0.001373911
H        4.960163666  -3.606147479   4.038612010
H        5.329597851  -1.485666335   4.028031376
H        3.443070391  -2.346438661   4.107333278
H        3.445349755   2.349143061   1.551843734
H        3.443225181  -2.347162647   1.550839895
H        4.960442911  -3.608946807   1.618091769
H        5.328259631  -1.487186186   1.629719449
H        4.962354163   3.610143989   4.039775519
H        5.331781883   1.488879328   4.027452102
H        0.544474899  -1.498774923   0.000691664
H        6.865556360   0.001281703   0.004247058
H        0.548779989   1.497851848   0.000642283
H        3.563991902  -7.049920818   1.290237250
H        1.018424576   0.000387560   4.514702270
H        3.565369425   7.058770074   4.367342687
H        3.565324546   7.057705919   1.294596160
H        1.017701631   0.000143069   1.143042185
H        3.564564116  -7.052293813   4.370914135
H        3.464552614   3.750390543   2.829520136
H        6.221286459   2.785969927   2.829196322
H        3.792291117   0.986823510   2.829425670
H        3.789170424  -0.982864505   2.829172033
H        6.219401390  -2.782658050   2.829137082
H        3.462870801  -3.746548914   2.829017899
H        3.445428991   2.349563801   4.107023983
H        4.961394821   3.608976517   1.620386638
H        5.332029042   1.486864970   1.628507714



     Writing output data file K5MgReH93.save
     NEW-OLD atomic charge density approx. for the potential
     extrapolated charge  128.99820, renormalised to  129.00000

     total cpu time spent up to now is    33040.5 secs

     Self-consistent Calculation

     iteration #  1     ecut=    50.00 Ry     beta=0.70
     Davidson diagonalization with overlap
     ethr =  1.00E-06,  avg # of iterations =  4.0

     total cpu time spent up to now is    33089.1 secs

     total energy              =   -4360.79312433 Ry
     Harris-Foulkes estimate   =   -4360.83021152 Ry
     estimated scf accuracy    <       0.00016910 Ry

     iteration #  2     ecut=    50.00 Ry     beta=0.70
     Davidson diagonalization with overlap
     ethr =  1.31E-07,  avg # of iterations =  3.9

     total cpu time spent up to now is    33128.9 secs

     total energy              =   -4360.79312262 Ry
     Harris-Foulkes estimate   =   -4360.79335146 Ry
     estimated scf accuracy    <       0.00065964 Ry

     iteration #  3     ecut=    50.00 Ry     beta=0.70
     Davidson diagonalization with overlap
     ethr =  1.31E-07,  avg # of iterations =  3.4

     total cpu time spent up to now is    33164.2 secs

     total energy              =   -4360.79322191 Ry
     Harris-Foulkes estimate   =   -4360.79324120 Ry
     estimated scf accuracy    <       0.00003715 Ry

     iteration #  4     ecut=    50.00 Ry     beta=0.70
     Davidson diagonalization with overlap
     ethr =  2.88E-08,  avg # of iterations =  3.6

     total cpu time spent up to now is    33200.1 secs

     total energy              =   -4360.79322689 Ry
     Harris-Foulkes estimate   =   -4360.79324067 Ry
     estimated scf accuracy    <       0.00004190 Ry

     iteration #  5     ecut=    50.00 Ry     beta=0.70
     Davidson diagonalization with overlap
     ethr =  2.88E-08,  avg # of iterations =  2.6

     total cpu time spent up to now is    33232.3 secs

     total energy              =   -4360.79323291 Ry
     Harris-Foulkes estimate   =   -4360.79323374 Ry
     estimated scf accuracy    <       0.00000159 Ry

     iteration #  6     ecut=    50.00 Ry     beta=0.70
     Davidson diagonalization with overlap
     ethr =  1.23E-09,  avg # of iterations =  3.1

     total cpu time spent up to now is    33268.4 secs

     total energy              =   -4360.79323329 Ry
     Harris-Foulkes estimate   =   -4360.79323364 Ry
     estimated scf accuracy    <       0.00000094 Ry

     iteration #  7     ecut=    50.00 Ry     beta=0.70
     Davidson diagonalization with overlap
     ethr =  7.28E-10,  avg # of iterations =  2.5

     total cpu time spent up to now is    33300.8 secs

     total energy              =   -4360.79323345 Ry
     Harris-Foulkes estimate   =   -4360.79323346 Ry
     estimated scf accuracy    <       0.00000002 Ry

     iteration #  8     ecut=    50.00 Ry     beta=0.70
     Davidson diagonalization with overlap
     ethr =  1.91E-11,  avg # of iterations =  3.1

     total cpu time spent up to now is    33337.5 secs

     End of self-consistent calculation

          k = 0.0000 0.0000 0.0000 ( 16447 PWs)   bands (ev):

   -76.7539 -76.7537 -76.7258 -72.7393 -39.8565 -39.8149 -39.8138 -38.6615
   -38.6531 -38.6528 -38.6372 -38.6358 -38.6316 -38.6314 -38.5762 -38.5744
   -33.8848 -33.8847 -33.8786 -33.8742 -33.8740 -33.8724 -33.8717 -33.8717
   -33.8657 -33.8655 -33.8627 -33.8603 -33.8599 -33.8530 -33.8529 -33.8526
   -33.8524 -33.8498 -33.8205 -33.8102 -33.8075  -5.4961  -4.7657  -4.6346
    -1.9836  -1.9299  -1.8654  -1.8112  -1.5083  -1.4650  -1.2871  -1.2514
    -1.1983  -1.1863  -1.0526  -0.9479  -0.8519  -0.7100  -0.5371  -0.5137
    -0.3237  -0.2950  -0.2633  -0.2284  -0.1831  -0.0544   0.1421   0.2029
     5.1484   5.5113   6.0693   6.2135   6.2978   6.4645   6.5077   6.7712
     7.0038   7.3912   7.4085   7.4989   7.5046   7.6012

          k = 0.0002 0.0000-0.8144 ( 16526 PWs)   bands (ev):

   -76.7539 -76.7537 -76.7258 -72.7393 -39.8565 -39.8149 -39.8138 -38.6617
   -38.6531 -38.6529 -38.6373 -38.6359 -38.6319 -38.6317 -38.5762 -38.5747
   -33.8850 -33.8848 -33.8786 -33.8742 -33.8739 -33.8725 -33.8717 -33.8717
   -33.8657 -33.8655 -33.8628 -33.8604 -33.8600 -33.8532 -33.8531 -33.8526
   -33.8524 -33.8499 -33.8205 -33.8103 -33.8076  -5.1172  -4.7790  -4.5318
    -2.3004  -1.9710  -1.8081  -1.7692  -1.6300  -1.4466  -1.4422  -1.4366
    -1.3587  -1.1831  -1.0268  -1.0221  -0.9600  -0.8169  -0.6889  -0.5751
    -0.4698  -0.2809  -0.2468   0.0433   0.0589   0.0680   0.0706   0.1619
     5.6884   5.7172   5.8134   5.9272   6.3170   6.6386   6.9266   7.0353
     7.1844   7.2728   7.5650   7.7487   7.9212   8.1651

          k =-0.5212-0.2865 0.0001 ( 16490 PWs)   bands (ev):

   -76.7539 -76.7537 -76.7258 -72.7393 -39.8565 -39.8149 -39.8138 -38.6616
   -38.6531 -38.6528 -38.6373 -38.6358 -38.6318 -38.6316 -38.5762 -38.5746
   -33.8849 -33.8848 -33.8786 -33.8742 -33.8740 -33.8725 -33.8717 -33.8717
   -33.8657 -33.8655 -33.8628 -33.8604 -33.8600 -33.8530 -33.8530 -33.8526
   -33.8524 -33.8498 -33.8205 -33.8102 -33.8076  -5.2726  -4.9534  -4.7841
    -2.0014  -1.8544  -1.7299  -1.5129  -1.4593  -1.4347  -1.2763  -1.2655
    -1.2564  -1.2004  -1.1341  -0.9993  -0.8915  -0.7466  -0.6111  -0.4331
    -0.3946  -0.3410  -0.3143  -0.2826  -0.1275  -0.0493   0.0963   0.1387
     5.2511   5.4711   5.6728   5.9400   6.6265   6.7297   6.9733   7.0251
     7.0923   7.1453   7.2614   7.7837   7.8501   7.8569

          k =-0.5209-0.2865-0.8143 ( 16554 PWs)   bands (ev):

   -76.7539 -76.7537 -76.7258 -72.7393 -39.8565 -39.8149 -39.8138 -38.6616
   -38.6531 -38.6530 -38.6372 -38.6360 -38.6320 -38.6318 -38.5763 -38.5748
   -33.8850 -33.8848 -33.8787 -33.8743 -33.8741 -33.8725 -33.8718 -33.8717
   -33.8657 -33.8655 -33.8628 -33.8604 -33.8600 -33.8532 -33.8532 -33.8526
   -33.8524 -33.8499 -33.8205 -33.8104 -33.8076  -5.0005  -4.7650  -4.6778
    -2.3452  -1.9732  -1.8659  -1.6540  -1.5637  -1.5517  -1.4196  -1.3653
    -1.3243  -1.2910  -1.0759  -1.0256  -0.9234  -0.8485  -0.7454  -0.5959
    -0.4082  -0.2525  -0.1773   0.0238   0.0666   0.0695   0.0905   0.1917
     5.5695   5.8390   5.8580   5.9120   6.0291   6.1730   6.8700   6.9219
     7.0761   7.1987   7.6590   7.8684   7.9161   8.1619

          k =-0.5213 0.2867 0.0001 ( 16490 PWs)   bands (ev):

   -76.7539 -76.7537 -76.7258 -72.7393 -39.8565 -39.8149 -39.8138 -38.6616
   -38.6531 -38.6528 -38.6372 -38.6359 -38.6318 -38.6316 -38.5762 -38.5745
   -33.8849 -33.8848 -33.8786 -33.8742 -33.8740 -33.8725 -33.8717 -33.8717
   -33.8657 -33.8655 -33.8628 -33.8604 -33.8599 -33.8531 -33.8530 -33.8526
   -33.8524 -33.8498 -33.8205 -33.8102 -33.8076  -5.2726  -4.9530  -4.7844
    -2.0028  -1.8544  -1.7301  -1.5135  -1.4588  -1.4348  -1.2740  -1.2645
    -1.2576  -1.2003  -1.1343  -1.0009  -0.8892  -0.7457  -0.6111  -0.4338
    -0.3961  -0.3407  -0.3120  -0.2830  -0.1288  -0.0511   0.0956   0.1409
     5.2502   5.4728   5.6713   5.9382   6.6271   6.7321   6.9734   7.0240
     7.0892   7.1468   7.2641   7.7807   7.8513   7.8587

          k =-0.5211 0.2867-0.8144 ( 16536 PWs)   bands (ev):

   -76.7539 -76.7537 -76.7258 -72.7393 -39.8565 -39.8149 -39.8138 -38.6616
   -38.6532 -38.6528 -38.6373 -38.6358 -38.6320 -38.6318 -38.5763 -38.5748
   -33.8849 -33.8848 -33.8787 -33.8743 -33.8740 -33.8725 -33.8717 -33.8717
   -33.8657 -33.8655 -33.8628 -33.8604 -33.8600 -33.8532 -33.8532 -33.8526
   -33.8524 -33.8498 -33.8205 -33.8104 -33.8076  -5.0004  -4.7650  -4.6779
    -2.3452  -1.9735  -1.8661  -1.6526  -1.5637  -1.5521  -1.4222  -1.3653
    -1.3238  -1.2886  -1.0746  -1.0255  -0.9247  -0.8503  -0.7458  -0.5958
    -0.4073  -0.2524  -0.1770   0.0219   0.0627   0.0703   0.0946   0.1926
     5.5706   5.8385   5.8602   5.9098   6.0261   6.1731   6.8725   6.9218
     7.0742   7.2062   7.6491   7.8686   7.9221   8.1610

          k =-1.0425 0.0002 0.0002 ( 16510 PWs)   bands (ev):

   -76.7539 -76.7537 -76.7258 -72.7393 -39.8565 -39.8149 -39.8138 -38.6616
   -38.6531 -38.6529 -38.6373 -38.6359 -38.6318 -38.6316 -38.5763 -38.5746
   -33.8850 -33.8849 -33.8786 -33.8743 -33.8740 -33.8725 -33.8717 -33.8717
   -33.8657 -33.8655 -33.8629 -33.8604 -33.8599 -33.8531 -33.8530 -33.8526
   -33.8524 -33.8498 -33.8204 -33.8102 -33.8076  -5.2649  -4.9918  -4.7665
    -1.9309  -1.8710  -1.8235  -1.5158  -1.4656  -1.4235  -1.2656  -1.2643
    -1.2195  -1.1848  -1.0899  -0.9087  -0.7808  -0.6867  -0.6755  -0.6372
    -0.5030  -0.2994  -0.2820  -0.2299  -0.1795  -0.0431   0.0509   0.1497
     5.1901   5.5706   5.6744   6.0629   6.5826   6.7703   6.7850   7.0640
     7.1220   7.1425   7.3157   7.6680   7.6720   7.7628

          k =-1.0422 0.0002-0.8142 ( 16498 PWs)   bands (ev):

   -76.7539 -76.7537 -76.7258 -72.7393 -39.8565 -39.8149 -39.8138 -38.6614
   -38.6530 -38.6528 -38.6372 -38.6358 -38.6320 -38.6318 -38.5762 -38.5748
   -33.8849 -33.8848 -33.8786 -33.8742 -33.8739 -33.8725 -33.8717 -33.8717
   -33.8657 -33.8655 -33.8628 -33.8603 -33.8599 -33.8532 -33.8531 -33.8526
   -33.8524 -33.8498 -33.8205 -33.8103 -33.8075  -4.8942  -4.8189  -4.7721
    -2.3530  -1.9412  -1.7739  -1.6995  -1.5167  -1.5092  -1.3814  -1.3417
    -1.2977  -1.2311  -1.2009  -0.9526  -0.9135  -0.7686  -0.7622  -0.6719
    -0.4690  -0.4110  -0.2462   0.0164   0.0259   0.0548   0.1197   0.2590
     5.5953   5.7250   5.7938   6.0383   6.0933   6.4055   6.8461   7.0380
     7.0975   7.3553   7.3599   7.5962   7.8920   8.1045

     the Fermi energy is     5.3776 ev

!    total energy              =   -4360.79323345 Ry
     Harris-Foulkes estimate   =   -4360.79323346 Ry
     estimated scf accuracy    <          2.9E-09 Ry

     The total energy is the sum of the following terms:

     one-electron contribution =   -3261.77293947 Ry
     hartree contribution      =    1632.07795410 Ry
     xc contribution           =    -317.64261051 Ry
     ewald contribution        =    -764.66750020 Ry
     one-center paw contrib.   =   -1648.79003388 Ry
     smearing contrib. (-TS)   =       0.00189652 Ry

     convergence has been achieved in   8 iterations

     Forces acting on atoms (cartesian axes, Ry/au):

     atom    1 type  2   force =     0.00103882    0.00026224   -0.00000773
     atom    2 type  3   force =    -0.00087385   -0.00012694   -0.00002574
     atom    3 type  2   force =     0.00103092   -0.00027788    0.00002351
     atom    4 type  2   force =     0.00063896   -0.00069712   -0.00002390
     atom    5 type  2   force =    -0.00094671   -0.00001114   -0.00001504
     atom    6 type  2   force =     0.00066985    0.00073949    0.00000995
     atom    7 type  4   force =     0.00015350   -0.00031862   -0.00010379
     atom    8 type  4   force =     0.00011801    0.00015640    0.00001994
     atom    9 type  4   force =    -0.00031907   -0.00000327    0.00003602
     atom   10 type  1   force =     0.00073241   -0.00082518    0.00065188
     atom   11 type  1   force =    -0.00019090    0.00066391    0.00053366
     atom   12 type  1   force =    -0.00001099    0.00049482    0.00061468
     atom   13 type  1   force =    -0.00024489   -0.00051161   -0.00086237
     atom   14 type  1   force =    -0.00026516    0.00052818   -0.00087443
     atom   15 type  1   force =     0.00039133    0.00007481    0.00024853
     atom   16 type  1   force =     0.00020473    0.00116413   -0.00115615
     atom   17 type  1   force =     0.00054867    0.00034122    0.00024448
     atom   18 type  1   force =     0.00011393   -0.00100327    0.00084693
     atom   19 type  1   force =    -0.00088416    0.00053400    0.00002799
     atom   20 type  1   force =    -0.00275520   -0.00009446    0.00003149
     atom   21 type  1   force =    -0.00081781   -0.00069514   -0.00002770
     atom   22 type  1   force =     0.00027257   -0.00040189   -0.00108999
     atom   23 type  1   force =    -0.00082600   -0.00000334   -0.00018164
     atom   24 type  1   force =     0.00023811    0.00045943    0.00091904
     atom   25 type  1   force =     0.00017728    0.00035832   -0.00083709
     atom   26 type  1   force =    -0.00057345    0.00002648    0.00039121
     atom   27 type  1   force =     0.00009695   -0.00008568    0.00083390
     atom   28 type  1   force =     0.00161200   -0.00205968   -0.00001684
     atom   29 type  1   force =    -0.00106206   -0.00073648    0.00000346
     atom   30 type  1   force =     0.00069578    0.00164226    0.00002723
     atom   31 type  1   force =     0.00105580   -0.00233087   -0.00004241
     atom   32 type  1   force =    -0.00134081    0.00086250   -0.00001505
     atom   33 type  1   force =     0.00108887    0.00152414    0.00001715
     atom   34 type  1   force =    -0.00013314   -0.00050551    0.00076671
     atom   35 type  1   force =     0.00083914    0.00108617   -0.00100321
     atom   36 type  1   force =    -0.00047340   -0.00023042    0.00003529

     Total force =     0.007743     Total SCF correction =     0.000628


     Computing stress (Cartesian axis) and pressure

          total   stress  (Ry/bohr**3)                   (kbar)     P=   -0.59
   0.00000136   0.00000163   0.00000091          0.20      0.24      0.13
   0.00000163  -0.00000953  -0.00000303          0.24     -1.40     -0.45
   0.00000091  -0.00000303  -0.00000383          0.13     -0.45     -0.56


     number of scf cycles    =  32
     number of bfgs steps    =  31

     enthalpy old            =   -4360.7930979762 Ry
     enthalpy new            =   -4360.7932334536 Ry

     CASE: enthalpy_new < enthalpy_old

     new trust radius        =       0.0162647265 bohr
     new conv_thr            =       0.0000000135 Ry

     new unit-cell volume =   2709.93543 a.u.^3 (   401.57099 Ang^3 )
     density =      0.14886 g/cm^3

CELL_PARAMETERS (angstrom)
   4.416521603  -8.039948941   0.001783321
   4.420646617   8.042883902   0.000904355
   0.001453894   0.000206387   5.650888416

ATOMIC_POSITIONS (angstrom)
K        1.029088493   2.079368586   2.826452115
Mg       6.512015913  -0.001289294   2.822520548
K        1.026754651  -2.079028126   2.826087037
K        2.665087168   4.772005068  -0.000033489
K        3.652223834   0.001560043   0.000717410
K        2.662063837  -4.767421122   0.000330233
Re       4.567909398  -2.470070727   2.826265530
Re       4.570799535   2.472676151   2.826591948
Re      -0.245624732   0.000690547   0.001467597
H        4.961867244  -3.607060613   4.033792447
H        5.330226811  -1.484515215   4.025103261
H        3.446599084  -2.346556307   4.105847426
H        3.449003818   2.349269443   1.548143951
H        3.446580467  -2.347115492   1.547351259
H        4.961900307  -3.609397835   1.618607140
H        5.328893697  -1.485625968   1.627386650
H        4.964131646   3.610592402   4.034308418
H        5.332873366   1.487262212   4.024422545
H        0.535754537  -1.499280924   0.000825707
H        6.858389209   0.001206667   0.004579416
H        0.540658203   1.498193554   0.000560356
H        3.559607260  -7.054790339   1.289315218
H        1.014283414   0.000078731   4.512688491
H        3.561565992   7.064307925   4.362732211
H        3.561493607   7.063319329   1.293287863
H        1.013670214   0.000069296   1.139783772
H        3.560016264  -7.057435293   4.367606224
H        3.468881406   3.750349126   2.826638611
H        6.222798806   2.780632565   2.826538784
H        3.794954448   0.987827985   2.826808331
H        3.791727262  -0.984214671   2.826593022
H        6.220488179  -2.777102353   2.826759531
H        3.466630012  -3.746824253   2.826673696
H        3.449315991   2.349541328   4.105075223
H        4.963208052   3.609975729   1.619917155
H        5.332754583   1.485821885   1.626454052



     Writing output data file K5MgReH93.save
     NEW-OLD atomic charge density approx. for the potential
     extrapolated charge  128.94182, renormalised to  129.00000

     total cpu time spent up to now is    33949.6 secs

     Self-consistent Calculation

     iteration #  1     ecut=    50.00 Ry     beta=0.70
     Davidson diagonalization with overlap
     ethr =  1.00E-06,  avg # of iterations =  4.1

     total cpu time spent up to now is    33999.9 secs

     total energy              =   -4360.78805389 Ry
     Harris-Foulkes estimate   =   -4362.17952351 Ry
     estimated scf accuracy    <       0.00492332 Ry

     iteration #  2     ecut=    50.00 Ry     beta=0.70
     Davidson diagonalization with overlap
     ethr =  3.82E-06,  avg # of iterations =  5.2

     total cpu time spent up to now is    34047.4 secs

     total energy              =   -4360.78871459 Ry
     Harris-Foulkes estimate   =   -4360.80376196 Ry
     estimated scf accuracy    <       0.05425232 Ry

     iteration #  3     ecut=    50.00 Ry     beta=0.70
     Davidson diagonalization with overlap
     ethr =  3.82E-06,  avg # of iterations =  4.5

     total cpu time spent up to now is    34087.5 secs

     total energy              =   -4360.79355779 Ry
     Harris-Foulkes estimate   =   -4360.79385023 Ry
     estimated scf accuracy    <       0.00259106 Ry

     iteration #  4     ecut=    50.00 Ry     beta=0.70
     Davidson diagonalization with overlap
     ethr =  2.01E-06,  avg # of iterations =  1.1

     total cpu time spent up to now is    34116.2 secs

     total energy              =   -4360.79326403 Ry
     Harris-Foulkes estimate   =   -4360.79362326 Ry
     estimated scf accuracy    <       0.00150790 Ry

     iteration #  5     ecut=    50.00 Ry     beta=0.70
     Davidson diagonalization with overlap
     ethr =  1.17E-06,  avg # of iterations =  2.0

     total cpu time spent up to now is    34146.8 secs

     total energy              =   -4360.79331841 Ry
     Harris-Foulkes estimate   =   -4360.79337503 Ry
     estimated scf accuracy    <       0.00018134 Ry

     iteration #  6     ecut=    50.00 Ry     beta=0.70
     Davidson diagonalization with overlap
     ethr =  1.41E-07,  avg # of iterations =  3.0

     total cpu time spent up to now is    34179.7 secs

     total energy              =   -4360.79334433 Ry
     Harris-Foulkes estimate   =   -4360.79334664 Ry
     estimated scf accuracy    <       0.00000532 Ry

     iteration #  7     ecut=    50.00 Ry     beta=0.70
     Davidson diagonalization with overlap
     ethr =  4.13E-09,  avg # of iterations =  3.0

     total cpu time spent up to now is    34217.4 secs

     total energy              =   -4360.79334622 Ry
     Harris-Foulkes estimate   =   -4360.79334663 Ry
     estimated scf accuracy    <       0.00000122 Ry

     iteration #  8     ecut=    50.00 Ry     beta=0.70
     Davidson diagonalization with overlap
     ethr =  9.44E-10,  avg # of iterations =  2.5

     total cpu time spent up to now is    34249.6 secs

     total energy              =   -4360.79334638 Ry
     Harris-Foulkes estimate   =   -4360.79334640 Ry
     estimated scf accuracy    <       0.00000004 Ry

     iteration #  9     ecut=    50.00 Ry     beta=0.70
     Davidson diagonalization with overlap
     ethr =  2.74E-11,  avg # of iterations =  3.0

     total cpu time spent up to now is    34287.9 secs

     End of self-consistent calculation

          k = 0.0000 0.0000 0.0000 ( 16447 PWs)   bands (ev):

   -76.7451 -76.7449 -76.7182 -72.7386 -39.8554 -39.8144 -39.8132 -38.6565
   -38.6460 -38.6453 -38.6297 -38.6287 -38.6238 -38.6232 -38.5695 -38.5685
   -33.8748 -33.8744 -33.8693 -33.8642 -33.8639 -33.8631 -33.8619 -33.8614
   -33.8554 -33.8551 -33.8532 -33.8501 -33.8500 -33.8431 -33.8428 -33.8425
   -33.8424 -33.8403 -33.8111 -33.8006 -33.7981  -5.4986  -4.7690  -4.6359
    -1.9834  -1.9287  -1.8674  -1.8052  -1.5097  -1.4640  -1.2826  -1.2509
    -1.1929  -1.1928  -1.0554  -0.9465  -0.8594  -0.7032  -0.5383  -0.5183
    -0.3208  -0.2867  -0.2549  -0.2269  -0.1849  -0.0548   0.1519   0.2019
     5.1587   5.5166   6.0743   6.2179   6.3060   6.4763   6.5202   6.7799
     7.0154   7.3957   7.4191   7.5031   7.5178   7.6054

          k = 0.0002-0.0000-0.8152 ( 16526 PWs)   bands (ev):

   -76.7451 -76.7449 -76.7182 -72.7386 -39.8554 -39.8144 -39.8132 -38.6567
   -38.6460 -38.6454 -38.6298 -38.6288 -38.6241 -38.6236 -38.5696 -38.5688
   -33.8749 -33.8745 -33.8693 -33.8641 -33.8638 -33.8632 -33.8619 -33.8614
   -33.8554 -33.8551 -33.8533 -33.8501 -33.8501 -33.8432 -33.8428 -33.8427
   -33.8425 -33.8404 -33.8111 -33.8007 -33.7981  -5.1159  -4.7842  -4.5325
    -2.3062  -1.9730  -1.8039  -1.7694  -1.6281  -1.4439  -1.4430  -1.4342
    -1.3557  -1.1792  -1.0220  -1.0209  -0.9603  -0.8139  -0.6947  -0.5814
    -0.4753  -0.2791  -0.2399   0.0500   0.0591   0.0672   0.0786   0.1635
     5.6964   5.7217   5.8305   5.9345   6.3230   6.6395   6.9314   7.0443
     7.1954   7.2880   7.5785   7.7496   7.9349   8.1694

          k =-0.5212-0.2863 0.0001 ( 16490 PWs)   bands (ev):

   -76.7451 -76.7449 -76.7182 -72.7386 -39.8554 -39.8144 -39.8132 -38.6566
   -38.6460 -38.6453 -38.6298 -38.6287 -38.6240 -38.6234 -38.5696 -38.5687
   -33.8749 -33.8745 -33.8693 -33.8642 -33.8639 -33.8632 -33.8619 -33.8614
   -33.8554 -33.8551 -33.8532 -33.8501 -33.8501 -33.8431 -33.8428 -33.8426
   -33.8424 -33.8403 -33.8111 -33.8006 -33.7982  -5.2773  -4.9545  -4.7845
    -1.9986  -1.8567  -1.7324  -1.5136  -1.4574  -1.4297  -1.2794  -1.2642
    -1.2515  -1.2039  -1.1311  -1.0006  -0.8928  -0.7508  -0.6056  -0.4332
    -0.3971  -0.3318  -0.3136  -0.2741  -0.1291  -0.0486   0.1002   0.1424
     5.2606   5.4765   5.6830   5.9523   6.6373   6.7362   6.9767   7.0264
     7.1046   7.1510   7.2730   7.7891   7.8565   7.8683

          k =-0.5210-0.2864-0.8151 ( 16554 PWs)   bands (ev):

   -76.7451 -76.7449 -76.7182 -72.7386 -39.8554 -39.8144 -39.8132 -38.6566
   -38.6460 -38.6455 -38.6298 -38.6289 -38.6242 -38.6236 -38.5697 -38.5689
   -33.8749 -33.8745 -33.8694 -33.8642 -33.8640 -33.8632 -33.8619 -33.8614
   -33.8554 -33.8551 -33.8532 -33.8502 -33.8501 -33.8433 -33.8428 -33.8428
   -33.8425 -33.8404 -33.8111 -33.8008 -33.7982  -5.0003  -4.7703  -4.6768
    -2.3510  -1.9754  -1.8628  -1.6521  -1.5605  -1.5599  -1.4166  -1.3587
    -1.3195  -1.2877  -1.0734  -1.0218  -0.9238  -0.8501  -0.7477  -0.6001
    -0.4122  -0.2502  -0.1740   0.0238   0.0725   0.0739   0.0905   0.1964
     5.5756   5.8475   5.8703   5.9150   6.0407   6.1803   6.8835   6.9269
     7.0900   7.2034   7.6677   7.8770   7.9302   8.1632

          k =-0.5214 0.2866 0.0001 ( 16490 PWs)   bands (ev):

   -76.7451 -76.7449 -76.7182 -72.7386 -39.8554 -39.8144 -39.8132 -38.6566
   -38.6460 -38.6454 -38.6297 -38.6288 -38.6240 -38.6234 -38.5696 -38.5687
   -33.8749 -33.8745 -33.8693 -33.8642 -33.8639 -33.8632 -33.8619 -33.8614
   -33.8554 -33.8551 -33.8532 -33.8501 -33.8500 -33.8431 -33.8428 -33.8426
   -33.8424 -33.8403 -33.8111 -33.8006 -33.7982  -5.2773  -4.9540  -4.7850
    -2.0002  -1.8567  -1.7326  -1.5142  -1.4570  -1.4299  -1.2771  -1.2633
    -1.2524  -1.2038  -1.1313  -1.0024  -0.8897  -0.7501  -0.6056  -0.4337
    -0.3988  -0.3316  -0.3115  -0.2744  -0.1303  -0.0505   0.0991   0.1449
     5.2597   5.4780   5.6815   5.9511   6.6379   6.7380   6.9764   7.0250
     7.1015   7.1525   7.2755   7.7860   7.8578   7.8707

          k =-0.5211 0.2865-0.8151 ( 16536 PWs)   bands (ev):

   -76.7451 -76.7449 -76.7182 -72.7386 -39.8554 -39.8144 -39.8132 -38.6566
   -38.6461 -38.6454 -38.6298 -38.6288 -38.6242 -38.6236 -38.5697 -38.5689
   -33.8749 -33.8745 -33.8694 -33.8642 -33.8639 -33.8632 -33.8619 -33.8614
   -33.8554 -33.8551 -33.8532 -33.8501 -33.8501 -33.8433 -33.8428 -33.8428
   -33.8424 -33.8403 -33.8111 -33.8008 -33.7982  -5.0002  -4.7703  -4.6769
    -2.3510  -1.9757  -1.8630  -1.6508  -1.5607  -1.5600  -1.4188  -1.3588
    -1.3189  -1.2858  -1.0714  -1.0216  -0.9255  -0.8525  -0.7487  -0.5993
    -0.4111  -0.2501  -0.1740   0.0220   0.0688   0.0733   0.0958   0.1974
     5.5771   5.8464   5.8738   5.9123   6.0371   6.1807   6.8856   6.9266
     7.0884   7.2110   7.6573   7.8764   7.9373   8.1622

          k =-1.0426 0.0003 0.0003 ( 16510 PWs)   bands (ev):

   -76.7451 -76.7449 -76.7182 -72.7386 -39.8554 -39.8144 -39.8132 -38.6566
   -38.6460 -38.6454 -38.6298 -38.6288 -38.6241 -38.6235 -38.5696 -38.5687
   -33.8750 -33.8745 -33.8694 -33.8642 -33.8640 -33.8632 -33.8619 -33.8614
   -33.8554 -33.8551 -33.8533 -33.8501 -33.8501 -33.8431 -33.8428 -33.8426
   -33.8424 -33.8403 -33.8111 -33.8007 -33.7981  -5.2703  -4.9904  -4.7691
    -1.9297  -1.8728  -1.8178  -1.5163  -1.4635  -1.4229  -1.2687  -1.2583
    -1.2183  -1.1842  -1.0946  -0.9132  -0.7811  -0.6921  -0.6697  -0.6391
    -0.5021  -0.2907  -0.2734  -0.2330  -0.1855  -0.0430   0.0609   0.1584
     5.2003   5.5754   5.6860   6.0739   6.5955   6.7747   6.7849   7.0757
     7.1241   7.1562   7.3261   7.6763   7.6804   7.7674

          k =-1.0423 0.0002-0.8150 ( 16498 PWs)   bands (ev):

   -76.7451 -76.7449 -76.7182 -72.7386 -39.8554 -39.8144 -39.8132 -38.6565
   -38.6459 -38.6453 -38.6297 -38.6287 -38.6242 -38.6236 -38.5696 -38.5688
   -33.8749 -33.8745 -33.8693 -33.8641 -33.8638 -33.8632 -33.8619 -33.8614
   -33.8554 -33.8551 -33.8532 -33.8500 -33.8500 -33.8433 -33.8428 -33.8427
   -33.8424 -33.8403 -33.8111 -33.8007 -33.7981  -4.8952  -4.8167  -4.7774
    -2.3589  -1.9423  -1.7674  -1.6980  -1.5212  -1.5134  -1.3734  -1.3370
    -1.2987  -1.2301  -1.2002  -0.9522  -0.9114  -0.7630  -0.7602  -0.6721
    -0.4744  -0.4138  -0.2429   0.0240   0.0266   0.0514   0.1187   0.2683
     5.5999   5.7418   5.8017   6.0404   6.1054   6.4085   6.8515   7.0533
     7.1164   7.3635   7.3674   7.6000   7.8987   8.1086

     the Fermi energy is     5.3844 ev

!    total energy              =   -4360.79334639 Ry
     Harris-Foulkes estimate   =   -4360.79334639 Ry
     estimated scf accuracy    <          4.8E-09 Ry

     The total energy is the sum of the following terms:

     one-electron contribution =   -3262.99344754 Ry
     hartree contribution      =    1632.71791033 Ry
     xc contribution           =    -317.65433356 Ry
     ewald contribution        =    -764.07609343 Ry
     one-center paw contrib.   =   -1648.78915102 Ry
     smearing contrib. (-TS)   =       0.00176883 Ry

     convergence has been achieved in   9 iterations

     Forces acting on atoms (cartesian axes, Ry/au):

     atom    1 type  2   force =     0.00147156    0.00003099   -0.00000796
     atom    2 type  3   force =    -0.00104522   -0.00010699   -0.00003025
     atom    3 type  2   force =     0.00145530   -0.00006897    0.00001919
     atom    4 type  2   force =     0.00058737   -0.00068173   -0.00001884
     atom    5 type  2   force =    -0.00112976   -0.00000560   -0.00001093
     atom    6 type  2   force =     0.00060437    0.00075077    0.00000799
     atom    7 type  4   force =     0.00067462   -0.00048880    0.00033192
     atom    8 type  4   force =     0.00077501    0.00020685   -0.00020843
     atom    9 type  4   force =    -0.00058857    0.00022499    0.00001911
     atom   10 type  1   force =     0.00096106   -0.00091294    0.00108263
     atom   11 type  1   force =    -0.00019773    0.00065480    0.00066876
     atom   12 type  1   force =    -0.00037862    0.00051765    0.00071705
     atom   13 type  1   force =    -0.00060013   -0.00053688   -0.00096655
     atom   14 type  1   force =    -0.00061162    0.00053694   -0.00100089
     atom   15 type  1   force =     0.00073841   -0.00032666   -0.00053390
     atom   16 type  1   force =     0.00012647    0.00104293   -0.00120530
     atom   17 type  1   force =     0.00086214    0.00066657    0.00091650
     atom   18 type  1   force =     0.00002139   -0.00088126    0.00088231
     atom   19 type  1   force =    -0.00041660    0.00006407    0.00001468
     atom   20 type  1   force =    -0.00269339   -0.00010605    0.00004185
     atom   21 type  1   force =    -0.00038042   -0.00031519   -0.00001445
     atom   22 type  1   force =    -0.00005080    0.00001982   -0.00038895
     atom   23 type  1   force =    -0.00028548   -0.00001539   -0.00093084
     atom   24 type  1   force =    -0.00008491    0.00000361    0.00019133
     atom   25 type  1   force =    -0.00012701   -0.00004746   -0.00012741
     atom   26 type  1   force =    -0.00010280    0.00001379    0.00107515
     atom   27 type  1   force =    -0.00016877    0.00024675    0.00022259
     atom   28 type  1   force =     0.00082144   -0.00169958    0.00000461
     atom   29 type  1   force =    -0.00036716   -0.00039481   -0.00000490
     atom   30 type  1   force =    -0.00005626    0.00076429    0.00001399
     atom   31 type  1   force =     0.00021432   -0.00128019   -0.00003815
     atom   32 type  1   force =    -0.00055635    0.00050015   -0.00004207
     atom   33 type  1   force =     0.00044055    0.00132060   -0.00000406
     atom   34 type  1   force =    -0.00058084   -0.00053398    0.00097939
     atom   35 type  1   force =     0.00106791    0.00116420   -0.00141867
     atom   36 type  1   force =    -0.00039949   -0.00032728   -0.00023650

     Total force =     0.007114     Total SCF correction =     0.000777
     SCF correction compared to forces is large: reduce conv_thr to get better values


     Computing stress (Cartesian axis) and pressure

          total   stress  (Ry/bohr**3)                   (kbar)     P=    0.30
   0.00000769   0.00000127   0.00000058          1.13      0.19      0.09
   0.00000127  -0.00000450  -0.00000207          0.19     -0.66     -0.30
   0.00000058  -0.00000207   0.00000294          0.09     -0.30      0.43


     number of scf cycles    =  33
     number of bfgs steps    =  32

     enthalpy old            =   -4360.7932334536 Ry
     enthalpy new            =   -4360.7933463895 Ry

     CASE: enthalpy_new < enthalpy_old

     new trust radius        =       0.0178322157 bohr
     new conv_thr            =       0.0000000113 Ry

     new unit-cell volume =   2709.55900 a.u.^3 (   401.51521 Ang^3 )
     density =      0.14888 g/cm^3

CELL_PARAMETERS (angstrom)
   4.416578102  -8.044873655   0.002989076
   4.421970284   8.048533992   0.000118738
   0.001720570  -0.000521403   5.645509706

ATOMIC_POSITIONS (angstrom)
K        1.027084456   2.082971618   2.823615198
Mg       6.511334893  -0.001516678   2.819941137
K        1.024448059  -2.083174098   2.823755688
K        2.667747725   4.774002318  -0.000595385
K        3.654054394   0.001888705   0.000824704
K        2.664092414  -4.768806505   0.001038587
Re       4.571287358  -2.469682891   2.824325234
Re       4.574809198   2.472033917   2.823596010
Re      -0.251753494   0.000907775   0.001570748
H        4.965694832  -3.608571020   4.030180957
H        5.332353419  -1.483086880   4.022740161
H        3.450854954  -2.346319565   4.104996873
H        3.453358840   2.348954710   1.543790079
H        3.450447821  -2.346546633   1.543481733
H        4.965304807  -3.609939372   1.618913636
H        5.331197144  -1.483392135   1.624548941
H        4.968245107   3.611397337   4.029532473
H        5.335721425   1.485150840   4.021894830
H        0.526292368  -1.499788756   0.001061969
H        6.851323301   0.001320073   0.005062663
H        0.531932349   1.498371531   0.000389745
H        3.555758326  -7.059975061   1.288663049
H        1.010417893  -0.000504783   4.510195509
H        3.558875778   7.070088006   4.357848673
H        3.558694524   7.069329796   1.291592833
H        1.009976776  -0.000031287   1.137183792
H        3.555968218  -7.062927483   4.364972656
H        3.475320491   3.748743213   2.823615094
H        6.226260345   2.775213121   2.823835939
H        3.798906976   0.989317944   2.824221265
H        3.795664683  -0.986449163   2.824148729
H        6.223201232  -2.771268785   2.824655094
H        3.471969321  -3.745854504   2.824644489
H        3.453934795   2.348926404   4.103689106
H        4.967446914   3.611785447   1.618221279
H        5.334933610   1.484780566   1.624356958



     Writing output data file K5MgReH93.save
     NEW-OLD atomic charge density approx. for the potential
     extrapolated charge  128.98209, renormalised to  129.00000

     total cpu time spent up to now is    34900.5 secs

     Self-consistent Calculation

     iteration #  1     ecut=    50.00 Ry     beta=0.70
     Davidson diagonalization with overlap
     ethr =  1.00E-06,  avg # of iterations =  4.0

     total cpu time spent up to now is    34949.5 secs

     total energy              =   -4360.79272009 Ry
     Harris-Foulkes estimate   =   -4361.21512084 Ry
     estimated scf accuracy    <       0.00075155 Ry

     iteration #  2     ecut=    50.00 Ry     beta=0.70
     Davidson diagonalization with overlap
     ethr =  5.83E-07,  avg # of iterations =  4.1

     total cpu time spent up to now is    34993.1 secs

     total energy              =   -4360.79276294 Ry
     Harris-Foulkes estimate   =   -4360.79478761 Ry
     estimated scf accuracy    <       0.00709028 Ry

     iteration #  3     ecut=    50.00 Ry     beta=0.70
     Davidson diagonalization with overlap
     ethr =  5.83E-07,  avg # of iterations =  3.4

     total cpu time spent up to now is    35031.1 secs

     total energy              =   -4360.79343530 Ry
     Harris-Foulkes estimate   =   -4360.79349682 Ry
     estimated scf accuracy    <       0.00025089 Ry

     iteration #  4     ecut=    50.00 Ry     beta=0.70
     Davidson diagonalization with overlap
     ethr =  1.94E-07,  avg # of iterations =  2.1

     total cpu time spent up to now is    35062.6 secs

     total energy              =   -4360.79342711 Ry
     Harris-Foulkes estimate   =   -4360.79346955 Ry
     estimated scf accuracy    <       0.00014549 Ry

     iteration #  5     ecut=    50.00 Ry     beta=0.70
     Davidson diagonalization with overlap
     ethr =  1.13E-07,  avg # of iterations =  2.2

     total cpu time spent up to now is    35093.1 secs

     total energy              =   -4360.79344449 Ry
     Harris-Foulkes estimate   =   -4360.79344654 Ry
     estimated scf accuracy    <       0.00000367 Ry

     iteration #  6     ecut=    50.00 Ry     beta=0.70
     Davidson diagonalization with overlap
     ethr =  2.85E-09,  avg # of iterations =  3.5

     total cpu time spent up to now is    35134.0 secs

     total energy              =   -4360.79344602 Ry
     Harris-Foulkes estimate   =   -4360.79344676 Ry
     estimated scf accuracy    <       0.00000254 Ry

     iteration #  7     ecut=    50.00 Ry     beta=0.70
     Davidson diagonalization with overlap
     ethr =  1.97E-09,  avg # of iterations =  2.1

     total cpu time spent up to now is    35165.4 secs

     total energy              =   -4360.79344621 Ry
     Harris-Foulkes estimate   =   -4360.79344630 Ry
     estimated scf accuracy    <       0.00000031 Ry

     iteration #  8     ecut=    50.00 Ry     beta=0.70
     Davidson diagonalization with overlap
     ethr =  2.41E-10,  avg # of iterations =  2.1

     total cpu time spent up to now is    35197.1 secs

     End of self-consistent calculation

          k = 0.0000 0.0000 0.0000 ( 16447 PWs)   bands (ev):

   -76.7413 -76.7407 -76.7134 -72.7414 -39.8578 -39.8174 -39.8160 -38.6540
   -38.6432 -38.6429 -38.6271 -38.6256 -38.6194 -38.6193 -38.5656 -38.5646
   -33.8701 -33.8696 -33.8632 -33.8597 -33.8591 -33.8570 -33.8570 -33.8568
   -33.8507 -33.8500 -33.8470 -33.8459 -33.8449 -33.8383 -33.8382 -33.8378
   -33.8378 -33.8343 -33.8053 -33.7945 -33.7922  -5.5019  -4.7720  -4.6385
    -1.9859  -1.9308  -1.8691  -1.8011  -1.5115  -1.4621  -1.2777  -1.2517
    -1.1994  -1.1861  -1.0615  -0.9483  -0.8657  -0.6962  -0.5418  -0.5242
    -0.3222  -0.2798  -0.2490  -0.2258  -0.1904  -0.0571   0.1585   0.1989
     5.1661   5.5187   6.0790   6.2180   6.3109   6.4838   6.5263   6.7852
     7.0251   7.3959   7.4232   7.5023   7.5242   7.6055

          k = 0.0003-0.0001-0.8160 ( 16526 PWs)   bands (ev):

   -76.7413 -76.7407 -76.7134 -72.7414 -39.8578 -39.8174 -39.8160 -38.6542
   -38.6432 -38.6430 -38.6272 -38.6257 -38.6197 -38.6196 -38.5659 -38.5646
   -33.8702 -33.8697 -33.8633 -33.8596 -33.8590 -33.8571 -33.8571 -33.8568
   -33.8507 -33.8501 -33.8471 -33.8459 -33.8450 -33.8384 -33.8383 -33.8380
   -33.8378 -33.8343 -33.8053 -33.7946 -33.7923  -5.1160  -4.7886  -4.5345
    -2.3116  -1.9766  -1.8031  -1.7717  -1.6259  -1.4476  -1.4392  -1.4323
    -1.3532  -1.1743  -1.0229  -1.0190  -0.9601  -0.8134  -0.7045  -0.5900
    -0.4809  -0.2776  -0.2369   0.0534   0.0626   0.0629   0.0825   0.1629
     5.6999   5.7210   5.8434   5.9422   6.3272   6.6331   6.9299   7.0484
     7.2049   7.2984   7.5878   7.7482   7.9454   8.1672

          k =-0.5211-0.2861 0.0001 ( 16490 PWs)   bands (ev):

   -76.7413 -76.7407 -76.7134 -72.7414 -39.8578 -39.8174 -39.8160 -38.6541
   -38.6432 -38.6430 -38.6272 -38.6256 -38.6195 -38.6195 -38.5657 -38.5647
   -33.8701 -33.8697 -33.8633 -33.8597 -33.8591 -33.8571 -33.8570 -33.8569
   -33.8508 -33.8500 -33.8471 -33.8459 -33.8450 -33.8383 -33.8383 -33.8379
   -33.8377 -33.8343 -33.8053 -33.7945 -33.7923  -5.2832  -4.9556  -4.7858
    -1.9980  -1.8590  -1.7379  -1.5146  -1.4543  -1.4274  -1.2841  -1.2642
    -1.2455  -1.2059  -1.1304  -1.0052  -0.8947  -0.7556  -0.5997  -0.4375
    -0.4014  -0.3244  -0.3153  -0.2680  -0.1330  -0.0480   0.1007   0.1433
     5.2675   5.4799   5.6886   5.9621   6.6415   6.7411   6.9769   7.0227
     7.1150   7.1526   7.2781   7.7902   7.8592   7.8710

          k =-0.5208-0.2862-0.8159 ( 16554 PWs)   bands (ev):

   -76.7413 -76.7407 -76.7134 -72.7414 -39.8578 -39.8174 -39.8160 -38.6541
   -38.6433 -38.6430 -38.6271 -38.6258 -38.6198 -38.6197 -38.5659 -38.5648
   -33.8702 -33.8697 -33.8633 -33.8598 -33.8591 -33.8571 -33.8571 -33.8568
   -33.8507 -33.8501 -33.8471 -33.8460 -33.8451 -33.8384 -33.8384 -33.8381
   -33.8378 -33.8343 -33.8054 -33.7947 -33.7924  -5.0018  -4.7748  -4.6769
    -2.3562  -1.9800  -1.8629  -1.6496  -1.5706  -1.5563  -1.4140  -1.3556
    -1.3142  -1.2836  -1.0721  -1.0216  -0.9264  -0.8517  -0.7533  -0.6057
    -0.4170  -0.2513  -0.1735   0.0219   0.0729   0.0812   0.0904   0.1970
     5.5765   5.8560   5.8779   5.9133   6.0496   6.1818   6.8931   6.9247
     7.1034   7.2041   7.6749   7.8821   7.9386   8.1594

          k =-0.5213 0.2864 0.0002 ( 16490 PWs)   bands (ev):

   -76.7413 -76.7407 -76.7134 -72.7414 -39.8578 -39.8174 -39.8160 -38.6541
   -38.6432 -38.6429 -38.6271 -38.6256 -38.6195 -38.6195 -38.5657 -38.5646
   -33.8701 -33.8697 -33.8633 -33.8597 -33.8591 -33.8571 -33.8570 -33.8568
   -33.8507 -33.8501 -33.8471 -33.8459 -33.8450 -33.8383 -33.8383 -33.8379
   -33.8378 -33.8343 -33.8053 -33.7945 -33.7923  -5.2831  -4.9550  -4.7865
    -1.9999  -1.8589  -1.7380  -1.5151  -1.4542  -1.4283  -1.2815  -1.2636
    -1.2460  -1.2059  -1.1302  -1.0068  -0.8913  -0.7549  -0.5997  -0.4379
    -0.4037  -0.3242  -0.3127  -0.2683  -0.1344  -0.0505   0.0992   0.1465
     5.2664   5.4811   5.6875   5.9619   6.6420   6.7413   6.9756   7.0207
     7.1124   7.1543   7.2797   7.7869   7.8608   7.8755

          k =-0.5210 0.2863-0.8158 ( 16536 PWs)   bands (ev):

   -76.7413 -76.7407 -76.7134 -72.7414 -39.8578 -39.8174 -39.8160 -38.6541
   -38.6432 -38.6431 -38.6272 -38.6256 -38.6197 -38.6197 -38.5659 -38.5647
   -33.8701 -33.8697 -33.8633 -33.8597 -33.8591 -33.8571 -33.8571 -33.8568
   -33.8507 -33.8500 -33.8471 -33.8460 -33.8450 -33.8385 -33.8383 -33.8381
   -33.8378 -33.8343 -33.8053 -33.7947 -33.7924  -5.0016  -4.7748  -4.6771
    -2.3564  -1.9802  -1.8627  -1.6487  -1.5712  -1.5562  -1.4148  -1.3563
    -1.3136  -1.2831  -1.0694  -1.0208  -0.9284  -0.8545  -0.7551  -0.6036
    -0.4156  -0.2512  -0.1736   0.0203   0.0731   0.0732   0.0986   0.1982
     5.5784   5.8534   5.8836   5.9103   6.0456   6.1819   6.8947   6.9245
     7.1015   7.2136   7.6621   7.8799   7.9462   8.1594

          k =-1.0424 0.0003 0.0003 ( 16510 PWs)   bands (ev):

   -76.7413 -76.7407 -76.7134 -72.7414 -39.8578 -39.8174 -39.8160 -38.6541
   -38.6433 -38.6430 -38.6272 -38.6257 -38.6196 -38.6196 -38.5658 -38.5647
   -33.8702 -33.8697 -33.8633 -33.8597 -33.8591 -33.8571 -33.8571 -33.8568
   -33.8507 -33.8500 -33.8471 -33.8459 -33.8450 -33.8383 -33.8383 -33.8379
   -33.8378 -33.8343 -33.8053 -33.7946 -33.7923  -5.2764  -4.9899  -4.7721
    -1.9305  -1.8745  -1.8158  -1.5169  -1.4632  -1.4217  -1.2735  -1.2505
    -1.2190  -1.1823  -1.1028  -0.9171  -0.7869  -0.6975  -0.6637  -0.6422
    -0.5042  -0.2845  -0.2663  -0.2370  -0.1935  -0.0448   0.0694   0.1621
     5.2078   5.5794   5.6933   6.0821   6.6020   6.7728   6.7799   7.0859
     7.1225   7.1689   7.3284   7.6790   7.6837   7.7692

          k =-1.0421 0.0002-0.8157 ( 16498 PWs)   bands (ev):

   -76.7413 -76.7407 -76.7134 -72.7414 -39.8578 -39.8174 -39.8160 -38.6539
   -38.6431 -38.6429 -38.6271 -38.6255 -38.6198 -38.6197 -38.5659 -38.5646
   -33.8702 -33.8697 -33.8632 -33.8596 -33.8590 -33.8571 -33.8571 -33.8568
   -33.8507 -33.8500 -33.8471 -33.8458 -33.8449 -33.8384 -33.8383 -33.8381
   -33.8378 -33.8342 -33.8053 -33.7946 -33.7923  -4.8982  -4.8154  -4.7819
    -2.3640  -1.9453  -1.7645  -1.6961  -1.5346  -1.5105  -1.3672  -1.3316
    -1.2994  -1.2283  -1.2018  -0.9580  -0.9111  -0.7602  -0.7587  -0.6763
    -0.4799  -0.4170  -0.2429   0.0266   0.0324   0.0465   0.1172   0.2719
     5.5992   5.7545   5.8102   6.0402   6.1105   6.4082   6.8483   7.0680
     7.1306   7.3673   7.3711   7.5978   7.9026   8.1079

     the Fermi energy is     5.3881 ev

!    total energy              =   -4360.79344625 Ry
     Harris-Foulkes estimate   =   -4360.79344625 Ry
     estimated scf accuracy    <          7.9E-09 Ry

     The total energy is the sum of the following terms:

     one-electron contribution =   -3264.41993236 Ry
     hartree contribution      =    1633.44735454 Ry
     xc contribution           =    -317.66171407 Ry
     ewald contribution        =    -763.37227794 Ry
     one-center paw contrib.   =   -1648.78848762 Ry
     smearing contrib. (-TS)   =       0.00161121 Ry

     convergence has been achieved in   8 iterations

     Forces acting on atoms (cartesian axes, Ry/au):

     atom    1 type  2   force =     0.00178969   -0.00023065   -0.00000090
     atom    2 type  3   force =    -0.00105765   -0.00007856   -0.00003931
     atom    3 type  2   force =     0.00176386    0.00016605    0.00001715
     atom    4 type  2   force =     0.00056042   -0.00064932   -0.00000676
     atom    5 type  2   force =    -0.00129866    0.00000018   -0.00000094
     atom    6 type  2   force =     0.00056244    0.00077034    0.00000597
     atom    7 type  4   force =     0.00017062    0.00009472   -0.00026819
     atom    8 type  4   force =     0.00063782   -0.00015990    0.00007854
     atom    9 type  4   force =     0.00004461   -0.00000905   -0.00003420
     atom   10 type  1   force =     0.00105861   -0.00073875    0.00124064
     atom   11 type  1   force =    -0.00021484    0.00056234    0.00081700
     atom   12 type  1   force =    -0.00041137    0.00044333    0.00057746
     atom   13 type  1   force =    -0.00044387   -0.00046002   -0.00060995
     atom   14 type  1   force =    -0.00036802    0.00041466   -0.00050089
     atom   15 type  1   force =     0.00100525   -0.00059619   -0.00105151
     atom   16 type  1   force =    -0.00017012    0.00057711   -0.00084907
     atom   17 type  1   force =     0.00104580    0.00068889    0.00118984
     atom   18 type  1   force =    -0.00018723   -0.00055003    0.00069412
     atom   19 type  1   force =     0.00000020   -0.00032352   -0.00000441
     atom   20 type  1   force =    -0.00189133   -0.00011246    0.00005979
     atom   21 type  1   force =     0.00011048    0.00021160    0.00001621
     atom   22 type  1   force =    -0.00044509    0.00060903    0.00045102
     atom   23 type  1   force =    -0.00010656    0.00000072   -0.00128584
     atom   24 type  1   force =    -0.00044625   -0.00046184   -0.00057522
     atom   25 type  1   force =    -0.00043697   -0.00040248    0.00058786
     atom   26 type  1   force =    -0.00007160    0.00002386    0.00130515
     atom   27 type  1   force =    -0.00044184    0.00061357   -0.00038968
     atom   28 type  1   force =    -0.00029355   -0.00079287    0.00001908
     atom   29 type  1   force =     0.00047393   -0.00006959   -0.00003411
     atom   30 type  1   force =    -0.00069465   -0.00018269   -0.00002841
     atom   31 type  1   force =    -0.00065756    0.00002569    0.00002848
     atom   32 type  1   force =     0.00041603    0.00010782   -0.00002342
     atom   33 type  1   force =    -0.00044699    0.00065883    0.00001219
     atom   34 type  1   force =    -0.00043879   -0.00044671    0.00059871
     atom   35 type  1   force =     0.00111000    0.00078976   -0.00133601
     atom   36 type  1   force =    -0.00022684   -0.00049385   -0.00066037

     Total force =     0.006553     Total SCF correction =     0.000868
     SCF correction compared to forces is large: reduce conv_thr to get better values


     Computing stress (Cartesian axis) and pressure

          total   stress  (Ry/bohr**3)                   (kbar)     P=    0.76
   0.00001050   0.00000049  -0.00000003          1.54      0.07     -0.00
   0.00000049  -0.00000005  -0.00000013          0.07     -0.01     -0.02
  -0.00000003  -0.00000013   0.00000509         -0.00     -0.02      0.75


     number of scf cycles    =  34
     number of bfgs steps    =  33

     enthalpy old            =   -4360.7933463895 Ry
     enthalpy new            =   -4360.7934462455 Ry

     CASE: enthalpy_new < enthalpy_old

     new trust radius        =       0.0090981107 bohr
     new conv_thr            =       0.0000000100 Ry

     new unit-cell volume =   2709.81743 a.u.^3 (   401.55351 Ang^3 )
     density =      0.14887 g/cm^3

CELL_PARAMETERS (angstrom)
   4.418541249  -8.044597149   0.003839760
   4.425018094   8.048857267  -0.000455612
   0.001896785  -0.001030098   5.642833213

ATOMIC_POSITIONS (angstrom)
K        1.028219264   2.083949534   2.822150916
Mg       6.514702845  -0.001597451   2.818698243
K        1.025304799  -2.084556549   2.822674171
K        2.671457025   4.771357096  -0.001006856
K        3.654710785   0.002147217   0.000899183
K        2.667262929  -4.765648183   0.001542811
Re       4.574672092  -2.468719183   2.823175533
Re       4.579025462   2.471025848   2.822154415
Re      -0.254488136   0.000984576   0.001606531
H        4.970326529  -3.609425212   4.029286694
H        5.335096793  -1.481394307   4.022316658
H        3.454639316  -2.345299509   4.105473664
H        3.457257574   2.347925634   1.540726406
H        3.454029357  -2.345311788   1.540867741
H        4.969606319  -3.609969179   1.618759075
H        5.334104696  -1.481125428   1.622423079
H        4.973160791   3.611798008   4.027721780
H        5.338992764   1.483117592   4.021281953
H        0.522512649  -1.499663527   0.001233601
H        6.850402472   0.001465061   0.005396691
H        0.528706962   1.498003909   0.000268225
H        3.555807437  -7.059331114   1.288153970
H        1.008336747  -0.000884882   4.507782018
H        3.559939909   7.069932392   4.355554611
H        3.559662970   7.069399668   1.290298386
H        1.008022659  -0.000059325   1.137126739
H        3.555904760  -7.062458692   4.364298167
H        3.480426528   3.746333623   2.822039705
H        6.230360469   2.771502852   2.822449760
H        3.802432787   0.990067084   2.822939937
H        3.799217574  -0.987763904   2.822985921
H        6.226689433  -2.767117224   2.823707387
H        3.476119336  -3.743929177   2.823782921
H        3.458034574   2.347693645   4.103788608
H        4.972505931   3.612970970   1.616435882
H        5.337716315   1.483548303   1.622851790



     Writing output data file K5MgReH93.save
     NEW-OLD atomic charge density approx. for the potential
     extrapolated charge  129.01229, renormalised to  129.00000

     total cpu time spent up to now is    35809.0 secs

     Self-consistent Calculation

     iteration #  1     ecut=    50.00 Ry     beta=0.70
     Davidson diagonalization with overlap
     ethr =  1.00E-06,  avg # of iterations =  3.0

     total cpu time spent up to now is    35853.4 secs

     total energy              =   -4360.79319651 Ry
     Harris-Foulkes estimate   =   -4360.49839074 Ry
     estimated scf accuracy    <       0.00025278 Ry

     iteration #  2     ecut=    50.00 Ry     beta=0.70
     Davidson diagonalization with overlap
     ethr =  1.96E-07,  avg # of iterations =  3.6

     total cpu time spent up to now is    35896.4 secs

     total energy              =   -4360.79330224 Ry
     Harris-Foulkes estimate   =   -4360.79402345 Ry
     estimated scf accuracy    <       0.00252934 Ry

     iteration #  3     ecut=    50.00 Ry     beta=0.70
     Davidson diagonalization with overlap
     ethr =  1.96E-07,  avg # of iterations =  3.0

     total cpu time spent up to now is    35933.9 secs

     total energy              =   -4360.79351738 Ry
     Harris-Foulkes estimate   =   -4360.79354836 Ry
     estimated scf accuracy    <       0.00011463 Ry

     iteration #  4     ecut=    50.00 Ry     beta=0.70
     Davidson diagonalization with overlap
     ethr =  8.89E-08,  avg # of iterations =  2.0

     total cpu time spent up to now is    35964.5 secs

     total energy              =   -4360.79351822 Ry
     Harris-Foulkes estimate   =   -4360.79352690 Ry
     estimated scf accuracy    <       0.00003096 Ry

     iteration #  5     ecut=    50.00 Ry     beta=0.70
     Davidson diagonalization with overlap
     ethr =  2.40E-08,  avg # of iterations =  2.4

     total cpu time spent up to now is    35995.6 secs

     total energy              =   -4360.79352002 Ry
     Harris-Foulkes estimate   =   -4360.79352254 Ry
     estimated scf accuracy    <       0.00000708 Ry

     iteration #  6     ecut=    50.00 Ry     beta=0.70
     Davidson diagonalization with overlap
     ethr =  5.48E-09,  avg # of iterations =  2.1

     total cpu time spent up to now is    36028.2 secs

     total energy              =   -4360.79352124 Ry
     Harris-Foulkes estimate   =   -4360.79352159 Ry
     estimated scf accuracy    <       0.00000097 Ry

     iteration #  7     ecut=    50.00 Ry     beta=0.70
     Davidson diagonalization with overlap
     ethr =  7.52E-10,  avg # of iterations =  2.9

     total cpu time spent up to now is    36063.9 secs

     total energy              =   -4360.79352143 Ry
     Harris-Foulkes estimate   =   -4360.79352151 Ry
     estimated scf accuracy    <       0.00000024 Ry

     iteration #  8     ecut=    50.00 Ry     beta=0.70
     Davidson diagonalization with overlap
     ethr =  1.83E-10,  avg # of iterations =  2.1

     total cpu time spent up to now is    36095.8 secs

     total energy              =   -4360.79352145 Ry
     Harris-Foulkes estimate   =   -4360.79352147 Ry
     estimated scf accuracy    <       0.00000006 Ry

     iteration #  9     ecut=    50.00 Ry     beta=0.70
     Davidson diagonalization with overlap
     ethr =  4.42E-11,  avg # of iterations =  2.6

     total cpu time spent up to now is    36128.7 secs

     End of self-consistent calculation

          k = 0.0000 0.0000 0.0000 ( 16447 PWs)   bands (ev):

   -76.7424 -76.7416 -76.7136 -72.7457 -39.8619 -39.8219 -39.8203 -38.6553
   -38.6445 -38.6439 -38.6283 -38.6266 -38.6196 -38.6195 -38.5659 -38.5641
   -33.8714 -33.8707 -33.8634 -33.8611 -33.8602 -33.8583 -33.8579 -33.8572
   -33.8521 -33.8510 -33.8473 -33.8472 -33.8460 -33.8397 -33.8396 -33.8389
   -33.8389 -33.8346 -33.8056 -33.7944 -33.7923  -5.5023  -4.7728  -4.6386
    -1.9862  -1.9339  -1.8675  -1.7995  -1.5097  -1.4596  -1.2739  -1.2541
    -1.2023  -1.1817  -1.0656  -0.9497  -0.8651  -0.6938  -0.5428  -0.5278
    -0.3231  -0.2781  -0.2470  -0.2255  -0.1960  -0.0600   0.1594   0.1976
     5.1666   5.5162   6.0811   6.2143   6.3124   6.4841   6.5259   6.7843
     7.0264   7.3935   7.4211   7.4975   7.5218   7.6047

          k = 0.0003-0.0002-0.8164 ( 16526 PWs)   bands (ev):

   -76.7424 -76.7416 -76.7136 -72.7457 -39.8619 -39.8219 -39.8203 -38.6554
   -38.6446 -38.6440 -38.6284 -38.6267 -38.6199 -38.6198 -38.5662 -38.5641
   -33.8715 -33.8708 -33.8634 -33.8610 -33.8601 -33.8584 -33.8579 -33.8573
   -33.8521 -33.8511 -33.8473 -33.8473 -33.8461 -33.8398 -33.8397 -33.8391
   -33.8389 -33.8346 -33.8056 -33.7945 -33.7923  -5.1150  -4.7897  -4.5342
    -2.3125  -1.9765  -1.8037  -1.7732  -1.6221  -1.4500  -1.4367  -1.4325
    -1.3508  -1.1745  -1.0252  -1.0187  -0.9580  -0.8140  -0.7110  -0.5945
    -0.4810  -0.2772  -0.2359   0.0516   0.0597   0.0657   0.0825   0.1631
     5.6985   5.7165   5.8469   5.9434   6.3266   6.6234   6.9240   7.0472
     7.2086   7.2998   7.5902   7.7482   7.9464   8.1632

          k =-0.5208-0.2860 0.0001 ( 16490 PWs)   bands (ev):

   -76.7424 -76.7416 -76.7136 -72.7457 -39.8619 -39.8219 -39.8203 -38.6553
   -38.6445 -38.6440 -38.6284 -38.6266 -38.6197 -38.6196 -38.5661 -38.5641
   -33.8714 -33.8708 -33.8634 -33.8611 -33.8602 -33.8583 -33.8580 -33.8572
   -33.8521 -33.8511 -33.8473 -33.8472 -33.8461 -33.8397 -33.8396 -33.8390
   -33.8389 -33.8346 -33.8056 -33.7944 -33.7924  -5.2847  -4.9558  -4.7852
    -1.9977  -1.8576  -1.7419  -1.5124  -1.4512  -1.4272  -1.2871  -1.2637
    -1.2412  -1.2060  -1.1313  -1.0083  -0.8945  -0.7553  -0.5981  -0.4407
    -0.4041  -0.3221  -0.3164  -0.2658  -0.1373  -0.0479   0.1006   0.1411
     5.2670   5.4791   5.6887   5.9648   6.6399   6.7422   6.9758   7.0177
     7.1169   7.1502   7.2760   7.7885   7.8578   7.8650

          k =-0.5205-0.2863-0.8163 ( 16554 PWs)   bands (ev):

   -76.7424 -76.7416 -76.7136 -72.7457 -39.8619 -39.8219 -39.8203 -38.6553
   -38.6447 -38.6440 -38.6283 -38.6268 -38.6199 -38.6198 -38.5663 -38.5642
   -33.8715 -33.8708 -33.8635 -33.8611 -33.8602 -33.8584 -33.8580 -33.8573
   -33.8521 -33.8511 -33.8474 -33.8473 -33.8461 -33.8398 -33.8397 -33.8392
   -33.8389 -33.8346 -33.8056 -33.7947 -33.7924  -5.0015  -4.7760  -4.6756
    -2.3569  -1.9810  -1.8642  -1.6458  -1.5761  -1.5542  -1.4124  -1.3552
    -1.3134  -1.2800  -1.0729  -1.0220  -0.9286  -0.8504  -0.7574  -0.6090
    -0.4172  -0.2512  -0.1739   0.0196   0.0722   0.0821   0.0901   0.1965
     5.5725   5.8573   5.8772   5.9094   6.0524   6.1778   6.8945   6.9188
     7.1094   7.2020   7.6767   7.8838   7.9368   8.1554

          k =-0.5211 0.2865 0.0002 ( 16490 PWs)   bands (ev):

   -76.7424 -76.7416 -76.7136 -72.7457 -39.8619 -39.8219 -39.8203 -38.6553
   -38.6445 -38.6439 -38.6283 -38.6267 -38.6197 -38.6196 -38.5661 -38.5641
   -33.8714 -33.8707 -33.8634 -33.8611 -33.8602 -33.8584 -33.8579 -33.8572
   -33.8521 -33.8511 -33.8473 -33.8472 -33.8461 -33.8397 -33.8396 -33.8390
   -33.8389 -33.8346 -33.8056 -33.7945 -33.7924  -5.2846  -4.9550  -4.7860
    -2.0000  -1.8575  -1.7420  -1.5125  -1.4515  -1.4283  -1.2841  -1.2632
    -1.2413  -1.2061  -1.1308  -1.0095  -0.8910  -0.7545  -0.5981  -0.4416
    -0.4068  -0.3219  -0.3133  -0.2661  -0.1382  -0.0514   0.0992   0.1443
     5.2657   5.4806   5.6877   5.9650   6.6407   6.7414   6.9736   7.0156
     7.1146   7.1514   7.2766   7.7851   7.8600   7.8716

          k =-0.5207 0.2862-0.8162 ( 16536 PWs)   bands (ev):

   -76.7424 -76.7416 -76.7136 -72.7457 -39.8619 -39.8219 -39.8203 -38.6553
   -38.6445 -38.6440 -38.6284 -38.6266 -38.6199 -38.6198 -38.5663 -38.5642
   -33.8714 -33.8708 -33.8635 -33.8611 -33.8602 -33.8584 -33.8579 -33.8572
   -33.8521 -33.8511 -33.8474 -33.8472 -33.8461 -33.8398 -33.8397 -33.8392
   -33.8389 -33.8346 -33.8056 -33.7946 -33.7924  -5.0013  -4.7759  -4.6758
    -2.3571  -1.9812  -1.8640  -1.6451  -1.5768  -1.5545  -1.4118  -1.3563
    -1.3130  -1.2806  -1.0694  -1.0203  -0.9309  -0.8536  -0.7603  -0.6057
    -0.4156  -0.2519  -0.1732   0.0173   0.0723   0.0733   0.0993   0.1980
     5.5753   5.8535   5.8844   5.9055   6.0486   6.1772   6.8954   6.9194
     7.1068   7.2126   7.6622   7.8807   7.9449   8.1568

          k =-1.0418 0.0004 0.0004 ( 16510 PWs)   bands (ev):

   -76.7424 -76.7416 -76.7136 -72.7457 -39.8619 -39.8219 -39.8203 -38.6553
   -38.6446 -38.6439 -38.6283 -38.6267 -38.6198 -38.6197 -38.5661 -38.5641
   -33.8715 -33.8708 -33.8635 -33.8611 -33.8602 -33.8584 -33.8579 -33.8573
   -33.8521 -33.8511 -33.8473 -33.8473 -33.8461 -33.8397 -33.8396 -33.8390
   -33.8389 -33.8346 -33.8056 -33.7945 -33.7923  -5.2779  -4.9883  -4.7734
    -1.9317  -1.8729  -1.8166  -1.5140  -1.4616  -1.4195  -1.2756  -1.2456
    -1.2215  -1.1804  -1.1086  -0.9164  -0.7914  -0.6978  -0.6616  -0.6423
    -0.5056  -0.2822  -0.2647  -0.2400  -0.1996  -0.0459   0.0724   0.1605
     5.2074   5.5795   5.6934   6.0842   6.6017   6.7668   6.7753   7.0899
     7.1192   7.1733   7.3225   7.6775   7.6835   7.7676

          k =-1.0415 0.0002-0.8160 ( 16498 PWs)   bands (ev):

   -76.7424 -76.7416 -76.7136 -72.7457 -39.8619 -39.8219 -39.8203 -38.6552
   -38.6444 -38.6439 -38.6282 -38.6266 -38.6200 -38.6199 -38.5663 -38.5641
   -33.8715 -33.8708 -33.8634 -33.8610 -33.8601 -33.8583 -33.8580 -33.8572
   -33.8521 -33.8511 -33.8473 -33.8472 -33.8460 -33.8398 -33.8397 -33.8392
   -33.8389 -33.8345 -33.8056 -33.7946 -33.7923  -4.8987  -4.8132  -4.7830
    -2.3648  -1.9452  -1.7648  -1.6931  -1.5415  -1.5090  -1.3641  -1.3278
    -1.2982  -1.2298  -1.2032  -0.9642  -0.9132  -0.7589  -0.7571  -0.6788
    -0.4801  -0.4166  -0.2432   0.0268   0.0366   0.0423   0.1143   0.2720
     5.5944   5.7583   5.8116   6.0390   6.1072   6.4053   6.8397   7.0734
     7.1355   7.3653   7.3694   7.5937   7.9037   8.1051

     the Fermi energy is     5.3866 ev

!    total energy              =   -4360.79352145 Ry
     Harris-Foulkes estimate   =   -4360.79352146 Ry
     estimated scf accuracy    <          5.8E-09 Ry

     The total energy is the sum of the following terms:

     one-electron contribution =   -3264.89834033 Ry
     hartree contribution      =    1633.67894928 Ry
     xc contribution           =    -317.65991769 Ry
     ewald contribution        =    -763.12687736 Ry
     one-center paw contrib.   =   -1648.78887595 Ry
     smearing contrib. (-TS)   =       0.00154059 Ry

     convergence has been achieved in   9 iterations

     Forces acting on atoms (cartesian axes, Ry/au):

     atom    1 type  2   force =     0.00185707   -0.00038515   -0.00000253
     atom    2 type  3   force =    -0.00106033   -0.00019671   -0.00005304
     atom    3 type  2   force =     0.00181869    0.00030789    0.00000787
     atom    4 type  2   force =     0.00054794   -0.00051362   -0.00000156
     atom    5 type  2   force =    -0.00127303    0.00000635    0.00000122
     atom    6 type  2   force =     0.00054204    0.00066524   -0.00000197
     atom    7 type  4   force =     0.00088961   -0.00069312    0.00020023
     atom    8 type  4   force =     0.00017608    0.00081922    0.00009871
     atom    9 type  4   force =    -0.00056738   -0.00002970    0.00005384
     atom   10 type  1   force =     0.00088696   -0.00011703    0.00074138
     atom   11 type  1   force =    -0.00035301    0.00036968    0.00057347
     atom   12 type  1   force =    -0.00013664    0.00037034    0.00010954
     atom   13 type  1   force =     0.00001251   -0.00037503   -0.00001078
     atom   14 type  1   force =    -0.00006194    0.00032646   -0.00006742
     atom   15 type  1   force =     0.00102374   -0.00049004   -0.00112311
     atom   16 type  1   force =    -0.00044041    0.00020445   -0.00045421
     atom   17 type  1   force =     0.00101796    0.00035310    0.00098339
     atom   18 type  1   force =    -0.00034791   -0.00028504    0.00041131
     atom   19 type  1   force =     0.00019810   -0.00054882   -0.00002646
     atom   20 type  1   force =    -0.00063815   -0.00011930    0.00005777
     atom   21 type  1   force =     0.00033212    0.00047009    0.00002849
     atom   22 type  1   force =    -0.00060554    0.00087077    0.00085969
     atom   23 type  1   force =    -0.00014765   -0.00000267   -0.00121637
     atom   24 type  1   force =    -0.00059652   -0.00068212   -0.00098777
     atom   25 type  1   force =    -0.00054806   -0.00054808    0.00094243
     atom   26 type  1   force =    -0.00023478    0.00001501    0.00111394
     atom   27 type  1   force =    -0.00052537    0.00072640   -0.00067189
     atom   28 type  1   force =    -0.00097919   -0.00007190    0.00003415
     atom   29 type  1   force =     0.00087372    0.00001214   -0.00004330
     atom   30 type  1   force =    -0.00097109   -0.00083738   -0.00004865
     atom   31 type  1   force =    -0.00122662    0.00110550    0.00002551
     atom   32 type  1   force =     0.00074996   -0.00000706   -0.00005581
     atom   33 type  1   force =    -0.00097489    0.00013232   -0.00002040
     atom   34 type  1   force =    -0.00004818   -0.00036233    0.00006607
     atom   35 type  1   force =     0.00094234    0.00007551   -0.00075380
     atom   36 type  1   force =    -0.00013215   -0.00056540   -0.00076994

     Total force =     0.006462     Total SCF correction =     0.000755
     SCF correction compared to forces is large: reduce conv_thr to get better values


     Computing stress (Cartesian axis) and pressure

          total   stress  (Ry/bohr**3)                   (kbar)     P=    0.69
   0.00000874  -0.00000026  -0.00000045          1.29     -0.04     -0.07
  -0.00000026   0.00000258   0.00000138         -0.04      0.38      0.20
  -0.00000045   0.00000138   0.00000272         -0.07      0.20      0.40


     number of scf cycles    =  35
     number of bfgs steps    =  34

     enthalpy old            =   -4360.7934462455 Ry
     enthalpy new            =   -4360.7935214504 Ry

     CASE: enthalpy_new < enthalpy_old

     new trust radius        =       0.0100136407 bohr
     new conv_thr            =       0.0000000100 Ry

     new unit-cell volume =   2710.76658 a.u.^3 (   401.69416 Ang^3 )
     density =      0.14882 g/cm^3

CELL_PARAMETERS (angstrom)
   4.422303787  -8.043012316   0.004305889
   4.429743893   8.047791999  -0.000758577
   0.002003049  -0.001303740   5.640326130

ATOMIC_POSITIONS (angstrom)
K        1.031334033   2.084284914   2.820835284
Mg       6.520794710  -0.001763519   2.817441950
K        1.028149326  -2.085137498   2.821579304
K        2.676729383   4.766419638  -0.001266878
K        3.655044796   0.002375353   0.000927233
K        2.672084090  -4.760163279   0.001816395
Re       4.580013134  -2.468173786   2.822201832
Re       4.584474845   2.470682193   2.820895609
Re      -0.257029555   0.001088223   0.001705080
H        4.977086426  -3.610062493   4.028725063
H        5.339112121  -1.479222295   4.022329031
H        3.459705343  -2.343739947   4.106064361
H        3.462534978   2.346521474   1.537685438
H        3.458949557  -2.343668158   1.538004429
H        4.976154264  -3.610117999   1.617763484
H        5.338291107  -1.478543214   1.619789991
H        4.980242160   3.612375743   4.026699793
H        5.343546890   1.480860416   4.021174205
H        0.520129623  -1.499654935   0.001324483
H        6.852896267   0.001474444   0.005670149
H        0.526921183   1.497656691   0.000211650
H        3.557552216  -7.056597786   1.287509071
H        1.006342290  -0.001084710   4.504199949
H        3.562575127   7.067962163   4.353396242
H        3.562260118   7.067634490   1.289469660
H        1.006140869  -0.000036169   1.138312219
H        3.557553410  -7.059854138   4.363379487
H        3.485841122   3.743790281   2.820679503
H        6.236486899   2.767711326   2.821157940
H        3.806659296   0.990440025   2.821715523
H        3.803321811  -0.988360500   2.821817054
H        6.232136816  -2.762749364   2.822601910
H        3.480620591  -3.741678738   2.822791051
H        3.463451414   2.346197914   4.104182989
H        4.979720187   3.614068737   1.614330371
H        5.341919738   1.481858530   1.620820210



     Writing output data file K5MgReH93.save
     NEW-OLD atomic charge density approx. for the potential
     extrapolated charge  129.04513, renormalised to  129.00000

     total cpu time spent up to now is    36740.4 secs

     Self-consistent Calculation

     iteration #  1     ecut=    50.00 Ry     beta=0.70
     Davidson diagonalization with overlap
     ethr =  1.00E-06,  avg # of iterations =  4.4

     total cpu time spent up to now is    36788.8 secs

     total energy              =   -4360.79078237 Ry
     Harris-Foulkes estimate   =   -4359.71386452 Ry
     estimated scf accuracy    <       0.00256698 Ry

     iteration #  2     ecut=    50.00 Ry     beta=0.70
     Davidson diagonalization with overlap
     ethr =  1.99E-06,  avg # of iterations =  5.1

     total cpu time spent up to now is    36835.8 secs

     total energy              =   -4360.79113451 Ry
     Harris-Foulkes estimate   =   -4360.79918522 Ry
     estimated scf accuracy    <       0.02932863 Ry

     iteration #  3     ecut=    50.00 Ry     beta=0.70
     Davidson diagonalization with overlap
     ethr =  1.99E-06,  avg # of iterations =  4.1

     total cpu time spent up to now is    36875.5 secs

     total energy              =   -4360.79372279 Ry
     Harris-Foulkes estimate   =   -4360.79388122 Ry
     estimated scf accuracy    <       0.00142809 Ry

     iteration #  4     ecut=    50.00 Ry     beta=0.70
     Davidson diagonalization with overlap
     ethr =  1.11E-06,  avg # of iterations =  1.0

     total cpu time spent up to now is    36904.4 secs

     total energy              =   -4360.79359317 Ry
     Harris-Foulkes estimate   =   -4360.79375690 Ry
     estimated scf accuracy    <       0.00083285 Ry

     iteration #  5     ecut=    50.00 Ry     beta=0.70
     Davidson diagonalization with overlap
     ethr =  6.46E-07,  avg # of iterations =  2.0

     total cpu time spent up to now is    36933.9 secs

     total energy              =   -4360.79359141 Ry
     Harris-Foulkes estimate   =   -4360.79363458 Ry
     estimated scf accuracy    <       0.00018648 Ry

     iteration #  6     ecut=    50.00 Ry     beta=0.70
     Davidson diagonalization with overlap
     ethr =  1.45E-07,  avg # of iterations =  2.8

     total cpu time spent up to now is    36965.8 secs

     total energy              =   -4360.79359834 Ry
     Harris-Foulkes estimate   =   -4360.79360699 Ry
     estimated scf accuracy    <       0.00002478 Ry

     iteration #  7     ecut=    50.00 Ry     beta=0.70
     Davidson diagonalization with overlap
     ethr =  1.92E-08,  avg # of iterations =  3.0

     total cpu time spent up to now is    36999.8 secs

     total energy              =   -4360.79360342 Ry
     Harris-Foulkes estimate   =   -4360.79360350 Ry
     estimated scf accuracy    <       0.00000015 Ry

     iteration #  8     ecut=    50.00 Ry     beta=0.70
     Davidson diagonalization with overlap
     ethr =  1.18E-10,  avg # of iterations =  3.1

     total cpu time spent up to now is    37040.9 secs

     total energy              =   -4360.79360353 Ry
     Harris-Foulkes estimate   =   -4360.79360354 Ry
     estimated scf accuracy    <       0.00000002 Ry

     iteration #  9     ecut=    50.00 Ry     beta=0.70
     Davidson diagonalization with overlap
     ethr =  1.57E-11,  avg # of iterations =  3.1

     total cpu time spent up to now is    37078.3 secs

     total energy              =   -4360.79360353 Ry
     Harris-Foulkes estimate   =   -4360.79360354 Ry
     estimated scf accuracy    <       0.00000003 Ry

     iteration # 10     ecut=    50.00 Ry     beta=0.70
     Davidson diagonalization with overlap
     ethr =  1.57E-11,  avg # of iterations =  2.6

     total cpu time spent up to now is    37112.5 secs

     End of self-consistent calculation

          k = 0.0000 0.0000 0.0000 ( 16447 PWs)   bands (ev):

   -76.7475 -76.7467 -76.7193 -72.7535 -39.8695 -39.8299 -39.8282 -38.6610
   -38.6489 -38.6483 -38.6326 -38.6311 -38.6233 -38.6232 -38.5712 -38.5681
   -33.8776 -33.8768 -33.8701 -33.8674 -33.8663 -33.8645 -33.8641 -33.8639
   -33.8584 -33.8572 -33.8540 -33.8536 -33.8522 -33.8460 -33.8459 -33.8452
   -33.8451 -33.8414 -33.8124 -33.8010 -33.7988  -5.5018  -4.7730  -4.6379
    -1.9868  -1.9384  -1.8633  -1.7977  -1.5058  -1.4563  -1.2731  -1.2584
    -1.2044  -1.1796  -1.0699  -0.9506  -0.8627  -0.6933  -0.5449  -0.5304
    -0.3257  -0.2785  -0.2464  -0.2257  -0.2037  -0.0617   0.1561   0.1956
     5.1639   5.5098   6.0794   6.2074   6.3076   6.4785   6.5201   6.7791
     7.0246   7.3899   7.4131   7.4859   7.5154   7.6001

          k = 0.0003-0.0003-0.8168 ( 16526 PWs)   bands (ev):

   -76.7475 -76.7467 -76.7193 -72.7535 -39.8695 -39.8299 -39.8282 -38.6611
   -38.6490 -38.6483 -38.6327 -38.6312 -38.6236 -38.6235 -38.5715 -38.5681
   -33.8777 -33.8770 -33.8702 -33.8673 -33.8663 -33.8646 -33.8641 -33.8640
   -33.8585 -33.8573 -33.8541 -33.8536 -33.8523 -33.8461 -33.8460 -33.8454
   -33.8451 -33.8415 -33.8124 -33.8011 -33.7989  -5.1130  -4.7897  -4.5327
    -2.3122  -1.9747  -1.8056  -1.7744  -1.6155  -1.4522  -1.4374  -1.4357
    -1.3490  -1.1779  -1.0297  -1.0182  -0.9546  -0.8158  -0.7176  -0.5979
    -0.4809  -0.2768  -0.2370   0.0470   0.0566   0.0675   0.0795   0.1638
     5.6928   5.7089   5.8435   5.9402   6.3212   6.6083   6.9134   7.0426
     7.2100   7.2944   7.5864   7.7455   7.9426   8.1534

          k =-0.5203-0.2861 0.0001 ( 16490 PWs)   bands (ev):

   -76.7475 -76.7467 -76.7193 -72.7535 -39.8695 -39.8299 -39.8282 -38.6610
   -38.6489 -38.6483 -38.6327 -38.6311 -38.6234 -38.6234 -38.5713 -38.5681
   -33.8777 -33.8769 -33.8702 -33.8674 -33.8663 -33.8645 -33.8641 -33.8640
   -33.8585 -33.8573 -33.8540 -33.8536 -33.8523 -33.8460 -33.8459 -33.8452
   -33.8450 -33.8414 -33.8124 -33.8010 -33.7989  -5.2850  -4.9558  -4.7837
    -1.9981  -1.8539  -1.7460  -1.5076  -1.4470  -1.4270  -1.2908  -1.2652
    -1.2395  -1.2066  -1.1330  -1.0108  -0.8939  -0.7554  -0.5987  -0.4466
    -0.4066  -0.3219  -0.3178  -0.2649  -0.1416  -0.0480   0.0994   0.1357
     5.2628   5.4754   5.6826   5.9619   6.6330   6.7414   6.9719   7.0087
     7.1152   7.1412   7.2684   7.7839   7.8521   7.8556

          k =-0.5199-0.2863-0.8166 ( 16554 PWs)   bands (ev):

   -76.7475 -76.7467 -76.7193 -72.7535 -39.8695 -39.8299 -39.8282 -38.6611
   -38.6491 -38.6483 -38.6326 -38.6313 -38.6236 -38.6236 -38.5716 -38.5682
   -33.8777 -33.8769 -33.8702 -33.8674 -33.8664 -33.8646 -33.8641 -33.8640
   -33.8585 -33.8573 -33.8540 -33.8537 -33.8523 -33.8462 -33.8460 -33.8454
   -33.8451 -33.8415 -33.8124 -33.8012 -33.7989  -5.0004  -4.7760  -4.6732
    -2.3565  -1.9809  -1.8664  -1.6397  -1.5815  -1.5537  -1.4129  -1.3549
    -1.3146  -1.2785  -1.0747  -1.0218  -0.9322  -0.8481  -0.7626  -0.6122
    -0.4176  -0.2528  -0.1742   0.0166   0.0706   0.0788   0.0899   0.1950
     5.5648   5.8538   5.8700   5.9024   6.0498   6.1688   6.8911   6.9088
     7.1119   7.1957   7.6750   7.8814   7.9290   8.1500

          k =-0.5206 0.2865 0.0003 ( 16490 PWs)   bands (ev):

   -76.7475 -76.7467 -76.7193 -72.7535 -39.8695 -39.8299 -39.8282 -38.6610
   -38.6490 -38.6483 -38.6326 -38.6312 -38.6234 -38.6234 -38.5713 -38.5681
   -33.8777 -33.8769 -33.8702 -33.8674 -33.8664 -33.8646 -33.8641 -33.8640
   -33.8585 -33.8573 -33.8540 -33.8536 -33.8522 -33.8460 -33.8459 -33.8452
   -33.8451 -33.8414 -33.8124 -33.8010 -33.7989  -5.2849  -4.9548  -4.7847
    -2.0008  -1.8538  -1.7461  -1.5080  -1.4470  -1.4286  -1.2874  -1.2648
    -1.2393  -1.2066  -1.1322  -1.0117  -0.8904  -0.7542  -0.5987  -0.4471
    -0.4096  -0.3217  -0.3151  -0.2652  -0.1428  -0.0517   0.0975   0.1395
     5.2617   5.4760   5.6819   5.9634   6.6336   6.7389   6.9690   7.0059
     7.1132   7.1430   7.2689   7.7810   7.8544   7.8629

          k =-0.5202 0.2863-0.8165 ( 16536 PWs)   bands (ev):

   -76.7475 -76.7467 -76.7193 -72.7535 -39.8695 -39.8299 -39.8282 -38.6610
   -38.6489 -38.6484 -38.6327 -38.6311 -38.6236 -38.6236 -38.5715 -38.5682
   -33.8777 -33.8769 -33.8702 -33.8674 -33.8664 -33.8646 -33.8641 -33.8640
   -33.8585 -33.8573 -33.8540 -33.8537 -33.8523 -33.8462 -33.8460 -33.8454
   -33.8451 -33.8414 -33.8124 -33.8012 -33.7989  -5.0001  -4.7760  -4.6735
    -2.3567  -1.9811  -1.8662  -1.6393  -1.5822  -1.5534  -1.4119  -1.3565
    -1.3142  -1.2796  -1.0709  -1.0196  -0.9347  -0.8516  -0.7657  -0.6080
    -0.4158  -0.2530  -0.1747   0.0150   0.0702   0.0705   0.0986   0.1964
     5.5675   5.8487   5.8795   5.8983   6.0451   6.1686   6.8912   6.9088
     7.1103   7.2074   7.6591   7.8764   7.9380   8.1516

          k =-1.0408 0.0005 0.0004 ( 16510 PWs)   bands (ev):

   -76.7475 -76.7467 -76.7193 -72.7535 -39.8695 -39.8299 -39.8282 -38.6610
   -38.6490 -38.6483 -38.6326 -38.6312 -38.6235 -38.6234 -38.5714 -38.5681
   -33.8777 -33.8770 -33.8702 -33.8674 -33.8664 -33.8646 -33.8641 -33.8640
   -33.8584 -33.8573 -33.8541 -33.8536 -33.8522 -33.8460 -33.8459 -33.8452
   -33.8451 -33.8414 -33.8123 -33.8011 -33.7989  -5.2782  -4.9860  -4.7744
    -1.9340  -1.8690  -1.8173  -1.5085  -1.4605  -1.4168  -1.2786  -1.2426
    -1.2260  -1.1802  -1.1163  -0.9145  -0.7943  -0.6971  -0.6613  -0.6417
    -0.5089  -0.2811  -0.2656  -0.2428  -0.2055  -0.0470   0.0720   0.1553
     5.2031   5.5762   5.6862   6.0822   6.5957   6.7565   6.7682   7.0913
     7.1141   7.1728   7.3146   7.6688   7.6751   7.7628

          k =-1.0405 0.0002-0.8164 ( 16498 PWs)   bands (ev):

   -76.7475 -76.7467 -76.7193 -72.7535 -39.8695 -39.8299 -39.8282 -38.6609
   -38.6489 -38.6482 -38.6325 -38.6310 -38.6237 -38.6236 -38.5716 -38.5681
   -33.8777 -33.8769 -33.8701 -33.8673 -33.8663 -33.8645 -33.8641 -33.8640
   -33.8585 -33.8572 -33.8540 -33.8535 -33.8522 -33.8461 -33.8459 -33.8454
   -33.8451 -33.8414 -33.8124 -33.8012 -33.7989  -4.8982  -4.8102  -4.7829
    -2.3645  -1.9434  -1.7650  -1.6883  -1.5483  -1.5110  -1.3627  -1.3266
    -1.2963  -1.2332  -1.2054  -0.9715  -0.9173  -0.7591  -0.7553  -0.6813
    -0.4800  -0.4136  -0.2461   0.0280   0.0384   0.0390   0.1095   0.2689
     5.5865   5.7552   5.8084   6.0355   6.0971   6.3987   6.8271   7.0766
     7.1308   7.3587   7.3663   7.5828   7.8998   8.1003

     the Fermi energy is     5.3815 ev

!    total energy              =   -4360.79360353 Ry
     Harris-Foulkes estimate   =   -4360.79360353 Ry
     estimated scf accuracy    <          3.7E-09 Ry

     The total energy is the sum of the following terms:

     one-electron contribution =   -3265.09116420 Ry
     hartree contribution      =    1633.75607252 Ry
     xc contribution           =    -317.65203995 Ry
     ewald contribution        =    -763.01829093 Ry
     one-center paw contrib.   =   -1648.78965907 Ry
     smearing contrib. (-TS)   =       0.00147810 Ry

     convergence has been achieved in  10 iterations

     Forces acting on atoms (cartesian axes, Ry/au):

     atom    1 type  2   force =     0.00179482   -0.00048563   -0.00000262
     atom    2 type  3   force =    -0.00121043   -0.00021047   -0.00005953
     atom    3 type  2   force =     0.00175693    0.00039977    0.00000079
     atom    4 type  2   force =     0.00054884   -0.00029824    0.00000305
     atom    5 type  2   force =    -0.00116578    0.00001056    0.00000139
     atom    6 type  2   force =     0.00052933    0.00047844   -0.00000993
     atom    7 type  4   force =     0.00036399    0.00053398    0.00006236
     atom    8 type  4   force =     0.00061048   -0.00037728   -0.00001726
     atom    9 type  4   force =    -0.00076240   -0.00019118   -0.00006745
     atom   10 type  1   force =     0.00072765    0.00035777    0.00027858
     atom   11 type  1   force =    -0.00050374    0.00000833    0.00017112
     atom   12 type  1   force =     0.00035943    0.00018253   -0.00046983
     atom   13 type  1   force =     0.00052218   -0.00017679    0.00063461
     atom   14 type  1   force =     0.00053454    0.00012640    0.00063631
     atom   15 type  1   force =     0.00095606   -0.00025517   -0.00088124
     atom   16 type  1   force =    -0.00074384   -0.00035118    0.00019647
     atom   17 type  1   force =     0.00086117   -0.00001197    0.00060647
     atom   18 type  1   force =    -0.00063056    0.00019894   -0.00013552
     atom   19 type  1   force =     0.00017209   -0.00048888   -0.00003075
     atom   20 type  1   force =     0.00077177   -0.00012032    0.00005942
     atom   21 type  1   force =     0.00033889    0.00047825    0.00003943
     atom   22 type  1   force =    -0.00067838    0.00093808    0.00104348
     atom   23 type  1   force =    -0.00056730   -0.00000418   -0.00073367
     atom   24 type  1   force =    -0.00065454   -0.00068886   -0.00114564
     atom   25 type  1   force =    -0.00059694   -0.00056454    0.00112506
     atom   26 type  1   force =    -0.00069906    0.00000855    0.00059589
     atom   27 type  1   force =    -0.00055263    0.00070787   -0.00077137
     atom   28 type  1   force =    -0.00155238    0.00073262    0.00004339
     atom   29 type  1   force =     0.00090180    0.00007270   -0.00004216
     atom   30 type  1   force =    -0.00091463   -0.00085200   -0.00005456
     atom   31 type  1   force =    -0.00126705    0.00132972    0.00004352
     atom   32 type  1   force =     0.00112263   -0.00014571   -0.00004604
     atom   33 type  1   force =    -0.00119824   -0.00030970   -0.00001930
     atom   34 type  1   force =     0.00040396   -0.00017151   -0.00050880
     atom   35 type  1   force =     0.00067704   -0.00056399   -0.00008670
     atom   36 type  1   force =    -0.00025570   -0.00029693   -0.00045897

     Total force =     0.006552     Total SCF correction =     0.000314


     Computing stress (Cartesian axis) and pressure

          total   stress  (Ry/bohr**3)                   (kbar)     P=   -0.04
   0.00000208  -0.00000095  -0.00000067          0.31     -0.14     -0.10
  -0.00000095   0.00000105   0.00000230         -0.14      0.15      0.34
  -0.00000067   0.00000230  -0.00000397         -0.10      0.34     -0.58


     number of scf cycles    =  36
     number of bfgs steps    =  35

     enthalpy old            =   -4360.7935214504 Ry
     enthalpy new            =   -4360.7936035313 Ry

     CASE: enthalpy_new < enthalpy_old

     new trust radius        =       0.0148867322 bohr
     new conv_thr            =       0.0000000100 Ry

     new unit-cell volume =   2711.05800 a.u.^3 (   401.73734 Ang^3 )
     density =      0.14880 g/cm^3

CELL_PARAMETERS (angstrom)
   4.426178902  -8.041777864   0.004291298
   4.434496420   8.047029458  -0.000688522
   0.002042282  -0.001281765   5.636139731

ATOMIC_POSITIONS (angstrom)
K        1.035258560   2.085210581   2.818800402
Mg       6.527144071  -0.002136501   2.815111239
K        1.031791257  -2.086114469   2.819546429
K        2.683539414   4.760522830  -0.001327007
K        3.655570627   0.002610721   0.000888093
K        2.678523693  -4.753502575   0.001784634
Re       4.586466944  -2.466126880   2.820147516
Re       4.591592615   2.469082928   2.818811938
Re      -0.262713808   0.001107775   0.001774411
H        4.986039574  -3.609880470   4.026966842
H        5.343340364  -1.475761016   4.021752396
H        3.466512480  -2.341277361   4.105810478
H        3.469651546   2.344481671   1.533830646
H        3.465742201  -2.341297669   1.534102184
H        4.985011239  -3.609869802   1.615536054
H        5.342583819  -1.474964882   1.615907819
H        4.989516404   3.612615507   4.025024207
H        5.348332242   1.477693715   4.020382011
H        0.514574463  -1.500106709   0.001327385
H        6.851725699   0.001143465   0.005988767
H        0.522320194   1.497571797   0.000253676
H        3.556750271  -7.053439228   1.287427733
H        1.001874484  -0.001066409   4.499305479
H        3.562515216   7.066364400   4.348636243
H        3.562286394   7.066140016   1.290289978
H        1.001830246   0.000042689   1.139056429
H        3.556621860  -7.056858923   4.359667403
H        3.491321387   3.740853468   2.818656468
H        6.244784086   2.760991989   2.819060664
H        3.810702712   0.990255607   2.819626479
H        3.807008141  -0.987942334   2.819730567
H        6.239910182  -2.755220565   2.820380903
H        3.485361243  -3.738531491   2.820728561
H        3.470635040   2.344197752   4.103934464
H        4.989073814   3.614458342   1.611677285
H        5.346531416   1.478943354   1.617471455



     Writing output data file K5MgReH93.save
     NEW-OLD atomic charge density approx. for the potential
     extrapolated charge  129.01386, renormalised to  129.00000

     total cpu time spent up to now is    37724.4 secs

     Self-consistent Calculation

     iteration #  1     ecut=    50.00 Ry     beta=0.70
     Davidson diagonalization with overlap
     ethr =  1.00E-06,  avg # of iterations =  4.0

     total cpu time spent up to now is    37773.3 secs

     total energy              =   -4360.79333942 Ry
     Harris-Foulkes estimate   =   -4360.45765240 Ry
     estimated scf accuracy    <       0.00038553 Ry

     iteration #  2     ecut=    50.00 Ry     beta=0.70
     Davidson diagonalization with overlap
     ethr =  2.99E-07,  avg # of iterations =  3.5

     total cpu time spent up to now is    37815.2 secs

     total energy              =   -4360.79335960 Ry
     Harris-Foulkes estimate   =   -4360.79431169 Ry
     estimated scf accuracy    <       0.00321993 Ry

     iteration #  3     ecut=    50.00 Ry     beta=0.70
     Davidson diagonalization with overlap
     ethr =  2.99E-07,  avg # of iterations =  3.1

     total cpu time spent up to now is    37851.8 secs

     total energy              =   -4360.79368781 Ry
     Harris-Foulkes estimate   =   -4360.79371697 Ry
     estimated scf accuracy    <       0.00008501 Ry

     iteration #  4     ecut=    50.00 Ry     beta=0.70
     Davidson diagonalization with overlap
     ethr =  6.59E-08,  avg # of iterations =  2.9

     total cpu time spent up to now is    37885.9 secs

     total energy              =   -4360.79368782 Ry
     Harris-Foulkes estimate   =   -4360.79371131 Ry
     estimated scf accuracy    <       0.00007988 Ry

     iteration #  5     ecut=    50.00 Ry     beta=0.70
     Davidson diagonalization with overlap
     ethr =  6.19E-08,  avg # of iterations =  2.5

     total cpu time spent up to now is    37916.6 secs

     total energy              =   -4360.79369887 Ry
     Harris-Foulkes estimate   =   -4360.79369957 Ry
     estimated scf accuracy    <       0.00000149 Ry

     iteration #  6     ecut=    50.00 Ry     beta=0.70
     Davidson diagonalization with overlap
     ethr =  1.15E-09,  avg # of iterations =  3.8

     total cpu time spent up to now is    37955.7 secs

     total energy              =   -4360.79369931 Ry
     Harris-Foulkes estimate   =   -4360.79369966 Ry
     estimated scf accuracy    <       0.00000093 Ry

     iteration #  7     ecut=    50.00 Ry     beta=0.70
     Davidson diagonalization with overlap
     ethr =  7.22E-10,  avg # of iterations =  2.8

     total cpu time spent up to now is    37988.9 secs

     total energy              =   -4360.79369944 Ry
     Harris-Foulkes estimate   =   -4360.79369949 Ry
     estimated scf accuracy    <       0.00000014 Ry

     iteration #  8     ecut=    50.00 Ry     beta=0.70
     Davidson diagonalization with overlap
     ethr =  1.07E-10,  avg # of iterations =  2.5

     total cpu time spent up to now is    38022.4 secs

     total energy              =   -4360.79369946 Ry
     Harris-Foulkes estimate   =   -4360.79369946 Ry
     estimated scf accuracy    <       0.00000001 Ry

     iteration #  9     ecut=    50.00 Ry     beta=0.70
     Davidson diagonalization with overlap
     ethr =  9.78E-12,  avg # of iterations =  3.0

     total cpu time spent up to now is    38057.7 secs

     End of self-consistent calculation

          k = 0.0000 0.0000 0.0000 ( 16447 PWs)   bands (ev):

   -76.7504 -76.7495 -76.7260 -72.7627 -39.8783 -39.8393 -39.8374 -38.6670
   -38.6507 -38.6498 -38.6343 -38.6327 -38.6248 -38.6248 -38.5775 -38.5719
   -33.8816 -33.8806 -33.8782 -33.8721 -33.8713 -33.8701 -33.8684 -33.8678
   -33.8626 -33.8618 -33.8611 -33.8575 -33.8558 -33.8500 -33.8498 -33.8493
   -33.8490 -33.8487 -33.8201 -33.8087 -33.8064  -5.5004  -4.7706  -4.6341
    -1.9859  -1.9434  -1.8585  -1.7917  -1.5002  -1.4488  -1.2688  -1.2620
    -1.2035  -1.1752  -1.0724  -0.9510  -0.8584  -0.6915  -0.5458  -0.5279
    -0.3267  -0.2770  -0.2429  -0.2244  -0.2074  -0.0591   0.1557   0.1990
     5.1655   5.5023   6.0740   6.1984   6.3020   6.4742   6.5210   6.7738
     7.0229   7.3848   7.4039   7.4729   7.5108   7.5969

          k = 0.0003-0.0003-0.8174 ( 16526 PWs)   bands (ev):

   -76.7504 -76.7495 -76.7260 -72.7627 -39.8783 -39.8393 -39.8374 -38.6672
   -38.6507 -38.6498 -38.6344 -38.6328 -38.6252 -38.6251 -38.5778 -38.5719
   -33.8817 -33.8807 -33.8783 -33.8722 -33.8713 -33.8700 -33.8684 -33.8678
   -33.8626 -33.8620 -33.8611 -33.8576 -33.8559 -33.8502 -33.8499 -33.8494
   -33.8492 -33.8488 -33.8201 -33.8088 -33.8064  -5.1083  -4.7875  -4.5279
    -2.3140  -1.9731  -1.8052  -1.7736  -1.6074  -1.4501  -1.4389  -1.4347
    -1.3433  -1.1818  -1.0339  -1.0132  -0.9484  -0.8165  -0.7211  -0.5970
    -0.4822  -0.2725  -0.2360   0.0470   0.0564   0.0727   0.0779   0.1716
     5.6909   5.7006   5.8456   5.9358   6.3124   6.5916   6.9023   7.0433
     7.2106   7.2957   7.5812   7.7360   7.9408   8.1403

          k =-0.5197-0.2861 0.0001 ( 16490 PWs)   bands (ev):

   -76.7504 -76.7495 -76.7260 -72.7627 -39.8783 -39.8393 -39.8374 -38.6671
   -38.6507 -38.6498 -38.6343 -38.6327 -38.6250 -38.6250 -38.5777 -38.5719
   -33.8816 -33.8807 -33.8783 -33.8721 -33.8713 -33.8701 -33.8684 -33.8679
   -33.8626 -33.8619 -33.8611 -33.8576 -33.8559 -33.8501 -33.8499 -33.8493
   -33.8491 -33.8487 -33.8201 -33.8087 -33.8064  -5.2850  -4.9529  -4.7791
    -1.9964  -1.8496  -1.7506  -1.5012  -1.4390  -1.4224  -1.2953  -1.2630
    -1.2348  -1.2044  -1.1311  -1.0104  -0.8904  -0.7572  -0.5993  -0.4497
    -0.4060  -0.3190  -0.3172  -0.2610  -0.1444  -0.0437   0.1036   0.1343
     5.2603   5.4682   5.6771   5.9638   6.6323   6.7387   6.9685   6.9969
     7.1143   7.1308   7.2602   7.7771   7.8464   7.8478

          k =-0.5194-0.2863-0.8172 ( 16554 PWs)   bands (ev):

   -76.7504 -76.7495 -76.7260 -72.7627 -39.8783 -39.8393 -39.8374 -38.6671
   -38.6508 -38.6498 -38.6343 -38.6329 -38.6252 -38.6252 -38.5779 -38.5720
   -33.8817 -33.8807 -33.8783 -33.8722 -33.8714 -33.8702 -33.8685 -33.8678
   -33.8626 -33.8619 -33.8611 -33.8576 -33.8560 -33.8502 -33.8499 -33.8494
   -33.8493 -33.8488 -33.8201 -33.8089 -33.8065  -4.9966  -4.7738  -4.6671
    -2.3586  -1.9816  -1.8667  -1.6318  -1.5867  -1.5509  -1.4110  -1.3494
    -1.3133  -1.2737  -1.0751  -1.0157  -0.9358  -0.8431  -0.7647  -0.6127
    -0.4198  -0.2521  -0.1722   0.0166   0.0711   0.0790   0.0943   0.1998
     5.5588   5.8498   5.8648   5.8947   6.0510   6.1618   6.8868   6.9012
     7.1142   7.1873   7.6723   7.8765   7.9207   8.1447

          k =-0.5201 0.2866 0.0003 ( 16490 PWs)   bands (ev):

   -76.7504 -76.7495 -76.7260 -72.7627 -39.8783 -39.8393 -39.8374 -38.6671
   -38.6507 -38.6498 -38.6343 -38.6328 -38.6250 -38.6250 -38.5777 -38.5719
   -33.8816 -33.8807 -33.8783 -33.8721 -33.8714 -33.8701 -33.8684 -33.8678
   -33.8626 -33.8619 -33.8611 -33.8576 -33.8559 -33.8500 -33.8499 -33.8493
   -33.8491 -33.8488 -33.8201 -33.8087 -33.8065  -5.2849  -4.9517  -4.7803
    -1.9996  -1.8495  -1.7509  -1.5015  -1.4391  -1.4241  -1.2911  -1.2627
    -1.2343  -1.2047  -1.1303  -1.0112  -0.8864  -0.7557  -0.5993  -0.4506
    -0.4095  -0.3186  -0.3146  -0.2613  -0.1451  -0.0481   0.1021   0.1380
     5.2590   5.4691   5.6763   5.9655   6.6331   6.7359   6.9652   6.9937
     7.1120   7.1325   7.2604   7.7738   7.8502   7.8554

          k =-0.5198 0.2864-0.8171 ( 16536 PWs)   bands (ev):

   -76.7504 -76.7495 -76.7260 -72.7627 -39.8783 -39.8393 -39.8374 -38.6671
   -38.6507 -38.6499 -38.6344 -38.6327 -38.6252 -38.6252 -38.5779 -38.5719
   -33.8816 -33.8807 -33.8783 -33.8721 -33.8714 -33.8701 -33.8685 -33.8678
   -33.8626 -33.8619 -33.8611 -33.8576 -33.8559 -33.8502 -33.8499 -33.8493
   -33.8493 -33.8488 -33.8201 -33.8089 -33.8065  -4.9963  -4.7738  -4.6673
    -2.3589  -1.9818  -1.8666  -1.6313  -1.5874  -1.5509  -1.4093  -1.3510
    -1.3130  -1.2754  -1.0704  -1.0130  -0.9388  -0.8474  -0.7686  -0.6075
    -0.4176  -0.2526  -0.1724   0.0145   0.0709   0.0718   0.1020   0.2013
     5.5624   5.8419   5.8778   5.8896   6.0458   6.1614   6.8867   6.9016
     7.1125   7.2000   7.6547   7.8709   7.9312   8.1471

          k =-1.0398 0.0005 0.0004 ( 16510 PWs)   bands (ev):

   -76.7504 -76.7495 -76.7260 -72.7627 -39.8783 -39.8393 -39.8374 -38.6671
   -38.6507 -38.6498 -38.6343 -38.6328 -38.6251 -38.6250 -38.5777 -38.5719
   -33.8817 -33.8807 -33.8783 -33.8722 -33.8714 -33.8701 -33.8684 -33.8678
   -33.8626 -33.8620 -33.8611 -33.8576 -33.8559 -33.8501 -33.8498 -33.8493
   -33.8491 -33.8487 -33.8201 -33.8088 -33.8064  -5.2784  -4.9802  -4.7726
    -1.9367  -1.8643  -1.8146  -1.5014  -1.4557  -1.4101  -1.2779  -1.2372
    -1.2291  -1.1775  -1.1237  -0.9097  -0.7932  -0.6974  -0.6601  -0.6394
    -0.5113  -0.2770  -0.2642  -0.2427  -0.2093  -0.0410   0.0752   0.1537
     5.2008   5.5696   5.6791   6.0865   6.5963   6.7437   6.7608   7.0901
     7.1076   7.1739   7.3072   7.6576   7.6667   7.7588

          k =-1.0395 0.0003-0.8170 ( 16498 PWs)   bands (ev):

   -76.7504 -76.7495 -76.7260 -72.7627 -39.8783 -39.8393 -39.8374 -38.6670
   -38.6506 -38.6497 -38.6342 -38.6327 -38.6252 -38.6252 -38.5779 -38.5718
   -33.8817 -33.8807 -33.8782 -33.8721 -33.8713 -33.8700 -33.8684 -33.8678
   -33.8626 -33.8619 -33.8611 -33.8575 -33.8558 -33.8502 -33.8498 -33.8493
   -33.8493 -33.8487 -33.8201 -33.8089 -33.8064  -4.8956  -4.8030  -4.7807
    -2.3662  -1.9421  -1.7617  -1.6809  -1.5554  -1.5113  -1.3564  -1.3228
    -1.2917  -1.2357  -1.2075  -0.9743  -0.9204  -0.7559  -0.7504  -0.6789
    -0.4814  -0.4078  -0.2476   0.0327   0.0377   0.0443   0.1092   0.2705
     5.5779   5.7583   5.8043   6.0312   6.0931   6.3909   6.8150   7.0791
     7.1292   7.3517   7.3656   7.5678   7.8938   8.0960

     the Fermi energy is     5.3762 ev

!    total energy              =   -4360.79369946 Ry
     Harris-Foulkes estimate   =   -4360.79369946 Ry
     estimated scf accuracy    <          7.9E-09 Ry

     The total energy is the sum of the following terms:

     one-electron contribution =   -3265.56238204 Ry
     hartree contribution      =    1633.97373104 Ry
     xc contribution           =    -317.64136551 Ry
     ewald contribution        =    -762.77414039 Ry
     one-center paw contrib.   =   -1648.79087100 Ry
     smearing contrib. (-TS)   =       0.00132844 Ry

     convergence has been achieved in   9 iterations

     Forces acting on atoms (cartesian axes, Ry/au):

     atom    1 type  2   force =     0.00169672   -0.00055014    0.00000130
     atom    2 type  3   force =    -0.00135519   -0.00026649   -0.00007120
     atom    3 type  2   force =     0.00164174    0.00047126   -0.00000107
     atom    4 type  2   force =     0.00054918   -0.00007379    0.00001324
     atom    5 type  2   force =    -0.00108314    0.00001973    0.00000621
     atom    6 type  2   force =     0.00051960    0.00028488   -0.00001010
     atom    7 type  4   force =     0.00008731    0.00022052   -0.00008985
     atom    8 type  4   force =    -0.00004134   -0.00010150   -0.00001780
     atom    9 type  4   force =    -0.00033563   -0.00003242    0.00000876
     atom   10 type  1   force =     0.00047226    0.00098311   -0.00035951
     atom   11 type  1   force =    -0.00068470   -0.00028115   -0.00027877
     atom   12 type  1   force =     0.00076626    0.00002517   -0.00095241
     atom   13 type  1   force =     0.00099775   -0.00000789    0.00119422
     atom   14 type  1   force =     0.00094282   -0.00002178    0.00113890
     atom   15 type  1   force =     0.00072277    0.00032079   -0.00028595
     atom   16 type  1   force =    -0.00099095   -0.00071809    0.00075443
     atom   17 type  1   force =     0.00063087   -0.00063304   -0.00003853
     atom   18 type  1   force =    -0.00079390    0.00049257   -0.00058122
     atom   19 type  1   force =     0.00004342   -0.00030245   -0.00002540
     atom   20 type  1   force =     0.00230988   -0.00014045    0.00005335
     atom   21 type  1   force =     0.00022564    0.00027493    0.00003565
     atom   22 type  1   force =    -0.00060881    0.00076899    0.00089446
     atom   23 type  1   force =    -0.00112675   -0.00001792   -0.00017156
     atom   24 type  1   force =    -0.00062038   -0.00058173   -0.00111651
     atom   25 type  1   force =    -0.00056862   -0.00051658    0.00113704
     atom   26 type  1   force =    -0.00128484   -0.00000973    0.00001067
     atom   27 type  1   force =    -0.00050574    0.00059971   -0.00069172
     atom   28 type  1   force =    -0.00153620    0.00095168    0.00003953
     atom   29 type  1   force =     0.00091067    0.00012417   -0.00003998
     atom   30 type  1   force =    -0.00072319   -0.00073416   -0.00005179
     atom   31 type  1   force =    -0.00119501    0.00139266    0.00004602
     atom   32 type  1   force =     0.00111423   -0.00019337   -0.00002856
     atom   33 type  1   force =    -0.00109274   -0.00040253   -0.00001235
     atom   34 type  1   force =     0.00088016   -0.00001375   -0.00106716
     atom   35 type  1   force =     0.00040580   -0.00125448    0.00064275
     atom   36 type  1   force =    -0.00036995   -0.00007676   -0.00008511

     Total force =     0.007315     Total SCF correction =     0.000497


     Computing stress (Cartesian axis) and pressure

          total   stress  (Ry/bohr**3)                   (kbar)     P=   -0.93
  -0.00000556  -0.00000122  -0.00000063         -0.82     -0.18     -0.09
  -0.00000122  -0.00000157   0.00000243         -0.18     -0.23      0.36
  -0.00000063   0.00000243  -0.00001174         -0.09      0.36     -1.73


     number of scf cycles    =  37
     number of bfgs steps    =  36

     enthalpy old            =   -4360.7936035313 Ry
     enthalpy new            =   -4360.7936994561 Ry

     CASE: enthalpy_new < enthalpy_old

     new trust radius        =       0.0160777885 bohr
     new conv_thr            =       0.0000000100 Ry

     new unit-cell volume =   2711.02332 a.u.^3 (   401.73220 Ang^3 )
     density =      0.14880 g/cm^3

CELL_PARAMETERS (angstrom)
   4.432366532  -8.040766895   0.003648257
   4.441282510   8.046323534  -0.000141072
   0.001989748  -0.000879094   5.628428042

ATOMIC_POSITIONS (angstrom)
K        1.041624796   2.086374123   2.815145432
Mg       6.531931896  -0.002770216   2.810828133
K        1.037908073  -2.087091755   2.815586989
K        2.692340173   4.753842899  -0.001135404
K        3.654926499   0.002810623   0.000780814
K        2.687125496  -4.745910391   0.001384243
Re       4.595667087  -2.464050670   2.815976628
Re       4.601290345   2.467595078   2.815078542
Re      -0.268812730   0.001232637   0.001882960
H        4.998425511  -3.608863037   4.022803285
H        5.349539471  -1.472200411   4.019291574
H        3.476574489  -2.338236372   4.102939332
H        3.480148337   2.342133422   1.529118786
H        3.475935164  -2.338566051   1.528974672
H        4.997474404  -3.609325421   1.611192529
H        5.348713249  -1.471697012   1.610235559
H        5.002185783   3.612563143   4.021630520
H        5.355067955   1.474833417   4.017662657
H        0.508244347  -1.501035457   0.001202508
H        6.856260632   0.000405573   0.006268721
H        0.517181199   1.497747217   0.000412172
H        3.556908555  -7.049727882   1.286443927
H        0.996208858  -0.000785888   4.490128251
H        3.563117291   7.064801252   4.340787345
H        3.563074482   7.064549204   1.291551460
H        0.996322795   0.000173201   1.140418715
H        3.556626469  -7.053224527   4.352438053
H        3.497907924   3.738023003   2.815097763
H        6.256184190   2.753516556   2.815252312
H        3.816592332   0.989858622   2.815742284
H        3.812215824  -0.986663767   2.815777983
H        6.250921081  -2.746771965   2.816052706
H        3.491524289  -3.734931364   2.816590810
H        3.481109534   2.342063865   4.101293038
H        5.001747121   3.614056529   1.607846579
H        5.353361209   1.475877538   1.612134992



     Writing output data file K5MgReH93.save
     NEW-OLD atomic charge density approx. for the potential
     extrapolated charge  128.99835, renormalised to  129.00000

     total cpu time spent up to now is    38670.2 secs

     Self-consistent Calculation

     iteration #  1     ecut=    50.00 Ry     beta=0.70
     Davidson diagonalization with overlap
     ethr =  1.00E-06,  avg # of iterations =  4.0

     Threshold (ethr) on eigenvalues was too large:
     Diagonalizing with lowered threshold

     Davidson diagonalization with overlap
     ethr =  7.47E-08,  avg # of iterations =  1.2

     total cpu time spent up to now is    38743.1 secs

     total energy              =   -4360.79378511 Ry
     Harris-Foulkes estimate   =   -4360.82335080 Ry
     estimated scf accuracy    <       0.00009683 Ry

     iteration #  2     ecut=    50.00 Ry     beta=0.70
     Davidson diagonalization with overlap
     ethr =  7.51E-08,  avg # of iterations =  3.0

     total cpu time spent up to now is    38780.9 secs

     total energy              =   -4360.79381656 Ry
     Harris-Foulkes estimate   =   -4360.79385246 Ry
     estimated scf accuracy    <       0.00003239 Ry

     iteration #  3     ecut=    50.00 Ry     beta=0.70
     Davidson diagonalization with overlap
     ethr =  2.51E-08,  avg # of iterations =  3.8

     total cpu time spent up to now is    38818.0 secs

     total energy              =   -4360.79381514 Ry
     Harris-Foulkes estimate   =   -4360.79384234 Ry
     estimated scf accuracy    <       0.00007112 Ry

     iteration #  4     ecut=    50.00 Ry     beta=0.70
     Davidson diagonalization with overlap
     ethr =  2.51E-08,  avg # of iterations =  2.9

     total cpu time spent up to now is    38852.7 secs

     total energy              =   -4360.79382467 Ry
     Harris-Foulkes estimate   =   -4360.79382911 Ry
     estimated scf accuracy    <       0.00000929 Ry

     iteration #  5     ecut=    50.00 Ry     beta=0.70
     Davidson diagonalization with overlap
     ethr =  7.20E-09,  avg # of iterations =  2.8

     total cpu time spent up to now is    38885.8 secs

     total energy              =   -4360.79382635 Ry
     Harris-Foulkes estimate   =   -4360.79382749 Ry
     estimated scf accuracy    <       0.00000319 Ry

     iteration #  6     ecut=    50.00 Ry     beta=0.70
     Davidson diagonalization with overlap
     ethr =  2.47E-09,  avg # of iterations =  2.2

     total cpu time spent up to now is    38917.4 secs

     total energy              =   -4360.79382676 Ry
     Harris-Foulkes estimate   =   -4360.79382688 Ry
     estimated scf accuracy    <       0.00000024 Ry

     iteration #  7     ecut=    50.00 Ry     beta=0.70
     Davidson diagonalization with overlap
     ethr =  1.85E-10,  avg # of iterations =  3.0

     total cpu time spent up to now is    38952.6 secs

     total energy              =   -4360.79382682 Ry
     Harris-Foulkes estimate   =   -4360.79382686 Ry
     estimated scf accuracy    <       0.00000009 Ry

     iteration #  8     ecut=    50.00 Ry     beta=0.70
     Davidson diagonalization with overlap
     ethr =  7.29E-11,  avg # of iterations =  2.5

     total cpu time spent up to now is    38985.4 secs

     End of self-consistent calculation

          k = 0.0000 0.0000 0.0000 ( 16447 PWs)   bands (ev):

   -76.7519 -76.7518 -76.7326 -72.7770 -39.8923 -39.8538 -39.8516 -38.6721
   -38.6512 -38.6510 -38.6346 -38.6339 -38.6265 -38.6253 -38.5840 -38.5757
   -33.8862 -33.8839 -33.8836 -33.8801 -33.8734 -33.8733 -33.8710 -33.8704
   -33.8697 -33.8648 -33.8645 -33.8596 -33.8590 -33.8571 -33.8524 -33.8521
   -33.8519 -33.8518 -33.8278 -33.8167 -33.8142  -5.4995  -4.7674  -4.6323
    -1.9865  -1.9498  -1.8528  -1.7832  -1.4937  -1.4413  -1.2675  -1.2634
    -1.1998  -1.1750  -1.0756  -0.9498  -0.8555  -0.6867  -0.5450  -0.5230
    -0.3287  -0.2732  -0.2388  -0.2245  -0.2114  -0.0553   0.1512   0.2014
     5.1708   5.4961   6.0704   6.1899   6.2932   6.4680   6.5241   6.7683
     7.0254   7.3816   7.3986   7.4569   7.5125   7.5924

          k = 0.0003-0.0002-0.8185 ( 16526 PWs)   bands (ev):

   -76.7519 -76.7518 -76.7326 -72.7770 -39.8923 -39.8538 -39.8516 -38.6722
   -38.6513 -38.6511 -38.6347 -38.6340 -38.6268 -38.6256 -38.5843 -38.5757
   -33.8863 -33.8840 -33.8837 -33.8802 -33.8733 -33.8732 -33.8710 -33.8704
   -33.8698 -33.8648 -33.8646 -33.8597 -33.8591 -33.8572 -33.8526 -33.8523
   -33.8519 -33.8518 -33.8278 -33.8168 -33.8142  -5.1045  -4.7827  -4.5243
    -2.3141  -1.9732  -1.8060  -1.7697  -1.6003  -1.4460  -1.4445  -1.4349
    -1.3373  -1.1863  -1.0364  -1.0094  -0.9441  -0.8182  -0.7247  -0.5935
    -0.4783  -0.2675  -0.2359   0.0468   0.0559   0.0739   0.0770   0.1803
     5.6882   5.6944   5.8467   5.9330   6.3019   6.5745   6.8938   7.0462
     7.2126   7.2969   7.5753   7.7299   7.9428   8.1264

          k =-0.5190-0.2861 0.0001 ( 16490 PWs)   bands (ev):

   -76.7519 -76.7518 -76.7326 -72.7770 -39.8923 -39.8538 -39.8516 -38.6721
   -38.6513 -38.6511 -38.6346 -38.6339 -38.6267 -38.6255 -38.5842 -38.5758
   -33.8863 -33.8839 -33.8837 -33.8802 -33.8734 -33.8733 -33.8711 -33.8704
   -33.8698 -33.8648 -33.8645 -33.8596 -33.8591 -33.8571 -33.8525 -33.8522
   -33.8519 -33.8518 -33.8278 -33.8168 -33.8143  -5.2861  -4.9496  -4.7755
    -1.9950  -1.8444  -1.7563  -1.4938  -1.4308  -1.4161  -1.2990  -1.2601
    -1.2339  -1.2031  -1.1280  -1.0098  -0.8884  -0.7565  -0.5974  -0.4536
    -0.4046  -0.3170  -0.3134  -0.2562  -0.1473  -0.0400   0.1062   0.1310
     5.2624   5.4625   5.6706   5.9641   6.6334   6.7367   6.9641   6.9847
     7.1174   7.1201   7.2564   7.7695   7.8438   7.8444

          k =-0.5187-0.2863-0.8183 ( 16554 PWs)   bands (ev):

   -76.7519 -76.7518 -76.7326 -72.7770 -39.8923 -39.8538 -39.8516 -38.6722
   -38.6514 -38.6512 -38.6346 -38.6341 -38.6269 -38.6257 -38.5844 -38.5759
   -33.8863 -33.8839 -33.8837 -33.8802 -33.8734 -33.8733 -33.8711 -33.8704
   -33.8698 -33.8648 -33.8646 -33.8597 -33.8591 -33.8572 -33.8527 -33.8524
   -33.8519 -33.8518 -33.8278 -33.8170 -33.8143  -4.9944  -4.7692  -4.6617
    -2.3586  -1.9845  -1.8666  -1.6243  -1.5896  -1.5489  -1.4126  -1.3425
    -1.3130  -1.2716  -1.0747  -1.0083  -0.9394  -0.8393  -0.7667  -0.6121
    -0.4165  -0.2522  -0.1703   0.0169   0.0702   0.0792   0.0970   0.2052
     5.5531   5.8463   5.8595   5.8883   6.0515   6.1552   6.8830   6.8954
     7.1173   7.1808   7.6744   7.8696   7.9168   8.1418

          k =-0.5193 0.2867 0.0002 ( 16490 PWs)   bands (ev):

   -76.7519 -76.7518 -76.7326 -72.7770 -39.8923 -39.8538 -39.8516 -38.6721
   -38.6513 -38.6511 -38.6346 -38.6340 -38.6267 -38.6255 -38.5842 -38.5758
   -33.8863 -33.8839 -33.8837 -33.8802 -33.8734 -33.8733 -33.8710 -33.8704
   -33.8698 -33.8648 -33.8646 -33.8596 -33.8590 -33.8571 -33.8525 -33.8522
   -33.8519 -33.8518 -33.8278 -33.8168 -33.8143  -5.2861  -4.9481  -4.7768
    -1.9988  -1.8443  -1.7568  -1.4944  -1.4307  -1.4177  -1.2939  -1.2600
    -1.2331  -1.2034  -1.1276  -1.0109  -0.8840  -0.7543  -0.5974  -0.4544
    -0.4089  -0.3143  -0.3131  -0.2566  -0.1478  -0.0449   0.1052   0.1347
     5.2609   5.4634   5.6697   5.9657   6.6343   6.7341   6.9606   6.9810
     7.1143   7.1225   7.2570   7.7654   7.8469   7.8536

          k =-0.5190 0.2865-0.8183 ( 16536 PWs)   bands (ev):

   -76.7519 -76.7518 -76.7326 -72.7770 -39.8923 -39.8538 -39.8516 -38.6721
   -38.6513 -38.6511 -38.6347 -38.6339 -38.6268 -38.6257 -38.5844 -38.5758
   -33.8863 -33.8840 -33.8837 -33.8802 -33.8734 -33.8733 -33.8710 -33.8704
   -33.8698 -33.8648 -33.8646 -33.8597 -33.8591 -33.8571 -33.8527 -33.8524
   -33.8519 -33.8518 -33.8278 -33.8170 -33.8143  -4.9941  -4.7692  -4.6618
    -2.3589  -1.9848  -1.8665  -1.6235  -1.5903  -1.5493  -1.4104  -1.3438
    -1.3127  -1.2737  -1.0694  -1.0058  -0.9430  -0.8445  -0.7713  -0.6061
    -0.4139  -0.2527  -0.1707   0.0142   0.0703   0.0722   0.1045   0.2069
     5.5572   5.8347   5.8765   5.8825   6.0456   6.1548   6.8833   6.8955
     7.1153   7.1955   7.6545   7.8637   7.9292   8.1447

          k =-1.0383 0.0006 0.0004 ( 16510 PWs)   bands (ev):

   -76.7519 -76.7518 -76.7326 -72.7770 -39.8923 -39.8538 -39.8516 -38.6721
   -38.6513 -38.6511 -38.6346 -38.6340 -38.6267 -38.6255 -38.5843 -38.5758
   -33.8863 -33.8840 -33.8838 -33.8802 -33.8734 -33.8733 -33.8710 -33.8704
   -33.8699 -33.8648 -33.8645 -33.8596 -33.8590 -33.8571 -33.8525 -33.8522
   -33.8519 -33.8518 -33.8278 -33.8168 -33.8142  -5.2792  -4.9752  -4.7711
    -1.9400  -1.8587  -1.8106  -1.4935  -1.4526  -1.4038  -1.2743  -1.2353
    -1.2306  -1.1775  -1.1318  -0.9067  -0.7897  -0.6937  -0.6557  -0.6376
    -0.5146  -0.2719  -0.2610  -0.2422  -0.2122  -0.0348   0.0746   0.1501
     5.2024   5.5640   5.6703   6.0903   6.5986   6.7320   6.7552   7.0887
     7.1017   7.1778   7.3075   7.6485   7.6554   7.7546

          k =-1.0380 0.0004-0.8181 ( 16498 PWs)   bands (ev):

   -76.7519 -76.7518 -76.7326 -72.7770 -39.8923 -39.8538 -39.8516 -38.6720
   -38.6512 -38.6510 -38.6345 -38.6338 -38.6269 -38.6257 -38.5844 -38.5757
   -33.8863 -33.8840 -33.8837 -33.8802 -33.8733 -33.8732 -33.8710 -33.8704
   -33.8698 -33.8648 -33.8645 -33.8596 -33.8590 -33.8571 -33.8527 -33.8523
   -33.8519 -33.8518 -33.8278 -33.8169 -33.8142  -4.8950  -4.7960  -4.7760
    -2.3657  -1.9428  -1.7568  -1.6725  -1.5593  -1.5160  -1.3502  -1.3237
    -1.2869  -1.2394  -1.2099  -0.9767  -0.9226  -0.7542  -0.7468  -0.6748
    -0.4775  -0.4015  -0.2498   0.0362   0.0389   0.0483   0.1090   0.2715
     5.5708   5.7601   5.8011   6.0287   6.0867   6.3838   6.8060   7.0832
     7.1263   7.3465   7.3707   7.5524   7.8907   8.0965

     the Fermi energy is     5.3733 ev

!    total energy              =   -4360.79382683 Ry
     Harris-Foulkes estimate   =   -4360.79382684 Ry
     estimated scf accuracy    <          5.2E-09 Ry

     The total energy is the sum of the following terms:

     one-electron contribution =   -3266.15119638 Ry
     hartree contribution      =    1634.25269621 Ry
     xc contribution           =    -317.63156620 Ry
     ewald contribution        =    -762.47275154 Ry
     one-center paw contrib.   =   -1648.79212929 Ry
     smearing contrib. (-TS)   =       0.00112037 Ry

     convergence has been achieved in   8 iterations

     Forces acting on atoms (cartesian axes, Ry/au):

     atom    1 type  2   force =     0.00146078   -0.00054960    0.00000641
     atom    2 type  3   force =    -0.00104111   -0.00016341   -0.00006564
     atom    3 type  2   force =     0.00138432    0.00047577    0.00000151
     atom    4 type  2   force =     0.00062306    0.00018334    0.00002657
     atom    5 type  2   force =    -0.00095004    0.00002164    0.00001319
     atom    6 type  2   force =     0.00057388    0.00004964   -0.00000405
     atom    7 type  4   force =    -0.00039098    0.00070489    0.00009095
     atom    8 type  4   force =    -0.00038843   -0.00051302   -0.00017595
     atom    9 type  4   force =    -0.00025299    0.00012534   -0.00003672
     atom   10 type  1   force =     0.00021629    0.00128855   -0.00083365
     atom   11 type  1   force =    -0.00080983   -0.00051568   -0.00065976
     atom   12 type  1   force =     0.00095526   -0.00020099   -0.00111870
     atom   13 type  1   force =     0.00111121    0.00018812    0.00129410
     atom   14 type  1   force =     0.00101188   -0.00021218    0.00117862
     atom   15 type  1   force =     0.00040339    0.00080449    0.00034074
     atom   16 type  1   force =    -0.00105541   -0.00085470    0.00101867
     atom   17 type  1   force =     0.00033369   -0.00111009   -0.00063139
     atom   18 type  1   force =    -0.00082219    0.00057978   -0.00081558
     atom   19 type  1   force =    -0.00007343   -0.00007012    0.00000178
     atom   20 type  1   force =     0.00325160   -0.00017693    0.00004378
     atom   21 type  1   force =     0.00018248    0.00010909    0.00002273
     atom   22 type  1   force =    -0.00041000    0.00042200    0.00055359
     atom   23 type  1   force =    -0.00163197   -0.00002106    0.00041258
     atom   24 type  1   force =    -0.00047081   -0.00028457   -0.00090312
     atom   25 type  1   force =    -0.00045468   -0.00035903    0.00103268
     atom   26 type  1   force =    -0.00173513   -0.00001937   -0.00050900
     atom   27 type  1   force =    -0.00038536    0.00043006   -0.00051764
     atom   28 type  1   force =    -0.00112601    0.00091336    0.00002503
     atom   29 type  1   force =     0.00076455    0.00019105   -0.00002839
     atom   30 type  1   force =    -0.00039689   -0.00030154   -0.00002979
     atom   31 type  1   force =    -0.00077427    0.00077005    0.00002104
     atom   32 type  1   force =     0.00097286   -0.00024294   -0.00000936
     atom   33 type  1   force =    -0.00073409   -0.00040671   -0.00000476
     atom   34 type  1   force =     0.00102714    0.00016316   -0.00119165
     atom   35 type  1   force =     0.00014486   -0.00157205    0.00110955
     atom   36 type  1   force =    -0.00051364    0.00015368    0.00034164

     Total force =     0.007757     Total SCF correction =     0.000668


     Computing stress (Cartesian axis) and pressure

          total   stress  (Ry/bohr**3)                   (kbar)     P=   -1.83
  -0.00001394  -0.00000089  -0.00000029         -2.05     -0.13     -0.04
  -0.00000089  -0.00000555   0.00000157         -0.13     -0.82      0.23
  -0.00000029   0.00000157  -0.00001790         -0.04      0.23     -2.63


     number of scf cycles    =  38
     number of bfgs steps    =  37

     enthalpy old            =   -4360.7936994561 Ry
     enthalpy new            =   -4360.7938268327 Ry

     CASE: enthalpy_new < enthalpy_old

     new trust radius        =       0.0176932798 bohr
     new conv_thr            =       0.0000000127 Ry

     new unit-cell volume =   2708.40604 a.u.^3 (   401.34436 Ang^3 )
     density =      0.14895 g/cm^3

CELL_PARAMETERS (angstrom)
   4.436207439  -8.038370941   0.002771018
   4.445528282   8.044131678   0.000613695
   0.001919170  -0.000321832   5.619477127

ATOMIC_POSITIONS (angstrom)
K        1.047839969   2.086927111   2.810929184
Mg       6.535617287  -0.003466896   2.805838797
K        1.043872870  -2.087365027   2.810961895
K        2.700346397   4.745884193  -0.000797976
K        3.653033882   0.002978871   0.000666676
K        2.695031185  -4.736969909   0.000836041
Re       4.602498358  -2.460925977   2.811210727
Re       4.608557778   2.465229621   2.810661157
Re      -0.275989441   0.001434113   0.001973219
H        5.008717459  -3.606522112   4.017100843
H        5.352605530  -1.467973235   4.015572199
H        3.485093016  -2.334707476   4.098729284
H        3.489118980   2.339351730   1.524550602
H        3.484598151  -2.335414949   1.523800599
H        5.007920183  -3.607712502   1.606724850
H        5.351626454  -1.467949298   1.604580382
H        5.012733508   3.611333819   4.016969571
H        5.358664621   1.471388709   4.013717017
H        0.500982477  -1.501707467   0.001047595
H        6.856146072  -0.000524623   0.006569805
H        0.511252621   1.497671611   0.000621051
H        3.554255405  -7.044378115   1.285709287
H        0.988814171  -0.000397724   4.480562369
H        3.560668057   7.061799585   4.331242946
H        3.560840855   7.061381269   1.293726119
H        0.989066964   0.000317833   1.140901598
H        3.553805348  -7.047858556   4.343334863
H        3.501870594   3.734966586   2.811020290
H        6.265331652   2.744789125   2.810859256
H        3.819808510   0.988984173   2.811241808
H        3.814621756  -0.984697565   2.811170515
H        6.259804443  -2.737070255   2.811006108
H        3.495269332  -3.730847853   2.811720765
H        3.490022362   2.339547204   4.097406972
H        5.012234414   3.612249063   1.604380929
H        5.357169701   1.472002411   1.606644181



     Writing output data file K5MgReH93.save
     NEW-OLD atomic charge density approx. for the potential
     extrapolated charge  128.87543, renormalised to  129.00000

     total cpu time spent up to now is    39597.3 secs

     Self-consistent Calculation

     iteration #  1     ecut=    50.00 Ry     beta=0.70
     Davidson diagonalization with overlap
     ethr =  1.00E-06,  avg # of iterations =  6.5

     total cpu time spent up to now is    39652.4 secs

     total energy              =   -4360.77365737 Ry
     Harris-Foulkes estimate   =   -4363.76912008 Ry
     estimated scf accuracy    <       0.01804434 Ry

     iteration #  2     ecut=    50.00 Ry     beta=0.70
     Davidson diagonalization with overlap
     ethr =  1.40E-05,  avg # of iterations =  5.2

     total cpu time spent up to now is    39699.9 secs

     total energy              =   -4360.77718226 Ry
     Harris-Foulkes estimate   =   -4360.83501326 Ry
     estimated scf accuracy    <       0.21399491 Ry

     iteration #  3     ecut=    50.00 Ry     beta=0.70
     Davidson diagonalization with overlap
     ethr =  1.40E-05,  avg # of iterations =  4.5

     total cpu time spent up to now is    39740.3 secs

     total energy              =   -4360.79514774 Ry
     Harris-Foulkes estimate   =   -4360.79635064 Ry
     estimated scf accuracy    <       0.01227115 Ry

     iteration #  4     ecut=    50.00 Ry     beta=0.70
     Davidson diagonalization with overlap
     ethr =  9.51E-06,  avg # of iterations =  1.0

     total cpu time spent up to now is    39768.6 secs

     total energy              =   -4360.79386555 Ry
     Harris-Foulkes estimate   =   -4360.79539589 Ry
     estimated scf accuracy    <       0.00772303 Ry

     iteration #  5     ecut=    50.00 Ry     beta=0.70
     Davidson diagonalization with overlap
     ethr =  5.99E-06,  avg # of iterations =  2.0

     total cpu time spent up to now is    39798.5 secs

     total energy              =   -4360.79386857 Ry
     Harris-Foulkes estimate   =   -4360.79424370 Ry
     estimated scf accuracy    <       0.00165563 Ry

     iteration #  6     ecut=    50.00 Ry     beta=0.70
     Davidson diagonalization with overlap
     ethr =  1.28E-06,  avg # of iterations =  4.0

     total cpu time spent up to now is    39830.6 secs

     total energy              =   -4360.79390053 Ry
     Harris-Foulkes estimate   =   -4360.79399482 Ry
     estimated scf accuracy    <       0.00025354 Ry

     iteration #  7     ecut=    50.00 Ry     beta=0.70
     Davidson diagonalization with overlap
     ethr =  1.97E-07,  avg # of iterations =  3.1

     total cpu time spent up to now is    39865.9 secs

     total energy              =   -4360.79396146 Ry
     Harris-Foulkes estimate   =   -4360.79396465 Ry
     estimated scf accuracy    <       0.00000794 Ry

     iteration #  8     ecut=    50.00 Ry     beta=0.70
     Davidson diagonalization with overlap
     ethr =  6.16E-09,  avg # of iterations =  3.0

     total cpu time spent up to now is    39904.0 secs

     total energy              =   -4360.79396362 Ry
     Harris-Foulkes estimate   =   -4360.79396367 Ry
     estimated scf accuracy    <       0.00000020 Ry

     iteration #  9     ecut=    50.00 Ry     beta=0.70
     Davidson diagonalization with overlap
     ethr =  1.54E-10,  avg # of iterations =  3.0

     total cpu time spent up to now is    39941.1 secs

     total energy              =   -4360.79396363 Ry
     Harris-Foulkes estimate   =   -4360.79396369 Ry
     estimated scf accuracy    <       0.00000012 Ry

     iteration # 10     ecut=    50.00 Ry     beta=0.70
     Davidson diagonalization with overlap
     ethr =  9.60E-11,  avg # of iterations =  2.6

     total cpu time spent up to now is    39975.2 secs

     total energy              =   -4360.79396365 Ry
     Harris-Foulkes estimate   =   -4360.79396366 Ry
     estimated scf accuracy    <       0.00000002 Ry

     iteration # 11     ecut=    50.00 Ry     beta=0.70
     Davidson diagonalization with overlap
     ethr =  1.68E-11,  avg # of iterations =  2.4

     total cpu time spent up to now is    40009.0 secs

     End of self-consistent calculation

          k = 0.0000 0.0000 0.0000 ( 16447 PWs)   bands (ev):

   -76.7441 -76.7440 -76.7334 -72.7837 -39.8985 -39.8607 -39.8581 -38.6716
   -38.6429 -38.6427 -38.6263 -38.6255 -38.6192 -38.6177 -38.5859 -38.5741
   -33.8877 -33.8816 -33.8758 -33.8755 -33.8708 -33.8652 -33.8651 -33.8628
   -33.8621 -33.8580 -33.8568 -33.8567 -33.8514 -33.8508 -33.8445 -33.8440
   -33.8436 -33.8435 -33.8284 -33.8180 -33.8150  -5.4965  -4.7617  -4.6256
    -1.9821  -1.9514  -1.8449  -1.7695  -1.4841  -1.4303  -1.2630  -1.2617
    -1.1922  -1.1719  -1.0734  -0.9448  -0.8498  -0.6791  -0.5400  -0.5108
    -0.3249  -0.2640  -0.2272  -0.2204  -0.2074  -0.0446   0.1537   0.2119
     5.1851   5.4970   6.0696   6.1895   6.2919   6.4725   6.5404   6.7711
     7.0350   7.3875   7.4021   7.4513   7.5248   7.5987

          k = 0.0003-0.0001-0.8198 ( 16526 PWs)   bands (ev):

   -76.7441 -76.7440 -76.7334 -72.7837 -39.8985 -39.8607 -39.8581 -38.6718
   -38.6430 -38.6428 -38.6264 -38.6256 -38.6195 -38.6180 -38.5862 -38.5741
   -33.8877 -33.8817 -33.8759 -33.8756 -33.8709 -33.8651 -33.8651 -33.8629
   -33.8622 -33.8580 -33.8568 -33.8567 -33.8515 -33.8508 -33.8447 -33.8443
   -33.8437 -33.8435 -33.8284 -33.8181 -33.8151  -5.0967  -4.7765  -4.5158
    -2.3137  -1.9701  -1.8004  -1.7625  -1.5899  -1.4496  -1.4336  -1.4316
    -1.3260  -1.1907  -1.0362  -0.9992  -0.9360  -0.8130  -0.7207  -0.5814
    -0.4732  -0.2567  -0.2299   0.0529   0.0629   0.0767   0.0844   0.1970
     5.6962   5.6967   5.8587   5.9348   6.2977   6.5680   6.8945   7.0622
     7.2223   7.3110   7.5790   7.7276   7.9540   8.1222

          k =-0.5185-0.2861 0.0002 ( 16490 PWs)   bands (ev):

   -76.7441 -76.7440 -76.7334 -72.7837 -39.8985 -39.8607 -39.8581 -38.6717
   -38.6430 -38.6428 -38.6263 -38.6255 -38.6193 -38.6179 -38.5860 -38.5741
   -33.8877 -33.8817 -33.8759 -33.8755 -33.8708 -33.8652 -33.8651 -33.8629
   -33.8621 -33.8580 -33.8569 -33.8567 -33.8514 -33.8508 -33.8446 -33.8441
   -33.8437 -33.8435 -33.8284 -33.8180 -33.8151  -5.2848  -4.9435  -4.7678
    -1.9883  -1.8370  -1.7577  -1.4833  -1.4195  -1.4039  -1.2995  -1.2537
    -1.2298  -1.1984  -1.1200  -1.0029  -0.8821  -0.7547  -0.5934  -0.4506
    -0.3971  -0.3119  -0.3019  -0.2440  -0.1442  -0.0304   0.1167   0.1362
     5.2717   5.4614   5.6723   5.9747   6.6475   6.7413   6.9690   6.9816
     7.1177   7.1279   7.2618   7.7703   7.8510   7.8535

          k =-0.5182-0.2863-0.8196 ( 16554 PWs)   bands (ev):

   -76.7441 -76.7440 -76.7334 -72.7837 -39.8985 -39.8607 -39.8581 -38.6717
   -38.6431 -38.6428 -38.6263 -38.6257 -38.6195 -38.6181 -38.5862 -38.5742
   -33.8878 -33.8817 -33.8759 -33.8756 -33.8708 -33.8653 -33.8652 -33.8629
   -33.8622 -33.8580 -33.8569 -33.8567 -33.8515 -33.8509 -33.8448 -33.8443
   -33.8437 -33.8435 -33.8285 -33.8183 -33.8151  -4.9878  -4.7630  -4.6515
    -2.3582  -1.9839  -1.8614  -1.6134  -1.5894  -1.5435  -1.4102  -1.3303
    -1.3095  -1.2658  -1.0703  -0.9937  -0.9382  -0.8314  -0.7622  -0.6047
    -0.4117  -0.2464  -0.1622   0.0235   0.0760   0.0859   0.1035   0.2195
     5.5577   5.8472   5.8628   5.8899   6.0633   6.1595   6.8880   6.9018
     7.1274   7.1811   7.6838   7.8715   7.9228   8.1492

          k =-0.5189 0.2867 0.0002 ( 16490 PWs)   bands (ev):

   -76.7441 -76.7440 -76.7334 -72.7837 -39.8985 -39.8607 -39.8581 -38.6717
   -38.6430 -38.6427 -38.6263 -38.6256 -38.6193 -38.6179 -38.5860 -38.5741
   -33.8877 -33.8817 -33.8759 -33.8755 -33.8708 -33.8652 -33.8651 -33.8629
   -33.8622 -33.8580 -33.8568 -33.8567 -33.8514 -33.8508 -33.8446 -33.8441
   -33.8437 -33.8435 -33.8284 -33.8180 -33.8151  -5.2849  -4.9418  -4.7692
    -1.9927  -1.8368  -1.7584  -1.4843  -1.4191  -1.4054  -1.2932  -1.2535
    -1.2291  -1.1988  -1.1199  -1.0044  -0.8771  -0.7519  -0.5934  -0.4515
    -0.4024  -0.3091  -0.3015  -0.2445  -0.1443  -0.0361   0.1167   0.1393
     5.2702   5.4625   5.6710   5.9759   6.6485   6.7394   6.9657   6.9774
     7.1210   7.1237   7.2633   7.7651   7.8541   7.8633

          k =-0.5186 0.2866-0.8196 ( 16536 PWs)   bands (ev):

   -76.7441 -76.7440 -76.7334 -72.7837 -39.8985 -39.8607 -39.8581 -38.6717
   -38.6430 -38.6429 -38.6264 -38.6255 -38.6195 -38.6181 -38.5862 -38.5742
   -33.8878 -33.8817 -33.8759 -33.8755 -33.8708 -33.8652 -33.8652 -33.8629
   -33.8622 -33.8580 -33.8568 -33.8567 -33.8515 -33.8508 -33.8448 -33.8443
   -33.8437 -33.8435 -33.8284 -33.8182 -33.8151  -4.9876  -4.7630  -4.6516
    -2.3585  -1.9843  -1.8614  -1.6121  -1.5904  -1.5441  -1.4084  -1.3311
    -1.3092  -1.2673  -1.0646  -0.9910  -0.9420  -0.8375  -0.7671  -0.5984
    -0.4087  -0.2467  -0.1629   0.0201   0.0768   0.0783   0.1117   0.2213
     5.5622   5.8330   5.8822   5.8839   6.0566   6.1591   6.8888   6.9018
     7.1253   7.1982   7.6611   7.8658   7.9371   8.1521

          k =-1.0374 0.0006 0.0004 ( 16510 PWs)   bands (ev):

   -76.7441 -76.7440 -76.7334 -72.7837 -39.8985 -39.8607 -39.8581 -38.6717
   -38.6430 -38.6428 -38.6263 -38.6256 -38.6194 -38.6180 -38.5861 -38.5742
   -33.8877 -33.8817 -33.8759 -33.8756 -33.8709 -33.8652 -33.8652 -33.8629
   -33.8622 -33.8580 -33.8568 -33.8567 -33.8514 -33.8508 -33.8446 -33.8441
   -33.8436 -33.8435 -33.8284 -33.8181 -33.8151  -5.2783  -4.9661  -4.7662
    -1.9396  -1.8508  -1.8004  -1.4828  -1.4437  -1.3942  -1.2668  -1.2304
    -1.2283  -1.1744  -1.1354  -0.8998  -0.7785  -0.6887  -0.6488  -0.6303
    -0.5130  -0.2597  -0.2518  -0.2360  -0.2088  -0.0208   0.0797   0.1552
     5.2117   5.5626   5.6696   6.1060   6.6141   6.7298   6.7584   7.0930
     7.1045   7.1885   7.3188   7.6473   7.6536   7.7611

          k =-1.0370 0.0005-0.8194 ( 16498 PWs)   bands (ev):

   -76.7441 -76.7440 -76.7334 -72.7837 -39.8985 -39.8607 -39.8581 -38.6715
   -38.6429 -38.6427 -38.6262 -38.6255 -38.6195 -38.6181 -38.5862 -38.5741
   -33.8877 -33.8817 -33.8759 -33.8756 -33.8708 -33.8651 -33.8651 -33.8629
   -33.8622 -33.8579 -33.8568 -33.8567 -33.8514 -33.8507 -33.8448 -33.8443
   -33.8436 -33.8435 -33.8284 -33.8182 -33.8151  -4.8900  -4.7846  -4.7698
    -2.3646  -1.9401  -1.7464  -1.6604  -1.5610  -1.5178  -1.3376  -1.3216
    -1.2772  -1.2414  -1.2079  -0.9715  -0.9202  -0.7459  -0.7380  -0.6625
    -0.4723  -0.3888  -0.2463   0.0437   0.0479   0.0552   0.1156   0.2815
     5.5721   5.7723   5.8032   6.0332   6.0943   6.3842   6.8086   7.0944
     7.1337   7.3527   7.3854   7.5453   7.8943   8.1063

     the Fermi energy is     5.3773 ev

!    total energy              =   -4360.79396365 Ry
     Harris-Foulkes estimate   =   -4360.79396365 Ry
     estimated scf accuracy    <          1.9E-09 Ry

     The total energy is the sum of the following terms:

     one-electron contribution =   -3266.45076054 Ry
     hartree contribution      =    1634.42596188 Ry
     xc contribution           =    -317.62947687 Ry
     ewald contribution        =    -762.34788328 Ry
     one-center paw contrib.   =   -1648.79269783 Ry
     smearing contrib. (-TS)   =       0.00089299 Ry

     convergence has been achieved in  11 iterations

     Forces acting on atoms (cartesian axes, Ry/au):

     atom    1 type  2   force =     0.00119893   -0.00046264    0.00000008
     atom    2 type  3   force =    -0.00105742   -0.00026443   -0.00008691
     atom    3 type  2   force =     0.00110334    0.00040779   -0.00000620
     atom    4 type  2   force =     0.00068862    0.00040413    0.00002635
     atom    5 type  2   force =    -0.00081799    0.00002265    0.00000861
     atom    6 type  2   force =     0.00062719   -0.00014348   -0.00000631
     atom    7 type  4   force =    -0.00068254    0.00028493   -0.00007044
     atom    8 type  4   force =    -0.00058637   -0.00004057    0.00022034
     atom    9 type  4   force =    -0.00035653   -0.00002896    0.00015306
     atom   10 type  1   force =     0.00005947    0.00132095   -0.00098684
     atom   11 type  1   force =    -0.00073717   -0.00049839   -0.00077098
     atom   12 type  1   force =     0.00080456   -0.00035340   -0.00084512
     atom   13 type  1   force =     0.00085891    0.00032735    0.00090668
     atom   14 type  1   force =     0.00077229   -0.00032960    0.00082445
     atom   15 type  1   force =     0.00012105    0.00117951    0.00081931
     atom   16 type  1   force =    -0.00089506   -0.00069888    0.00097437
     atom   17 type  1   force =     0.00009937   -0.00138344   -0.00101237
     atom   18 type  1   force =    -0.00067976    0.00046549   -0.00085517
     atom   19 type  1   force =    -0.00015868    0.00011024    0.00001859
     atom   20 type  1   force =     0.00360250   -0.00021547    0.00001927
     atom   21 type  1   force =     0.00018676    0.00002024   -0.00000987
     atom   22 type  1   force =    -0.00018433    0.00007196    0.00013785
     atom   23 type  1   force =    -0.00176408   -0.00000979    0.00060061
     atom   24 type  1   force =    -0.00029233    0.00004387   -0.00063920
     atom   25 type  1   force =    -0.00030569   -0.00016485    0.00082970
     atom   26 type  1   force =    -0.00180124   -0.00001672   -0.00065220
     atom   27 type  1   force =    -0.00025396    0.00028548   -0.00032669
     atom   28 type  1   force =    -0.00050827    0.00065101   -0.00001766
     atom   29 type  1   force =     0.00060002    0.00023126   -0.00003993
     atom   30 type  1   force =    -0.00014001    0.00003871   -0.00002699
     atom   31 type  1   force =    -0.00038229    0.00021089   -0.00000737
     atom   32 type  1   force =     0.00078278   -0.00022322    0.00001389
     atom   33 type  1   force =    -0.00024311   -0.00024715    0.00000693
     atom   34 type  1   force =     0.00086910    0.00028754   -0.00094988
     atom   35 type  1   force =     0.00000400   -0.00153033    0.00115643
     atom   36 type  1   force =    -0.00053206    0.00024730    0.00059360

     Total force =     0.007378     Total SCF correction =     0.000427


     Computing stress (Cartesian axis) and pressure

          total   stress  (Ry/bohr**3)                   (kbar)     P=   -2.17
  -0.00001765  -0.00000027   0.00000013         -2.60     -0.04      0.02
  -0.00000027  -0.00000687   0.00000029         -0.04     -1.01      0.04
   0.00000013   0.00000029  -0.00001967          0.02      0.04     -2.89


     number of scf cycles    =  39
     number of bfgs steps    =  38

     enthalpy old            =   -4360.7938268327 Ry
     enthalpy new            =   -4360.7939636538 Ry

     CASE: enthalpy_new < enthalpy_old

     new trust radius        =       0.0265441818 bohr
     new conv_thr            =       0.0000000137 Ry

     new unit-cell volume =   2703.78992 a.u.^3 (   400.66032 Ang^3 )
     density =      0.14920 g/cm^3

CELL_PARAMETERS (angstrom)
   4.440613254  -8.036435719   0.001761656
   4.450582323   8.042535482   0.001525327
   0.001867524   0.000321042   5.605161760

ATOMIC_POSITIONS (angstrom)
K        1.056647589   2.087939078   2.804085101
Mg       6.534638668  -0.004561477   2.798022728
K        1.052276468  -2.088110461   2.803632774
K        2.710492794   4.738001679  -0.000398635
K        3.648939909   0.003240929   0.000546500
K        2.704929196  -4.727611183   0.000209962
Re       4.610984024  -2.457387478   2.803657307
Re       4.617766938   2.462721625   2.803901900
Re      -0.285332641   0.001604056   0.002228289
H        5.021527664  -3.603231841   4.007789274
H        5.356017358  -1.463074372   4.008891397
H        3.496085373  -2.330417934   4.091069470
H        3.500694411   2.336011714   1.518142140
H        3.495717286  -2.331570588   1.516658612
H        5.020901341  -3.605297128   1.600321767
H        5.354783798  -1.463701016   1.596553945
H        5.025912856   3.609385192   4.008857048
H        5.362829023   1.467472776   4.006638666
H        0.490836783  -1.502634335   0.000862459
H        6.857585264  -0.001814192   0.007004300
H        0.503053425   1.497710588   0.000870002
H        3.550327378  -7.038744861   1.284199312
H        0.978859416   0.000036953   4.466002390
H        3.557087977   7.059251488   4.316454380
H        3.557502623   7.058549584   1.296212469
H        0.979274925   0.000493695   1.140965765
H        3.549619256  -7.042093601   4.329445264
H        3.507012021   3.731325657   2.804341223
H        6.276722927   2.734435874   2.803789040
H        3.824059669   0.988097100   2.804033511
H        3.817720262  -0.982349075   2.803884430
H        6.270874826  -2.725404976   2.803193329
H        3.500146027  -3.725744311   2.804121631
H        3.501570588   2.336505693   4.090056365
H        5.025314514   3.609613070   1.599168498
H        5.361619942   1.467506649   1.598740138



     Writing output data file K5MgReH93.save
     NEW-OLD atomic charge density approx. for the potential
     extrapolated charge  128.77993, renormalised to  129.00000

     total cpu time spent up to now is    40621.5 secs

     Self-consistent Calculation

     iteration #  1     ecut=    50.00 Ry     beta=0.70
     Davidson diagonalization with overlap
     ethr =  1.00E-06,  avg # of iterations = 11.5

     total cpu time spent up to now is    40684.6 secs

     total energy              =   -4360.68550100 Ry
     Harris-Foulkes estimate   =   -4366.05768076 Ry
     estimated scf accuracy    <       0.09130236 Ry

     iteration #  2     ecut=    50.00 Ry     beta=0.70
     Davidson diagonalization with overlap
     ethr =  7.08E-05,  avg # of iterations =  6.1

     total cpu time spent up to now is    40733.2 secs

     total energy              =   -4360.70963971 Ry
     Harris-Foulkes estimate   =   -4361.00718603 Ry
     estimated scf accuracy    <       1.10645373 Ry

     iteration #  3     ecut=    50.00 Ry     beta=0.70
     Davidson diagonalization with overlap
     ethr =  7.08E-05,  avg # of iterations =  4.8

     total cpu time spent up to now is    40775.4 secs

     total energy              =   -4360.79972286 Ry
     Harris-Foulkes estimate   =   -4360.80812652 Ry
     estimated scf accuracy    <       0.06661085 Ry

     iteration #  4     ecut=    50.00 Ry     beta=0.70
     Davidson diagonalization with overlap
     ethr =  5.16E-05,  avg # of iterations =  1.1

     total cpu time spent up to now is    40804.4 secs

     total energy              =   -4360.79636782 Ry
     Harris-Foulkes estimate   =   -4360.80175500 Ry
     estimated scf accuracy    <       0.04059008 Ry

     iteration #  5     ecut=    50.00 Ry     beta=0.70
     Davidson diagonalization with overlap
     ethr =  3.15E-05,  avg # of iterations =  1.0

     total cpu time spent up to now is    40832.8 secs

     total energy              =   -4360.79406731 Ry
     Harris-Foulkes estimate   =   -4360.79730949 Ry
     estimated scf accuracy    <       0.01780532 Ry

     iteration #  6     ecut=    50.00 Ry     beta=0.70
     Davidson diagonalization with overlap
     ethr =  1.38E-05,  avg # of iterations =  2.6

     total cpu time spent up to now is    40863.7 secs

     total energy              =   -4360.79401829 Ry
     Harris-Foulkes estimate   =   -4360.79488820 Ry
     estimated scf accuracy    <       0.00440315 Ry

     iteration #  7     ecut=    50.00 Ry     beta=0.70
     Davidson diagonalization with overlap
     ethr =  3.41E-06,  avg # of iterations =  4.4

     total cpu time spent up to now is    40896.9 secs

     total energy              =   -4360.79407477 Ry
     Harris-Foulkes estimate   =   -4360.79427584 Ry
     estimated scf accuracy    <       0.00092282 Ry

     iteration #  8     ecut=    50.00 Ry     beta=0.70
     Davidson diagonalization with overlap
     ethr =  7.15E-07,  avg # of iterations =  2.4

     total cpu time spent up to now is    40929.1 secs

     total energy              =   -4360.79411066 Ry
     Harris-Foulkes estimate   =   -4360.79415444 Ry
     estimated scf accuracy    <       0.00014101 Ry

     iteration #  9     ecut=    50.00 Ry     beta=0.70
     Davidson diagonalization with overlap
     ethr =  1.09E-07,  avg # of iterations =  2.9

     total cpu time spent up to now is    40962.7 secs

     total energy              =   -4360.79413099 Ry
     Harris-Foulkes estimate   =   -4360.79413213 Ry
     estimated scf accuracy    <       0.00000305 Ry

     iteration # 10     ecut=    50.00 Ry     beta=0.70
     Davidson diagonalization with overlap
     ethr =  2.36E-09,  avg # of iterations =  3.2

     total cpu time spent up to now is    41001.6 secs

     total energy              =   -4360.79413193 Ry
     Harris-Foulkes estimate   =   -4360.79413202 Ry
     estimated scf accuracy    <       0.00000018 Ry

     iteration # 11     ecut=    50.00 Ry     beta=0.70
     Davidson diagonalization with overlap
     ethr =  1.41E-10,  avg # of iterations =  3.2

     total cpu time spent up to now is    41039.2 secs

     total energy              =   -4360.79413194 Ry
     Harris-Foulkes estimate   =   -4360.79413203 Ry
     estimated scf accuracy    <       0.00000024 Ry

     iteration # 12     ecut=    50.00 Ry     beta=0.70
     Davidson diagonalization with overlap
     ethr =  1.41E-10,  avg # of iterations =  2.8

     total cpu time spent up to now is    41072.9 secs

     End of self-consistent calculation

          k = 0.0000 0.0000 0.0000 ( 16447 PWs)   bands (ev):

   -76.7291 -76.7290 -76.7288 -72.7920 -39.9064 -39.8694 -39.8661 -38.6652
   -38.6284 -38.6281 -38.6114 -38.6107 -38.6057 -38.6037 -38.5839 -38.5681
   -33.8827 -33.8768 -33.8655 -33.8593 -33.8588 -33.8524 -33.8485 -33.8484
   -33.8462 -33.8452 -33.8404 -33.8403 -33.8347 -33.8341 -33.8282 -33.8273
   -33.8269 -33.8266 -33.8229 -33.8137 -33.8102  -5.4938  -4.7539  -4.6191
    -1.9781  -1.9523  -1.8343  -1.7504  -1.4722  -1.4166  -1.2588  -1.2559
    -1.1803  -1.1687  -1.0703  -0.9371  -0.8445  -0.6645  -0.5316  -0.4935
    -0.3198  -0.2474  -0.2147  -0.2097  -0.2005  -0.0296   0.1574   0.2243
     5.2099   5.5045   6.0749   6.1944   6.2929   6.4826   6.5656   6.7797
     7.0564   7.4005   7.4149   7.4493   7.5508   7.6101

          k = 0.0003-0.0000-0.8219 ( 16526 PWs)   bands (ev):

   -76.7291 -76.7290 -76.7288 -72.7920 -39.9064 -39.8694 -39.8661 -38.6654
   -38.6284 -38.6282 -38.6115 -38.6108 -38.6059 -38.6039 -38.5842 -38.5680
   -33.8828 -33.8769 -33.8657 -33.8595 -33.8589 -33.8525 -33.8485 -33.8483
   -33.8463 -33.8453 -33.8405 -33.8403 -33.8347 -33.8341 -33.8284 -33.8275
   -33.8270 -33.8266 -33.8229 -33.8138 -33.8102  -5.0884  -4.7670  -4.5065
    -2.3100  -1.9681  -1.7936  -1.7515  -1.5779  -1.4539  -1.4286  -1.4175
    -1.3108  -1.1936  -1.0327  -0.9879  -0.9267  -0.8048  -0.7146  -0.5630
    -0.4631  -0.2415  -0.2214   0.0637   0.0725   0.0815   0.0945   0.2172
     5.7049   5.7103   5.8774   5.9452   6.2973   6.5659   6.9028   7.0875
     7.2407   7.3341   7.5892   7.7323   7.9776   8.1225

          k =-0.5179-0.2862 0.0002 ( 16490 PWs)   bands (ev):

   -76.7291 -76.7290 -76.7288 -72.7920 -39.9064 -39.8694 -39.8661 -38.6653
   -38.6284 -38.6282 -38.6115 -38.6107 -38.6058 -38.6038 -38.5840 -38.5681
   -33.8828 -33.8769 -33.8656 -33.8594 -33.8588 -33.8525 -33.8485 -33.8484
   -33.8463 -33.8453 -33.8404 -33.8403 -33.8347 -33.8341 -33.8282 -33.8274
   -33.8269 -33.8266 -33.8229 -33.8137 -33.8102  -5.2845  -4.9354  -4.7594
    -1.9798  -1.8269  -1.7586  -1.4705  -1.4047  -1.3876  -1.2979  -1.2461
    -1.2259  -1.1909  -1.1082  -0.9936  -0.8754  -0.7509  -0.5835  -0.4450
    -0.3866  -0.3046  -0.2827  -0.2255  -0.1389  -0.0178   0.1280   0.1454
     5.2919   5.4659   5.6785   5.9914   6.6690   6.7521   6.9781   6.9837
     7.1213   7.1503   7.2781   7.7755   7.8648   7.8762

          k =-0.5176-0.2862-0.8217 ( 16554 PWs)   bands (ev):

   -76.7291 -76.7290 -76.7288 -72.7920 -39.9064 -39.8694 -39.8661 -38.6653
   -38.6285 -38.6282 -38.6114 -38.6108 -38.6060 -38.6040 -38.5842 -38.5682
   -33.8828 -33.8769 -33.8656 -33.8594 -33.8589 -33.8525 -33.8486 -33.8484
   -33.8463 -33.8453 -33.8405 -33.8403 -33.8348 -33.8342 -33.8284 -33.8276
   -33.8270 -33.8266 -33.8230 -33.8139 -33.8103  -4.9814  -4.7536  -4.6399
    -2.3542  -1.9852  -1.8537  -1.6001  -1.5873  -1.5358  -1.4083  -1.3177
    -1.3008  -1.2592  -1.0628  -0.9753  -0.9342  -0.8216  -0.7548  -0.5928
    -0.4016  -0.2384  -0.1513   0.0341   0.0839   0.0974   0.1124   0.2376
     5.5673   5.8548   5.8715   5.8976   6.0830   6.1703   6.9009   6.9151
     7.1459   7.1891   7.7046   7.8780   7.9407   8.1639

          k =-0.5183 0.2868 0.0002 ( 16490 PWs)   bands (ev):

   -76.7291 -76.7290 -76.7288 -72.7920 -39.9064 -39.8694 -39.8661 -38.6653
   -38.6284 -38.6281 -38.6114 -38.6107 -38.6058 -38.6038 -38.5840 -38.5681
   -33.8828 -33.8769 -33.8656 -33.8594 -33.8588 -33.8524 -33.8485 -33.8484
   -33.8463 -33.8453 -33.8405 -33.8403 -33.8347 -33.8341 -33.8282 -33.8274
   -33.8270 -33.8266 -33.8229 -33.8137 -33.8103  -5.2848  -4.9334  -4.7608
    -1.9852  -1.8267  -1.7596  -1.4718  -1.4040  -1.3890  -1.2899  -1.2459
    -1.2254  -1.1912  -1.1088  -0.9958  -0.8687  -0.7475  -0.5835  -0.4464
    -0.3934  -0.3015  -0.2821  -0.2261  -0.1383  -0.0246   0.1300   0.1472
     5.2903   5.4674   5.6767   5.9919   6.6702   6.7513   6.9749   6.9793
     7.1253   7.1444   7.2808   7.7692   7.8685   7.8864

          k =-0.5180 0.2868-0.8217 ( 16536 PWs)   bands (ev):

   -76.7291 -76.7290 -76.7288 -72.7920 -39.9064 -39.8694 -39.8661 -38.6653
   -38.6284 -38.6283 -38.6115 -38.6107 -38.6060 -38.6040 -38.5842 -38.5681
   -33.8828 -33.8769 -33.8656 -33.8594 -33.8588 -33.8525 -33.8486 -33.8484
   -33.8463 -33.8453 -33.8404 -33.8403 -33.8347 -33.8341 -33.8284 -33.8276
   -33.8269 -33.8266 -33.8229 -33.8139 -33.8103  -4.9813  -4.7536  -4.6399
    -2.3545  -1.9857  -1.8541  -1.5981  -1.5885  -1.5368  -1.4071  -1.3173
    -1.3010  -1.2598  -1.0558  -0.9723  -0.9387  -0.8296  -0.7605  -0.5862
    -0.3978  -0.2386  -0.1522   0.0295   0.0855   0.0885   0.1219   0.2397
     5.5726   5.8369   5.8895   5.8959   6.0753   6.1699   6.9026   6.9150
     7.1436   7.2088   7.6784   7.8728   7.9580   8.1670

          k =-1.0363 0.0006 0.0003 ( 16510 PWs)   bands (ev):

   -76.7291 -76.7290 -76.7288 -72.7920 -39.9064 -39.8694 -39.8661 -38.6653
   -38.6284 -38.6282 -38.6115 -38.6107 -38.6059 -38.6039 -38.5841 -38.5681
   -33.8828 -33.8769 -33.8657 -33.8595 -33.8589 -33.8525 -33.8486 -33.8484
   -33.8463 -33.8453 -33.8404 -33.8403 -33.8347 -33.8341 -33.8283 -33.8274
   -33.8269 -33.8266 -33.8229 -33.8138 -33.8102  -5.2782  -4.9559  -4.7600
    -1.9379  -1.8400  -1.7862  -1.4699  -1.4343  -1.3827  -1.2561  -1.2247
    -1.2223  -1.1703  -1.1387  -0.8929  -0.7627  -0.6799  -0.6351  -0.6215
    -0.5096  -0.2416  -0.2349  -0.2263  -0.2024  -0.0041   0.0858   0.1633
     5.2313   5.5668   5.6727   6.1291   6.6382   6.7342   6.7679   7.1031
     7.1131   7.2101   7.3445   7.6503   7.6564   7.7748

          k =-1.0360 0.0006-0.8215 ( 16498 PWs)   bands (ev):

   -76.7291 -76.7290 -76.7288 -72.7920 -39.9064 -39.8694 -39.8661 -38.6651
   -38.6283 -38.6281 -38.6113 -38.6106 -38.6060 -38.6040 -38.5842 -38.5680
   -33.8828 -33.8769 -33.8656 -33.8594 -33.8588 -33.8524 -33.8485 -33.8483
   -33.8463 -33.8453 -33.8404 -33.8403 -33.8346 -33.8340 -33.8284 -33.8276
   -33.8269 -33.8266 -33.8229 -33.8139 -33.8102  -4.8858  -4.7711  -4.7603
    -2.3596  -1.9387  -1.7322  -1.6446  -1.5610  -1.5210  -1.3215  -1.3209
    -1.2639  -1.2422  -1.2040  -0.9644  -0.9140  -0.7352  -0.7269  -0.6452
    -0.4618  -0.3731  -0.2403   0.0544   0.0600   0.0644   0.1269   0.2953
     5.5796   5.7897   5.8148   6.0439   6.1068   6.3896   6.8195   7.1152
     7.1475   7.3690   7.4136   7.5421   7.9056   8.1265

     the Fermi energy is     5.3891 ev

!    total energy              =   -4360.79413197 Ry
     Harris-Foulkes estimate   =   -4360.79413198 Ry
     estimated scf accuracy    <       0.00000001 Ry

     The total energy is the sum of the following terms:

     one-electron contribution =   -3266.93888232 Ry
     hartree contribution      =    1634.71549856 Ry
     xc contribution           =    -317.63372446 Ry
     ewald contribution        =    -762.14450947 Ry
     one-center paw contrib.   =   -1648.79306472 Ry
     smearing contrib. (-TS)   =       0.00055045 Ry

     convergence has been achieved in  12 iterations

     Forces acting on atoms (cartesian axes, Ry/au):

     atom    1 type  2   force =     0.00080083   -0.00030333   -0.00000044
     atom    2 type  3   force =    -0.00045613   -0.00022077   -0.00010773
     atom    3 type  2   force =     0.00066932    0.00026819   -0.00000785
     atom    4 type  2   force =     0.00081103    0.00057905    0.00003039
     atom    5 type  2   force =    -0.00065604    0.00001973    0.00000876
     atom    6 type  2   force =     0.00074241   -0.00030223   -0.00000290
     atom    7 type  4   force =    -0.00129571    0.00094205   -0.00002768
     atom    8 type  4   force =    -0.00088586   -0.00097018   -0.00026664
     atom    9 type  4   force =    -0.00045036    0.00030844   -0.00001945
     atom   10 type  1   force =    -0.00004906    0.00099998   -0.00085439
     atom   11 type  1   force =    -0.00051239   -0.00037837   -0.00065062
     atom   12 type  1   force =     0.00034384   -0.00058609   -0.00011787
     atom   13 type  1   force =     0.00035565    0.00054346    0.00016913
     atom   14 type  1   force =     0.00019269   -0.00052119   -0.00002345
     atom   15 type  1   force =    -0.00012970    0.00123567    0.00103618
     atom   16 type  1   force =    -0.00052974   -0.00036000    0.00059573
     atom   17 type  1   force =    -0.00005841   -0.00124756   -0.00097662
     atom   18 type  1   force =    -0.00030942    0.00014813   -0.00052673
     atom   19 type  1   force =    -0.00007021    0.00009451    0.00005995
     atom   20 type  1   force =     0.00318129   -0.00029019    0.00001095
     atom   21 type  1   force =     0.00032816   -0.00001420   -0.00002669
     atom   22 type  1   force =     0.00003882   -0.00030449   -0.00024679
     atom   23 type  1   force =    -0.00166035   -0.00000924    0.00059359
     atom   24 type  1   force =    -0.00010960    0.00041147   -0.00035096
     atom   25 type  1   force =    -0.00016150    0.00003735    0.00067439
     atom   26 type  1   force =    -0.00155705   -0.00003352   -0.00049256
     atom   27 type  1   force =    -0.00009949    0.00005399   -0.00005821
     atom   28 type  1   force =     0.00017772    0.00048763   -0.00002723
     atom   29 type  1   force =     0.00051216    0.00032025   -0.00000643
     atom   30 type  1   force =     0.00014944    0.00051949    0.00002382
     atom   31 type  1   force =     0.00007446   -0.00055456   -0.00004395
     atom   32 type  1   force =     0.00058135   -0.00022490    0.00003818
     atom   33 type  1   force =     0.00021863   -0.00028470    0.00001934
     atom   34 type  1   force =     0.00033727    0.00047424   -0.00012765
     atom   35 type  1   force =    -0.00008057   -0.00113623    0.00094736
     atom   36 type  1   force =    -0.00044350    0.00029813    0.00075507

     Total force =     0.006370     Total SCF correction =     0.000759
     SCF correction compared to forces is large: reduce conv_thr to get better values


     Computing stress (Cartesian axis) and pressure

          total   stress  (Ry/bohr**3)                   (kbar)     P=   -2.02
  -0.00001814   0.00000062   0.00000059         -2.67      0.09      0.09
   0.00000062  -0.00000614  -0.00000122          0.09     -0.90     -0.18
   0.00000059  -0.00000122  -0.00001682          0.09     -0.18     -2.47


     number of scf cycles    =  40
     number of bfgs steps    =  39

     enthalpy old            =   -4360.7939636538 Ry
     enthalpy new            =   -4360.7941319710 Ry

     CASE: enthalpy_new < enthalpy_old

     new trust radius        =       0.0354099161 bohr
     new conv_thr            =       0.0000000168 Ry

     new unit-cell volume =   2694.67478 a.u.^3 (   399.30960 Ang^3 )
     density =      0.14971 g/cm^3

CELL_PARAMETERS (angstrom)
   4.441857578  -8.033087232   0.000907688
   4.452979200   8.039818454   0.002430663
   0.001911284   0.000892860   5.586086500

ATOMIC_POSITIONS (angstrom)
K        1.066693105   2.088509509   2.794871828
Mg       6.532044910  -0.006023351   2.787677362
K        1.061612193  -2.088535258   2.793992307
K        2.721629581   4.727508001   0.000003912
K        3.641929151   0.003660285   0.000473658
K        2.715508680  -4.714954813  -0.000343044
Re       4.616769246  -2.451758377   2.793851973
Re       4.624756650   2.458262711   2.794404537
Re      -0.298085284   0.002126545   0.002450215
H        5.033370032  -3.598270142   3.994647831
H        5.355262782  -1.456423693   3.999056872
H        3.506234958  -2.325297899   4.080941075
H        3.511669230   2.331983561   1.509716570
H        3.505860290  -2.326853236   1.507310783
H        5.032847560  -3.601159475   1.593241532
H        5.353664970  -1.457731821   1.587077979
H        5.038390986   3.605862910   3.996901198
H        5.363236017   1.461789857   3.996318822
H        0.477114001  -1.503478197   0.000752611
H        6.852554103  -0.003460583   0.007698641
H        0.492106225   1.497536831   0.001120665
H        3.541359524  -7.030845624   1.282749224
H        0.964498721   0.000407106   4.447769849
H        3.548777152   7.055220560   4.296120162
H        3.549399969   7.053986533   1.299836238
H        0.965144868   0.000659981   1.140048567
H        3.540293463  -7.033928554   4.310977027
H        3.510242144   3.726937968   2.795311311
H        6.286787376   2.720855911   2.794374421
H        3.825455077   0.986973775   2.794496350
H        3.817580048  -0.979492226   2.794266565
H        6.280395396  -2.710049626   2.793104237
H        3.502849844  -3.719516909   2.794257991
H        3.512493907   2.332689033   4.080156144
H        5.037595809   3.605390194   1.593228361
H        5.362209711   1.461336320   1.589468212



     Writing output data file K5MgReH93.save
     NEW-OLD atomic charge density approx. for the potential
     extrapolated charge  128.56396, renormalised to  129.00000

     total cpu time spent up to now is    41685.2 secs

     Self-consistent Calculation

     iteration #  1     ecut=    50.00 Ry     beta=0.70
     Davidson diagonalization with overlap
     ethr =  1.00E-06,  avg # of iterations = 11.6

     total cpu time spent up to now is    41748.4 secs

     total energy              =   -4360.53299417 Ry
     Harris-Foulkes estimate   =   -4371.24286369 Ry
     estimated scf accuracy    <       0.23352108 Ry

     iteration #  2     ecut=    50.00 Ry     beta=0.70
     Davidson diagonalization with overlap
     ethr =  1.81E-04,  avg # of iterations =  5.8

     total cpu time spent up to now is    41796.4 secs

     total energy              =   -4360.60210590 Ry
     Harris-Foulkes estimate   =   -4361.31024592 Ry
     estimated scf accuracy    <       2.54248793 Ry

     iteration #  3     ecut=    50.00 Ry     beta=0.70
     Davidson diagonalization with overlap
     ethr =  1.81E-04,  avg # of iterations =  4.6

     total cpu time spent up to now is    41838.7 secs

     total energy              =   -4360.80929873 Ry
     Harris-Foulkes estimate   =   -4360.82565043 Ry
     estimated scf accuracy    <       0.15895682 Ry

     iteration #  4     ecut=    50.00 Ry     beta=0.70
     Davidson diagonalization with overlap
     ethr =  1.23E-04,  avg # of iterations =  1.0

     total cpu time spent up to now is    41867.0 secs

     total energy              =   -4360.80045267 Ry
     Harris-Foulkes estimate   =   -4360.81224728 Ry
     estimated scf accuracy    <       0.09754025 Ry

     iteration #  5     ecut=    50.00 Ry     beta=0.70
     Davidson diagonalization with overlap
     ethr =  7.56E-05,  avg # of iterations =  1.0

     total cpu time spent up to now is    41895.8 secs

     total energy              =   -4360.79691950 Ry
     Harris-Foulkes estimate   =   -4360.80242120 Ry
     estimated scf accuracy    <       0.04640984 Ry

     iteration #  6     ecut=    50.00 Ry     beta=0.70
     Davidson diagonalization with overlap
     ethr =  3.60E-05,  avg # of iterations =  1.2

     total cpu time spent up to now is    41924.4 secs

     total energy              =   -4360.79180028 Ry
     Harris-Foulkes estimate   =   -4360.79792029 Ry
     estimated scf accuracy    <       0.02235400 Ry

     iteration #  7     ecut=    50.00 Ry     beta=0.70
     Davidson diagonalization with overlap
     ethr =  1.73E-05,  avg # of iterations =  4.5

     total cpu time spent up to now is    41960.2 secs

     total energy              =   -4360.79428305 Ry
     Harris-Foulkes estimate   =   -4360.79436385 Ry
     estimated scf accuracy    <       0.00076835 Ry

     iteration #  8     ecut=    50.00 Ry     beta=0.70
     Davidson diagonalization with overlap
     c_bands:  1 eigenvalues not converged
     ethr =  5.96E-07,  avg # of iterations =  5.2

     total cpu time spent up to now is    41995.7 secs

     total energy              =   -4360.79426322 Ry
     Harris-Foulkes estimate   =   -4360.79433901 Ry
     estimated scf accuracy    <       0.00042259 Ry

     iteration #  9     ecut=    50.00 Ry     beta=0.70
     Davidson diagonalization with overlap
     ethr =  3.28E-07,  avg # of iterations =  2.2

     total cpu time spent up to now is    42026.2 secs

     total energy              =   -4360.79425801 Ry
     Harris-Foulkes estimate   =   -4360.79428476 Ry
     estimated scf accuracy    <       0.00009968 Ry

     iteration # 10     ecut=    50.00 Ry     beta=0.70
     Davidson diagonalization with overlap
     ethr =  7.73E-08,  avg # of iterations =  2.4

     total cpu time spent up to now is    42058.2 secs

     total energy              =   -4360.79426783 Ry
     Harris-Foulkes estimate   =   -4360.79426972 Ry
     estimated scf accuracy    <       0.00000820 Ry

     iteration # 11     ecut=    50.00 Ry     beta=0.70
     Davidson diagonalization with overlap
     ethr =  6.36E-09,  avg # of iterations =  2.2

     total cpu time spent up to now is    42089.4 secs

     total energy              =   -4360.79426802 Ry
     Harris-Foulkes estimate   =   -4360.79426863 Ry
     estimated scf accuracy    <       0.00000166 Ry

     iteration # 12     ecut=    50.00 Ry     beta=0.70
     Davidson diagonalization with overlap
     ethr =  1.29E-09,  avg # of iterations =  3.0

     total cpu time spent up to now is    42125.5 secs

     total energy              =   -4360.79426833 Ry
     Harris-Foulkes estimate   =   -4360.79426834 Ry
     estimated scf accuracy    <       0.00000003 Ry

     iteration # 13     ecut=    50.00 Ry     beta=0.70
     Davidson diagonalization with overlap
     ethr =  2.29E-11,  avg # of iterations =  3.0

     total cpu time spent up to now is    42162.7 secs

     End of self-consistent calculation

          k = 0.0000 0.0000 0.0000 ( 16447 PWs)   bands (ev):

   -76.7166 -76.6977 -76.6970 -72.7912 -39.9048 -39.8693 -39.8649 -38.6506
   -38.5984 -38.5970 -38.5819 -38.5799 -38.5766 -38.5765 -38.5751 -38.5543
   -33.8684 -33.8627 -33.8506 -33.8369 -33.8243 -33.8238 -33.8138 -33.8128
   -33.8106 -33.8105 -33.8074 -33.8061 -33.8052 -33.8002 -33.8001 -33.7981
   -33.7956 -33.7929 -33.7928 -33.7919 -33.7911  -5.4879  -4.7422  -4.6036
    -1.9674  -1.9450  -1.8190  -1.7214  -1.4547  -1.3954  -1.2463  -1.2452
    -1.1624  -1.1575  -1.0598  -0.9247  -0.8346  -0.6435  -0.5138  -0.4657
    -0.3024  -0.2189  -0.2036  -0.1824  -0.1766  -0.0049   0.1722   0.2493
     5.2506   5.5234   6.0848   6.2107   6.3078   6.5113   6.6144   6.8001
     7.0909   7.4262   7.4418   7.4627   7.5959   7.6400

          k = 0.0003 0.0001-0.8247 ( 16526 PWs)   bands (ev):

   -76.7166 -76.6977 -76.6970 -72.7912 -39.9048 -39.8693 -39.8649 -38.6508
   -38.5985 -38.5970 -38.5820 -38.5800 -38.5769 -38.5767 -38.5754 -38.5543
   -33.8685 -33.8628 -33.8507 -33.8370 -33.8244 -33.8239 -33.8138 -33.8128
   -33.8106 -33.8106 -33.8074 -33.8061 -33.8052 -33.8003 -33.8002 -33.7982
   -33.7957 -33.7932 -33.7931 -33.7919 -33.7911  -5.0719  -4.7558  -4.4876
    -2.3059  -1.9613  -1.7755  -1.7372  -1.5584  -1.4516  -1.4176  -1.3921
    -1.2844  -1.1977  -1.0243  -0.9658  -0.9119  -0.7849  -0.6974  -0.5294
    -0.4497  -0.2155  -0.2003   0.0822   0.0936   0.0982   0.1106   0.2509
     5.7257   5.7417   5.9136   5.9650   6.3051   6.5771   6.9257   7.1347
     7.2729   7.3825   7.6166   7.7430   8.0191   8.1380

          k =-0.5177-0.2863 0.0002 ( 16490 PWs)   bands (ev):

   -76.7166 -76.6977 -76.6970 -72.7912 -39.9048 -39.8693 -39.8649 -38.6507
   -38.5984 -38.5970 -38.5819 -38.5799 -38.5768 -38.5766 -38.5753 -38.5543
   -33.8685 -33.8628 -33.8507 -33.8369 -33.8244 -33.8239 -33.8138 -33.8128
   -33.8106 -33.8106 -33.8074 -33.8062 -33.8052 -33.8002 -33.8002 -33.7982
   -33.7957 -33.7930 -33.7929 -33.7919 -33.7911  -5.2812  -4.9224  -4.7431
    -1.9618  -1.8122  -1.7539  -1.4516  -1.3830  -1.3609  -1.2919  -1.2317
    -1.2134  -1.1763  -1.0882  -0.9746  -0.8629  -0.7445  -0.5687  -0.4275
    -0.3651  -0.2895  -0.2501  -0.1917  -0.1252   0.0028   0.1508   0.1685
     5.3255   5.4778   5.6983   6.0261   6.7127   6.7728   6.9945   7.0069
     7.1376   7.1864   7.3097   7.7938   7.8958   7.9176

          k =-0.5174-0.2862-0.8245 ( 16554 PWs)   bands (ev):

   -76.7166 -76.6977 -76.6970 -72.7912 -39.9048 -39.8693 -39.8649 -38.6507
   -38.5986 -38.5970 -38.5819 -38.5801 -38.5769 -38.5768 -38.5754 -38.5545
   -33.8685 -33.8628 -33.8507 -33.8370 -33.8244 -33.8239 -33.8139 -33.8129
   -33.8107 -33.8106 -33.8074 -33.8061 -33.8052 -33.8004 -33.8002 -33.7982
   -33.7957 -33.7932 -33.7931 -33.7919 -33.7911  -4.9667  -4.7424  -4.6185
    -2.3503  -1.9817  -1.8378  -1.5830  -1.5787  -1.5212  -1.3979  -1.3082
    -1.2747  -1.2435  -1.0487  -0.9443  -0.9218  -0.8051  -0.7368  -0.5696
    -0.3878  -0.2183  -0.1283   0.0550   0.1030   0.1180   0.1269   0.2704
     5.5923   5.8708   5.8900   5.9168   6.1255   6.1981   6.9295   6.9474
     7.1782   7.2076   7.7390   7.8996   7.9757   8.1944

          k =-0.5181 0.2870 0.0001 ( 16490 PWs)   bands (ev):

   -76.7166 -76.6977 -76.6970 -72.7912 -39.9048 -39.8693 -39.8649 -38.6506
   -38.5985 -38.5970 -38.5819 -38.5800 -38.5768 -38.5766 -38.5753 -38.5543
   -33.8685 -33.8628 -33.8507 -33.8369 -33.8244 -33.8239 -33.8138 -33.8128
   -33.8106 -33.8106 -33.8074 -33.8061 -33.8052 -33.8002 -33.8002 -33.7981
   -33.7957 -33.7930 -33.7929 -33.7919 -33.7911  -5.2816  -4.9204  -4.7443
    -1.9688  -1.8119  -1.7551  -1.4535  -1.3818  -1.3625  -1.2815  -1.2309
    -1.2134  -1.1767  -1.0896  -0.9773  -0.8535  -0.7410  -0.5687  -0.4290
    -0.3749  -0.2844  -0.2493  -0.1926  -0.1245  -0.0061   0.1568   0.1678
     5.3238   5.4794   5.6958   6.0259   6.7141   6.7731   6.9915   7.0021
     7.1426   7.1787   7.3141   7.7854   7.9004   7.9291

          k =-0.5178 0.2871-0.8246 ( 16536 PWs)   bands (ev):

   -76.7166 -76.6977 -76.6970 -72.7912 -39.9048 -39.8693 -39.8649 -38.6506
   -38.5985 -38.5971 -38.5819 -38.5799 -38.5769 -38.5768 -38.5754 -38.5544
   -33.8685 -33.8628 -33.8507 -33.8369 -33.8244 -33.8239 -33.8139 -33.8129
   -33.8107 -33.8106 -33.8074 -33.8061 -33.8052 -33.8004 -33.8002 -33.7982
   -33.7957 -33.7932 -33.7931 -33.7919 -33.7911  -4.9667  -4.7424  -4.6183
    -2.3506  -1.9822  -1.8384  -1.5847  -1.5762  -1.5224  -1.3983  -1.3065
    -1.2756  -1.2427  -1.0401  -0.9401  -0.9268  -0.8158  -0.7433  -0.5628
    -0.3829  -0.2185  -0.1292   0.0487   0.1051   0.1058   0.1404   0.2728
     5.5986   5.8481   5.9072   5.9190   6.1171   6.1974   6.9325   6.9474
     7.1748   7.2329   7.7061   7.8950   7.9961   8.1980

          k =-1.0358 0.0007 0.0004 ( 16510 PWs)   bands (ev):

   -76.7166 -76.6977 -76.6970 -72.7912 -39.9048 -39.8693 -39.8649 -38.6507
   -38.5985 -38.5970 -38.5819 -38.5800 -38.5768 -38.5767 -38.5753 -38.5544
   -33.8685 -33.8628 -33.8507 -33.8369 -33.8244 -33.8239 -33.8139 -33.8129
   -33.8107 -33.8106 -33.8074 -33.8061 -33.8052 -33.8003 -33.8002 -33.7981
   -33.7957 -33.7930 -33.7929 -33.7919 -33.7911  -5.2764  -4.9371  -4.7482
    -1.9307  -1.8246  -1.7612  -1.4511  -1.4150  -1.3639  -1.2388  -1.2109
    -1.2098  -1.1588  -1.1366  -0.8807  -0.7350  -0.6696  -0.6156  -0.6037
    -0.4958  -0.2104  -0.2075  -0.2037  -0.1878   0.0243   0.1008   0.1861
     5.2651   5.5773   5.6898   6.1724   6.6852   6.7534   6.7904   7.1223
     7.1348   7.2460   7.3881   7.6658   7.6740   7.8065

          k =-1.0355 0.0008-0.8243 ( 16498 PWs)   bands (ev):

   -76.7166 -76.6977 -76.6970 -72.7912 -39.9048 -39.8693 -39.8649 -38.6505
   -38.5984 -38.5969 -38.5818 -38.5799 -38.5769 -38.5768 -38.5754 -38.5543
   -33.8685 -33.8628 -33.8507 -33.8369 -33.8244 -33.8239 -33.8138 -33.8128
   -33.8106 -33.8106 -33.8074 -33.8061 -33.8052 -33.8004 -33.8001 -33.7981
   -33.7957 -33.7932 -33.7931 -33.7919 -33.7911  -4.8736  -4.7492  -4.7478
    -2.3541  -1.9322  -1.7079  -1.6201  -1.5611  -1.5177  -1.3135  -1.2934
    -1.2416  -1.2403  -1.1929  -0.9463  -0.8999  -0.7126  -0.7073  -0.6130
    -0.4473  -0.3469  -0.2221   0.0743   0.0775   0.0817   0.1480   0.3251
     5.5994   5.8154   5.8458   6.0658   6.1414   6.4043   6.8470   7.1493
     7.1824   7.4058   7.4605   7.5499   7.9284   8.1643

     the Fermi energy is     5.4126 ev

!    total energy              =   -4360.79426834 Ry
     Harris-Foulkes estimate   =   -4360.79426834 Ry
     estimated scf accuracy    <          8.2E-09 Ry

     The total energy is the sum of the following terms:

     one-electron contribution =   -3267.16572623 Ry
     hartree contribution      =    1634.93890700 Ry
     xc contribution           =    -317.64995702 Ry
     ewald contribution        =    -762.12524220 Ry
     one-center paw contrib.   =   -1648.79239197 Ry
     smearing contrib. (-TS)   =       0.00014208 Ry

     convergence has been achieved in  13 iterations

     Forces acting on atoms (cartesian axes, Ry/au):

     atom    1 type  2   force =     0.00028637    0.00001455   -0.00000112
     atom    2 type  3   force =    -0.00032617   -0.00041709   -0.00011579
     atom    3 type  2   force =     0.00010896   -0.00000514   -0.00000953
     atom    4 type  2   force =     0.00089638    0.00075270    0.00003474
     atom    5 type  2   force =    -0.00051203    0.00002090    0.00001191
     atom    6 type  2   force =     0.00082978   -0.00041583    0.00000493
     atom    7 type  4   force =    -0.00035055   -0.00052840   -0.00010653
     atom    8 type  4   force =    -0.00013119    0.00051830    0.00027371
     atom    9 type  4   force =     0.00013686   -0.00016105    0.00002123
     atom   10 type  1   force =    -0.00017697    0.00055098   -0.00043573
     atom   11 type  1   force =    -0.00007204    0.00009724   -0.00014361
     atom   12 type  1   force =    -0.00063026   -0.00071784    0.00115655
     atom   13 type  1   force =    -0.00069586    0.00067283   -0.00121048
     atom   14 type  1   force =    -0.00083309   -0.00062681   -0.00133258
     atom   15 type  1   force =    -0.00039559    0.00114042    0.00096184
     atom   16 type  1   force =     0.00005279    0.00033720   -0.00016490
     atom   17 type  1   force =    -0.00025751   -0.00103133   -0.00077344
     atom   18 type  1   force =     0.00022343   -0.00043026    0.00000861
     atom   19 type  1   force =     0.00003676    0.00007047    0.00008475
     atom   20 type  1   force =     0.00173103   -0.00038591   -0.00000662
     atom   21 type  1   force =     0.00057235    0.00010260   -0.00004972
     atom   22 type  1   force =     0.00019619   -0.00054850   -0.00060705
     atom   23 type  1   force =    -0.00101305    0.00004178    0.00002667
     atom   24 type  1   force =     0.00002939    0.00080125   -0.00007738
     atom   25 type  1   force =    -0.00000151    0.00037900    0.00038995
     atom   26 type  1   force =    -0.00084869   -0.00000809    0.00013348
     atom   27 type  1   force =     0.00001937   -0.00011759    0.00022534
     atom   28 type  1   force =     0.00095074    0.00014098   -0.00007349
     atom   29 type  1   force =     0.00012786    0.00028249   -0.00002162
     atom   30 type  1   force =     0.00003022    0.00041835    0.00002625
     atom   31 type  1   force =     0.00011790   -0.00074413   -0.00006867
     atom   32 type  1   force =     0.00002407   -0.00005529    0.00006352
     atom   33 type  1   force =     0.00065370   -0.00021982    0.00003629
     atom   34 type  1   force =    -0.00055915    0.00059952    0.00102047
     atom   35 type  1   force =    -0.00013625   -0.00048551    0.00027959
     atom   36 type  1   force =    -0.00008423   -0.00004296    0.00043843

     Total force =     0.005269     Total SCF correction =     0.000624
     SCF correction compared to forces is large: reduce conv_thr to get better values


     Computing stress (Cartesian axis) and pressure

          total   stress  (Ry/bohr**3)                   (kbar)     P=   -1.00
  -0.00001199   0.00000179   0.00000091         -1.76      0.26      0.13
   0.00000179  -0.00000060  -0.00000257          0.26     -0.09     -0.38
   0.00000091  -0.00000257  -0.00000790          0.13     -0.38     -1.16


     number of scf cycles    =  41
     number of bfgs steps    =  40

     enthalpy old            =   -4360.7941319710 Ry
     enthalpy new            =   -4360.7942683362 Ry

     CASE: enthalpy_new < enthalpy_old

     new trust radius        =       0.0103303406 bohr
     new conv_thr            =       0.0000000136 Ry

     new unit-cell volume =   2692.40437 a.u.^3 (   398.97316 Ang^3 )
     density =      0.14983 g/cm^3

CELL_PARAMETERS (angstrom)
   4.440749380  -8.034058128   0.001334325
   4.452643071   8.041227023   0.002185712
   0.002029127   0.000636570   5.581460518

ATOMIC_POSITIONS (angstrom)
K        1.068784435   2.088679391   2.792494920
Mg       6.525604902  -0.006364291   2.785356457
K        1.063331477  -2.088944206   2.791786869
K        2.722579482   4.729377402  -0.000126553
K        3.638690257   0.003872660   0.000555209
K        2.715936495  -4.716093225  -0.000079975
Re       4.616203291  -2.451990753   2.791713610
Re       4.624698480   2.458643699   2.792187586
Re      -0.298512360   0.002113278   0.002435895
H        5.033156614  -3.597801080   3.991659913
H        5.353968522  -1.456503549   3.996270748
H        3.506022579  -2.325661960   4.078403332
H        3.511661741   2.332422219   1.507820797
H        3.505480737  -2.327075361   1.505468478
H        5.032514608  -3.600407954   1.592250765
H        5.352307681  -1.457708217   1.585504210
H        5.038513513   3.605315365   3.993534875
H        5.362334863   1.461830558   3.993350695
H        0.475889847  -1.503746021   0.000861544
H        6.854288572  -0.003616693   0.007893605
H        0.491632042   1.497870065   0.001062258
H        3.540046085  -7.031649121   1.282007266
H        0.962864699   0.000242259   4.443349650
H        3.548074767   7.056527372   4.291587013
H        3.548623128   7.055145378   1.299586180
H        0.963536665   0.000647609   1.139939005
H        3.538916991  -7.034591207   4.307644986
H        3.510482674   3.727292157   2.792897541
H        6.286544914   2.721527443   2.792034355
H        3.825161177   0.987357850   2.792197653
H        3.817000272  -0.979749587   2.792054651
H        6.279865037  -2.710210788   2.791036520
H        3.502665670  -3.719613379   2.792187624
H        3.512567113   2.332969051   4.077330927
H        5.037678734   3.605094607   1.591747769
H        5.361180520   1.461565736   1.587974156



     Writing output data file K5MgReH93.save
     NEW-OLD atomic charge density approx. for the potential
     extrapolated charge  128.89130, renormalised to  129.00000

     total cpu time spent up to now is    42775.2 secs

     Self-consistent Calculation

     iteration #  1     ecut=    50.00 Ry     beta=0.70
     Davidson diagonalization with overlap
     ethr =  1.00E-06,  avg # of iterations =  5.1

     total cpu time spent up to now is    42825.6 secs

     total energy              =   -4360.77890784 Ry
     Harris-Foulkes estimate   =   -4363.39160757 Ry
     estimated scf accuracy    <       0.01391989 Ry

     iteration #  2     ecut=    50.00 Ry     beta=0.70
     Davidson diagonalization with overlap
     ethr =  1.08E-05,  avg # of iterations =  5.4

     total cpu time spent up to now is    42873.3 secs

     total energy              =   -4360.78107533 Ry
     Harris-Foulkes estimate   =   -4360.82572037 Ry
     estimated scf accuracy    <       0.16551227 Ry

     iteration #  3     ecut=    50.00 Ry     beta=0.70
     Davidson diagonalization with overlap
     ethr =  1.08E-05,  avg # of iterations =  4.5

     total cpu time spent up to now is    42913.5 secs

     total energy              =   -4360.79529027 Ry
     Harris-Foulkes estimate   =   -4360.79610169 Ry
     estimated scf accuracy    <       0.00917670 Ry

     iteration #  4     ecut=    50.00 Ry     beta=0.70
     Davidson diagonalization with overlap
     ethr =  7.11E-06,  avg # of iterations =  1.0

     total cpu time spent up to now is    42942.0 secs

     total energy              =   -4360.79471833 Ry
     Harris-Foulkes estimate   =   -4360.79546131 Ry
     estimated scf accuracy    <       0.00608057 Ry

     iteration #  5     ecut=    50.00 Ry     beta=0.70
     Davidson diagonalization with overlap
     ethr =  4.71E-06,  avg # of iterations =  1.0

     total cpu time spent up to now is    42970.8 secs

     total energy              =   -4360.79458166 Ry
     Harris-Foulkes estimate   =   -4360.79483312 Ry
     estimated scf accuracy    <       0.00287616 Ry

     iteration #  6     ecut=    50.00 Ry     beta=0.70
     Davidson diagonalization with overlap
     ethr =  2.23E-06,  avg # of iterations =  1.0

     total cpu time spent up to now is    42999.1 secs

     total energy              =   -4360.79435554 Ry
     Harris-Foulkes estimate   =   -4360.79461833 Ry
     estimated scf accuracy    <       0.00173127 Ry

     iteration #  7     ecut=    50.00 Ry     beta=0.70
     Davidson diagonalization with overlap
     ethr =  1.34E-06,  avg # of iterations =  2.4

     total cpu time spent up to now is    43029.5 secs

     total energy              =   -4360.79434661 Ry
     Harris-Foulkes estimate   =   -4360.79441525 Ry
     estimated scf accuracy    <       0.00056423 Ry

     iteration #  8     ecut=    50.00 Ry     beta=0.70
     Davidson diagonalization with overlap
     ethr =  4.37E-07,  avg # of iterations =  1.4

     total cpu time spent up to now is    43058.2 secs

     total energy              =   -4360.79431567 Ry
     Harris-Foulkes estimate   =   -4360.79436092 Ry
     estimated scf accuracy    <       0.00025939 Ry

     iteration #  9     ecut=    50.00 Ry     beta=0.70
     Davidson diagonalization with overlap
     ethr =  2.01E-07,  avg # of iterations =  2.0

     total cpu time spent up to now is    43088.7 secs

     total energy              =   -4360.79431569 Ry
     Harris-Foulkes estimate   =   -4360.79432875 Ry
     estimated scf accuracy    <       0.00006297 Ry

     iteration # 10     ecut=    50.00 Ry     beta=0.70
     Davidson diagonalization with overlap
     ethr =  4.88E-08,  avg # of iterations =  2.8

     total cpu time spent up to now is    43119.5 secs

     total energy              =   -4360.79431646 Ry
     Harris-Foulkes estimate   =   -4360.79432011 Ry
     estimated scf accuracy    <       0.00001099 Ry

     iteration # 11     ecut=    50.00 Ry     beta=0.70
     Davidson diagonalization with overlap
     ethr =  8.52E-09,  avg # of iterations =  2.9

     total cpu time spent up to now is    43153.7 secs

     total energy              =   -4360.79431845 Ry
     Harris-Foulkes estimate   =   -4360.79431846 Ry
     estimated scf accuracy    <       0.00000002 Ry

     iteration # 12     ecut=    50.00 Ry     beta=0.70
     Davidson diagonalization with overlap
     ethr =  1.77E-11,  avg # of iterations =  4.0

     total cpu time spent up to now is    43199.6 secs

     End of self-consistent calculation

          k = 0.0000 0.0000 0.0000 ( 16447 PWs)   bands (ev):

   -76.7106 -76.6908 -76.6899 -72.7917 -39.9054 -39.8699 -39.8652 -38.6439
   -38.5923 -38.5907 -38.5760 -38.5738 -38.5722 -38.5703 -38.5688 -38.5498
   -33.8614 -33.8557 -33.8437 -33.8299 -33.8164 -33.8158 -33.8059 -33.8047
   -33.8026 -33.8025 -33.8007 -33.7982 -33.7971 -33.7940 -33.7923 -33.7900
   -33.7893 -33.7849 -33.7847 -33.7840 -33.7830  -5.4880  -4.7410  -4.6033
    -1.9675  -1.9424  -1.8174  -1.7176  -1.4532  -1.3948  -1.2449  -1.2402
    -1.1590  -1.1549  -1.0582  -0.9220  -0.8360  -0.6375  -0.5092  -0.4623
    -0.2997  -0.2123  -0.2026  -0.1791  -0.1708  -0.0018   0.1732   0.2491
     5.2599   5.5322   6.0921   6.2170   6.3131   6.5188   6.6222   6.8067
     7.1030   7.4352   7.4538   7.4690   7.6088   7.6460

          k = 0.0003 0.0000-0.8254 ( 16526 PWs)   bands (ev):

   -76.7106 -76.6908 -76.6899 -72.7917 -39.9054 -39.8699 -39.8652 -38.6440
   -38.5923 -38.5907 -38.5761 -38.5739 -38.5725 -38.5705 -38.5691 -38.5498
   -33.8614 -33.8558 -33.8438 -33.8300 -33.8165 -33.8159 -33.8059 -33.8046
   -33.8027 -33.8025 -33.8007 -33.7983 -33.7972 -33.7941 -33.7924 -33.7901
   -33.7894 -33.7852 -33.7850 -33.7840 -33.7830  -5.0712  -4.7541  -4.4865
    -2.3024  -1.9620  -1.7738  -1.7336  -1.5573  -1.4491  -1.4166  -1.3895
    -1.2817  -1.1969  -1.0192  -0.9663  -0.9125  -0.7818  -0.6940  -0.5238
    -0.4429  -0.2110  -0.1967   0.0847   0.0960   0.1018   0.1110   0.2520
     5.7331   5.7470   5.9208   5.9743   6.3118   6.5838   6.9356   7.1434
     7.2809   7.3905   7.6256   7.7518   8.0320   8.1455

          k =-0.5178-0.2862 0.0002 ( 16490 PWs)   bands (ev):

   -76.7106 -76.6908 -76.6899 -72.7917 -39.9054 -39.8699 -39.8652 -38.6439
   -38.5923 -38.5907 -38.5761 -38.5738 -38.5723 -38.5704 -38.5689 -38.5498
   -33.8614 -33.8558 -33.8438 -33.8299 -33.8164 -33.8158 -33.8059 -33.8047
   -33.8027 -33.8025 -33.8007 -33.7983 -33.7972 -33.7940 -33.7924 -33.7901
   -33.7894 -33.7850 -33.7848 -33.7840 -33.7830  -5.2817  -4.9213  -4.7425
    -1.9600  -1.8107  -1.7515  -1.4502  -1.3818  -1.3583  -1.2883  -1.2304
    -1.2112  -1.1726  -1.0839  -0.9738  -0.8642  -0.7411  -0.5631  -0.4236
    -0.3625  -0.2872  -0.2432  -0.1858  -0.1221   0.0038   0.1521   0.1698
     5.3371   5.4846   5.7035   6.0315   6.7195   6.7805   7.0019   7.0130
     7.1449   7.1983   7.3227   7.8024   7.9043   7.9304

          k =-0.5174-0.2861-0.8252 ( 16554 PWs)   bands (ev):

   -76.7106 -76.6908 -76.6899 -72.7917 -39.9054 -39.8699 -39.8652 -38.6439
   -38.5925 -38.5907 -38.5760 -38.5740 -38.5725 -38.5706 -38.5691 -38.5500
   -33.8615 -33.8558 -33.8438 -33.8300 -33.8165 -33.8158 -33.8060 -33.8048
   -33.8027 -33.8025 -33.8007 -33.7983 -33.7972 -33.7942 -33.7924 -33.7902
   -33.7894 -33.7852 -33.7850 -33.7840 -33.7830  -4.9663  -4.7407  -4.6171
    -2.3462  -1.9826  -1.8351  -1.5806  -1.5770  -1.5178  -1.3971  -1.3076
    -1.2730  -1.2419  -1.0457  -0.9435  -0.9181  -0.8044  -0.7332  -0.5654
    -0.3808  -0.2152  -0.1250   0.0596   0.1059   0.1210   0.1269   0.2721
     5.5979   5.8793   5.8976   5.9243   6.1318   6.2050   6.9383   6.9548
     7.1861   7.2176   7.7512   7.9067   7.9888   8.2031

          k =-0.5182 0.2870 0.0002 ( 16490 PWs)   bands (ev):

   -76.7106 -76.6908 -76.6899 -72.7917 -39.9054 -39.8699 -39.8652 -38.6439
   -38.5923 -38.5907 -38.5760 -38.5739 -38.5723 -38.5704 -38.5689 -38.5498
   -33.8614 -33.8558 -33.8438 -33.8299 -33.8165 -33.8158 -33.8059 -33.8047
   -33.8027 -33.8025 -33.8007 -33.7983 -33.7972 -33.7940 -33.7924 -33.7901
   -33.7894 -33.7850 -33.7848 -33.7840 -33.7830  -5.2821  -4.9192  -4.7437
    -1.9675  -1.8104  -1.7526  -1.4521  -1.3806  -1.3602  -1.2776  -1.2295
    -1.2114  -1.1730  -1.0855  -0.9766  -0.8532  -0.7377  -0.5631  -0.4255
    -0.3727  -0.2817  -0.2424  -0.1867  -0.1218  -0.0055   0.1567   0.1707
     5.3353   5.4865   5.7007   6.0313   6.7210   6.7807   6.9981   7.0086
     7.1496   7.1904   7.3271   7.7936   7.9094   7.9427

          k =-0.5179 0.2870-0.8252 ( 16536 PWs)   bands (ev):

   -76.7106 -76.6908 -76.6899 -72.7917 -39.9054 -39.8699 -39.8652 -38.6439
   -38.5924 -38.5908 -38.5761 -38.5738 -38.5725 -38.5706 -38.5691 -38.5499
   -33.8615 -33.8558 -33.8438 -33.8299 -33.8165 -33.8158 -33.8060 -33.8048
   -33.8027 -33.8025 -33.8007 -33.7982 -33.7972 -33.7942 -33.7924 -33.7901
   -33.7894 -33.7852 -33.7850 -33.7840 -33.7830  -4.9663  -4.7407  -4.6169
    -2.3465  -1.9831  -1.8358  -1.5824  -1.5744  -1.5191  -1.3977  -1.3058
    -1.2742  -1.2409  -1.0356  -0.9384  -0.9236  -0.8162  -0.7403  -0.5581
    -0.3757  -0.2156  -0.1256   0.0528   0.1067   0.1085   0.1420   0.2749
     5.6046   5.8555   5.9141   5.9280   6.1231   6.2044   6.9415   6.9549
     7.1824   7.2434   7.7168   7.9018   8.0105   8.2068

          k =-1.0360 0.0008 0.0004 ( 16510 PWs)   bands (ev):

   -76.7106 -76.6908 -76.6899 -72.7917 -39.9054 -39.8699 -39.8652 -38.6439
   -38.5924 -38.5907 -38.5761 -38.5739 -38.5724 -38.5705 -38.5690 -38.5499
   -33.8614 -33.8558 -33.8438 -33.8299 -33.8165 -33.8159 -33.8060 -33.8048
   -33.8027 -33.8025 -33.8006 -33.7983 -33.7972 -33.7941 -33.7924 -33.7901
   -33.7894 -33.7850 -33.7848 -33.7840 -33.7830  -5.2769  -4.9363  -4.7472
    -1.9273  -1.8229  -1.7581  -1.4498  -1.4159  -1.3637  -1.2369  -1.2080
    -1.2053  -1.1556  -1.1337  -0.8820  -0.7320  -0.6654  -0.6096  -0.6029
    -0.4927  -0.2041  -0.2038  -0.1975  -0.1840   0.0249   0.1001   0.1892
     5.2755   5.5847   5.6950   6.1782   6.6931   6.7635   6.7983   7.1285
     7.1428   7.2567   7.4019   7.6714   7.6838   7.8149

          k =-1.0357 0.0008-0.8250 ( 16498 PWs)   bands (ev):

   -76.7106 -76.6908 -76.6899 -72.7917 -39.9054 -39.8699 -39.8652 -38.6438
   -38.5923 -38.5906 -38.5759 -38.5737 -38.5725 -38.5706 -38.5691 -38.5498
   -33.8614 -33.8558 -33.8438 -33.8299 -33.8165 -33.8158 -33.8059 -33.8047
   -33.8027 -33.8025 -33.8007 -33.7983 -33.7972 -33.7942 -33.7923 -33.7900
   -33.7894 -33.7852 -33.7850 -33.7840 -33.7830  -4.8736  -4.7475  -4.7462
    -2.3499  -1.9329  -1.7047  -1.6178  -1.5587  -1.5161  -1.3125  -1.2918
    -1.2398  -1.2397  -1.1904  -0.9438  -0.8953  -0.7105  -0.7063  -0.6097
    -0.4401  -0.3448  -0.2182   0.0763   0.0789   0.0849   0.1515   0.3278
     5.6068   5.8231   5.8537   6.0732   6.1460   6.4110   6.8557   7.1582
     7.1903   7.4162   7.4745   7.5579   7.9372   8.1770

     the Fermi energy is     5.4211 ev

!    total energy              =   -4360.79431848 Ry
     Harris-Foulkes estimate   =   -4360.79431848 Ry
     estimated scf accuracy    <          8.0E-09 Ry

     The total energy is the sum of the following terms:

     one-electron contribution =   -3267.04803164 Ry
     hartree contribution      =    1634.91026066 Ry
     xc contribution           =    -317.65854036 Ry
     ewald contribution        =    -762.20640281 Ry
     one-center paw contrib.   =   -1648.79165854 Ry
     smearing contrib. (-TS)   =       0.00005421 Ry

     convergence has been achieved in  12 iterations

     Forces acting on atoms (cartesian axes, Ry/au):

     atom    1 type  2   force =     0.00012407    0.00013009   -0.00000100
     atom    2 type  3   force =     0.00005874   -0.00037003   -0.00011869
     atom    3 type  2   force =    -0.00006004   -0.00011874   -0.00000798
     atom    4 type  2   force =     0.00089608    0.00065797    0.00003235
     atom    5 type  2   force =    -0.00052567    0.00002284    0.00000999
     atom    6 type  2   force =     0.00084251   -0.00031652    0.00000198
     atom    7 type  4   force =    -0.00026295    0.00054418   -0.00004733
     atom    8 type  4   force =    -0.00028128   -0.00083388   -0.00001198
     atom    9 type  4   force =     0.00038216    0.00030277    0.00010210
     atom   10 type  1   force =    -0.00010517    0.00018210   -0.00008101
     atom   11 type  1   force =     0.00009993    0.00022352    0.00018762
     atom   12 type  1   force =    -0.00083849   -0.00075862    0.00143777
     atom   13 type  1   force =    -0.00081476    0.00072787   -0.00139422
     atom   14 type  1   force =    -0.00097230   -0.00068649   -0.00154888
     atom   15 type  1   force =    -0.00027086    0.00062241    0.00046481
     atom   16 type  1   force =     0.00020560    0.00043499   -0.00047521
     atom   17 type  1   force =    -0.00014230   -0.00053307   -0.00026827
     atom   18 type  1   force =     0.00040336   -0.00054922    0.00032320
     atom   19 type  1   force =     0.00021377   -0.00011274    0.00006661
     atom   20 type  1   force =     0.00050456   -0.00041972   -0.00000598
     atom   21 type  1   force =     0.00067057    0.00007934   -0.00004417
     atom   22 type  1   force =     0.00009353   -0.00042420   -0.00048008
     atom   23 type  1   force =    -0.00052070    0.00003639   -0.00041313
     atom   24 type  1   force =    -0.00005760    0.00073046   -0.00018719
     atom   25 type  1   force =    -0.00004004    0.00043940    0.00037821
     atom   26 type  1   force =    -0.00042487   -0.00002121    0.00049908
     atom   27 type  1   force =    -0.00001602   -0.00014205    0.00023072
     atom   28 type  1   force =     0.00083384    0.00031158   -0.00004988
     atom   29 type  1   force =     0.00022537    0.00027496   -0.00000882
     atom   30 type  1   force =    -0.00006319    0.00042618    0.00003483
     atom   31 type  1   force =    -0.00002886   -0.00069754   -0.00005850
     atom   32 type  1   force =     0.00005808   -0.00004897    0.00005292
     atom   33 type  1   force =     0.00050020   -0.00042929    0.00002867
     atom   34 type  1   force =    -0.00075230    0.00065794    0.00131722
     atom   35 type  1   force =    -0.00006654   -0.00013053   -0.00005421
     atom   36 type  1   force =     0.00013155   -0.00021215    0.00008844

     Total force =     0.004954     Total SCF correction =     0.000955
     SCF correction compared to forces is large: reduce conv_thr to get better values


     Computing stress (Cartesian axis) and pressure

          total   stress  (Ry/bohr**3)                   (kbar)     P=   -0.48
  -0.00000764   0.00000169   0.00000067         -1.12      0.25      0.10
   0.00000169   0.00000130  -0.00000197          0.25      0.19     -0.29
   0.00000067  -0.00000197  -0.00000339          0.10     -0.29     -0.50


     number of scf cycles    =  42
     number of bfgs steps    =  41

     enthalpy old            =   -4360.7942683362 Ry
     enthalpy new            =   -4360.7943184814 Ry

     CASE: enthalpy_new < enthalpy_old

     new trust radius        =       0.0153683290 bohr
     new conv_thr            =       0.0000000100 Ry

     new unit-cell volume =   2686.53991 a.u.^3 (   398.10414 Ang^3 )
     density =      0.15016 g/cm^3

CELL_PARAMETERS (angstrom)
   4.435422187  -8.035267663   0.002612463
   4.449636097   8.043758343   0.001409618
   0.002349764  -0.000125527   5.573231944

ATOMIC_POSITIONS (angstrom)
K        1.071819616   2.088973443   2.788179659
Mg       6.514259957  -0.007099708   2.781191153
K        1.065292874  -2.089838824   2.788014643
K        2.724307731   4.732405791  -0.000520401
K        3.631943511   0.004493814   0.000771626
K        2.716160371  -4.717156425   0.000677668
Re       4.612435460  -2.450959619   2.788119570
Re       4.621839658   2.457871961   2.788077713
Re      -0.300645265   0.002480315   0.002574453
H        5.030271327  -3.596572150   3.986368563
H        5.348465614  -1.455379531   3.991574543
H        3.502813837  -2.326584694   4.075338451
H        3.509130985   2.333580248   1.503236934
H        3.501854506  -2.327566313   1.501079653
H        5.029265658  -3.598295684   1.591259070
H        5.346705905  -1.456125233   1.582594676
H        5.036656516   3.603892890   3.987120235
H        5.357981951   1.460569343   3.988249668
H        0.472236899  -1.504319434   0.001194669
H        6.849113380  -0.003886066   0.008422102
H        0.489908320   1.498456501   0.000862095
H        3.533814933  -7.032705015   1.281485566
H        0.958141387  -0.000214089   4.435933257
H        3.543663825   7.059015114   4.282293033
H        3.544086319   7.057355783   1.299889164
H        0.958842157   0.000601593   1.139368977
H        3.532561195  -7.035434840   4.301729060
H        3.509563080   3.727882304   2.788448351
H        6.283982323   2.721481429   2.787834778
H        3.821711751   0.988089374   2.788156373
H        3.812873362  -0.980269390   2.788206647
H        6.276276348  -2.708613375   2.787655421
H        3.500248414  -3.719735441   2.788794994
H        3.510248800   2.333650502   4.073393624
H        5.035737951   3.604496462   1.589186252
H        5.356362311   1.461002028   1.585434630



     Writing output data file K5MgReH93.save
     NEW-OLD atomic charge density approx. for the potential
     extrapolated charge  128.71862, renormalised to  129.00000

     total cpu time spent up to now is    43811.7 secs

     Self-consistent Calculation

     iteration #  1     ecut=    50.00 Ry     beta=0.70
     Davidson diagonalization with overlap
     ethr =  1.00E-06,  avg # of iterations =  7.8

     total cpu time spent up to now is    43868.7 secs

     total energy              =   -4360.66591765 Ry
     Harris-Foulkes estimate   =   -4367.54821717 Ry
     estimated scf accuracy    <       0.10936165 Ry

     iteration #  2     ecut=    50.00 Ry     beta=0.70
     Davidson diagonalization with overlap
     ethr =  8.48E-05,  avg # of iterations =  6.1

     total cpu time spent up to now is    43917.9 secs

     total energy              =   -4360.70028701 Ry
     Harris-Foulkes estimate   =   -4361.03815175 Ry
     estimated scf accuracy    <       1.21606753 Ry

     iteration #  3     ecut=    50.00 Ry     beta=0.70
     Davidson diagonalization with overlap
     ethr =  8.48E-05,  avg # of iterations =  5.1

     total cpu time spent up to now is    43959.9 secs

     total energy              =   -4360.80166704 Ry
     Harris-Foulkes estimate   =   -4360.80916719 Ry
     estimated scf accuracy    <       0.07234812 Ry

     iteration #  4     ecut=    50.00 Ry     beta=0.70
     Davidson diagonalization with overlap
     ethr =  5.61E-05,  avg # of iterations =  1.0

     total cpu time spent up to now is    43988.8 secs

     total energy              =   -4360.79770488 Ry
     Harris-Foulkes estimate   =   -4360.80301149 Ry
     estimated scf accuracy    <       0.04459862 Ry

     iteration #  5     ecut=    50.00 Ry     beta=0.70
     Davidson diagonalization with overlap
     ethr =  3.46E-05,  avg # of iterations =  1.0

     total cpu time spent up to now is    44017.1 secs

     total energy              =   -4360.79656096 Ry
     Harris-Foulkes estimate   =   -4360.79852911 Ry
     estimated scf accuracy    <       0.02234624 Ry

     iteration #  6     ecut=    50.00 Ry     beta=0.70
     Davidson diagonalization with overlap
     ethr =  1.73E-05,  avg # of iterations =  1.0

     total cpu time spent up to now is    44046.0 secs

     total energy              =   -4360.79519370 Ry
     Harris-Foulkes estimate   =   -4360.79683624 Ry
     estimated scf accuracy    <       0.01384918 Ry

     iteration #  7     ecut=    50.00 Ry     beta=0.70
     Davidson diagonalization with overlap
     ethr =  1.07E-05,  avg # of iterations =  2.4

     total cpu time spent up to now is    44075.8 secs

     total energy              =   -4360.79511009 Ry
     Harris-Foulkes estimate   =   -4360.79552019 Ry
     estimated scf accuracy    <       0.00627842 Ry

     iteration #  8     ecut=    50.00 Ry     beta=0.70
     Davidson diagonalization with overlap
     ethr =  4.87E-06,  avg # of iterations =  3.2

     total cpu time spent up to now is    44107.2 secs

     total energy              =   -4360.79488083 Ry
     Harris-Foulkes estimate   =   -4360.79517174 Ry
     estimated scf accuracy    <       0.00439262 Ry

     iteration #  9     ecut=    50.00 Ry     beta=0.70
     Davidson diagonalization with overlap
     ethr =  3.41E-06,  avg # of iterations =  1.8

     total cpu time spent up to now is    44136.5 secs

     total energy              =   -4360.79448719 Ry
     Harris-Foulkes estimate   =   -4360.79492093 Ry
     estimated scf accuracy    <       0.00294711 Ry

     iteration # 10     ecut=    50.00 Ry     beta=0.70
     Davidson diagonalization with overlap
     ethr =  2.28E-06,  avg # of iterations =  3.2

     total cpu time spent up to now is    44168.2 secs

     total energy              =   -4360.79420708 Ry
     Harris-Foulkes estimate   =   -4360.79457675 Ry
     estimated scf accuracy    <       0.00107595 Ry

     iteration # 11     ecut=    50.00 Ry     beta=0.70
     Davidson diagonalization with overlap
     ethr =  8.34E-07,  avg # of iterations =  3.8

     total cpu time spent up to now is    44203.2 secs

     total energy              =   -4360.79437884 Ry
     Harris-Foulkes estimate   =   -4360.79437909 Ry
     estimated scf accuracy    <       0.00000083 Ry

     iteration # 12     ecut=    50.00 Ry     beta=0.70
     Davidson diagonalization with overlap
     ethr =  6.41E-10,  avg # of iterations =  4.4

     total cpu time spent up to now is    44249.9 secs

     total energy              =   -4360.79438168 Ry
     Harris-Foulkes estimate   =   -4360.79438171 Ry
     estimated scf accuracy    <       0.00000008 Ry

     iteration # 13     ecut=    50.00 Ry     beta=0.70
     Davidson diagonalization with overlap
     ethr =  6.29E-11,  avg # of iterations =  2.6

     total cpu time spent up to now is    44283.8 secs

     total energy              =   -4360.79438168 Ry
     Harris-Foulkes estimate   =   -4360.79438169 Ry
     estimated scf accuracy    <       0.00000003 Ry

     iteration # 14     ecut=    50.00 Ry     beta=0.70
     Davidson diagonalization with overlap
     ethr =  1.95E-11,  avg # of iterations =  2.0

     total cpu time spent up to now is    44314.5 secs

     total energy              =   -4360.79438168 Ry
     Harris-Foulkes estimate   =   -4360.79438168 Ry
     estimated scf accuracy    <       0.00000002 Ry

     iteration # 15     ecut=    50.00 Ry     beta=0.70
     Davidson diagonalization with overlap
     ethr =  1.29E-11,  avg # of iterations =  2.1

     total cpu time spent up to now is    44345.1 secs

     End of self-consistent calculation

          k = 0.0000 0.0000 0.0000 ( 16447 PWs)   bands (ev):

   -76.6965 -76.6731 -76.6711 -72.7853 -39.8989 -39.8639 -39.8585 -38.6291
   -38.5755 -38.5730 -38.5623 -38.5606 -38.5568 -38.5529 -38.5523 -38.5376
   -33.8441 -33.8386 -33.8264 -33.8123 -33.7960 -33.7942 -33.7855 -33.7833
   -33.7830 -33.7821 -33.7809 -33.7779 -33.7777 -33.7756 -33.7725 -33.7720
   -33.7683 -33.7645 -33.7635 -33.7631 -33.7613  -5.4854  -4.7360  -4.5955
    -1.9640  -1.9327  -1.8136  -1.7083  -1.4477  -1.3891  -1.2327  -1.2298
    -1.1500  -1.1406  -1.0505  -0.9161  -0.8334  -0.6271  -0.4958  -0.4532
    -0.2873  -0.1980  -0.1963  -0.1668  -0.1544   0.0075   0.1839   0.2569
     5.2807   5.5501   6.1043   6.2293   6.3304   6.5405   6.6451   6.8227
     7.1250   7.4522   7.4795   7.4877   7.6327   7.6645

          k = 0.0004-0.0001-0.8266 ( 16526 PWs)   bands (ev):

   -76.6965 -76.6731 -76.6711 -72.7853 -39.8989 -39.8639 -39.8585 -38.6292
   -38.5756 -38.5730 -38.5625 -38.5607 -38.5570 -38.5532 -38.5525 -38.5376
   -33.8441 -33.8387 -33.8265 -33.8124 -33.7961 -33.7943 -33.7854 -33.7834
   -33.7830 -33.7821 -33.7809 -33.7780 -33.7778 -33.7756 -33.7725 -33.7721
   -33.7684 -33.7647 -33.7636 -33.7634 -33.7614  -5.0640  -4.7505  -4.4775
    -2.2984  -1.9596  -1.7645  -1.7271  -1.5507  -1.4373  -1.4060  -1.3817
    -1.2720  -1.1965  -1.0077  -0.9604  -0.9084  -0.7715  -0.6816  -0.5090
    -0.4299  -0.1979  -0.1827   0.0919   0.1056   0.1160   0.1187   0.2614
     5.7486   5.7641   5.9421   5.9933   6.3271   6.5987   6.9566   7.1659
     7.2961   7.4184   7.6481   7.7645   8.0588   8.1635

          k =-0.5182-0.2861 0.0002 ( 16490 PWs)   bands (ev):

   -76.6965 -76.6731 -76.6711 -72.7853 -39.8989 -39.8639 -39.8585 -38.6291
   -38.5755 -38.5730 -38.5624 -38.5606 -38.5569 -38.5530 -38.5524 -38.5376
   -33.8441 -33.8386 -33.8264 -33.8124 -33.7960 -33.7942 -33.7855 -33.7834
   -33.7830 -33.7821 -33.7809 -33.7780 -33.7777 -33.7756 -33.7725 -33.7720
   -33.7684 -33.7646 -33.7636 -33.7632 -33.7613  -5.2795  -4.9157  -4.7354
    -1.9522  -1.8069  -1.7439  -1.4443  -1.3765  -1.3487  -1.2806  -1.2207
    -1.1972  -1.1612  -1.0728  -0.9676  -0.8614  -0.7334  -0.5540  -0.4108
    -0.3523  -0.2779  -0.2268  -0.1694  -0.1118   0.0099   0.1621   0.1809
     5.3586   5.4976   5.7178   6.0501   6.7404   6.7965   7.0187   7.0306
     7.1616   7.2205   7.3491   7.8219   7.9245   7.9537

          k =-0.5178-0.2861-0.8264 ( 16554 PWs)   bands (ev):

   -76.6965 -76.6731 -76.6711 -72.7853 -39.8989 -39.8639 -39.8585 -38.6291
   -38.5757 -38.5730 -38.5626 -38.5606 -38.5570 -38.5532 -38.5525 -38.5377
   -33.8442 -33.8387 -33.8265 -33.8124 -33.7961 -33.7942 -33.7856 -33.7834
   -33.7831 -33.7822 -33.7809 -33.7780 -33.7779 -33.7756 -33.7726 -33.7721
   -33.7684 -33.7648 -33.7636 -33.7635 -33.7614  -4.9593  -4.7370  -4.6078
    -2.3419  -1.9804  -1.8266  -1.5751  -1.5697  -1.5069  -1.3866  -1.3057
    -1.2638  -1.2317  -1.0367  -0.9362  -0.9080  -0.7982  -0.7213  -0.5535
    -0.3682  -0.2032  -0.1112   0.0722   0.1179   0.1273   0.1364   0.2830
     5.6133   5.8973   5.9152   5.9397   6.1546   6.2226   6.9577   6.9745
     7.2023   7.2363   7.7744   7.9260   8.0134   8.2228

          k =-0.5188 0.2870 0.0002 ( 16490 PWs)   bands (ev):

   -76.6965 -76.6731 -76.6711 -72.7853 -39.8989 -39.8639 -39.8585 -38.6291
   -38.5756 -38.5729 -38.5624 -38.5606 -38.5569 -38.5530 -38.5524 -38.5376
   -33.8441 -33.8386 -33.8264 -33.8123 -33.7961 -33.7942 -33.7855 -33.7833
   -33.7831 -33.7821 -33.7809 -33.7780 -33.7777 -33.7756 -33.7726 -33.7720
   -33.7683 -33.7645 -33.7636 -33.7632 -33.7614  -5.2798  -4.9136  -4.7366
    -1.9610  -1.8065  -1.7449  -1.4468  -1.3748  -1.3520  -1.2689  -1.2194
    -1.1977  -1.1614  -1.0741  -0.9702  -0.8476  -0.7301  -0.5540  -0.4120
    -0.3641  -0.2711  -0.2260  -0.1704  -0.1139  -0.0001   0.1645   0.1848
     5.3568   5.4990   5.7149   6.0511   6.7418   6.7951   7.0138   7.0258
     7.1661   7.2128   7.3538   7.8127   7.9306   7.9681

          k =-0.5184 0.2869-0.8264 ( 16536 PWs)   bands (ev):

   -76.6965 -76.6731 -76.6711 -72.7853 -39.8989 -39.8639 -39.8585 -38.6291
   -38.5756 -38.5731 -38.5626 -38.5606 -38.5569 -38.5532 -38.5525 -38.5377
   -33.8442 -33.8386 -33.8264 -33.8124 -33.7961 -33.7943 -33.7856 -33.7834
   -33.7831 -33.7822 -33.7809 -33.7779 -33.7779 -33.7756 -33.7726 -33.7721
   -33.7684 -33.7648 -33.7636 -33.7634 -33.7614  -4.9592  -4.7370  -4.6076
    -2.3422  -1.9809  -1.8272  -1.5779  -1.5674  -1.5074  -1.3879  -1.3033
    -1.2669  -1.2305  -1.0242  -0.9287  -0.9145  -0.8122  -0.7288  -0.5451
    -0.3624  -0.2033  -0.1128   0.0654   0.1122   0.1197   0.1523   0.2861
     5.6204   5.8710   5.9287   5.9488   6.1450   6.2227   6.9616   6.9739
     7.1982   7.2660   7.7339   7.9184   8.0378   8.2272

          k =-1.0370 0.0009 0.0004 ( 16510 PWs)   bands (ev):

   -76.6965 -76.6731 -76.6711 -72.7853 -39.8989 -39.8639 -39.8585 -38.6291
   -38.5756 -38.5730 -38.5625 -38.5606 -38.5569 -38.5531 -38.5524 -38.5376
   -33.8441 -33.8387 -33.8265 -33.8124 -33.7961 -33.7943 -33.7856 -33.7833
   -33.7831 -33.7821 -33.7809 -33.7780 -33.7778 -33.7756 -33.7725 -33.7720
   -33.7683 -33.7646 -33.7636 -33.7632 -33.7614  -5.2759  -4.9288  -4.7409
    -1.9185  -1.8188  -1.7489  -1.4444  -1.4110  -1.3583  -1.2286  -1.1942
    -1.1941  -1.1422  -1.1246  -0.8791  -0.7231  -0.6586  -0.5994  -0.5972
    -0.4812  -0.1923  -0.1882  -0.1816  -0.1739   0.0330   0.1071   0.2033
     5.2962   5.5982   5.7104   6.1987   6.7162   6.7856   6.8149   7.1411
     7.1604   7.2784   7.4253   7.6893   7.7078   7.8352

          k =-1.0366 0.0009-0.8262 ( 16498 PWs)   bands (ev):

   -76.6965 -76.6731 -76.6711 -72.7853 -39.8989 -39.8639 -39.8585 -38.6290
   -38.5755 -38.5729 -38.5626 -38.5605 -38.5568 -38.5532 -38.5525 -38.5376
   -33.8441 -33.8387 -33.8265 -33.8123 -33.7961 -33.7943 -33.7855 -33.7833
   -33.7830 -33.7821 -33.7809 -33.7780 -33.7779 -33.7756 -33.7725 -33.7720
   -33.7683 -33.7648 -33.7636 -33.7634 -33.7613  -4.8669  -4.7440  -4.7370
    -2.3452  -1.9303  -1.6950  -1.6103  -1.5548  -1.5046  -1.3009  -1.2839
    -1.2367  -1.2325  -1.1822  -0.9327  -0.8840  -0.6997  -0.6993  -0.5981
    -0.4264  -0.3368  -0.2045   0.0787   0.0909   0.0958   0.1636   0.3412
     5.6227   5.8403   5.8773   6.0885   6.1641   6.4255   6.8732   7.1762
     7.2146   7.4407   7.5024   7.5772   7.9538   8.2029

     the Fermi energy is     5.4380 ev

!    total energy              =   -4360.79438167 Ry
     Harris-Foulkes estimate   =   -4360.79438168 Ry
     estimated scf accuracy    <          7.9E-09 Ry

     The total energy is the sum of the following terms:

     one-electron contribution =   -3266.54862784 Ry
     hartree contribution      =    1634.72973512 Ry
     xc contribution           =    -317.67401825 Ry
     ewald contribution        =    -762.51073948 Ry
     one-center paw contrib.   =   -1648.79062074 Ry
     smearing contrib. (-TS)   =      -0.00011048 Ry

     convergence has been achieved in  15 iterations

     Forces acting on atoms (cartesian axes, Ry/au):

     atom    1 type  2   force =    -0.00013509    0.00033565    0.00000035
     atom    2 type  3   force =     0.00039542   -0.00052522   -0.00011642
     atom    3 type  2   force =    -0.00031062   -0.00033604   -0.00000435
     atom    4 type  2   force =     0.00084261    0.00047713    0.00002704
     atom    5 type  2   force =    -0.00055718    0.00002300    0.00000736
     atom    6 type  2   force =     0.00081425   -0.00009235   -0.00000369
     atom    7 type  4   force =    -0.00081279    0.00005563    0.00009712
     atom    8 type  4   force =    -0.00011643    0.00026119   -0.00025340
     atom    9 type  4   force =     0.00000315   -0.00005922   -0.00006639
     atom   10 type  1   force =     0.00005514   -0.00016043    0.00038717
     atom   11 type  1   force =     0.00045621    0.00050200    0.00075938
     atom   12 type  1   force =    -0.00090712   -0.00072688    0.00155027
     atom   13 type  1   force =    -0.00083208    0.00071039   -0.00143067
     atom   14 type  1   force =    -0.00086600   -0.00070627   -0.00149665
     atom   15 type  1   force =     0.00005802   -0.00018631   -0.00044762
     atom   16 type  1   force =     0.00046342    0.00055950   -0.00089764
     atom   17 type  1   force =     0.00004213    0.00005667    0.00047330
     atom   18 type  1   force =     0.00065137   -0.00071895    0.00069811
     atom   19 type  1   force =     0.00046859   -0.00022858    0.00003210
     atom   20 type  1   force =    -0.00132951   -0.00047462    0.00001365
     atom   21 type  1   force =     0.00087807    0.00003888   -0.00000450
     atom   22 type  1   force =    -0.00010823    0.00005895   -0.00012569
     atom   23 type  1   force =     0.00062615    0.00006200   -0.00136170
     atom   24 type  1   force =    -0.00015184    0.00059343   -0.00032846
     atom   25 type  1   force =    -0.00003797    0.00057292    0.00031846
     atom   26 type  1   force =     0.00062955   -0.00000504    0.00137046
     atom   27 type  1   force =    -0.00002662   -0.00008862    0.00030551
     atom   28 type  1   force =     0.00057143    0.00048803   -0.00000415
     atom   29 type  1   force =     0.00011643    0.00008951   -0.00000276
     atom   30 type  1   force =    -0.00053846   -0.00018628    0.00002533
     atom   31 type  1   force =    -0.00058056   -0.00001279   -0.00002297
     atom   32 type  1   force =     0.00016215    0.00005326    0.00002399
     atom   33 type  1   force =     0.00036536   -0.00051436    0.00000688
     atom   34 type  1   force =    -0.00087715    0.00066219    0.00149494
     atom   35 type  1   force =     0.00000023    0.00008642   -0.00041415
     atom   36 type  1   force =     0.00058798   -0.00066478   -0.00061020

     Total force =     0.005791     Total SCF correction =     0.000236


     Computing stress (Cartesian axis) and pressure

          total   stress  (Ry/bohr**3)                   (kbar)     P=    0.78
   0.00000318   0.00000117   0.00000003          0.47      0.17      0.00
   0.00000117   0.00000774  -0.00000010          0.17      1.14     -0.01
   0.00000003  -0.00000010   0.00000501          0.00     -0.01      0.74


     number of scf cycles    =  43
     number of bfgs steps    =  42

     enthalpy old            =   -4360.7943184814 Ry
     enthalpy new            =   -4360.7943816727 Ry

     CASE: enthalpy_new < enthalpy_old

     new trust radius        =       0.0046656564 bohr
     new conv_thr            =       0.0000000100 Ry

     new unit-cell volume =   2685.49083 a.u.^3 (   397.94868 Ang^3 )
     density =      0.15022 g/cm^3

CELL_PARAMETERS (angstrom)
   4.432991402  -8.037227532   0.003383181
   4.448693002   8.046564396   0.000903235
   0.002517032  -0.000590522   5.571521710

ATOMIC_POSITIONS (angstrom)
K        1.072224804   2.089553874   2.787186316
Mg       6.510804504  -0.007424556   2.780359238
K        1.065034337  -2.090690328   2.787344633
K        2.724883732   4.735316025  -0.000764646
K        3.629235693   0.004875207   0.000898297
K        2.715772442  -4.718965521   0.001137672
Re       4.609669212  -2.451460083   2.787621880
Re       4.620080860   2.458881032   2.787089128
Re      -0.299990279   0.002488462   0.002556485
H        5.028014782  -3.597088355   3.985480567
H        5.346494361  -1.455416019   3.990886582
H        3.500179828  -2.328359436   4.076100016
H        3.506892461   2.335523020   1.501062962
H        3.499025700  -2.329060751   1.499090780
H        5.026807279  -3.598268586   1.591568032
H        5.344727857  -1.455804982   1.581858300
H        5.035020754   3.604326305   3.985536684
H        5.356646003   1.460571615   3.987377936
H        0.472390658  -1.504809013   0.001402255
H        6.848013901  -0.003901483   0.008627308
H        0.491032994   1.499002084   0.000725236
H        3.532123592  -7.034864583   1.281148645
H        0.957662478  -0.000437304   4.433521342
H        3.543200261   7.062024588   4.280215788
H        3.543583875   7.060275358   1.299585618
H        0.958359832   0.000582356   1.140222125
H        3.530891109  -7.037608934   4.301507236
H        3.509621830   3.729712392   2.787359639
H        6.282093297   2.723468569   2.786931978
H        3.820131900   0.988861598   2.787365072
H        3.811067253  -0.981068762   2.787485570
H        6.273844452  -2.709608311   2.787263600
H        3.499312755  -3.721360484   2.788361911
H        3.508116166   2.335299084   4.073657428
H        5.034057151   3.605464039   1.588569356
H        5.354722342   1.461465267   1.585022525



     Writing output data file K5MgReH93.save
     NEW-OLD atomic charge density approx. for the potential
     extrapolated charge  128.94964, renormalised to  129.00000

     total cpu time spent up to now is    44958.3 secs

     Self-consistent Calculation

     iteration #  1     ecut=    50.00 Ry     beta=0.70
     Davidson diagonalization with overlap
     ethr =  1.00E-06,  avg # of iterations =  4.6

     total cpu time spent up to now is    45006.2 secs

     total energy              =   -4360.79113867 Ry
     Harris-Foulkes estimate   =   -4361.99933186 Ry
     estimated scf accuracy    <       0.00289246 Ry

     iteration #  2     ecut=    50.00 Ry     beta=0.70
     Davidson diagonalization with overlap
     ethr =  2.24E-06,  avg # of iterations =  5.2

     total cpu time spent up to now is    45053.4 secs

     total energy              =   -4360.79165721 Ry
     Harris-Foulkes estimate   =   -4360.80108071 Ry
     estimated scf accuracy    <       0.03515245 Ry

     iteration #  3     ecut=    50.00 Ry     beta=0.70
     Davidson diagonalization with overlap
     ethr =  2.24E-06,  avg # of iterations =  4.4

     total cpu time spent up to now is    45093.3 secs

     total energy              =   -4360.79463819 Ry
     Harris-Foulkes estimate   =   -4360.79481367 Ry
     estimated scf accuracy    <       0.00200040 Ry

     iteration #  4     ecut=    50.00 Ry     beta=0.70
     Davidson diagonalization with overlap
     ethr =  1.55E-06,  avg # of iterations =  1.0

     total cpu time spent up to now is    45122.3 secs

     total energy              =   -4360.79445278 Ry
     Harris-Foulkes estimate   =   -4360.79467440 Ry
     estimated scf accuracy    <       0.00132729 Ry

     iteration #  5     ecut=    50.00 Ry     beta=0.70
     Davidson diagonalization with overlap
     ethr =  1.03E-06,  avg # of iterations =  1.1

     total cpu time spent up to now is    45150.8 secs

     total energy              =   -4360.79443246 Ry
     Harris-Foulkes estimate   =   -4360.79449771 Ry
     estimated scf accuracy    <       0.00041618 Ry

     iteration #  6     ecut=    50.00 Ry     beta=0.70
     Davidson diagonalization with overlap
     ethr =  3.23E-07,  avg # of iterations =  2.2

     total cpu time spent up to now is    45180.9 secs

     total energy              =   -4360.79441365 Ry
     Harris-Foulkes estimate   =   -4360.79444840 Ry
     estimated scf accuracy    <       0.00014168 Ry

     iteration #  7     ecut=    50.00 Ry     beta=0.70
     Davidson diagonalization with overlap
     ethr =  1.10E-07,  avg # of iterations =  2.4

     total cpu time spent up to now is    45212.9 secs

     total energy              =   -4360.79442716 Ry
     Harris-Foulkes estimate   =   -4360.79442823 Ry
     estimated scf accuracy    <       0.00000957 Ry

     iteration #  8     ecut=    50.00 Ry     beta=0.70
     Davidson diagonalization with overlap
     ethr =  7.42E-09,  avg # of iterations =  2.0

     total cpu time spent up to now is    45243.1 secs

     total energy              =   -4360.79442579 Ry
     Harris-Foulkes estimate   =   -4360.79442758 Ry
     estimated scf accuracy    <       0.00000500 Ry

     iteration #  9     ecut=    50.00 Ry     beta=0.70
     Davidson diagonalization with overlap
     ethr =  3.87E-09,  avg # of iterations =  2.9

     total cpu time spent up to now is    45277.5 secs

     total energy              =   -4360.79442681 Ry
     Harris-Foulkes estimate   =   -4360.79442682 Ry
     estimated scf accuracy    <       0.00000008 Ry

     iteration # 10     ecut=    50.00 Ry     beta=0.70
     Davidson diagonalization with overlap
     ethr =  6.05E-11,  avg # of iterations =  3.0

     total cpu time spent up to now is    45315.4 secs

     total energy              =   -4360.79442680 Ry
     Harris-Foulkes estimate   =   -4360.79442683 Ry
     estimated scf accuracy    <       0.00000009 Ry

     iteration # 11     ecut=    50.00 Ry     beta=0.70
     Davidson diagonalization with overlap
     ethr =  6.05E-11,  avg # of iterations =  2.0

     total cpu time spent up to now is    45347.4 secs

     End of self-consistent calculation

          k = 0.0000 0.0000 0.0000 ( 16447 PWs)   bands (ev):

   -76.6949 -76.6718 -76.6697 -72.7854 -39.8990 -39.8642 -39.8584 -38.6271
   -38.5740 -38.5714 -38.5618 -38.5595 -38.5555 -38.5512 -38.5505 -38.5363
   -33.8421 -33.8367 -33.8244 -33.8103 -33.7947 -33.7928 -33.7842 -33.7817
   -33.7814 -33.7808 -33.7796 -33.7766 -33.7759 -33.7742 -33.7707 -33.7705
   -33.7668 -33.7632 -33.7623 -33.7618 -33.7601  -5.4845  -4.7355  -4.5928
    -1.9644  -1.9288  -1.8130  -1.7087  -1.4464  -1.3888  -1.2282  -1.2273
    -1.1482  -1.1341  -1.0491  -0.9143  -0.8332  -0.6264  -0.4927  -0.4546
    -0.2823  -0.1975  -0.1947  -0.1655  -0.1512   0.0073   0.1863   0.2553
     5.2827   5.5529   6.1060   6.2295   6.3345   6.5441   6.6453   6.8237
     7.1279   7.4546   7.4855   7.4908   7.6348   7.6654

          k = 0.0004-0.0001-0.8268 ( 16526 PWs)   bands (ev):

   -76.6949 -76.6718 -76.6697 -72.7854 -39.8990 -39.8642 -39.8585 -38.6273
   -38.5740 -38.5714 -38.5621 -38.5596 -38.5556 -38.5515 -38.5507 -38.5363
   -33.8422 -33.8368 -33.8245 -33.8104 -33.7948 -33.7930 -33.7841 -33.7816
   -33.7814 -33.7808 -33.7797 -33.7767 -33.7760 -33.7742 -33.7708 -33.7705
   -33.7669 -33.7634 -33.7623 -33.7621 -33.7601  -5.0612  -4.7511  -4.4743
    -2.2986  -1.9581  -1.7621  -1.7274  -1.5481  -1.4316  -1.4020  -1.3823
    -1.2722  -1.1976  -1.0043  -0.9598  -0.9081  -0.7708  -0.6793  -0.5083
    -0.4248  -0.1964  -0.1770   0.0904   0.1072   0.1181   0.1215   0.2598
     5.7503   5.7642   5.9442   5.9963   6.3300   6.6000   6.9609   7.1653
     7.2959   7.4227   7.6530   7.7660   8.0626   8.1670

          k =-0.5184-0.2859 0.0002 ( 16490 PWs)   bands (ev):

   -76.6949 -76.6718 -76.6697 -72.7854 -39.8990 -39.8642 -39.8584 -38.6272
   -38.5740 -38.5714 -38.5619 -38.5596 -38.5555 -38.5514 -38.5506 -38.5363
   -33.8421 -33.8367 -33.8244 -33.8103 -33.7947 -33.7929 -33.7842 -33.7817
   -33.7814 -33.7808 -33.7797 -33.7767 -33.7759 -33.7742 -33.7707 -33.7705
   -33.7669 -33.7632 -33.7623 -33.7619 -33.7600  -5.2784  -4.9148  -4.7333
    -1.9510  -1.8063  -1.7413  -1.4429  -1.3760  -1.3481  -1.2791  -1.2184
    -1.1909  -1.1571  -1.0712  -0.9676  -0.8623  -0.7305  -0.5530  -0.4073
    -0.3506  -0.2757  -0.2245  -0.1664  -0.1106   0.0087   0.1621   0.1818
     5.3613   5.4990   5.7187   6.0518   6.7402   6.7985   7.0212   7.0324
     7.1633   7.2236   7.3547   7.8273   7.9269   7.9558

          k =-0.5180-0.2860-0.8266 ( 16554 PWs)   bands (ev):

   -76.6949 -76.6718 -76.6697 -72.7854 -39.8990 -39.8642 -39.8585 -38.6272
   -38.5741 -38.5714 -38.5621 -38.5595 -38.5556 -38.5515 -38.5508 -38.5364
   -33.8422 -33.8368 -33.8245 -33.8104 -33.7948 -33.7929 -33.7843 -33.7818
   -33.7814 -33.7808 -33.7797 -33.7767 -33.7761 -33.7742 -33.7708 -33.7706
   -33.7670 -33.7635 -33.7623 -33.7621 -33.7601  -4.9562  -4.7376  -4.6049
    -2.3421  -1.9787  -1.8248  -1.5747  -1.5678  -1.5032  -1.3822  -1.3067
    -1.2634  -1.2294  -1.0354  -0.9373  -0.9059  -0.7973  -0.7187  -0.5535
    -0.3639  -0.1990  -0.1074   0.0751   0.1210   0.1255   0.1366   0.2824
     5.6133   5.9003   5.9178   5.9423   6.1563   6.2236   6.9606   6.9747
     7.2034   7.2399   7.7774   7.9299   8.0155   8.2241

          k =-0.5190 0.2869 0.0003 ( 16490 PWs)   bands (ev):

   -76.6949 -76.6718 -76.6697 -72.7854 -39.8990 -39.8642 -39.8584 -38.6272
   -38.5740 -38.5713 -38.5619 -38.5595 -38.5555 -38.5514 -38.5506 -38.5363
   -33.8421 -33.8367 -33.8245 -33.8103 -33.7948 -33.7929 -33.7842 -33.7817
   -33.7814 -33.7808 -33.7796 -33.7767 -33.7759 -33.7742 -33.7707 -33.7706
   -33.7669 -33.7632 -33.7623 -33.7619 -33.7601  -5.2787  -4.9127  -4.7346
    -1.9608  -1.8060  -1.7420  -1.4453  -1.3744  -1.3517  -1.2671  -1.2168
    -1.1916  -1.1574  -1.0726  -0.9696  -0.8469  -0.7272  -0.5530  -0.4089
    -0.3637  -0.2677  -0.2238  -0.1673  -0.1128  -0.0024   0.1631   0.1874
     5.3594   5.5010   5.7156   6.0529   6.7418   6.7966   7.0155   7.0276
     7.1675   7.2153   7.3593   7.8181   7.9340   7.9713

          k =-0.5186 0.2868-0.8266 ( 16536 PWs)   bands (ev):

   -76.6949 -76.6718 -76.6697 -72.7854 -39.8990 -39.8642 -39.8584 -38.6272
   -38.5740 -38.5715 -38.5621 -38.5596 -38.5555 -38.5515 -38.5508 -38.5363
   -33.8422 -33.8367 -33.8245 -33.8103 -33.7948 -33.7929 -33.7843 -33.7818
   -33.7814 -33.7808 -33.7797 -33.7766 -33.7761 -33.7742 -33.7708 -33.7706
   -33.7669 -33.7635 -33.7623 -33.7621 -33.7601  -4.9562  -4.7376  -4.6047
    -2.3425  -1.9792  -1.8255  -1.5776  -1.5652  -1.5038  -1.3841  -1.3042
    -1.2671  -1.2278  -1.0212  -0.9282  -0.9129  -0.8127  -0.7275  -0.5440
    -0.3579  -0.1998  -0.1082   0.0674   0.1106   0.1225   0.1524   0.2860
     5.6214   5.8731   5.9300   5.9527   6.1464   6.2234   6.9641   6.9750
     7.1990   7.2706   7.7349   7.9220   8.0413   8.2296

          k =-1.0374 0.0010 0.0005 ( 16510 PWs)   bands (ev):

   -76.6949 -76.6718 -76.6697 -72.7854 -39.8990 -39.8642 -39.8584 -38.6272
   -38.5740 -38.5714 -38.5620 -38.5595 -38.5555 -38.5514 -38.5507 -38.5363
   -33.8421 -33.8368 -33.8245 -33.8103 -33.7948 -33.7930 -33.7843 -33.7817
   -33.7814 -33.7808 -33.7797 -33.7766 -33.7760 -33.7742 -33.7708 -33.7705
   -33.7669 -33.7633 -33.7623 -33.7619 -33.7601  -5.2755  -4.9267  -4.7394
    -1.9160  -1.8182  -1.7477  -1.4430  -1.4116  -1.3577  -1.2277  -1.1917
    -1.1881  -1.1366  -1.1216  -0.8795  -0.7230  -0.6573  -0.5988  -0.5968
    -0.4774  -0.1905  -0.1856  -0.1788  -0.1729   0.0310   0.1079   0.2060
     5.2983   5.6006   5.7121   6.1989   6.7166   6.7911   6.8169   7.1424
     7.1637   7.2804   7.4278   7.6921   7.7135   7.8372

          k =-1.0370 0.0009-0.8264 ( 16498 PWs)   bands (ev):

   -76.6949 -76.6718 -76.6697 -72.7854 -39.8990 -39.8642 -39.8584 -38.6270
   -38.5739 -38.5713 -38.5621 -38.5594 -38.5554 -38.5515 -38.5508 -38.5362
   -33.8421 -33.8368 -33.8245 -33.8103 -33.7948 -33.7929 -33.7842 -33.7817
   -33.7814 -33.7808 -33.7797 -33.7767 -33.7761 -33.7742 -33.7707 -33.7705
   -33.7668 -33.7634 -33.7623 -33.7621 -33.7601  -4.8637  -4.7446  -4.7343
    -2.3454  -1.9285  -1.6932  -1.6092  -1.5552  -1.4991  -1.2957  -1.2846
    -1.2367  -1.2326  -1.1798  -0.9304  -0.8819  -0.6996  -0.6977  -0.5970
    -0.4212  -0.3367  -0.1996   0.0763   0.0920   0.0988   0.1638   0.3432
     5.6248   5.8421   5.8806   6.0898   6.1630   6.4260   6.8743   7.1783
     7.2190   7.4458   7.5072   7.5819   7.9545   8.2080

     the Fermi energy is     5.4400 ev

!    total energy              =   -4360.79442682 Ry
     Harris-Foulkes estimate   =   -4360.79442682 Ry
     estimated scf accuracy    <          1.5E-09 Ry

     The total energy is the sum of the following terms:

     one-electron contribution =   -3266.14479075 Ry
     hartree contribution      =    1634.53715921 Ry
     xc contribution           =    -317.67498160 Ry
     ewald contribution        =    -762.72119403 Ry
     one-center paw contrib.   =   -1648.79048328 Ry
     smearing contrib. (-TS)   =      -0.00013637 Ry

     convergence has been achieved in  11 iterations

     Forces acting on atoms (cartesian axes, Ry/au):

     atom    1 type  2   force =    -0.00017249    0.00040096    0.00000151
     atom    2 type  3   force =     0.00047852   -0.00056907   -0.00012309
     atom    3 type  2   force =    -0.00034938   -0.00039853    0.00000020
     atom    4 type  2   force =     0.00076704    0.00041939    0.00002435
     atom    5 type  2   force =    -0.00057627    0.00003430    0.00000610
     atom    6 type  2   force =     0.00075723   -0.00001424   -0.00000603
     atom    7 type  4   force =    -0.00014720    0.00024870    0.00003996
     atom    8 type  4   force =    -0.00001658   -0.00052970   -0.00009958
     atom    9 type  4   force =     0.00012964    0.00002643    0.00002332
     atom   10 type  1   force =     0.00006315   -0.00011654    0.00043973
     atom   11 type  1   force =     0.00034512    0.00035523    0.00068543
     atom   12 type  1   force =    -0.00071870   -0.00068275    0.00119962
     atom   13 type  1   force =    -0.00050645    0.00072897   -0.00097617
     atom   14 type  1   force =    -0.00057365   -0.00069375   -0.00103257
     atom   15 type  1   force =     0.00016177   -0.00040181   -0.00072961
     atom   16 type  1   force =     0.00026482    0.00027359   -0.00066062
     atom   17 type  1   force =     0.00013780    0.00026570    0.00071541
     atom   18 type  1   force =     0.00051036   -0.00042917    0.00046337
     atom   19 type  1   force =     0.00049857   -0.00016700    0.00000008
     atom   20 type  1   force =    -0.00182429   -0.00049839    0.00002169
     atom   21 type  1   force =     0.00082665   -0.00022629    0.00001319
     atom   22 type  1   force =    -0.00021553    0.00028325    0.00001739
     atom   23 type  1   force =     0.00088728    0.00005075   -0.00150649
     atom   24 type  1   force =    -0.00023143    0.00043310   -0.00047172
     atom   25 type  1   force =    -0.00006908    0.00057173    0.00032776
     atom   26 type  1   force =     0.00080106   -0.00001117    0.00142256
     atom   27 type  1   force =    -0.00005530   -0.00004005    0.00032015
     atom   28 type  1   force =     0.00026680    0.00066803    0.00001321
     atom   29 type  1   force =     0.00003401    0.00002608   -0.00001487
     atom   30 type  1   force =    -0.00064918   -0.00015989    0.00000249
     atom   31 type  1   force =    -0.00096816    0.00038818    0.00000773
     atom   32 type  1   force =    -0.00009967    0.00013265    0.00001119
     atom   33 type  1   force =     0.00014701   -0.00055865   -0.00000036
     atom   34 type  1   force =    -0.00056260    0.00070092    0.00103395
     atom   35 type  1   force =     0.00003840    0.00009896   -0.00049317
     atom   36 type  1   force =     0.00062075   -0.00060990   -0.00067613

     Total force =     0.005463     Total SCF correction =     0.000319


     Computing stress (Cartesian axis) and pressure

          total   stress  (Ry/bohr**3)                   (kbar)     P=    0.78
   0.00000431   0.00000059  -0.00000032          0.63      0.09     -0.05
   0.00000059   0.00000736   0.00000104          0.09      1.08      0.15
  -0.00000032   0.00000104   0.00000426         -0.05      0.15      0.63


     number of scf cycles    =  44
     number of bfgs steps    =  43

     enthalpy old            =   -4360.7943816727 Ry
     enthalpy new            =   -4360.7944268156 Ry

     CASE: enthalpy_new < enthalpy_old

     new trust radius        =       0.0069970106 bohr
     new conv_thr            =       0.0000000100 Ry

     new unit-cell volume =   2683.62878 a.u.^3 (   397.67275 Ang^3 )
     density =      0.15032 g/cm^3

CELL_PARAMETERS (angstrom)
   4.430769882  -8.038887905   0.003942846
   4.448319265   8.049270621   0.000587737
   0.002672293  -0.000917663   5.567775969

ATOMIC_POSITIONS (angstrom)
K        1.073720280   2.090489606   2.785239907
Mg       6.508674220  -0.008043184   2.778338290
K        1.065656457  -2.091772743   2.785618100
K        2.727422508   4.736613814  -0.000905684
K        3.625747620   0.005373293   0.001004885
K        2.717161070  -4.718666890   0.001462256
Re       4.607798456  -2.451250017   2.785995511
Re       4.619334856   2.459299053   2.785187199
Re      -0.300942720   0.002517700   0.002609991
H        5.027430430  -3.597061562   3.983232566
H        5.344599292  -1.454332280   3.989365646
H        3.498742558  -2.329752710   4.076372189
H        3.506107970   2.337406722   1.497461218
H        3.497451955  -2.330255952   1.495493810
H        5.026058512  -3.597885091   1.590898763
H        5.342769716  -1.454482568   1.579810856
H        5.035260959   3.604660013   3.982887063
H        5.355648862   1.459776286   3.985566258
H        0.471004669  -1.505530846   0.001583498
H        6.845503157  -0.004226295   0.008907880
H        0.491139195   1.499497717   0.000633393
H        3.529204390  -7.036014459   1.280532039
H        0.955426142  -0.000525772   4.428600966
H        3.541757405   7.064957352   4.275852083
H        3.542202209   7.063066021   1.299910217
H        0.956135869   0.000607137   1.141507397
H        3.527986027  -7.038814317   4.299357481
H        3.510391659   3.731390011   2.785343369
H        6.281633196   2.723598968   2.785030597
H        3.818558367   0.989600534   2.785560214
H        3.808918111  -0.981340014   2.785710598
H        6.272590470  -2.708199432   2.785741959
H        3.498843388  -3.722420840   2.786823400
H        3.507440409   2.336935509   4.073412222
H        5.034219097   3.606220794   1.587186521
H        5.353475830   1.461002061   1.583380106



     Writing output data file K5MgReH93.save
     NEW-OLD atomic charge density approx. for the potential
     extrapolated charge  128.91056, renormalised to  129.00000

     total cpu time spent up to now is    45959.6 secs

     Self-consistent Calculation

     iteration #  1     ecut=    50.00 Ry     beta=0.70
     Davidson diagonalization with overlap
     ethr =  1.00E-06,  avg # of iterations =  5.0

     total cpu time spent up to now is    46010.3 secs

     total energy              =   -4360.78458069 Ry
     Harris-Foulkes estimate   =   -4362.93490964 Ry
     estimated scf accuracy    <       0.00874121 Ry

     iteration #  2     ecut=    50.00 Ry     beta=0.70
     Davidson diagonalization with overlap
     ethr =  6.78E-06,  avg # of iterations =  5.1

     total cpu time spent up to now is    46057.7 secs

     total energy              =   -4360.78612927 Ry
     Harris-Foulkes estimate   =   -4360.81469149 Ry
     estimated scf accuracy    <       0.10700519 Ry

     iteration #  3     ecut=    50.00 Ry     beta=0.70
     Davidson diagonalization with overlap
     ethr =  6.78E-06,  avg # of iterations =  4.4

     total cpu time spent up to now is    46097.8 secs

     total energy              =   -4360.79513154 Ry
     Harris-Foulkes estimate   =   -4360.79568509 Ry
     estimated scf accuracy    <       0.00624375 Ry

     iteration #  4     ecut=    50.00 Ry     beta=0.70
     Davidson diagonalization with overlap
     ethr =  4.84E-06,  avg # of iterations =  1.0

     total cpu time spent up to now is    46126.1 secs

     total energy              =   -4360.79459599 Ry
     Harris-Foulkes estimate   =   -4360.79524932 Ry
     estimated scf accuracy    <       0.00413835 Ry

     iteration #  5     ecut=    50.00 Ry     beta=0.70
     Davidson diagonalization with overlap
     ethr =  3.21E-06,  avg # of iterations =  1.0

     total cpu time spent up to now is    46154.9 secs

     total energy              =   -4360.79453831 Ry
     Harris-Foulkes estimate   =   -4360.79472112 Ry
     estimated scf accuracy    <       0.00142300 Ry

     iteration #  6     ecut=    50.00 Ry     beta=0.70
     Davidson diagonalization with overlap
     ethr =  1.10E-06,  avg # of iterations =  1.9

     total cpu time spent up to now is    46184.1 secs

     total energy              =   -4360.79445664 Ry
     Harris-Foulkes estimate   =   -4360.79457565 Ry
     estimated scf accuracy    <       0.00063311 Ry

     iteration #  7     ecut=    50.00 Ry     beta=0.70
     Davidson diagonalization with overlap
     ethr =  4.91E-07,  avg # of iterations =  2.1

     total cpu time spent up to now is    46215.1 secs

     total energy              =   -4360.79448567 Ry
     Harris-Foulkes estimate   =   -4360.79449709 Ry
     estimated scf accuracy    <       0.00011744 Ry

     iteration #  8     ecut=    50.00 Ry     beta=0.70
     Davidson diagonalization with overlap
     ethr =  9.10E-08,  avg # of iterations =  1.0

     total cpu time spent up to now is    46243.5 secs

     total energy              =   -4360.79446847 Ry
     Harris-Foulkes estimate   =   -4360.79448804 Ry
     estimated scf accuracy    <       0.00006766 Ry

     iteration #  9     ecut=    50.00 Ry     beta=0.70
     Davidson diagonalization with overlap
     ethr =  5.24E-08,  avg # of iterations =  2.2

     total cpu time spent up to now is    46275.8 secs

     total energy              =   -4360.79447636 Ry
     Harris-Foulkes estimate   =   -4360.79447695 Ry
     estimated scf accuracy    <       0.00000115 Ry

     iteration # 10     ecut=    50.00 Ry     beta=0.70
     Davidson diagonalization with overlap
     ethr =  8.88E-10,  avg # of iterations =  3.4

     total cpu time spent up to now is    46313.8 secs

     total energy              =   -4360.79447679 Ry
     Harris-Foulkes estimate   =   -4360.79447694 Ry
     estimated scf accuracy    <       0.00000043 Ry

     iteration # 11     ecut=    50.00 Ry     beta=0.70
     Davidson diagonalization with overlap
     ethr =  3.37E-10,  avg # of iterations =  2.0

     total cpu time spent up to now is    46346.7 secs

     End of self-consistent calculation

          k = 0.0000 0.0000 0.0000 ( 16447 PWs)   bands (ev):

   -76.6938 -76.6683 -76.6655 -72.7852 -39.8986 -39.8642 -39.8580 -38.6254
   -38.5698 -38.5667 -38.5622 -38.5559 -38.5508 -38.5468 -38.5464 -38.5345
   -33.8406 -33.8353 -33.8228 -33.8087 -33.7911 -33.7884 -33.7807 -33.7796
   -33.7772 -33.7772 -33.7753 -33.7745 -33.7731 -33.7697 -33.7686 -33.7672
   -33.7622 -33.7597 -33.7588 -33.7575 -33.7556  -5.4822  -4.7331  -4.5870
    -1.9634  -1.9233  -1.8105  -1.7062  -1.4426  -1.3853  -1.2246  -1.2203
    -1.1441  -1.1242  -1.0461  -0.9113  -0.8301  -0.6242  -0.4878  -0.4530
    -0.2747  -0.1955  -0.1902  -0.1624  -0.1442   0.0104   0.1909   0.2573
     5.2877   5.5557   6.1069   6.2295   6.3391   6.5495   6.6505   6.8257
     7.1325   7.4578   7.4914   7.4947   7.6393   7.6687

          k = 0.0004-0.0002-0.8274 ( 16526 PWs)   bands (ev):

   -76.6938 -76.6683 -76.6655 -72.7852 -39.8986 -39.8642 -39.8580 -38.6255
   -38.5699 -38.5667 -38.5624 -38.5560 -38.5509 -38.5470 -38.5467 -38.5345
   -33.8406 -33.8354 -33.8229 -33.8087 -33.7913 -33.7886 -33.7806 -33.7797
   -33.7772 -33.7772 -33.7753 -33.7746 -33.7732 -33.7698 -33.7687 -33.7672
   -33.7623 -33.7599 -33.7588 -33.7577 -33.7556  -5.0549  -4.7504  -4.4676
    -2.2996  -1.9549  -1.7566  -1.7272  -1.5424  -1.4248  -1.3953  -1.3796
    -1.2694  -1.2000  -1.0006  -0.9553  -0.9047  -0.7682  -0.6748  -0.5049
    -0.4180  -0.1914  -0.1679   0.0902   0.1117   0.1198   0.1295   0.2634
     5.7526   5.7669   5.9483   6.0002   6.3323   6.5998   6.9655   7.1689
     7.2976   7.4324   7.6592   7.7663   8.0690   8.1700

          k =-0.5185-0.2858 0.0002 ( 16490 PWs)   bands (ev):

   -76.6938 -76.6683 -76.6655 -72.7852 -39.8986 -39.8642 -39.8580 -38.6254
   -38.5698 -38.5667 -38.5623 -38.5560 -38.5509 -38.5469 -38.5466 -38.5345
   -33.8406 -33.8354 -33.8229 -33.8087 -33.7912 -33.7885 -33.7807 -33.7797
   -33.7772 -33.7772 -33.7754 -33.7745 -33.7732 -33.7697 -33.7687 -33.7672
   -33.7623 -33.7597 -33.7588 -33.7576 -33.7556  -5.2764  -4.9118  -4.7283
    -1.9473  -1.8039  -1.7378  -1.4389  -1.3726  -1.3441  -1.2776  -1.2138
    -1.1813  -1.1502  -1.0681  -0.9644  -0.8607  -0.7266  -0.5514  -0.4023
    -0.3462  -0.2712  -0.2190  -0.1592  -0.1075   0.0101   0.1658   0.1854
     5.3651   5.5003   5.7200   6.0572   6.7446   6.8013   7.0229   7.0360
     7.1652   7.2285   7.3618   7.8333   7.9309   7.9594

          k =-0.5181-0.2860-0.8272 ( 16554 PWs)   bands (ev):

   -76.6938 -76.6683 -76.6655 -72.7852 -39.8986 -39.8642 -39.8580 -38.6254
   -38.5700 -38.5667 -38.5625 -38.5559 -38.5510 -38.5471 -38.5467 -38.5347
   -33.8407 -33.8354 -33.8229 -33.8087 -33.7912 -33.7885 -33.7807 -33.7797
   -33.7773 -33.7773 -33.7754 -33.7747 -33.7732 -33.7698 -33.7688 -33.7673
   -33.7623 -33.7600 -33.7588 -33.7578 -33.7556  -4.9499  -4.7369  -4.5982
    -2.3434  -1.9757  -1.8209  -1.5742  -1.5626  -1.4976  -1.3752  -1.3071
    -1.2585  -1.2242  -1.0327  -0.9341  -0.9026  -0.7934  -0.7139  -0.5515
    -0.3582  -0.1923  -0.0998   0.0804   0.1252   0.1272   0.1387   0.2868
     5.6147   5.9031   5.9202   5.9452   6.1630   6.2259   6.9646   6.9772
     7.2070   7.2434   7.7818   7.9351   8.0177   8.2280

          k =-0.5192 0.2869 0.0003 ( 16490 PWs)   bands (ev):

   -76.6938 -76.6683 -76.6655 -72.7852 -39.8986 -39.8642 -39.8580 -38.6254
   -38.5699 -38.5667 -38.5623 -38.5559 -38.5509 -38.5469 -38.5466 -38.5346
   -33.8406 -33.8354 -33.8229 -33.8087 -33.7912 -33.7885 -33.7807 -33.7796
   -33.7773 -33.7773 -33.7753 -33.7745 -33.7732 -33.7698 -33.7687 -33.7672
   -33.7623 -33.7597 -33.7588 -33.7576 -33.7556  -5.2766  -4.9096  -4.7296
    -1.9584  -1.8036  -1.7384  -1.4413  -1.3710  -1.3483  -1.2647  -1.2120
    -1.1821  -1.1505  -1.0697  -0.9658  -0.8434  -0.7231  -0.5514  -0.4038
    -0.3610  -0.2620  -0.2183  -0.1602  -0.1105  -0.0020   0.1657   0.1924
     5.3632   5.5025   5.7164   6.0587   6.7463   6.7986   7.0168   7.0308
     7.1687   7.2199   7.3661   7.8235   7.9394   7.9767

          k =-0.5187 0.2867-0.8271 ( 16536 PWs)   bands (ev):

   -76.6938 -76.6683 -76.6655 -72.7852 -39.8986 -39.8642 -39.8580 -38.6254
   -38.5699 -38.5668 -38.5625 -38.5560 -38.5509 -38.5470 -38.5467 -38.5346
   -33.8407 -33.8354 -33.8229 -33.8087 -33.7912 -33.7885 -33.7807 -33.7797
   -33.7773 -33.7773 -33.7753 -33.7747 -33.7731 -33.7697 -33.7687 -33.7672
   -33.7623 -33.7600 -33.7588 -33.7578 -33.7556  -4.9498  -4.7369  -4.5980
    -2.3438  -1.9762  -1.8219  -1.5772  -1.5598  -1.4983  -1.3776  -1.3046
    -1.2632  -1.2224  -1.0164  -0.9232  -0.9103  -0.8106  -0.7240  -0.5406
    -0.3519  -0.1933  -0.1006   0.0721   0.1106   0.1283   0.1545   0.2909
     5.6239   5.8744   5.9314   5.9570   6.1526   6.2257   6.9683   6.9779
     7.2019   7.2758   7.7362   7.9261   8.0457   8.2345

          k =-1.0377 0.0011 0.0005 ( 16510 PWs)   bands (ev):

   -76.6938 -76.6683 -76.6655 -72.7852 -39.8986 -39.8642 -39.8580 -38.6254
   -38.5699 -38.5667 -38.5624 -38.5559 -38.5509 -38.5470 -38.5466 -38.5346
   -33.8406 -33.8354 -33.8230 -33.8087 -33.7913 -33.7886 -33.7807 -33.7796
   -33.7773 -33.7773 -33.7754 -33.7745 -33.7731 -33.7697 -33.7687 -33.7672
   -33.7623 -33.7598 -33.7588 -33.7576 -33.7556  -5.2744  -4.9213  -4.7358
    -1.9130  -1.8157  -1.7431  -1.4388  -1.4088  -1.3542  -1.2247  -1.1884
    -1.1786  -1.1282  -1.1184  -0.8770  -0.7202  -0.6551  -0.5971  -0.5939
    -0.4720  -0.1863  -0.1799  -0.1721  -0.1705   0.0331   0.1112   0.2117
     5.3017   5.6024   5.7139   6.2041   6.7217   6.7966   6.8196   7.1448
     7.1677   7.2846   7.4322   7.6949   7.7197   7.8411

          k =-1.0372 0.0010-0.8269 ( 16498 PWs)   bands (ev):

   -76.6937 -76.6683 -76.6655 -72.7852 -39.8986 -39.8642 -39.8580 -38.6253
   -38.5698 -38.5666 -38.5625 -38.5558 -38.5508 -38.5471 -38.5467 -38.5345
   -33.8406 -33.8354 -33.8229 -33.8086 -33.7912 -33.7885 -33.7806 -33.7796
   -33.7773 -33.7772 -33.7754 -33.7747 -33.7732 -33.7697 -33.7687 -33.7671
   -33.7622 -33.7599 -33.7588 -33.7578 -33.7556  -4.8574  -4.7439  -4.7277
    -2.3465  -1.9251  -1.6881  -1.6050  -1.5565  -1.4917  -1.2878  -1.2824
    -1.2359  -1.2301  -1.1759  -0.9251  -0.8790  -0.6968  -0.6930  -0.5925
    -0.4141  -0.3330  -0.1924   0.0757   0.0958   0.1049   0.1657   0.3496
     5.6274   5.8443   5.8871   6.0920   6.1645   6.4266   6.8758   7.1833
     7.2255   7.4537   7.5151   7.5856   7.9559   8.2155

     the Fermi energy is     5.4426 ev

!    total energy              =   -4360.79447686 Ry
     Harris-Foulkes estimate   =   -4360.79447686 Ry
     estimated scf accuracy    <          4.6E-09 Ry

     The total energy is the sum of the following terms:

     one-electron contribution =   -3265.69931622 Ry
     hartree contribution      =    1634.32867587 Ry
     xc contribution           =    -317.67461031 Ry
     ewald contribution        =    -762.95839105 Ry
     one-center paw contrib.   =   -1648.79063977 Ry
     smearing contrib. (-TS)   =      -0.00019539 Ry

     convergence has been achieved in  11 iterations

     Forces acting on atoms (cartesian axes, Ry/au):

     atom    1 type  2   force =    -0.00024476    0.00048371    0.00000063
     atom    2 type  3   force =     0.00041425   -0.00071727   -0.00011571
     atom    3 type  2   force =    -0.00042412   -0.00048161    0.00000403
     atom    4 type  2   force =     0.00067489    0.00041907    0.00001975
     atom    5 type  2   force =    -0.00056557    0.00004446    0.00000273
     atom    6 type  2   force =     0.00068699    0.00001316   -0.00000867
     atom    7 type  4   force =     0.00026543    0.00047102    0.00006793
     atom    8 type  4   force =     0.00000044   -0.00072192   -0.00007414
     atom    9 type  4   force =     0.00029759    0.00024253    0.00004504
     atom   10 type  1   force =     0.00006806   -0.00005303    0.00045123
     atom   11 type  1   force =     0.00021923    0.00017144    0.00052410
     atom   12 type  1   force =    -0.00044574   -0.00065356    0.00073776
     atom   13 type  1   force =    -0.00016330    0.00073230   -0.00046693
     atom   14 type  1   force =    -0.00025081   -0.00068613   -0.00052692
     atom   15 type  1   force =     0.00023489   -0.00052506   -0.00091450
     atom   16 type  1   force =     0.00008632   -0.00000245   -0.00040264
     atom   17 type  1   force =     0.00017585    0.00032700    0.00083760
     atom   18 type  1   force =     0.00038506   -0.00018726    0.00020945
     atom   19 type  1   force =     0.00048017   -0.00003740   -0.00002586
     atom   20 type  1   force =    -0.00206300   -0.00053653    0.00003020
     atom   21 type  1   force =     0.00073482   -0.00057646    0.00002881
     atom   22 type  1   force =    -0.00027059    0.00045271    0.00006522
     atom   23 type  1   force =     0.00105029    0.00003289   -0.00150993
     atom   24 type  1   force =    -0.00026412    0.00030355   -0.00056561
     atom   25 type  1   force =    -0.00007360    0.00054700    0.00033556
     atom   26 type  1   force =     0.00092088   -0.00002060    0.00138045
     atom   27 type  1   force =    -0.00005899    0.00000598    0.00038424
     atom   28 type  1   force =     0.00011543    0.00069141    0.00003105
     atom   29 type  1   force =    -0.00012169   -0.00005648   -0.00001937
     atom   30 type  1   force =    -0.00075933   -0.00014589   -0.00001027
     atom   31 type  1   force =    -0.00123752    0.00058040    0.00002743
     atom   32 type  1   force =    -0.00030112    0.00019550   -0.00000414
     atom   33 type  1   force =     0.00004652   -0.00051741   -0.00001023
     atom   34 type  1   force =    -0.00024932    0.00071945    0.00055394
     atom   35 type  1   force =     0.00003210    0.00000200   -0.00047299
     atom   36 type  1   force =     0.00060435   -0.00051654   -0.00060921

     Total force =     0.005305     Total SCF correction =     0.000746
     SCF correction compared to forces is large: reduce conv_thr to get better values


     Computing stress (Cartesian axis) and pressure

          total   stress  (Ry/bohr**3)                   (kbar)     P=    0.70
   0.00000469   0.00000018  -0.00000055          0.69      0.03     -0.08
   0.00000018   0.00000679   0.00000184          0.03      1.00      0.27
  -0.00000055   0.00000184   0.00000276         -0.08      0.27      0.41


     number of scf cycles    =  45
     number of bfgs steps    =  44

     enthalpy old            =   -4360.7944268156 Ry
     enthalpy new            =   -4360.7944768602 Ry

     CASE: enthalpy_new < enthalpy_old

     new trust radius        =       0.0104989919 bohr
     new conv_thr            =       0.0000000100 Ry

     new unit-cell volume =   2681.47332 a.u.^3 (   397.35334 Ang^3 )
     density =      0.15044 g/cm^3

CELL_PARAMETERS (angstrom)
   4.428916791  -8.041283134   0.004330901
   4.448696638   8.052925610   0.000427378
   0.002817942  -0.001134882   5.562139130

ATOMIC_POSITIONS (angstrom)
K        1.076009973   2.092129506   2.782400383
Mg       6.506469967  -0.009000826   2.775237000
K        1.066856211  -2.093443107   2.782909621
K        2.731537980   4.737929509  -0.000961365
K        3.621579464   0.005993815   0.001096489
K        2.719915733  -4.717894663   0.001680324
Re       4.606866335  -2.450654192   2.783388017
Re       4.619652879   2.459690366   2.782366413
Re      -0.302851603   0.002696905   0.002695672
H        5.028291315  -3.596860256   3.979793198
H        5.343204464  -1.452716840   3.987014361
H        3.498424337  -2.331216712   4.076033874
H        3.506679200   2.339663990   1.492681154
H        3.497035063  -2.331584828   1.490553524
H        5.026791304  -3.597497233   1.589256750
H        5.341265376  -1.452724861   1.576603527
H        5.037137344   3.605215102   3.979295976
H        5.355415928   1.458733349   3.982834539
H        0.468407086  -1.506563829   0.001739236
H        6.842799311  -0.004837430   0.009241350
H        0.490491413   1.499991174   0.000579374
H        3.525584668  -7.037401234   1.279483144
H        0.952185868  -0.000503548   4.421315657
H        3.539895694   7.068976863   4.269507731
H        3.540493462   7.066899500   1.300620670
H        0.952925791   0.000664262   1.143237902
H        3.524386442  -7.040309922   4.295619229
H        3.512216593   3.733363633   2.782457559
H        6.282485269   2.722890343   2.782204389
H        3.817343453   0.990510241   2.782815625
H        3.806824847  -0.981370035   2.782961413
H        6.272445259  -2.705429900   2.783187665
H        3.499165813  -3.723408120   2.784264418
H        3.508103035   2.338979846   4.072558200
H        5.035978373   3.607090636   1.585053349
H        5.353035104   1.460182841   1.580667666



     Writing output data file K5MgReH93.save
     NEW-OLD atomic charge density approx. for the potential
     extrapolated charge  128.89638, renormalised to  129.00000

     total cpu time spent up to now is    46959.3 secs

     Self-consistent Calculation

     iteration #  1     ecut=    50.00 Ry     beta=0.70
     Davidson diagonalization with overlap
     ethr =  1.00E-06,  avg # of iterations =  5.0

     total cpu time spent up to now is    47010.7 secs

     total energy              =   -4360.78061355 Ry
     Harris-Foulkes estimate   =   -4363.27327276 Ry
     estimated scf accuracy    <       0.01225756 Ry

     iteration #  2     ecut=    50.00 Ry     beta=0.70
     Davidson diagonalization with overlap
     ethr =  9.50E-06,  avg # of iterations =  5.1

     total cpu time spent up to now is    47058.2 secs

     total energy              =   -4360.78298134 Ry
     Harris-Foulkes estimate   =   -4360.82285456 Ry
     estimated scf accuracy    <       0.14869445 Ry

     iteration #  3     ecut=    50.00 Ry     beta=0.70
     Davidson diagonalization with overlap
     ethr =  9.50E-06,  avg # of iterations =  4.5

     total cpu time spent up to now is    47097.9 secs

     total energy              =   -4360.79545157 Ry
     Harris-Foulkes estimate   =   -4360.79623346 Ry
     estimated scf accuracy    <       0.00873219 Ry

     iteration #  4     ecut=    50.00 Ry     beta=0.70
     Davidson diagonalization with overlap
     ethr =  6.77E-06,  avg # of iterations =  1.0

     total cpu time spent up to now is    47126.8 secs

     total energy              =   -4360.79467942 Ry
     Harris-Foulkes estimate   =   -4360.79561406 Ry
     estimated scf accuracy    <       0.00576821 Ry

     iteration #  5     ecut=    50.00 Ry     beta=0.70
     Davidson diagonalization with overlap
     ethr =  4.47E-06,  avg # of iterations =  1.0

     total cpu time spent up to now is    47155.1 secs

     total energy              =   -4360.79458203 Ry
     Harris-Foulkes estimate   =   -4360.79486206 Ry
     estimated scf accuracy    <       0.00191411 Ry

     iteration #  6     ecut=    50.00 Ry     beta=0.70
     Davidson diagonalization with overlap
     ethr =  1.48E-06,  avg # of iterations =  2.2

     total cpu time spent up to now is    47185.3 secs

     total energy              =   -4360.79445711 Ry
     Harris-Foulkes estimate   =   -4360.79464325 Ry
     estimated scf accuracy    <       0.00074939 Ry

     iteration #  7     ecut=    50.00 Ry     beta=0.70
     Davidson diagonalization with overlap
     ethr =  5.81E-07,  avg # of iterations =  3.8

     total cpu time spent up to now is    47218.8 secs

     total energy              =   -4360.79453515 Ry
     Harris-Foulkes estimate   =   -4360.79453849 Ry
     estimated scf accuracy    <       0.00004470 Ry

     iteration #  8     ecut=    50.00 Ry     beta=0.70
     Davidson diagonalization with overlap
     ethr =  3.47E-08,  avg # of iterations =  1.8

     total cpu time spent up to now is    47248.4 secs

     total energy              =   -4360.79452699 Ry
     Harris-Foulkes estimate   =   -4360.79453671 Ry
     estimated scf accuracy    <       0.00003041 Ry

     iteration #  9     ecut=    50.00 Ry     beta=0.70
     Davidson diagonalization with overlap
     ethr =  2.36E-08,  avg # of iterations =  2.1

     total cpu time spent up to now is    47281.2 secs

     total energy              =   -4360.79453143 Ry
     Harris-Foulkes estimate   =   -4360.79453155 Ry
     estimated scf accuracy    <       0.00000017 Ry

     iteration # 10     ecut=    50.00 Ry     beta=0.70
     Davidson diagonalization with overlap
     ethr =  1.30E-10,  avg # of iterations =  4.0

     total cpu time spent up to now is    47325.5 secs

     total energy              =   -4360.79453146 Ry
     Harris-Foulkes estimate   =   -4360.79453165 Ry
     estimated scf accuracy    <       0.00000046 Ry

     iteration # 11     ecut=    50.00 Ry     beta=0.70
     Davidson diagonalization with overlap
     ethr =  1.30E-10,  avg # of iterations =  3.0

     total cpu time spent up to now is    47362.9 secs

     total energy              =   -4360.79453156 Ry
     Harris-Foulkes estimate   =   -4360.79453156 Ry
     estimated scf accuracy    <       0.00000003 Ry

     iteration # 12     ecut=    50.00 Ry     beta=0.70
     Davidson diagonalization with overlap
     ethr =  2.36E-11,  avg # of iterations =  2.1

     total cpu time spent up to now is    47392.9 secs

     total energy              =   -4360.79453155 Ry
     Harris-Foulkes estimate   =   -4360.79453156 Ry
     estimated scf accuracy    <       0.00000001 Ry

     iteration # 13     ecut=    50.00 Ry     beta=0.70
     Davidson diagonalization with overlap
     ethr =  1.13E-11,  avg # of iterations =  2.2

     total cpu time spent up to now is    47425.7 secs

     End of self-consistent calculation

          k = 0.0000 0.0000 0.0000 ( 16447 PWs)   bands (ev):

   -76.6933 -76.6640 -76.6610 -72.7866 -39.8997 -39.8659 -39.8592 -38.6241
   -38.5649 -38.5635 -38.5617 -38.5514 -38.5456 -38.5420 -38.5415 -38.5329
   -33.8398 -33.8348 -33.8220 -33.8077 -33.7869 -33.7842 -33.7786 -33.7764
   -33.7737 -33.7729 -33.7729 -33.7712 -33.7689 -33.7674 -33.7654 -33.7629
   -33.7577 -33.7554 -33.7545 -33.7533 -33.7513  -5.4796  -4.7299  -4.5805
    -1.9628  -1.9172  -1.8074  -1.7025  -1.4379  -1.3803  -1.2212  -1.2112
    -1.1385  -1.1128  -1.0430  -0.9079  -0.8260  -0.6204  -0.4818  -0.4508
    -0.2663  -0.1936  -0.1838  -0.1590  -0.1352   0.0146   0.1958   0.2599
     5.2943   5.5580   6.1078   6.2286   6.3428   6.5547   6.6578   6.8272
     7.1382   7.4601   7.4936   7.5019   7.6452   7.6719

          k = 0.0004-0.0002-0.8282 ( 16526 PWs)   bands (ev):

   -76.6933 -76.6640 -76.6610 -72.7866 -39.8997 -39.8660 -39.8592 -38.6243
   -38.5650 -38.5637 -38.5618 -38.5515 -38.5457 -38.5422 -38.5417 -38.5329
   -33.8399 -33.8348 -33.8221 -33.8078 -33.7870 -33.7843 -33.7786 -33.7764
   -33.7739 -33.7730 -33.7729 -33.7712 -33.7689 -33.7674 -33.7655 -33.7630
   -33.7578 -33.7557 -33.7546 -33.7536 -33.7513  -5.0472  -4.7488  -4.4595
    -2.3014  -1.9519  -1.7498  -1.7268  -1.5359  -1.4178  -1.3872  -1.3751
    -1.2654  -1.2027  -0.9965  -0.9496  -0.9003  -0.7656  -0.6698  -0.5011
    -0.4091  -0.1848  -0.1574   0.0898   0.1167   0.1230   0.1385   0.2690
     5.7547   5.7698   5.9520   6.0051   6.3335   6.5976   6.9697   7.1733
     7.2995   7.4447   7.6654   7.7658   8.0767   8.1725

          k =-0.5185-0.2856 0.0002 ( 16490 PWs)   bands (ev):

   -76.6933 -76.6640 -76.6610 -72.7866 -39.8997 -39.8659 -39.8592 -38.6242
   -38.5649 -38.5636 -38.5618 -38.5515 -38.5457 -38.5421 -38.5416 -38.5329
   -33.8399 -33.8348 -33.8220 -33.8077 -33.7869 -33.7843 -33.7786 -33.7764
   -33.7738 -33.7729 -33.7729 -33.7712 -33.7690 -33.7674 -33.7654 -33.7630
   -33.7578 -33.7555 -33.7545 -33.7534 -33.7513  -5.2744  -4.9078  -4.7222
    -1.9429  -1.8009  -1.7347  -1.4337  -1.3679  -1.3385  -1.2767  -1.2081
    -1.1697  -1.1416  -1.0646  -0.9604  -0.8584  -0.7217  -0.5487  -0.3974
    -0.3409  -0.2659  -0.2115  -0.1501  -0.1044   0.0124   0.1706   0.1894
     5.3692   5.5016   5.7205   6.0637   6.7508   6.8036   7.0230   7.0393
     7.1663   7.2347   7.3695   7.8381   7.9342   7.9640

          k =-0.5181-0.2858-0.8280 ( 16554 PWs)   bands (ev):

   -76.6933 -76.6640 -76.6610 -72.7866 -39.8997 -39.8660 -39.8592 -38.6242
   -38.5651 -38.5638 -38.5617 -38.5514 -38.5458 -38.5423 -38.5418 -38.5331
   -33.8399 -33.8348 -33.8221 -33.8078 -33.7870 -33.7843 -33.7786 -33.7765
   -33.7740 -33.7730 -33.7730 -33.7712 -33.7689 -33.7675 -33.7655 -33.7630
   -33.7578 -33.7557 -33.7546 -33.7536 -33.7513  -4.9424  -4.7353  -4.5899
    -2.3454  -1.9730  -1.8164  -1.5736  -1.5566  -1.4916  -1.3669  -1.3073
    -1.2518  -1.2181  -1.0293  -0.9295  -0.8992  -0.7884  -0.7084  -0.5494
    -0.3509  -0.1848  -0.0906   0.0866   0.1250   0.1342   0.1419   0.2931
     5.6160   5.9057   5.9217   5.9476   6.1717   6.2278   6.9688   6.9801
     7.2109   7.2460   7.7873   7.9399   8.0196   8.2315

          k =-0.5193 0.2869 0.0003 ( 16490 PWs)   bands (ev):

   -76.6933 -76.6640 -76.6610 -72.7866 -39.8997 -39.8659 -39.8592 -38.6242
   -38.5650 -38.5636 -38.5617 -38.5514 -38.5457 -38.5421 -38.5416 -38.5329
   -33.8399 -33.8348 -33.8221 -33.8077 -33.7870 -33.7843 -33.7786 -33.7764
   -33.7738 -33.7730 -33.7730 -33.7712 -33.7689 -33.7675 -33.7655 -33.7629
   -33.7577 -33.7555 -33.7545 -33.7534 -33.7513  -5.2747  -4.9055  -4.7236
    -1.9557  -1.8006  -1.7349  -1.4364  -1.3660  -1.3437  -1.2624  -1.2061
    -1.1708  -1.1417  -1.0664  -0.9612  -0.8391  -0.7177  -0.5486  -0.3983
    -0.3579  -0.2553  -0.2108  -0.1511  -0.1084  -0.0011   0.1691   0.1984
     5.3673   5.5038   5.7165   6.0658   6.7526   6.8000   7.0165   7.0336
     7.1695   7.2254   7.3741   7.8277   7.9441   7.9829

          k =-0.5189 0.2867-0.8279 ( 16536 PWs)   bands (ev):

   -76.6933 -76.6640 -76.6610 -72.7866 -39.8997 -39.8660 -39.8592 -38.6242
   -38.5649 -38.5638 -38.5618 -38.5515 -38.5457 -38.5422 -38.5417 -38.5330
   -33.8400 -33.8348 -33.8221 -33.8077 -33.7870 -33.7843 -33.7786 -33.7765
   -33.7740 -33.7730 -33.7730 -33.7712 -33.7689 -33.7675 -33.7655 -33.7630
   -33.7578 -33.7558 -33.7545 -33.7536 -33.7513  -4.9422  -4.7352  -4.5897
    -2.3458  -1.9736  -1.8174  -1.5770  -1.5535  -1.4920  -1.3701  -1.3045
    -1.2575  -1.2157  -1.0110  -0.9167  -0.9078  -0.8077  -0.7200  -0.5366
    -0.3440  -0.1857  -0.0919   0.0775   0.1105   0.1350   0.1578   0.2977
     5.6262   5.8746   5.9323   5.9614   6.1605   6.2278   6.9727   6.9809
     7.2055   7.2817   7.7371   7.9292   8.0501   8.2394

          k =-1.0378 0.0013 0.0005 ( 16510 PWs)   bands (ev):

   -76.6933 -76.6640 -76.6610 -72.7866 -39.8997 -39.8659 -39.8592 -38.6242
   -38.5650 -38.5637 -38.5617 -38.5514 -38.5457 -38.5422 -38.5417 -38.5330
   -33.8399 -33.8349 -33.8221 -33.8077 -33.7870 -33.7843 -33.7786 -33.7765
   -33.7738 -33.7730 -33.7730 -33.7712 -33.7689 -33.7674 -33.7655 -33.7630
   -33.7577 -33.7555 -33.7545 -33.7534 -33.7513  -5.2734  -4.9148  -4.7312
    -1.9104  -1.8126  -1.7372  -1.4337  -1.4052  -1.3491  -1.2205  -1.1848
    -1.1674  -1.1191  -1.1146  -0.8735  -0.7169  -0.6518  -0.5941  -0.5904
    -0.4663  -0.1817  -0.1729  -0.1680  -0.1631   0.0364   0.1151   0.2183
     5.3057   5.6038   5.7149   6.2110   6.7287   6.8015   6.8219   7.1470
     7.1711   7.2902   7.4377   7.6965   7.7261   7.8447

          k =-1.0374 0.0011-0.8277 ( 16498 PWs)   bands (ev):

   -76.6933 -76.6640 -76.6610 -72.7866 -39.8997 -39.8660 -39.8592 -38.6241
   -38.5649 -38.5638 -38.5617 -38.5513 -38.5456 -38.5422 -38.5418 -38.5329
   -33.8399 -33.8348 -33.8221 -33.8077 -33.7870 -33.7843 -33.7786 -33.7764
   -33.7740 -33.7730 -33.7729 -33.7712 -33.7689 -33.7674 -33.7654 -33.7629
   -33.7577 -33.7557 -33.7545 -33.7536 -33.7513  -4.8502  -4.7423  -4.7193
    -2.3483  -1.9220  -1.6816  -1.5998  -1.5584  -1.4836  -1.2798  -1.2783
    -1.2342  -1.2267  -1.1716  -0.9186  -0.8760  -0.6931  -0.6874  -0.5872
    -0.4050  -0.3285  -0.1841   0.0756   0.1003   0.1124   0.1681   0.3579
     5.6295   5.8460   5.8950   6.0941   6.1658   6.4263   6.8769   7.1892
     7.2328   7.4630   7.5245   7.5881   7.9575   8.2240

     the Fermi energy is     5.4452 ev

!    total energy              =   -4360.79453155 Ry
     Harris-Foulkes estimate   =   -4360.79453156 Ry
     estimated scf accuracy    <          1.6E-09 Ry

     The total energy is the sum of the following terms:

     one-electron contribution =   -3265.33139695 Ry
     hartree contribution      =    1634.16145656 Ry
     xc contribution           =    -317.67323264 Ry
     ewald contribution        =    -763.16017374 Ry
     one-center paw contrib.   =   -1648.79090326 Ry
     smearing contrib. (-TS)   =      -0.00028152 Ry

     convergence has been achieved in  13 iterations

     Forces acting on atoms (cartesian axes, Ry/au):

     atom    1 type  2   force =    -0.00031222    0.00056486    0.00000074
     atom    2 type  3   force =     0.00027100   -0.00071871   -0.00011542
     atom    3 type  2   force =    -0.00049727   -0.00057486    0.00001046
     atom    4 type  2   force =     0.00060225    0.00044339    0.00001606
     atom    5 type  2   force =    -0.00051662    0.00004892    0.00000013
     atom    6 type  2   force =     0.00062930    0.00001733   -0.00000875
     atom    7 type  4   force =    -0.00010440    0.00026463    0.00001334
     atom    8 type  4   force =    -0.00009418   -0.00071682   -0.00004882
     atom    9 type  4   force =     0.00051168    0.00036970    0.00006032
     atom   10 type  1   force =     0.00008860    0.00004802    0.00042039
     atom   11 type  1   force =     0.00010004   -0.00001843    0.00035194
     atom   12 type  1   force =    -0.00010597   -0.00062180    0.00022268
     atom   13 type  1   force =     0.00019013    0.00072204    0.00005377
     atom   14 type  1   force =     0.00012081   -0.00067050    0.00002561
     atom   15 type  1   force =     0.00028994   -0.00052019   -0.00095783
     atom   16 type  1   force =    -0.00006895   -0.00026221   -0.00014801
     atom   17 type  1   force =     0.00019333    0.00029243    0.00086908
     atom   18 type  1   force =     0.00026684    0.00003909   -0.00007161
     atom   19 type  1   force =     0.00045339    0.00017362   -0.00004676
     atom   20 type  1   force =    -0.00209052   -0.00058947    0.00004012
     atom   21 type  1   force =     0.00070519   -0.00089902    0.00004269
     atom   22 type  1   force =    -0.00026059    0.00059650    0.00005476
     atom   23 type  1   force =     0.00113044    0.00002067   -0.00137127
     atom   24 type  1   force =    -0.00022933    0.00022024   -0.00062664
     atom   25 type  1   force =    -0.00002730    0.00053000    0.00034535
     atom   26 type  1   force =     0.00098193   -0.00002042    0.00122255
     atom   27 type  1   force =    -0.00002525    0.00008497    0.00045532
     atom   28 type  1   force =     0.00004404    0.00065110    0.00004586
     atom   29 type  1   force =    -0.00029640   -0.00013483   -0.00002269
     atom   30 type  1   force =    -0.00082416   -0.00006376   -0.00001939
     atom   31 type  1   force =    -0.00141512    0.00063136    0.00004774
     atom   32 type  1   force =    -0.00044902    0.00025129   -0.00001254
     atom   33 type  1   force =     0.00006268   -0.00037227   -0.00001331
     atom   34 type  1   force =     0.00009122    0.00072390    0.00004441
     atom   35 type  1   force =     0.00002942   -0.00012582   -0.00042607
     atom   36 type  1   force =     0.00055506   -0.00038493   -0.00045422

     Total force =     0.005176     Total SCF correction =     0.000218


     Computing stress (Cartesian axis) and pressure

          total   stress  (Ry/bohr**3)                   (kbar)     P=    0.50
   0.00000404  -0.00000009  -0.00000068          0.59     -0.01     -0.10
  -0.00000009   0.00000554   0.00000234         -0.01      0.81      0.34
  -0.00000068   0.00000234   0.00000054         -0.10      0.34      0.08


     number of scf cycles    =  46
     number of bfgs steps    =  45

     enthalpy old            =   -4360.7944768602 Ry
     enthalpy new            =   -4360.7945315545 Ry

     CASE: enthalpy_new < enthalpy_old

     new trust radius        =       0.0157581462 bohr
     new conv_thr            =       0.0000000100 Ry

     new unit-cell volume =   2678.44294 a.u.^3 (   396.90429 Ang^3 )
     density =      0.15061 g/cm^3

CELL_PARAMETERS (angstrom)
   4.426699357  -8.044305001   0.004602575
   4.449976886   8.057916803   0.000413253
   0.002982943  -0.001266445   5.553678352

ATOMIC_POSITIONS (angstrom)
K        1.080049509   2.094627115   2.778188507
Mg       6.502862403  -0.010602014   2.770501032
K        1.069107781  -2.095776842   2.778758004
K        2.738422036   4.740136052  -0.000894951
K        3.614426975   0.006973271   0.001208304
K        2.724672990  -4.716675234   0.001825845
Re       4.605098773  -2.449962861   2.779333026
Re       4.620138157   2.460534071   2.778152459
Re      -0.304187025   0.003124470   0.002828572
H        5.029385754  -3.596430882   3.974729095
H        5.341470381  -1.450539858   3.983571303
H        3.497908924  -2.333870161   4.075378900
H        3.507669640   2.343789630   1.485685768
H        3.496476644  -2.334129834   1.483143131
H        5.027784744  -3.597042262   1.586190083
H        5.339333426  -1.450502187   1.571581364
H        5.039856219   3.606373854   3.974391070
H        5.355541404   1.457756883   3.978753489
H        0.466611818  -1.507874315   0.001909298
H        6.841069395  -0.005997590   0.009661746
H        0.491797629   1.500234232   0.000550421
H        3.521613947  -7.038590814   1.277231308
H        0.948409370  -0.000280337   4.409411824
H        3.538689993   7.074713297   4.260276700
H        3.539612696   7.072346928   1.301687041
H        0.949166173   0.000795126   1.146739944
H        3.520527430  -7.041701834   4.290290891
H        3.515132174   3.737124520   2.778231340
H        6.283508440   2.723109046   2.777986725
H        3.815495774   0.992034002   2.778696558
H        3.803417343  -0.981113227   2.778773695
H        6.271918087  -2.702173378   2.779212734
H        3.499776543  -3.725271408   2.780262987
H        3.509170937   2.342862156   4.071228338
H        5.038481238   3.608500831   1.581667161
H        5.352965753   1.459316129   1.576432266



     Writing output data file K5MgReH93.save
     NEW-OLD atomic charge density approx. for the potential
     extrapolated charge  128.85416, renormalised to  129.00000

     total cpu time spent up to now is    48038.4 secs

     Self-consistent Calculation

     iteration #  1     ecut=    50.00 Ry     beta=0.70
     Davidson diagonalization with overlap
     ethr =  1.00E-06,  avg # of iterations =  5.4

     total cpu time spent up to now is    48091.9 secs

     total energy              =   -4360.76809240 Ry
     Harris-Foulkes estimate   =   -4364.28133727 Ry
     estimated scf accuracy    <       0.02337335 Ry

     iteration #  2     ecut=    50.00 Ry     beta=0.70
     Davidson diagonalization with overlap
     ethr =  1.81E-05,  avg # of iterations =  6.0

     total cpu time spent up to now is    48140.8 secs

     total energy              =   -4360.77277924 Ry
     Harris-Foulkes estimate   =   -4360.84878446 Ry
     estimated scf accuracy    <       0.28405783 Ry

     iteration #  3     ecut=    50.00 Ry     beta=0.70
     Davidson diagonalization with overlap
     ethr =  1.81E-05,  avg # of iterations =  5.0

     total cpu time spent up to now is    48181.7 secs

     total energy              =   -4360.79639738 Ry
     Harris-Foulkes estimate   =   -4360.79792054 Ry
     estimated scf accuracy    <       0.01704048 Ry

     iteration #  4     ecut=    50.00 Ry     beta=0.70
     Davidson diagonalization with overlap
     ethr =  1.32E-05,  avg # of iterations =  1.0

     total cpu time spent up to now is    48210.2 secs

     total energy              =   -4360.79489089 Ry
     Harris-Foulkes estimate   =   -4360.79671495 Ry
     estimated scf accuracy    <       0.01127908 Ry

     iteration #  5     ecut=    50.00 Ry     beta=0.70
     Davidson diagonalization with overlap
     ethr =  8.74E-06,  avg # of iterations =  1.0

     total cpu time spent up to now is    48238.7 secs

     total energy              =   -4360.79468587 Ry
     Harris-Foulkes estimate   =   -4360.79524808 Ry
     estimated scf accuracy    <       0.00372731 Ry

     iteration #  6     ecut=    50.00 Ry     beta=0.70
     Davidson diagonalization with overlap
     ethr =  2.89E-06,  avg # of iterations =  2.6

     total cpu time spent up to now is    48269.3 secs

     total energy              =   -4360.79448926 Ry
     Harris-Foulkes estimate   =   -4360.79481311 Ry
     estimated scf accuracy    <       0.00137750 Ry

     iteration #  7     ecut=    50.00 Ry     beta=0.70
     Davidson diagonalization with overlap
     ethr =  1.07E-06,  avg # of iterations =  3.6

     total cpu time spent up to now is    48303.1 secs

     total energy              =   -4360.79461900 Ry
     Harris-Foulkes estimate   =   -4360.79462594 Ry
     estimated scf accuracy    <       0.00011050 Ry

     iteration #  8     ecut=    50.00 Ry     beta=0.70
     Davidson diagonalization with overlap
     ethr =  8.57E-08,  avg # of iterations =  1.6

     total cpu time spent up to now is    48332.1 secs

     total energy              =   -4360.79460084 Ry
     Harris-Foulkes estimate   =   -4360.79462194 Ry
     estimated scf accuracy    <       0.00008007 Ry

     iteration #  9     ecut=    50.00 Ry     beta=0.70
     Davidson diagonalization with overlap
     ethr =  6.21E-08,  avg # of iterations =  2.1

     total cpu time spent up to now is    48363.5 secs

     total energy              =   -4360.79460696 Ry
     Harris-Foulkes estimate   =   -4360.79460891 Ry
     estimated scf accuracy    <       0.00000437 Ry

     iteration # 10     ecut=    50.00 Ry     beta=0.70
     Davidson diagonalization with overlap
     ethr =  3.39E-09,  avg # of iterations =  3.0

     total cpu time spent up to now is    48399.4 secs

     total energy              =   -4360.79460813 Ry
     Harris-Foulkes estimate   =   -4360.79460843 Ry
     estimated scf accuracy    <       0.00000072 Ry

     iteration # 11     ecut=    50.00 Ry     beta=0.70
     Davidson diagonalization with overlap
     ethr =  5.61E-10,  avg # of iterations =  2.4

     total cpu time spent up to now is    48433.2 secs

     total energy              =   -4360.79460829 Ry
     Harris-Foulkes estimate   =   -4360.79460831 Ry
     estimated scf accuracy    <       0.00000009 Ry

     iteration # 12     ecut=    50.00 Ry     beta=0.70
     Davidson diagonalization with overlap
     ethr =  7.32E-11,  avg # of iterations =  3.0

     total cpu time spent up to now is    48467.3 secs

     total energy              =   -4360.79460829 Ry
     Harris-Foulkes estimate   =   -4360.79460831 Ry
     estimated scf accuracy    <       0.00000005 Ry

     iteration # 13     ecut=    50.00 Ry     beta=0.70
     Davidson diagonalization with overlap
     ethr =  4.13E-11,  avg # of iterations =  2.0

     total cpu time spent up to now is    48498.9 secs

     End of self-consistent calculation

          k = 0.0000 0.0000 0.0000 ( 16447 PWs)   bands (ev):

   -76.6929 -76.6592 -76.6557 -72.7900 -39.9028 -39.8699 -39.8622 -38.6224
   -38.5652 -38.5590 -38.5557 -38.5461 -38.5388 -38.5362 -38.5355 -38.5304
   -33.8392 -33.8344 -33.8214 -33.8070 -33.7822 -33.7791 -33.7776 -33.7731
   -33.7717 -33.7682 -33.7677 -33.7663 -33.7659 -33.7643 -33.7603 -33.7583
   -33.7522 -33.7508 -33.7499 -33.7484 -33.7462  -5.4752  -4.7245  -4.5714
    -1.9619  -1.9081  -1.8017  -1.6987  -1.4303  -1.3728  -1.2161  -1.1983
    -1.1300  -1.0970  -1.0385  -0.9019  -0.8179  -0.6146  -0.4729  -0.4483
    -0.2535  -0.1913  -0.1751  -0.1546  -0.1231   0.0194   0.2018   0.2626
     5.3026   5.5603   6.1110   6.2270   6.3472   6.5601   6.6664   6.8279
     7.1458   7.4628   7.4948   7.5139   7.6539   7.6755

          k = 0.0005-0.0002-0.8295 ( 16526 PWs)   bands (ev):

   -76.6929 -76.6592 -76.6557 -72.7900 -39.9028 -39.8699 -39.8622 -38.6226
   -38.5654 -38.5591 -38.5558 -38.5462 -38.5389 -38.5364 -38.5357 -38.5304
   -33.8393 -33.8345 -33.8215 -33.8070 -33.7823 -33.7793 -33.7777 -33.7732
   -33.7717 -33.7683 -33.7677 -33.7664 -33.7659 -33.7643 -33.7603 -33.7584
   -33.7522 -33.7511 -33.7500 -33.7486 -33.7462  -5.0361  -4.7447  -4.4481
    -2.3016  -1.9468  -1.7402  -1.7254  -1.5276  -1.4086  -1.3755  -1.3694
    -1.2605  -1.2063  -0.9905  -0.9426  -0.8925  -0.7629  -0.6621  -0.4967
    -0.3930  -0.1770  -0.1419   0.0877   0.1236   0.1277   0.1518   0.2756
     5.7575   5.7716   5.9545   6.0125   6.3349   6.5945   6.9755   7.1766
     7.3011   7.4593   7.6734   7.7688   8.0869   8.1783

          k =-0.5185-0.2853 0.0002 ( 16490 PWs)   bands (ev):

   -76.6929 -76.6592 -76.6557 -72.7900 -39.9028 -39.8699 -39.8622 -38.6225
   -38.5653 -38.5590 -38.5558 -38.5462 -38.5389 -38.5363 -38.5356 -38.5305
   -33.8393 -33.8345 -33.8215 -33.8070 -33.7823 -33.7792 -33.7777 -33.7731
   -33.7717 -33.7683 -33.7678 -33.7664 -33.7659 -33.7643 -33.7603 -33.7583
   -33.7522 -33.7509 -33.7499 -33.7484 -33.7461  -5.2705  -4.9018  -4.7138
    -1.9370  -1.7951  -1.7293  -1.4257  -1.3612  -1.3316  -1.2747  -1.1994
    -1.1535  -1.1289  -1.0608  -0.9551  -0.8538  -0.7121  -0.5441  -0.3912
    -0.3323  -0.2582  -0.2015  -0.1377  -0.1000   0.0142   0.1764   0.1938
     5.3736   5.5044   5.7197   6.0709   6.7583   6.8064   7.0240   7.0433
     7.1676   7.2430   7.3810   7.8455   7.9369   7.9702

          k =-0.5181-0.2856-0.8293 ( 16554 PWs)   bands (ev):

   -76.6929 -76.6592 -76.6557 -72.7900 -39.9028 -39.8699 -39.8622 -38.6225
   -38.5655 -38.5592 -38.5557 -38.5461 -38.5390 -38.5364 -38.5358 -38.5306
   -33.8393 -33.8345 -33.8215 -33.8070 -33.7823 -33.7792 -33.7777 -33.7733
   -33.7718 -33.7683 -33.7678 -33.7664 -33.7660 -33.7643 -33.7603 -33.7584
   -33.7523 -33.7511 -33.7500 -33.7487 -33.7462  -4.9314  -4.7312  -4.5783
    -2.3458  -1.9681  -1.8099  -1.5712  -1.5492  -1.4840  -1.3552  -1.3079
    -1.2432  -1.2093  -1.0247  -0.9244  -0.8943  -0.7802  -0.7002  -0.5471
    -0.3373  -0.1737  -0.0779   0.0952   0.1234   0.1440   0.1463   0.3011
     5.6161   5.9087   5.9232   5.9512   6.1817   6.2291   6.9731   6.9836
     7.2157   7.2500   7.7964   7.9464   8.0198   8.2369

          k =-0.5194 0.2868 0.0003 ( 16490 PWs)   bands (ev):

   -76.6929 -76.6592 -76.6557 -72.7900 -39.9028 -39.8699 -39.8622 -38.6225
   -38.5653 -38.5591 -38.5557 -38.5461 -38.5389 -38.5363 -38.5356 -38.5305
   -33.8393 -33.8345 -33.8215 -33.8070 -33.7823 -33.7792 -33.7776 -33.7731
   -33.7718 -33.7683 -33.7678 -33.7663 -33.7660 -33.7643 -33.7603 -33.7583
   -33.7522 -33.7509 -33.7499 -33.7484 -33.7462  -5.2707  -4.8993  -4.7153
    -1.9525  -1.7948  -1.7289  -1.4288  -1.3590  -1.3379  -1.2583  -1.1974
    -1.1548  -1.1289  -1.0626  -0.9549  -0.8324  -0.7069  -0.5440  -0.3906
    -0.3541  -0.2448  -0.2007  -0.1389  -0.1057  -0.0014   0.1723   0.2064
     5.3717   5.5067   5.7151   6.0736   6.7604   6.8018   7.0162   7.0372
     7.1706   7.2327   7.3858   7.8332   7.9496   7.9925

          k =-0.5189 0.2866-0.8292 ( 16536 PWs)   bands (ev):

   -76.6929 -76.6592 -76.6557 -72.7900 -39.9028 -39.8699 -39.8622 -38.6225
   -38.5655 -38.5591 -38.5558 -38.5462 -38.5389 -38.5364 -38.5358 -38.5305
   -33.8394 -33.8345 -33.8215 -33.8070 -33.7823 -33.7792 -33.7777 -33.7733
   -33.7718 -33.7683 -33.7678 -33.7663 -33.7660 -33.7643 -33.7603 -33.7584
   -33.7523 -33.7511 -33.7499 -33.7487 -33.7462  -4.9312  -4.7311  -4.5780
    -2.3464  -1.9688  -1.8109  -1.5751  -1.5454  -1.4846  -1.3589  -1.3046
    -1.2506  -1.2066  -1.0037  -0.9090  -0.9039  -0.8023  -0.7144  -0.5312
    -0.3294  -0.1745  -0.0796   0.0843   0.1089   0.1446   0.1625   0.3068
     5.6280   5.8738   5.9334   5.9675   6.1693   6.2288   6.9780   6.9849
     7.2088   7.2920   7.7378   7.9338   8.0540   8.2470

          k =-1.0380 0.0015 0.0006 ( 16510 PWs)   bands (ev):

   -76.6929 -76.6592 -76.6557 -72.7900 -39.9028 -39.8699 -39.8622 -38.6225
   -38.5654 -38.5591 -38.5557 -38.5461 -38.5389 -38.5364 -38.5357 -38.5305
   -33.8393 -33.8345 -33.8215 -33.8070 -33.7824 -33.7793 -33.7776 -33.7732
   -33.7718 -33.7683 -33.7678 -33.7664 -33.7659 -33.7643 -33.7603 -33.7584
   -33.7522 -33.7509 -33.7499 -33.7485 -33.7462  -5.2706  -4.9060  -4.7243
    -1.9066  -1.8067  -1.7300  -1.4259  -1.4006  -1.3414  -1.2134  -1.1801
    -1.1523  -1.1111  -1.1025  -0.8669  -0.7133  -0.6448  -0.5893  -0.5855
    -0.4572  -0.1756  -0.1651  -0.1633  -0.1507   0.0391   0.1199   0.2269
     5.3099   5.6060   5.7148   6.2185   6.7368   6.8088   6.8273   7.1491
     7.1758   7.2977   7.4454   7.6976   7.7364   7.8481

          k =-1.0375 0.0013-0.8289 ( 16498 PWs)   bands (ev):

   -76.6929 -76.6592 -76.6557 -72.7900 -39.9028 -39.8699 -39.8622 -38.6223
   -38.5655 -38.5590 -38.5557 -38.5460 -38.5388 -38.5364 -38.5358 -38.5304
   -33.8393 -33.8345 -33.8215 -33.8070 -33.7823 -33.7792 -33.7776 -33.7733
   -33.7717 -33.7683 -33.7677 -33.7664 -33.7659 -33.7643 -33.7603 -33.7583
   -33.7522 -33.7511 -33.7499 -33.7487 -33.7462  -4.8394  -4.7383  -4.7075
    -2.3485  -1.9169  -1.6732  -1.5933  -1.5590  -1.4721  -1.2771  -1.2661
    -1.2309  -1.2221  -1.1650  -0.9088  -0.8728  -0.6874  -0.6805  -0.5805
    -0.3887  -0.3228  -0.1710   0.0748   0.1055   0.1226   0.1712   0.3695
     5.6319   5.8472   5.9047   6.0973   6.1640   6.4255   6.8782   7.1959
     7.2423   7.4755   7.5368   7.5931   7.9610   8.2367

     the Fermi energy is     5.4484 ev

!    total energy              =   -4360.79460829 Ry
     Harris-Foulkes estimate   =   -4360.79460829 Ry
     estimated scf accuracy    <          4.8E-09 Ry

     The total energy is the sum of the following terms:

     one-electron contribution =   -3264.48575813 Ry
     hartree contribution      =    1633.75763798 Ry
     xc contribution           =    -317.66964590 Ry
     ewald contribution        =    -763.60493998 Ry
     one-center paw contrib.   =   -1648.79151243 Ry
     smearing contrib. (-TS)   =      -0.00038983 Ry

     convergence has been achieved in  13 iterations

     Forces acting on atoms (cartesian axes, Ry/au):

     atom    1 type  2   force =    -0.00046835    0.00068280   -0.00000002
     atom    2 type  3   force =     0.00022274   -0.00083548   -0.00011676
     atom    3 type  2   force =    -0.00066603   -0.00070590    0.00002105
     atom    4 type  2   force =     0.00043988    0.00050183    0.00000814
     atom    5 type  2   force =    -0.00040781    0.00005830   -0.00000573
     atom    6 type  2   force =     0.00048215    0.00002208   -0.00000730
     atom    7 type  4   force =     0.00046287    0.00020393   -0.00004006
     atom    8 type  4   force =     0.00015998   -0.00040151    0.00008229
     atom    9 type  4   force =     0.00053042    0.00016477    0.00007779
     atom   10 type  1   force =     0.00008169    0.00019867    0.00034276
     atom   11 type  1   force =    -0.00019397   -0.00034011    0.00000690
     atom   12 type  1   force =     0.00029202   -0.00052994   -0.00047981
     atom   13 type  1   force =     0.00062326    0.00064527    0.00075559
     atom   14 type  1   force =     0.00050843   -0.00059162    0.00071796
     atom   15 type  1   force =     0.00028663   -0.00038755   -0.00087505
     atom   16 type  1   force =    -0.00036991   -0.00062473    0.00024457
     atom   17 type  1   force =     0.00016288    0.00010183    0.00076900
     atom   18 type  1   force =     0.00007181    0.00030647   -0.00047491
     atom   19 type  1   force =     0.00031595    0.00053645   -0.00007148
     atom   20 type  1   force =    -0.00194402   -0.00066192    0.00005309
     atom   21 type  1   force =     0.00064988   -0.00125287    0.00005731
     atom   22 type  1   force =    -0.00022954    0.00077557   -0.00001293
     atom   23 type  1   force =     0.00108751    0.00002065   -0.00097818
     atom   24 type  1   force =    -0.00016204    0.00017799   -0.00068334
     atom   25 type  1   force =     0.00002315    0.00051960    0.00038500
     atom   26 type  1   force =     0.00095504    0.00000554    0.00084342
     atom   27 type  1   force =    -0.00000766    0.00026808    0.00051985
     atom   28 type  1   force =     0.00002197    0.00045478    0.00005785
     atom   29 type  1   force =    -0.00056446   -0.00027332   -0.00002920
     atom   30 type  1   force =    -0.00091127    0.00008629   -0.00003142
     atom   31 type  1   force =    -0.00161675    0.00052109    0.00006790
     atom   32 type  1   force =    -0.00078617    0.00037223   -0.00002476
     atom   33 type  1   force =     0.00000253   -0.00018283   -0.00001597
     atom   34 type  1   force =     0.00053765    0.00066902   -0.00068456
     atom   35 type  1   force =     0.00001322   -0.00033868   -0.00033436
     atom   36 type  1   force =     0.00039630   -0.00016678   -0.00014463

     Total force =     0.005388     Total SCF correction =     0.000308


     Computing stress (Cartesian axis) and pressure

          total   stress  (Ry/bohr**3)                   (kbar)     P=    0.10
   0.00000209  -0.00000017  -0.00000069          0.31     -0.03     -0.10
  -0.00000017   0.00000316   0.00000257         -0.03      0.46      0.38
  -0.00000069   0.00000257  -0.00000316         -0.10      0.38     -0.46


     number of scf cycles    =  47
     number of bfgs steps    =  46

     enthalpy old            =   -4360.7945315545 Ry
     enthalpy new            =   -4360.7946082870 Ry

     CASE: enthalpy_new < enthalpy_old

     new trust radius        =       0.0236598718 bohr
     new conv_thr            =       0.0000000100 Ry

     new unit-cell volume =   2673.70570 a.u.^3 (   396.20230 Ang^3 )
     density =      0.15088 g/cm^3

CELL_PARAMETERS (angstrom)
   4.423346461  -8.048848687   0.004632579
   4.451434618   8.065171761   0.000663941
   0.003162924  -0.001230924   5.540985271

ATOMIC_POSITIONS (angstrom)
K        1.085323054   2.098697578   2.771946940
Mg       6.497418325  -0.013041223   2.763331643
K        1.071860906  -2.099438854   2.772452135
K        2.748076617   4.743556130  -0.000652631
K        3.604797755   0.008343337   0.001319668
K        2.731428102  -4.715142863   0.001819010
Re       4.603173540  -2.448630284   2.773053270
Re       4.621182602   2.461733172   2.771948021
Re      -0.307185487   0.003589828   0.003037391
H        5.031316481  -3.595357334   3.966930048
H        5.338763355  -1.447264238   3.977997494
H        3.497736067  -2.337184623   4.073193639
H        3.509697218   2.349382736   1.476303546
H        3.496313504  -2.337424310   1.473003081
H        5.029648325  -3.596206739   1.581259520
H        5.336316857  -1.447361334   1.564334470
H        5.044017244   3.607834621   3.967177547
H        5.355540169   1.456371392   3.972239150
H        0.462713658  -1.509493237   0.002050994
H        6.836110974  -0.007880671   0.010239083
H        0.492401056   1.500181942   0.000591018
H        3.514879420  -7.040206709   1.274009312
H        0.942658871   0.000196371   4.392478671
H        3.535753728   7.083263725   4.246312643
H        3.537204089   7.080487097   1.303795465
H        0.943465681   0.001036381   1.151025486
H        3.513947468  -7.043630749   4.281603347
H        3.519151595   3.742063311   2.772028111
H        6.285096392   2.722353266   2.771690825
H        3.812465128   0.994175719   2.772486668
H        3.797984532  -0.980449364   2.772449551
H        6.271304693  -2.696400732   2.773036876
H        3.500584791  -3.727311108   2.774058434
H        3.511266760   2.348237877   4.068230972
H        5.042335134   3.610078387   1.576716872
H        5.352817137   1.457842217   1.570238404



     Writing output data file K5MgReH93.save
     NEW-OLD atomic charge density approx. for the potential
     extrapolated charge  128.77161, renormalised to  129.00000

     total cpu time spent up to now is    49111.3 secs

     Self-consistent Calculation

     iteration #  1     ecut=    50.00 Ry     beta=0.70
     Davidson diagonalization with overlap
     ethr =  1.00E-06,  avg # of iterations =  7.0

     total cpu time spent up to now is    49167.8 secs

     total energy              =   -4360.72760373 Ry
     Harris-Foulkes estimate   =   -4366.25407390 Ry
     estimated scf accuracy    <       0.05937019 Ry

     iteration #  2     ecut=    50.00 Ry     beta=0.70
     Davidson diagonalization with overlap
     ethr =  4.60E-05,  avg # of iterations =  5.9

     total cpu time spent up to now is    49216.3 secs

     total energy              =   -4360.74101905 Ry
     Harris-Foulkes estimate   =   -4360.93085223 Ry
     estimated scf accuracy    <       0.70262834 Ry

     iteration #  3     ecut=    50.00 Ry     beta=0.70
     Davidson diagonalization with overlap
     ethr =  4.60E-05,  avg # of iterations =  5.0

     total cpu time spent up to now is    49257.3 secs

     total energy              =   -4360.79912700 Ry
     Harris-Foulkes estimate   =   -4360.80301378 Ry
     estimated scf accuracy    <       0.04260458 Ry

     iteration #  4     ecut=    50.00 Ry     beta=0.70
     Davidson diagonalization with overlap
     ethr =  3.30E-05,  avg # of iterations =  1.0

     total cpu time spent up to now is    49286.2 secs

     total energy              =   -4360.79575930 Ry
     Harris-Foulkes estimate   =   -4360.79990906 Ry
     estimated scf accuracy    <       0.02796083 Ry

     iteration #  5     ecut=    50.00 Ry     beta=0.70
     Davidson diagonalization with overlap
     ethr =  2.17E-05,  avg # of iterations =  1.0

     total cpu time spent up to now is    49314.7 secs

     total energy              =   -4360.79511519 Ry
     Harris-Foulkes estimate   =   -4360.79651578 Ry
     estimated scf accuracy    <       0.01049473 Ry

     iteration #  6     ecut=    50.00 Ry     beta=0.70
     Davidson diagonalization with overlap
     ethr =  8.14E-06,  avg # of iterations =  2.1

     total cpu time spent up to now is    49344.6 secs

     total energy              =   -4360.79439793 Ry
     Harris-Foulkes estimate   =   -4360.79539110 Ry
     estimated scf accuracy    <       0.00457756 Ry

     iteration #  7     ecut=    50.00 Ry     beta=0.70
     Davidson diagonalization with overlap
     ethr =  3.55E-06,  avg # of iterations =  4.1

     total cpu time spent up to now is    49378.7 secs

     total energy              =   -4360.79473600 Ry
     Harris-Foulkes estimate   =   -4360.79477682 Ry
     estimated scf accuracy    <       0.00052859 Ry

     iteration #  8     ecut=    50.00 Ry     beta=0.70
     Davidson diagonalization with overlap
     ethr =  4.10E-07,  avg # of iterations =  1.1

     total cpu time spent up to now is    49407.5 secs

     total energy              =   -4360.79464229 Ry
     Harris-Foulkes estimate   =   -4360.79474619 Ry
     estimated scf accuracy    <       0.00035283 Ry

     iteration #  9     ecut=    50.00 Ry     beta=0.70
     Davidson diagonalization with overlap
     ethr =  2.74E-07,  avg # of iterations =  2.0

     total cpu time spent up to now is    49439.2 secs

     total energy              =   -4360.79468311 Ry
     Harris-Foulkes estimate   =   -4360.79468570 Ry
     estimated scf accuracy    <       0.00000598 Ry

     iteration # 10     ecut=    50.00 Ry     beta=0.70
     Davidson diagonalization with overlap
     ethr =  4.64E-09,  avg # of iterations =  3.1

     total cpu time spent up to now is    49476.1 secs

     total energy              =   -4360.79468497 Ry
     Harris-Foulkes estimate   =   -4360.79468533 Ry
     estimated scf accuracy    <       0.00000089 Ry

     iteration # 11     ecut=    50.00 Ry     beta=0.70
     Davidson diagonalization with overlap
     ethr =  6.91E-10,  avg # of iterations =  2.9

     total cpu time spent up to now is    49510.9 secs

     total energy              =   -4360.79468515 Ry
     Harris-Foulkes estimate   =   -4360.79468525 Ry
     estimated scf accuracy    <       0.00000038 Ry

     iteration # 12     ecut=    50.00 Ry     beta=0.70
     Davidson diagonalization with overlap
     ethr =  2.92E-10,  avg # of iterations =  2.0

     total cpu time spent up to now is    49541.1 secs

     total energy              =   -4360.79468517 Ry
     Harris-Foulkes estimate   =   -4360.79468518 Ry
     estimated scf accuracy    <       0.00000005 Ry

     iteration # 13     ecut=    50.00 Ry     beta=0.70
     Davidson diagonalization with overlap
     ethr =  4.09E-11,  avg # of iterations =  2.2

     total cpu time spent up to now is    49572.2 secs

     total energy              =   -4360.79468517 Ry
     Harris-Foulkes estimate   =   -4360.79468517 Ry
     estimated scf accuracy    <       0.00000001 Ry

     iteration # 14     ecut=    50.00 Ry     beta=0.70
     Davidson diagonalization with overlap
     ethr =  8.90E-12,  avg # of iterations =  2.6

     total cpu time spent up to now is    49605.0 secs

     End of self-consistent calculation

          k = 0.0000 0.0000 0.0000 ( 16447 PWs)   bands (ev):

   -76.6903 -76.6498 -76.6457 -72.7919 -39.9043 -39.8726 -39.8636 -38.6184
   -38.5656 -38.5487 -38.5453 -38.5362 -38.5270 -38.5259 -38.5249 -38.5248
   -33.8366 -33.8322 -33.8188 -33.8041 -33.7744 -33.7726 -33.7701 -33.7690
   -33.7621 -33.7617 -33.7586 -33.7575 -33.7565 -33.7547 -33.7500 -33.7488
   -33.7414 -33.7412 -33.7404 -33.7383 -33.7359  -5.4689  -4.7155  -4.5591
    -1.9603  -1.8948  -1.7930  -1.6916  -1.4196  -1.3606  -1.2084  -1.1811
    -1.1162  -1.0757  -1.0319  -0.8935  -0.8053  -0.6040  -0.4604  -0.4426
    -0.2372  -0.1861  -0.1602  -0.1468  -0.1039   0.0294   0.2120   0.2692
     5.3175   5.5646   6.1169   6.2275   6.3529   6.5696   6.6830   6.8320
     7.1592   7.4678   7.4989   7.5322   7.6697   7.6827

          k = 0.0005-0.0002-0.8314 ( 16526 PWs)   bands (ev):

   -76.6903 -76.6498 -76.6457 -72.7919 -39.9043 -39.8726 -39.8637 -38.6185
   -38.5658 -38.5488 -38.5453 -38.5363 -38.5271 -38.5261 -38.5251 -38.5248
   -33.8366 -33.8323 -33.8189 -33.8042 -33.7744 -33.7728 -33.7703 -33.7692
   -33.7621 -33.7618 -33.7586 -33.7574 -33.7565 -33.7548 -33.7501 -33.7489
   -33.7415 -33.7415 -33.7404 -33.7386 -33.7359  -5.0204  -4.7372  -4.4323
    -2.3016  -1.9400  -1.7268  -1.7212  -1.5164  -1.3969  -1.3596  -1.3588
    -1.2518  -1.2090  -0.9824  -0.9312  -0.8795  -0.7578  -0.6505  -0.4893
    -0.3711  -0.1637  -0.1213   0.0889   0.1348   0.1376   0.1704   0.2880
     5.7634   5.7774   5.9593   6.0258   6.3386   6.5924   6.9845   7.1856
     7.3071   7.4839   7.6857   7.7734   8.1042   8.1883

          k =-0.5186-0.2850 0.0002 ( 16490 PWs)   bands (ev):

   -76.6903 -76.6498 -76.6457 -72.7919 -39.9043 -39.8726 -39.8636 -38.6185
   -38.5657 -38.5487 -38.5453 -38.5363 -38.5270 -38.5260 -38.5250 -38.5248
   -33.8366 -33.8323 -33.8188 -33.8042 -33.7744 -33.7727 -33.7701 -33.7691
   -33.7621 -33.7618 -33.7586 -33.7575 -33.7565 -33.7548 -33.7501 -33.7489
   -33.7415 -33.7413 -33.7404 -33.7384 -33.7359  -5.2652  -4.8922  -4.7019
    -1.9277  -1.7864  -1.7217  -1.4144  -1.3501  -1.3203  -1.2720  -1.1872
    -1.1314  -1.1105  -1.0545  -0.9465  -0.8460  -0.6988  -0.5355  -0.3828
    -0.3192  -0.2469  -0.1849  -0.1182  -0.0924   0.0203   0.1871   0.2025
     5.3809   5.5109   5.7203   6.0848   6.7732   6.8120   7.0262   7.0511
     7.1722   7.2575   7.3988   7.8555   7.9418   7.9831

          k =-0.5181-0.2852-0.8312 ( 16554 PWs)   bands (ev):

   -76.6903 -76.6498 -76.6457 -72.7919 -39.9043 -39.8726 -39.8637 -38.6184
   -38.5658 -38.5489 -38.5453 -38.5362 -38.5272 -38.5262 -38.5252 -38.5249
   -33.8367 -33.8323 -33.8189 -33.8042 -33.7745 -33.7727 -33.7704 -33.7691
   -33.7622 -33.7618 -33.7586 -33.7576 -33.7565 -33.7548 -33.7501 -33.7489
   -33.7415 -33.7415 -33.7405 -33.7387 -33.7359  -4.9160  -4.7236  -4.5620
    -2.3463  -1.9618  -1.7998  -1.5667  -1.5390  -1.4736  -1.3387  -1.3061
    -1.2295  -1.1970  -1.0175  -0.9154  -0.8869  -0.7668  -0.6874  -0.5422
    -0.3184  -0.1588  -0.0599   0.1090   0.1252   0.1557   0.1587   0.3150
     5.6191   5.9134   5.9276   5.9579   6.2004   6.2338   6.9818   6.9919
     7.2252   7.2568   7.8102   7.9566   8.0228   8.2466

          k =-0.5196 0.2868 0.0004 ( 16490 PWs)   bands (ev):

   -76.6903 -76.6498 -76.6457 -72.7919 -39.9043 -39.8726 -39.8636 -38.6184
   -38.5657 -38.5488 -38.5453 -38.5362 -38.5270 -38.5260 -38.5250 -38.5248
   -33.8366 -33.8322 -33.8189 -33.8041 -33.7744 -33.7727 -33.7701 -33.7691
   -33.7622 -33.7618 -33.7586 -33.7575 -33.7565 -33.7548 -33.7501 -33.7489
   -33.7415 -33.7413 -33.7404 -33.7384 -33.7359  -5.2655  -4.8893  -4.7036
    -1.9474  -1.7860  -1.7202  -1.4180  -1.3473  -1.3283  -1.2523  -1.1849
    -1.1333  -1.1102  -1.0568  -0.9446  -0.8216  -0.6917  -0.5353  -0.3806
    -0.3467  -0.2303  -0.1840  -0.1195  -0.1002   0.0017   0.1792   0.2201
     5.3794   5.5130   5.7144   6.0884   6.7756   6.8058   7.0175   7.0444
     7.1743   7.2455   7.4042   7.8412   7.9584   8.0092

          k =-0.5191 0.2866-0.8310 ( 16536 PWs)   bands (ev):

   -76.6903 -76.6498 -76.6457 -72.7919 -39.9043 -39.8726 -39.8637 -38.6185
   -38.5658 -38.5488 -38.5454 -38.5363 -38.5270 -38.5262 -38.5252 -38.5249
   -33.8367 -33.8323 -33.8189 -33.8041 -33.7744 -33.7727 -33.7704 -33.7691
   -33.7622 -33.7618 -33.7586 -33.7575 -33.7565 -33.7547 -33.7501 -33.7489
   -33.7415 -33.7415 -33.7404 -33.7387 -33.7359  -4.9158  -4.7236  -4.5617
    -2.3471  -1.9625  -1.8010  -1.5713  -1.5342  -1.4742  -1.3441  -1.3023
    -1.2390  -1.1931  -0.9929  -0.8991  -0.8953  -0.7932  -0.7054  -0.5219
    -0.3093  -0.1592  -0.0629   0.0956   0.1108   0.1593   0.1722   0.3220
     5.6332   5.8744   5.9366   5.9770   6.1863   6.2336   6.9878   6.9936
     7.2170   7.3068   7.7413   7.9410   8.0621   8.2597

          k =-1.0382 0.0018 0.0006 ( 16510 PWs)   bands (ev):

   -76.6903 -76.6498 -76.6457 -72.7919 -39.9043 -39.8726 -39.8636 -38.6184
   -38.5657 -38.5488 -38.5453 -38.5362 -38.5270 -38.5261 -38.5251 -38.5248
   -33.8366 -33.8323 -33.8189 -33.8041 -33.7744 -33.7728 -33.7702 -33.7692
   -33.7622 -33.7618 -33.7586 -33.7575 -33.7565 -33.7547 -33.7501 -33.7489
   -33.7415 -33.7413 -33.7404 -33.7384 -33.7359  -5.2667  -4.8936  -4.7135
    -1.9013  -1.7978  -1.7182  -1.4150  -1.3926  -1.3291  -1.2023  -1.1733
    -1.1314  -1.1034  -1.0827  -0.8560  -0.7072  -0.6343  -0.5803  -0.5773
    -0.4453  -0.1662  -0.1586  -0.1479  -0.1310   0.0461   0.1294   0.2406
     5.3181   5.6108   5.7160   6.2343   6.7527   6.8197   6.8367   7.1545
     7.1836   7.3111   7.4600   7.6994   7.7514   7.8550

          k =-1.0377 0.0016-0.8308 ( 16498 PWs)   bands (ev):

   -76.6903 -76.6498 -76.6457 -72.7919 -39.9043 -39.8726 -39.8637 -38.6183
   -38.5658 -38.5487 -38.5452 -38.5361 -38.5269 -38.5262 -38.5252 -38.5248
   -33.8366 -33.8323 -33.8189 -33.8041 -33.7744 -33.7727 -33.7703 -33.7691
   -33.7621 -33.7618 -33.7586 -33.7574 -33.7565 -33.7547 -33.7501 -33.7488
   -33.7415 -33.7414 -33.7404 -33.7386 -33.7359  -4.8246  -4.7308  -4.6909
    -2.3485  -1.9102  -1.6601  -1.5839  -1.5591  -1.4568  -1.2725  -1.2492
    -1.2230  -1.2141  -1.1552  -0.8940  -0.8678  -0.6774  -0.6696  -0.5704
    -0.3665  -0.3130  -0.1534   0.0776   0.1148   0.1383   0.1789   0.3873
     5.6373   5.8510   5.9208   6.1035   6.1658   6.4269   6.8833   7.2089
     7.2564   7.4966   7.5554   7.6005   7.9680   8.2554

     the Fermi energy is     5.4548 ev

!    total energy              =   -4360.79468517 Ry
     Harris-Foulkes estimate   =   -4360.79468517 Ry
     estimated scf accuracy    <          8.9E-10 Ry

     The total energy is the sum of the following terms:

     one-electron contribution =   -3263.50944144 Ry
     hartree contribution      =    1633.30800169 Ry
     xc contribution           =    -317.66719904 Ry
     ewald contribution        =    -764.13341931 Ry
     one-center paw contrib.   =   -1648.79208274 Ry
     smearing contrib. (-TS)   =      -0.00054433 Ry

     convergence has been achieved in  14 iterations

     Forces acting on atoms (cartesian axes, Ry/au):

     atom    1 type  2   force =    -0.00066819    0.00081719   -0.00000131
     atom    2 type  3   force =     0.00027249   -0.00086720   -0.00011171
     atom    3 type  2   force =    -0.00088940   -0.00085444    0.00003457
     atom    4 type  2   force =     0.00021307    0.00055950   -0.00000303
     atom    5 type  2   force =    -0.00028126    0.00007028   -0.00001368
     atom    6 type  2   force =     0.00028415    0.00003363   -0.00000366
     atom    7 type  4   force =     0.00034956   -0.00010323   -0.00002309
     atom    8 type  4   force =     0.00038363   -0.00038584    0.00008293
     atom    9 type  4   force =     0.00040127    0.00035117    0.00009626
     atom   10 type  1   force =     0.00011338    0.00031156    0.00028736
     atom   11 type  1   force =    -0.00051005   -0.00065684   -0.00032628
     atom   12 type  1   force =     0.00073287   -0.00039595   -0.00124014
     atom   13 type  1   force =     0.00103318    0.00053702    0.00145478
     atom   14 type  1   force =     0.00087979   -0.00046155    0.00139593
     atom   15 type  1   force =     0.00028108   -0.00018654   -0.00071896
     atom   16 type  1   force =    -0.00064549   -0.00092077    0.00054590
     atom   17 type  1   force =     0.00013437   -0.00008255    0.00068040
     atom   18 type  1   force =    -0.00012029    0.00054806   -0.00087075
     atom   19 type  1   force =     0.00020466    0.00082481   -0.00009259
     atom   20 type  1   force =    -0.00149087   -0.00077010    0.00006812
     atom   21 type  1   force =     0.00062352   -0.00162088    0.00006791
     atom   22 type  1   force =    -0.00013367    0.00089670   -0.00020765
     atom   23 type  1   force =     0.00093111    0.00000087   -0.00041030
     atom   24 type  1   force =    -0.00003561    0.00011766   -0.00075220
     atom   25 type  1   force =     0.00010316    0.00042767    0.00048965
     atom   26 type  1   force =     0.00084899    0.00002085    0.00032332
     atom   27 type  1   force =     0.00002456    0.00049043    0.00062217
     atom   28 type  1   force =     0.00002217    0.00021394    0.00007153
     atom   29 type  1   force =    -0.00071805   -0.00036896   -0.00002785
     atom   30 type  1   force =    -0.00089442    0.00050079   -0.00003194
     atom   31 type  1   force =    -0.00168805    0.00011704    0.00007851
     atom   32 type  1   force =    -0.00092394    0.00046196   -0.00004071
     atom   33 type  1   force =     0.00001979    0.00012518   -0.00001817
     atom   34 type  1   force =     0.00095515    0.00058079   -0.00138766
     atom   35 type  1   force =     0.00002994   -0.00047221   -0.00031263
     atom   36 type  1   force =     0.00015741    0.00013997    0.00029498

     Total force =     0.006196     Total SCF correction =     0.000206


     Computing stress (Cartesian axis) and pressure

          total   stress  (Ry/bohr**3)                   (kbar)     P=   -0.33
   0.00000004  -0.00000015  -0.00000057          0.01     -0.02     -0.08
  -0.00000015   0.00000023   0.00000232         -0.02      0.03      0.34
  -0.00000057   0.00000232  -0.00000701         -0.08      0.34     -1.03


     number of scf cycles    =  48
     number of bfgs steps    =  47

     enthalpy old            =   -4360.7946082870 Ry
     enthalpy new            =   -4360.7946851671 Ry

     CASE: enthalpy_new < enthalpy_old

     new trust radius        =       0.0331621334 bohr
     new conv_thr            =       0.0000000100 Ry

     new unit-cell volume =   2666.65892 a.u.^3 (   395.15808 Ang^3 )
     density =      0.15128 g/cm^3

CELL_PARAMETERS (angstrom)
   4.418461939  -8.054669466   0.004243002
   4.452999630   8.074628849   0.001335913
   0.003343949  -0.000909191   5.523221759

ATOMIC_POSITIONS (angstrom)
K        1.091699447   2.104634822   2.763295276
Mg       6.491338410  -0.016624107   2.753217633
K        1.074730716  -2.104577208   2.763537742
K        2.760841288   4.747866707  -0.000134554
K        3.592025500   0.010212793   0.001419118
K        2.740358095  -4.712450773   0.001554601
Re       4.600184705  -2.446797755   2.764109013
Re       4.622517687   2.463305706   2.763300513
Re      -0.311551420   0.004408799   0.003353993
H        5.033791072  -3.593421740   3.955804460
H        5.334318893  -1.442831025   3.969542208
H        3.497596046  -2.341449613   4.068723865
H        3.512661474   2.357053920   1.464507457
H        3.496252181  -2.341822080   1.459936838
H        5.032119488  -3.594913873   1.573968182
H        5.331442610  -1.443339504   1.554675034
H        5.049452407   3.609757619   3.957342595
H        5.354965281   1.454751942   3.962389226
H        0.457283193  -1.511140357   0.002114793
H        6.827539091  -0.010858483   0.010982771
H        0.493276415   1.499185331   0.000747600
H        3.505201104  -7.041477183   1.269151944
H        0.935128387   0.001045211   4.369250307
H        3.531192578   7.094683966   4.226787990
H        3.533431804   7.091344418   1.307182742
H        0.936029365   0.001435886   1.156521713
H        3.504490334  -7.045335567   4.269167551
H        3.524064515   3.748706408   2.763521664
H        6.286580868   2.720806072   2.762927123
H        3.807388325   0.997510013   2.763782725
H        3.789297644  -0.979516110   2.763550696
H        6.269795308  -2.687809986   2.764162058
H        3.501182151  -3.729605715   2.765142553
H        3.514249376   2.355770686   4.062880800
H        5.047354138   3.611869263   1.569883098
H        5.352169480   1.455831987   1.562100335



     Writing output data file K5MgReH93.save
     NEW-OLD atomic charge density approx. for the potential
     extrapolated charge  128.65937, renormalised to  129.00000

     total cpu time spent up to now is    50217.0 secs

     Self-consistent Calculation

     iteration #  1     ecut=    50.00 Ry     beta=0.70
     Davidson diagonalization with overlap
     ethr =  1.00E-06,  avg # of iterations =  7.2

     total cpu time spent up to now is    50274.7 secs

     total energy              =   -4360.64338443 Ry
     Harris-Foulkes estimate   =   -4368.94082594 Ry
     estimated scf accuracy    <       0.13441904 Ry

     iteration #  2     ecut=    50.00 Ry     beta=0.70
     Davidson diagonalization with overlap
     ethr =  1.04E-04,  avg # of iterations =  6.0

     total cpu time spent up to now is    50323.4 secs

     total energy              =   -4360.67919067 Ry
     Harris-Foulkes estimate   =   -4361.09942355 Ry
     estimated scf accuracy    <       1.53583446 Ry

     iteration #  3     ecut=    50.00 Ry     beta=0.70
     Davidson diagonalization with overlap
     ethr =  1.04E-04,  avg # of iterations =  4.6

     total cpu time spent up to now is    50365.0 secs

     total energy              =   -4360.80438837 Ry
     Harris-Foulkes estimate   =   -4360.81345619 Ry
     estimated scf accuracy    <       0.09535612 Ry

     iteration #  4     ecut=    50.00 Ry     beta=0.70
     Davidson diagonalization with overlap
     ethr =  7.39E-05,  avg # of iterations =  1.0

     total cpu time spent up to now is    50393.3 secs

     total energy              =   -4360.79824489 Ry
     Harris-Foulkes estimate   =   -4360.80607584 Ry
     estimated scf accuracy    <       0.06123326 Ry

     iteration #  5     ecut=    50.00 Ry     beta=0.70
     Davidson diagonalization with overlap
     ethr =  4.75E-05,  avg # of iterations =  1.0

     total cpu time spent up to now is    50422.3 secs

     total energy              =   -4360.79641131 Ry
     Harris-Foulkes estimate   =   -4360.79955066 Ry
     estimated scf accuracy    <       0.02735441 Ry

     iteration #  6     ecut=    50.00 Ry     beta=0.70
     Davidson diagonalization with overlap
     ethr =  2.12E-05,  avg # of iterations =  2.1

     total cpu time spent up to now is    50451.8 secs

     total energy              =   -4360.79388965 Ry
     Harris-Foulkes estimate   =   -4360.79696936 Ry
     estimated scf accuracy    <       0.01359270 Ry

     iteration #  7     ecut=    50.00 Ry     beta=0.70
     Davidson diagonalization with overlap
     ethr =  1.05E-05,  avg # of iterations =  5.2

     total cpu time spent up to now is    50486.9 secs

     total energy              =   -4360.79487512 Ry
     Harris-Foulkes estimate   =   -4360.79500357 Ry
     estimated scf accuracy    <       0.00141254 Ry

     iteration #  8     ecut=    50.00 Ry     beta=0.70
     Davidson diagonalization with overlap
     ethr =  1.09E-06,  avg # of iterations =  3.1

     total cpu time spent up to now is    50517.5 secs

     total energy              =   -4360.79470806 Ry
     Harris-Foulkes estimate   =   -4360.79490916 Ry
     estimated scf accuracy    <       0.00085972 Ry

     iteration #  9     ecut=    50.00 Ry     beta=0.70
     Davidson diagonalization with overlap
     ethr =  6.66E-07,  avg # of iterations =  2.0

     total cpu time spent up to now is    50548.2 secs

     total energy              =   -4360.79475204 Ry
     Harris-Foulkes estimate   =   -4360.79477769 Ry
     estimated scf accuracy    <       0.00008467 Ry

     iteration # 10     ecut=    50.00 Ry     beta=0.70
     Davidson diagonalization with overlap
     ethr =  6.56E-08,  avg # of iterations =  3.0

     total cpu time spent up to now is    50582.3 secs

     total energy              =   -4360.79476448 Ry
     Harris-Foulkes estimate   =   -4360.79476517 Ry
     estimated scf accuracy    <       0.00000310 Ry

     iteration # 11     ecut=    50.00 Ry     beta=0.70
     Davidson diagonalization with overlap
     ethr =  2.40E-09,  avg # of iterations =  3.0

     total cpu time spent up to now is    50618.1 secs

     total energy              =   -4360.79476478 Ry
     Harris-Foulkes estimate   =   -4360.79476506 Ry
     estimated scf accuracy    <       0.00000106 Ry

     iteration # 12     ecut=    50.00 Ry     beta=0.70
     Davidson diagonalization with overlap
     ethr =  8.21E-10,  avg # of iterations =  2.0

     total cpu time spent up to now is    50649.1 secs

     total energy              =   -4360.79476483 Ry
     Harris-Foulkes estimate   =   -4360.79476487 Ry
     estimated scf accuracy    <       0.00000014 Ry

     iteration # 13     ecut=    50.00 Ry     beta=0.70
     Davidson diagonalization with overlap
     ethr =  1.10E-10,  avg # of iterations =  2.1

     total cpu time spent up to now is    50680.7 secs

     total energy              =   -4360.79476484 Ry
     Harris-Foulkes estimate   =   -4360.79476485 Ry
     estimated scf accuracy    <       0.00000003 Ry

     iteration # 14     ecut=    50.00 Ry     beta=0.70
     Davidson diagonalization with overlap
     ethr =  2.08E-11,  avg # of iterations =  3.0

     total cpu time spent up to now is    50715.0 secs

     End of self-consistent calculation

          k = 0.0000 0.0000 0.0000 ( 16447 PWs)   bands (ev):

   -76.6848 -76.6330 -76.6281 -72.7902 -39.9019 -39.8719 -39.8612 -38.6116
   -38.5638 -38.5316 -38.5277 -38.5192 -38.5146 -38.5086 -38.5072 -38.5071
   -33.8310 -33.8272 -33.8132 -33.7982 -33.7678 -33.7636 -33.7550 -33.7536
   -33.7507 -33.7445 -33.7408 -33.7389 -33.7384 -33.7371 -33.7315 -33.7314
   -33.7234 -33.7229 -33.7222 -33.7200 -33.7172  -5.4599  -4.7022  -4.5424
    -1.9566  -1.8745  -1.7797  -1.6806  -1.4046  -1.3419  -1.1982  -1.1590
    -1.0964  -1.0482  -1.0229  -0.8814  -0.7858  -0.5871  -0.4430  -0.4319
    -0.2162  -0.1771  -0.1370  -0.1339  -0.0750   0.0459   0.2274   0.2815
     5.3402   5.5721   6.1275   6.2330   6.3617   6.5860   6.7116   6.8412
     7.1801   7.4775   7.5088   7.5586   7.6953   7.6973

          k = 0.0005-0.0002-0.8341 ( 16526 PWs)   bands (ev):

   -76.6848 -76.6330 -76.6281 -72.7902 -39.9019 -39.8719 -39.8612 -38.6118
   -38.5640 -38.5316 -38.5277 -38.5193 -38.5146 -38.5089 -38.5073 -38.5073
   -33.8311 -33.8273 -33.8133 -33.7983 -33.7678 -33.7638 -33.7551 -33.7537
   -33.7508 -33.7444 -33.7409 -33.7389 -33.7385 -33.7371 -33.7316 -33.7315
   -33.7237 -33.7229 -33.7222 -33.7203 -33.7173  -4.9984  -4.7254  -4.4109
    -2.3010  -1.9296  -1.7193  -1.7007  -1.5016  -1.3823  -1.3434  -1.3379
    -1.2378  -1.2101  -0.9723  -0.9140  -0.8593  -0.7482  -0.6334  -0.4775
    -0.3422  -0.1434  -0.0941   0.0929   0.1527   0.1547   0.1960   0.3082
     5.7746   5.7898   5.9658   6.0470   6.3462   6.5942   6.9987   7.2030
     7.3204   7.5208   7.7051   7.7827   8.1308   8.2072

          k =-0.5186-0.2845 0.0003 ( 16490 PWs)   bands (ev):

   -76.6848 -76.6330 -76.6281 -72.7902 -39.9019 -39.8719 -39.8612 -38.6117
   -38.5639 -38.5316 -38.5277 -38.5193 -38.5146 -38.5087 -38.5072 -38.5072
   -33.8311 -33.8273 -33.8133 -33.7983 -33.7678 -33.7637 -33.7550 -33.7537
   -33.7507 -33.7445 -33.7409 -33.7389 -33.7385 -33.7371 -33.7315 -33.7315
   -33.7235 -33.7229 -33.7222 -33.7201 -33.7172  -5.2574  -4.8782  -4.6856
    -1.9129  -1.7728  -1.7102  -1.3989  -1.3329  -1.3039  -1.2676  -1.1701
    -1.1028  -1.0858  -1.0463  -0.9333  -0.8331  -0.6803  -0.5215  -0.3712
    -0.2992  -0.2315  -0.1594  -0.0889  -0.0799   0.0321   0.2045   0.2162
     5.3908   5.5240   5.7239   6.1078   6.7993   6.8218   7.0322   7.0656
     7.1825   7.2795   7.4253   7.8710   7.9500   8.0053

          k =-0.5181-0.2847-0.8338 ( 16554 PWs)   bands (ev):

   -76.6848 -76.6330 -76.6281 -72.7902 -39.9019 -39.8719 -39.8612 -38.6117
   -38.5640 -38.5317 -38.5277 -38.5192 -38.5148 -38.5089 -38.5074 -38.5073
   -33.8311 -33.8273 -33.8133 -33.7983 -33.7679 -33.7639 -33.7551 -33.7537
   -33.7508 -33.7445 -33.7409 -33.7390 -33.7385 -33.7371 -33.7316 -33.7315
   -33.7238 -33.7229 -33.7223 -33.7203 -33.7173  -4.8943  -4.7118  -4.5398
    -2.3464  -1.9516  -1.7850  -1.5587  -1.5255  -1.4596  -1.3172  -1.3008
    -1.2093  -1.1795  -1.0073  -0.9008  -0.8755  -0.7465  -0.6683  -0.5335
    -0.2932  -0.1383  -0.0350   0.1290   0.1314   0.1717   0.1803   0.3366
     5.6272   5.9181   5.9373   5.9703   6.2304   6.2448   6.9970   7.0087
     7.2426   7.2674   7.8318   7.9732   8.0299   8.2635

          k =-0.5199 0.2867 0.0004 ( 16490 PWs)   bands (ev):

   -76.6848 -76.6330 -76.6281 -72.7902 -39.9019 -39.8719 -39.8612 -38.6117
   -38.5639 -38.5316 -38.5277 -38.5192 -38.5146 -38.5087 -38.5072 -38.5072
   -33.8310 -33.8273 -33.8133 -33.7982 -33.7678 -33.7637 -33.7551 -33.7537
   -33.7507 -33.7445 -33.7409 -33.7389 -33.7385 -33.7371 -33.7316 -33.7314
   -33.7235 -33.7229 -33.7222 -33.7201 -33.7172  -5.2578  -4.8746  -4.6875
    -1.9389  -1.7724  -1.7064  -1.4030  -1.3297  -1.3142  -1.2435  -1.1677
    -1.1052  -1.0851  -1.0488  -0.9290  -0.8060  -0.6702  -0.5213  -0.3668
    -0.3346  -0.2100  -0.1584  -0.0917  -0.0892   0.0092   0.1914   0.2410
     5.3902   5.5255   5.7162   6.1125   6.8021   6.8145   7.0232   7.0575
     7.1832   7.2654   7.4312   7.8533   7.9726   8.0370

          k =-0.5194 0.2866-0.8337 ( 16536 PWs)   bands (ev):

   -76.6848 -76.6330 -76.6281 -72.7902 -39.9019 -39.8719 -39.8612 -38.6117
   -38.5640 -38.5316 -38.5278 -38.5193 -38.5147 -38.5089 -38.5073 -38.5072
   -33.8311 -33.8273 -33.8133 -33.7982 -33.7678 -33.7639 -33.7550 -33.7537
   -33.7508 -33.7445 -33.7409 -33.7390 -33.7385 -33.7371 -33.7316 -33.7315
   -33.7238 -33.7229 -33.7222 -33.7203 -33.7173  -4.8941  -4.7117  -4.5394
    -2.3474  -1.9526  -1.7861  -1.5643  -1.5190  -1.4607  -1.3240  -1.2961
    -1.2216  -1.1745  -0.9785  -0.8893  -0.8763  -0.7780  -0.6917  -0.5072
    -0.2822  -0.1380  -0.0397   0.1129   0.1160   0.1813   0.1886   0.3456
     5.6444   5.8758   5.9441   5.9906   6.2146   6.2442   7.0052   7.0110
     7.2320   7.3299   7.7481   7.9541   8.0749   8.2811

          k =-1.0386 0.0022 0.0006 ( 16510 PWs)   bands (ev):

   -76.6848 -76.6330 -76.6281 -72.7902 -39.9019 -39.8719 -39.8612 -38.6117
   -38.5639 -38.5316 -38.5277 -38.5192 -38.5147 -38.5088 -38.5072 -38.5072
   -33.8310 -33.8273 -33.8134 -33.7982 -33.7678 -33.7637 -33.7551 -33.7536
   -33.7508 -33.7445 -33.7409 -33.7390 -33.7385 -33.7371 -33.7316 -33.7315
   -33.7235 -33.7229 -33.7222 -33.7201 -33.7172  -5.2607  -4.8769  -4.6977
    -1.8938  -1.7840  -1.7001  -1.4002  -1.3792  -1.3105  -1.1861  -1.1647
    -1.1045  -1.0933  -1.0566  -0.8392  -0.6973  -0.6187  -0.5661  -0.5635
    -0.4291  -0.1534  -0.1466  -0.1241  -0.1011   0.0585   0.1449   0.2606
     5.3310   5.6198   5.7203   6.2612   6.7798   6.8363   6.8537   7.1649
     7.1974   7.3320   7.4844   7.7038   7.7726   7.8679

          k =-1.0380 0.0021-0.8334 ( 16498 PWs)   bands (ev):

   -76.6848 -76.6330 -76.6281 -72.7902 -39.9019 -39.8719 -39.8612 -38.6115
   -38.5640 -38.5315 -38.5276 -38.5191 -38.5146 -38.5089 -38.5073 -38.5071
   -33.8310 -33.8273 -33.8133 -33.7982 -33.7678 -33.7639 -33.7551 -33.7536
   -33.7508 -33.7444 -33.7409 -33.7389 -33.7385 -33.7371 -33.7315 -33.7314
   -33.7237 -33.7229 -33.7222 -33.7203 -33.7172  -4.8035  -4.7191  -4.6684
    -2.3477  -1.9000  -1.6404  -1.5710  -1.5588  -1.4372  -1.2657  -1.2274
    -1.2073  -1.2012  -1.1405  -0.8728  -0.8612  -0.6610  -0.6534  -0.5554
    -0.3371  -0.2969  -0.1296   0.0844   0.1300   0.1615   0.1924   0.4133
     5.6478   5.8571   5.9450   6.1150   6.1742   6.4322   6.8952   7.2302
     7.2784   7.5297   7.5813   7.6132   7.9816   8.2828

     the Fermi energy is     5.4661 ev

!    total energy              =   -4360.79476484 Ry
     Harris-Foulkes estimate   =   -4360.79476484 Ry
     estimated scf accuracy    <          1.7E-09 Ry

     The total energy is the sum of the following terms:

     one-electron contribution =   -3262.17156612 Ry
     hartree contribution      =    1632.70501064 Ry
     xc contribution           =    -317.66750399 Ry
     ewald contribution        =    -764.86739639 Ry
     one-center paw contrib.   =   -1648.79260718 Ry
     smearing contrib. (-TS)   =      -0.00070180 Ry

     convergence has been achieved in  14 iterations

     Forces acting on atoms (cartesian axes, Ry/au):

     atom    1 type  2   force =    -0.00087404    0.00096631   -0.00000290
     atom    2 type  3   force =     0.00015826   -0.00097481   -0.00011013
     atom    3 type  2   force =    -0.00114126   -0.00101654    0.00005160
     atom    4 type  2   force =    -0.00007312    0.00066784   -0.00001838
     atom    5 type  2   force =    -0.00008234    0.00008734   -0.00002369
     atom    6 type  2   force =     0.00003625    0.00002882    0.00000350
     atom    7 type  4   force =     0.00008477   -0.00024137   -0.00007088
     atom    8 type  4   force =     0.00016099    0.00011613    0.00015349
     atom    9 type  4   force =     0.00017378    0.00016970    0.00009990
     atom   10 type  1   force =     0.00018589    0.00031537    0.00031999
     atom   11 type  1   force =    -0.00084780   -0.00092749   -0.00060903
     atom   12 type  1   force =     0.00105075   -0.00018582   -0.00183987
     atom   13 type  1   force =     0.00132212    0.00032585    0.00197641
     atom   14 type  1   force =     0.00107728   -0.00024385    0.00186575
     atom   15 type  1   force =     0.00024424    0.00009197   -0.00046403
     atom   16 type  1   force =    -0.00088930   -0.00109520    0.00072018
     atom   17 type  1   force =     0.00010896   -0.00035027    0.00053834
     atom   18 type  1   force =    -0.00021618    0.00060429   -0.00114031
     atom   19 type  1   force =     0.00007188    0.00105196   -0.00010244
     atom   20 type  1   force =    -0.00063756   -0.00091750    0.00008522
     atom   21 type  1   force =     0.00072218   -0.00175100    0.00007075
     atom   22 type  1   force =     0.00004399    0.00099629   -0.00050347
     atom   23 type  1   force =     0.00054734    0.00000019    0.00045228
     atom   24 type  1   force =     0.00019170    0.00010248   -0.00084382
     atom   25 type  1   force =     0.00024275    0.00027268    0.00070655
     atom   26 type  1   force =     0.00056657    0.00006558   -0.00043717
     atom   27 type  1   force =     0.00006372    0.00083750    0.00069485
     atom   28 type  1   force =     0.00016011   -0.00018538    0.00007392
     atom   29 type  1   force =    -0.00057279   -0.00041535   -0.00002646
     atom   30 type  1   force =    -0.00077752    0.00103259   -0.00002673
     atom   31 type  1   force =    -0.00157567   -0.00063969    0.00007943
     atom   32 type  1   force =    -0.00084357    0.00052772   -0.00005269
     atom   33 type  1   force =    -0.00000300    0.00042269   -0.00001095
     atom   34 type  1   force =     0.00129245    0.00038754   -0.00196095
     atom   35 type  1   force =     0.00011194   -0.00052994   -0.00040206
     atom   36 type  1   force =    -0.00008378    0.00040335    0.00075380

     Total force =     0.007196     Total SCF correction =     0.000215


     Computing stress (Cartesian axis) and pressure

          total   stress  (Ry/bohr**3)                   (kbar)     P=   -0.61
  -0.00000112   0.00000037  -0.00000024         -0.16      0.05     -0.04
   0.00000037  -0.00000200   0.00000132          0.05     -0.29      0.19
  -0.00000024   0.00000132  -0.00000924         -0.04      0.19     -1.36


     number of scf cycles    =  49
     number of bfgs steps    =  48

     enthalpy old            =   -4360.7946851671 Ry
     enthalpy new            =   -4360.7947648395 Ry

     CASE: enthalpy_new < enthalpy_old

     new trust radius        =       0.0269903067 bohr
     new conv_thr            =       0.0000000100 Ry

     new unit-cell volume =   2661.25896 a.u.^3 (   394.35789 Ang^3 )
     density =      0.15159 g/cm^3

CELL_PARAMETERS (angstrom)
   4.414522809  -8.060090106   0.003584440
   4.454517629   8.083128320   0.002137693
   0.003435469  -0.000433432   5.508796635

ATOMIC_POSITIONS (angstrom)
K        1.095701124   2.110464903   2.756332085
Mg       6.486392872  -0.019931546   2.744913108
K        1.075649320  -2.109516868   2.756234492
K        2.770694705   4.753242281   0.000432956
K        3.582222912   0.011830435   0.001455224
K        2.747031747  -4.711624526   0.001146062
Re       4.597653036  -2.445647818   2.756697350
Re       4.623663406   2.465323667   2.756361232
Re      -0.314447110   0.005089878   0.003639604
H        5.035459011  -3.591887850   3.946881122
H        5.330595638  -1.440034757   3.962087058
H        3.497580214  -2.345244299   4.063630118
H        3.515426606   2.364025814   1.456395539
H        3.496347559  -2.345856052   1.450561740
H        5.033846893  -3.594143329   1.567476668
H        5.327384097  -1.441066106   1.547277151
H        5.053556613   3.611791868   3.949874560
H        5.354814645   1.454478981   3.953605493
H        0.453612810  -1.511832406   0.002035056
H        6.820665811  -0.013748793   0.011534222
H        0.495105372   1.497341679   0.000967406
H        3.497854432  -7.042651548   1.264498816
H        0.930498471   0.001930938   4.350790772
H        3.528295781   7.105087811   4.210846636
H        3.531230533   7.101308561   1.310346886
H        0.931506395   0.001870209   1.160580018
H        3.497333949  -7.046867690   4.259289902
H        3.528282257   3.754665040   2.756767500
H        6.287414862   2.720548717   2.755846967
H        3.802869586   1.001152546   2.756706540
H        3.781365314  -0.979193245   2.756304018
H        6.267970415  -2.681374473   2.756777749
H        3.501653379  -3.731610903   2.757717453
H        3.516964827   2.362770238   4.057205255
H        5.051148283   3.613579150   1.564085299
H        5.352062263   1.455020926   1.556083580



     Writing output data file K5MgReH93.save
     NEW-OLD atomic charge density approx. for the potential
     extrapolated charge  128.73844, renormalised to  129.00000

     total cpu time spent up to now is    51327.3 secs

     Self-consistent Calculation

     iteration #  1     ecut=    50.00 Ry     beta=0.70
     Davidson diagonalization with overlap
     ethr =  1.00E-06,  avg # of iterations =  7.1

     total cpu time spent up to now is    51384.2 secs

     total energy              =   -4360.70404020 Ry
     Harris-Foulkes estimate   =   -4367.04428017 Ry
     estimated scf accuracy    <       0.08084162 Ry

     iteration #  2     ecut=    50.00 Ry     beta=0.70
     Davidson diagonalization with overlap
     ethr =  6.27E-05,  avg # of iterations =  6.0

     total cpu time spent up to now is    51432.8 secs

     total energy              =   -4360.72262502 Ry
     Harris-Foulkes estimate   =   -4360.97902180 Ry
     estimated scf accuracy    <       0.94517902 Ry

     iteration #  3     ecut=    50.00 Ry     beta=0.70
     Davidson diagonalization with overlap
     ethr =  6.27E-05,  avg # of iterations =  5.1

     total cpu time spent up to now is    51474.5 secs

     total energy              =   -4360.80070833 Ry
     Harris-Foulkes estimate   =   -4360.80599262 Ry
     estimated scf accuracy    <       0.05698283 Ry

     iteration #  4     ecut=    50.00 Ry     beta=0.70
     Davidson diagonalization with overlap
     ethr =  4.42E-05,  avg # of iterations =  1.0

     total cpu time spent up to now is    51503.3 secs

     total energy              =   -4360.79664545 Ry
     Harris-Foulkes estimate   =   -4360.80176657 Ry
     estimated scf accuracy    <       0.03721846 Ry

     iteration #  5     ecut=    50.00 Ry     beta=0.70
     Davidson diagonalization with overlap
     ethr =  2.89E-05,  avg # of iterations =  1.0

     total cpu time spent up to now is    51531.6 secs

     total energy              =   -4360.79573705 Ry
     Harris-Foulkes estimate   =   -4360.79753094 Ry
     estimated scf accuracy    <       0.01534422 Ry

     iteration #  6     ecut=    50.00 Ry     beta=0.70
     Davidson diagonalization with overlap
     ethr =  1.19E-05,  avg # of iterations =  2.1

     total cpu time spent up to now is    51561.6 secs

     total energy              =   -4360.79448476 Ry
     Harris-Foulkes estimate   =   -4360.79605469 Ry
     estimated scf accuracy    <       0.00759787 Ry

     iteration #  7     ecut=    50.00 Ry     beta=0.70
     Davidson diagonalization with overlap
     ethr =  5.89E-06,  avg # of iterations =  3.8

     total cpu time spent up to now is    51594.5 secs

     total energy              =   -4360.79494349 Ry
     Harris-Foulkes estimate   =   -4360.79503408 Ry
     estimated scf accuracy    <       0.00107249 Ry

     iteration #  8     ecut=    50.00 Ry     beta=0.70
     Davidson diagonalization with overlap
     ethr =  8.31E-07,  avg # of iterations =  1.9

     total cpu time spent up to now is    51624.3 secs

     total energy              =   -4360.79480151 Ry
     Harris-Foulkes estimate   =   -4360.79496247 Ry
     estimated scf accuracy    <       0.00067805 Ry

     iteration #  9     ecut=    50.00 Ry     beta=0.70
     Davidson diagonalization with overlap
     ethr =  5.26E-07,  avg # of iterations =  2.0

     total cpu time spent up to now is    51654.6 secs

     total energy              =   -4360.79483516 Ry
     Harris-Foulkes estimate   =   -4360.79485569 Ry
     estimated scf accuracy    <       0.00006400 Ry

     iteration # 10     ecut=    50.00 Ry     beta=0.70
     Davidson diagonalization with overlap
     ethr =  4.96E-08,  avg # of iterations =  3.0

     total cpu time spent up to now is    51688.8 secs

     total energy              =   -4360.79484514 Ry
     Harris-Foulkes estimate   =   -4360.79484544 Ry
     estimated scf accuracy    <       0.00000116 Ry

     iteration # 11     ecut=    50.00 Ry     beta=0.70
     Davidson diagonalization with overlap
     ethr =  8.99E-10,  avg # of iterations =  3.2

     total cpu time spent up to now is    51727.4 secs

     total energy              =   -4360.79484537 Ry
     Harris-Foulkes estimate   =   -4360.79484552 Ry
     estimated scf accuracy    <       0.00000053 Ry

     iteration # 12     ecut=    50.00 Ry     beta=0.70
     Davidson diagonalization with overlap
     ethr =  4.10E-10,  avg # of iterations =  2.0

     total cpu time spent up to now is    51758.0 secs

     total energy              =   -4360.79484540 Ry
     Harris-Foulkes estimate   =   -4360.79484542 Ry
     estimated scf accuracy    <       0.00000008 Ry

     iteration # 13     ecut=    50.00 Ry     beta=0.70
     Davidson diagonalization with overlap
     ethr =  6.01E-11,  avg # of iterations =  2.2

     total cpu time spent up to now is    51789.7 secs

     total energy              =   -4360.79484540 Ry
     Harris-Foulkes estimate   =   -4360.79484541 Ry
     estimated scf accuracy    <       0.00000001 Ry

     iteration # 14     ecut=    50.00 Ry     beta=0.70
     Davidson diagonalization with overlap
     ethr =  1.04E-11,  avg # of iterations =  2.4

     total cpu time spent up to now is    51822.4 secs

     End of self-consistent calculation

          k = 0.0000 0.0000 0.0000 ( 16447 PWs)   bands (ev):

   -76.6792 -76.6187 -76.6132 -72.7879 -39.8991 -39.8704 -39.8583 -38.6057
   -38.5604 -38.5178 -38.5135 -38.5051 -38.5050 -38.4945 -38.4922 -38.4910
   -33.8254 -33.8221 -33.8077 -33.7925 -33.7613 -33.7569 -33.7457 -33.7396
   -33.7349 -33.7291 -33.7253 -33.7230 -33.7229 -33.7216 -33.7163 -33.7156
   -33.7078 -33.7076 -33.7057 -33.7041 -33.7012  -5.4530  -4.6915  -4.5321
    -1.9540  -1.8577  -1.7683  -1.6727  -1.3938  -1.3268  -1.1911  -1.1429
    -1.0829  -1.0303  -1.0178  -0.8724  -0.7693  -0.5713  -0.4315  -0.4224
    -0.2023  -0.1696  -0.1236  -0.1176  -0.0520   0.0583   0.2386   0.2907
     5.3585   5.5779   6.1386   6.2406   6.3677   6.5995   6.7360   6.8493
     7.1975   7.4846   7.5190   7.5794   7.7084   7.7198

          k = 0.0005-0.0001-0.8363 ( 16526 PWs)   bands (ev):

   -76.6792 -76.6187 -76.6132 -72.7879 -39.8991 -39.8704 -39.8583 -38.6059
   -38.5607 -38.5178 -38.5136 -38.5051 -38.5051 -38.4947 -38.4924 -38.4911
   -33.8255 -33.8221 -33.8078 -33.7925 -33.7613 -33.7570 -33.7457 -33.7397
   -33.7350 -33.7290 -33.7254 -33.7230 -33.7229 -33.7217 -33.7164 -33.7156
   -33.7081 -33.7076 -33.7058 -33.7043 -33.7013  -4.9826  -4.7145  -4.3969
    -2.2988  -1.9219  -1.7153  -1.6811  -1.4935  -1.3732  -1.3318  -1.3229
    -1.2273  -1.2076  -0.9663  -0.9020  -0.8424  -0.7407  -0.6212  -0.4694
    -0.3205  -0.1278  -0.0755   0.0974   0.1671   0.1695   0.2146   0.3230
     5.7847   5.8005   5.9691   6.0647   6.3536   6.5988   7.0103   7.2170
     7.3333   7.5485   7.7206   7.7933   8.1529   8.2270

          k =-0.5187-0.2841 0.0003 ( 16490 PWs)   bands (ev):

   -76.6792 -76.6187 -76.6132 -72.7879 -39.8991 -39.8704 -39.8583 -38.6058
   -38.5605 -38.5178 -38.5135 -38.5051 -38.5051 -38.4946 -38.4923 -38.4910
   -33.8255 -33.8221 -33.8078 -33.7925 -33.7613 -33.7569 -33.7457 -33.7396
   -33.7350 -33.7291 -33.7254 -33.7231 -33.7229 -33.7217 -33.7164 -33.7156
   -33.7079 -33.7076 -33.7057 -33.7041 -33.7012  -5.2513  -4.8675  -4.6750
    -1.9011  -1.7612  -1.7013  -1.3878  -1.3193  -1.2926  -1.2642  -1.1568
    -1.0835  -1.0695  -1.0417  -0.9246  -0.8225  -0.6655  -0.5080  -0.3625
    -0.2839  -0.2206  -0.1386  -0.0706  -0.0650   0.0423   0.2171   0.2259
     5.3974   5.5379   5.7276   6.1261   6.8216   6.8306   7.0391   7.0775
     7.1932   7.2975   7.4466   7.8822   7.9556   8.0265

          k =-0.5181-0.2842-0.8360 ( 16554 PWs)   bands (ev):

   -76.6792 -76.6187 -76.6132 -72.7879 -39.8991 -39.8704 -39.8583 -38.6057
   -38.5607 -38.5179 -38.5135 -38.5052 -38.5050 -38.4948 -38.4925 -38.4912
   -33.8255 -33.8222 -33.8079 -33.7925 -33.7614 -33.7572 -33.7457 -33.7397
   -33.7350 -33.7291 -33.7254 -33.7231 -33.7229 -33.7217 -33.7164 -33.7156
   -33.7081 -33.7077 -33.7058 -33.7044 -33.7013  -4.8787  -4.7009  -4.5251
    -2.3448  -1.9437  -1.7734  -1.5511  -1.5181  -1.4510  -1.3021  -1.2940
    -1.1950  -1.1673  -1.0009  -0.8908  -0.8667  -0.7295  -0.6536  -0.5273
    -0.2735  -0.1238  -0.0172   0.1352   0.1466   0.1861   0.1958   0.3524
     5.6347   5.9197   5.9467   5.9813   6.2538   6.2557   7.0103   7.0248
     7.2574   7.2768   7.8497   7.9871   8.0358   8.2780

          k =-0.5202 0.2867 0.0003 ( 16490 PWs)   bands (ev):

   -76.6792 -76.6187 -76.6132 -72.7879 -39.8991 -39.8704 -39.8583 -38.6057
   -38.5606 -38.5178 -38.5135 -38.5051 -38.5050 -38.4946 -38.4923 -38.4910
   -33.8254 -33.8221 -33.8078 -33.7925 -33.7613 -33.7569 -33.7457 -33.7396
   -33.7350 -33.7291 -33.7254 -33.7231 -33.7229 -33.7217 -33.7164 -33.7156
   -33.7079 -33.7076 -33.7057 -33.7041 -33.7012  -5.2519  -4.8633  -4.6772
    -1.9329  -1.7606  -1.6950  -1.3924  -1.3157  -1.3044  -1.2367  -1.1544
    -1.0863  -1.0686  -1.0445  -0.9180  -0.7940  -0.6522  -0.5077  -0.3569
    -0.3253  -0.1954  -0.1375  -0.0834  -0.0668   0.0156   0.1997   0.2568
     5.3980   5.5384   5.7182   6.1317   6.8190   6.8279   7.0300   7.0691
     7.1919   7.2816   7.4531   7.8619   7.9833   8.0621

          k =-0.5196 0.2866-0.8359 ( 16536 PWs)   bands (ev):

   -76.6792 -76.6187 -76.6132 -72.7879 -39.8991 -39.8704 -39.8583 -38.6058
   -38.5607 -38.5178 -38.5136 -38.5051 -38.5051 -38.4948 -38.4925 -38.4910
   -33.8256 -33.8221 -33.8078 -33.7925 -33.7613 -33.7571 -33.7457 -33.7396
   -33.7350 -33.7291 -33.7254 -33.7231 -33.7229 -33.7216 -33.7164 -33.7156
   -33.7082 -33.7076 -33.7058 -33.7044 -33.7013  -4.8784  -4.7008  -4.5246
    -2.3460  -1.9449  -1.7743  -1.5574  -1.5101  -1.4525  -1.3102  -1.2886
    -1.2096  -1.1613  -0.9691  -0.8820  -0.8625  -0.7651  -0.6818  -0.4956
    -0.2611  -0.1227  -0.0235   0.1214   0.1259   0.1975   0.2033   0.3632
     5.6546   5.8767   5.9509   6.0014   6.2370   6.2541   7.0205   7.0276
     7.2453   7.3494   7.7543   7.9651   8.0857   8.2992

          k =-1.0389 0.0026 0.0006 ( 16510 PWs)   bands (ev):

   -76.6792 -76.6187 -76.6132 -72.7879 -39.8991 -39.8704 -39.8583 -38.6057
   -38.5606 -38.5178 -38.5135 -38.5051 -38.5050 -38.4947 -38.4924 -38.4910
   -33.8255 -33.8222 -33.8079 -33.7925 -33.7613 -33.7570 -33.7457 -33.7397
   -33.7350 -33.7291 -33.7254 -33.7231 -33.7229 -33.7216 -33.7164 -33.7156
   -33.7079 -33.7076 -33.7057 -33.7042 -33.7012  -5.2555  -4.8663  -4.6856
    -1.8888  -1.7722  -1.6866  -1.3900  -1.3685  -1.2954  -1.1731  -1.1600
    -1.0871  -1.0857  -1.0393  -0.8252  -0.6913  -0.6053  -0.5552  -0.5500
    -0.4173  -0.1449  -0.1367  -0.1045  -0.0771   0.0674   0.1573   0.2746
     5.3414   5.6284   5.7247   6.2829   6.8029   6.8505   6.8700   7.1737
     7.2088   7.3495   7.5068   7.7066   7.7889   7.8779

          k =-1.0383 0.0025-0.8356 ( 16498 PWs)   bands (ev):

   -76.6792 -76.6187 -76.6132 -72.7879 -39.8991 -39.8704 -39.8583 -38.6056
   -38.5607 -38.5177 -38.5134 -38.5051 -38.5049 -38.4948 -38.4925 -38.4909
   -33.8255 -33.8222 -33.8078 -33.7924 -33.7613 -33.7571 -33.7457 -33.7397
   -33.7350 -33.7290 -33.7254 -33.7231 -33.7229 -33.7216 -33.7163 -33.7156
   -33.7081 -33.7076 -33.7057 -33.7044 -33.7012  -4.7884  -4.7083  -4.6532
    -2.3454  -1.8927  -1.6257  -1.5632  -1.5575  -1.4241  -1.2593  -1.2129
    -1.1936  -1.1906  -1.1294  -0.8581  -0.8575  -0.6472  -0.6420  -0.5451
    -0.3149  -0.2849  -0.1122   0.0919   0.1419   0.1782   0.2043   0.4320
     5.6570   5.8613   5.9635   6.1251   6.1824   6.4379   6.9077   7.2476
     7.2970   7.5569   7.5995   7.6248   7.9947   8.3041

     the Fermi energy is     5.4760 ev

!    total energy              =   -4360.79484540 Ry
     Harris-Foulkes estimate   =   -4360.79484540 Ry
     estimated scf accuracy    <          1.5E-09 Ry

     The total energy is the sum of the following terms:

     one-electron contribution =   -3261.19582819 Ry
     hartree contribution      =    1632.27313588 Ry
     xc contribution           =    -317.67031757 Ry
     ewald contribution        =    -765.40823743 Ry
     one-center paw contrib.   =   -1648.79281829 Ry
     smearing contrib. (-TS)   =      -0.00077981 Ry

     convergence has been achieved in  14 iterations

     Forces acting on atoms (cartesian axes, Ry/au):

     atom    1 type  2   force =    -0.00095619    0.00100474   -0.00000271
     atom    2 type  3   force =     0.00013109   -0.00104439   -0.00011355
     atom    3 type  2   force =    -0.00125696   -0.00106394    0.00006389
     atom    4 type  2   force =    -0.00029584    0.00073353   -0.00003109
     atom    5 type  2   force =     0.00009030    0.00010663   -0.00003100
     atom    6 type  2   force =    -0.00015951    0.00005476    0.00001059
     atom    7 type  4   force =    -0.00008379   -0.00068431   -0.00009887
     atom    8 type  4   force =     0.00030049    0.00063571    0.00011828
     atom    9 type  4   force =    -0.00009714    0.00002422    0.00007146
     atom   10 type  1   force =     0.00024788    0.00027346    0.00035503
     atom   11 type  1   force =    -0.00103884   -0.00091821   -0.00060573
     atom   12 type  1   force =     0.00100879    0.00003712   -0.00188041
     atom   13 type  1   force =     0.00121265    0.00010058    0.00192531
     atom   14 type  1   force =     0.00090991   -0.00000333    0.00177287
     atom   15 type  1   force =     0.00017772    0.00037761   -0.00017239
     atom   16 type  1   force =    -0.00097192   -0.00094613    0.00056353
     atom   17 type  1   force =     0.00007739   -0.00056071    0.00040470
     atom   18 type  1   force =    -0.00021368    0.00041458   -0.00109494
     atom   19 type  1   force =     0.00001075    0.00095080   -0.00009181
     atom   20 type  1   force =     0.00027071   -0.00103735    0.00009714
     atom   21 type  1   force =     0.00087991   -0.00154018    0.00006312
     atom   22 type  1   force =     0.00021759    0.00096776   -0.00076122
     atom   23 type  1   force =     0.00000524   -0.00000008    0.00124135
     atom   24 type  1   force =     0.00039840    0.00015158   -0.00093932
     atom   25 type  1   force =     0.00035494    0.00012500    0.00097554
     atom   26 type  1   force =     0.00012459    0.00009717   -0.00111968
     atom   27 type  1   force =     0.00008576    0.00109933    0.00069847
     atom   28 type  1   force =     0.00020703   -0.00041217    0.00006736
     atom   29 type  1   force =    -0.00026704   -0.00038032   -0.00001842
     atom   30 type  1   force =    -0.00060548    0.00146796   -0.00001118
     atom   31 type  1   force =    -0.00132081   -0.00134771    0.00006423
     atom   32 type  1   force =    -0.00052119    0.00054129   -0.00005672
     atom   33 type  1   force =    -0.00006958    0.00060093    0.00000141
     atom   34 type  1   force =     0.00123268    0.00016494   -0.00194840
     atom   35 type  1   force =     0.00019124   -0.00048732   -0.00052155
     atom   36 type  1   force =    -0.00027711    0.00049644    0.00100473

     Total force =     0.007491     Total SCF correction =     0.000276


     Computing stress (Cartesian axis) and pressure

          total   stress  (Ry/bohr**3)                   (kbar)     P=   -0.62
  -0.00000130   0.00000100   0.00000015         -0.19      0.15      0.02
   0.00000100  -0.00000293  -0.00000003          0.15     -0.43     -0.00
   0.00000015  -0.00000003  -0.00000843          0.02     -0.00     -1.24


     number of scf cycles    =  50
     number of bfgs steps    =  49

     enthalpy old            =   -4360.7947648395 Ry
     enthalpy new            =   -4360.7948454028 Ry

     CASE: enthalpy_new < enthalpy_old

     new trust radius        =       0.0297369832 bohr
     new conv_thr            =       0.0000000100 Ry

     new unit-cell volume =   2655.37125 a.u.^3 (   393.48542 Ang^3 )
     density =      0.15192 g/cm^3

CELL_PARAMETERS (angstrom)
   4.409547437  -8.066558836   0.002632513
   4.456258455   8.093390426   0.003207739
   0.003509856   0.000237182   5.492934346

ATOMIC_POSITIONS (angstrom)
K        1.098628866   2.118169053   2.748716672
Mg       6.481026035  -0.024298952   2.735656856
K        1.074663915  -2.116018921   2.748188210
K        2.781020169   4.761608725   0.001169818
K        3.571783940   0.013870013   0.001463823
K        2.753537147  -4.712090012   0.000572563
Re       4.594090564  -2.444988707   2.748421886
Re       4.624791840   2.468625722   2.748774479
Re      -0.316903725   0.005864474   0.003986204
H        5.036323992  -3.590103306   3.937371449
H        5.325563504  -1.437785745   3.953274083
H        3.497045618  -2.349908582   4.056377036
H        3.518427739   2.372802653   1.449207353
H        3.495937597  -2.350885544   1.441734087
H        5.034789064  -3.593338045   1.559792551
H        5.322016783  -1.439534213   1.539650271
H        5.057298109   3.614464036   3.942324090
H        5.354560839   1.455266290   3.942930297
H        0.450734278  -1.511730498   0.001821160
H        6.812386750  -0.017670056   0.012151710
H        0.499136208   1.493844701   0.001301394
H        3.489965641  -7.043592808   1.258505329
H        0.926973318   0.003094637   4.331242404
H        3.526089972   7.117833415   4.192732093
H        3.529827050   7.113568464   1.314657416
H        0.928148859   0.002505851   1.164349440
H        3.489643319  -7.048174696   4.248986839
H        3.532921819   3.762057854   2.749487988
H        6.287514924   2.721619391   2.748093008
H        3.796731295   1.006673732   2.748932826
H        3.770675753  -0.979675202   2.748354878
H        6.264687933  -2.674746604   2.748538920
H        3.501580563  -3.733967942   2.749433054
H        3.519861311   2.371688838   4.049357621
H        5.054601023   3.615765742   1.557242547
H        5.351886452   1.455102210   1.550353866



     Writing output data file K5MgReH93.save
     NEW-OLD atomic charge density approx. for the potential
     extrapolated charge  128.71418, renormalised to  129.00000

     Writing output data file K5MgReH93.save

     init_run     :    208.38s CPU    170.30s WALL (       1 calls)
     electrons    :  89086.73s CPU  21640.88s WALL (      50 calls)
     update_pot   :  10247.73s CPU  10196.29s WALL (      50 calls)
     forces       :   6387.77s CPU   5246.94s WALL (      50 calls)
     stress       :  17419.59s CPU  14954.04s WALL (      50 calls)

     Called by init_run:
     wfcinit      :     40.92s CPU     11.02s WALL (       1 calls)
     potinit      :     59.12s CPU     57.89s WALL (       1 calls)

     Called by electrons:
     c_bands      :  53591.25s CPU  14151.06s WALL (     595 calls)
     sum_band     :  26289.16s CPU   4808.02s WALL (     595 calls)
     v_of_rho     :    615.25s CPU    362.11s WALL (     645 calls)
     newd         :   7893.97s CPU   1913.69s WALL (     645 calls)
     PAW_pot      :   1455.66s CPU    611.18s WALL (     695 calls)
     mix_rho      :     67.20s CPU     36.54s WALL (     595 calls)

     Called by c_bands:
     init_us_2    :    272.09s CPU    171.77s WALL (   10728 calls)
     cegterg      :  52956.67s CPU  13496.48s WALL (    4760 calls)

     Called by sum_band:
     sum_band:bec :     34.95s CPU     18.73s WALL (    5160 calls)
     addusdens    :  17922.06s CPU   2409.50s WALL (     595 calls)

     Called by *egterg:
     h_psi        :  31527.12s CPU   8714.43s WALL (   20845 calls)
     s_psi        :   5458.73s CPU    664.26s WALL (   20845 calls)
     g_psi        :     35.67s CPU     22.05s WALL (   16077 calls)
     cdiaghg      :   2062.95s CPU   1946.32s WALL (   20437 calls)

     Called by h_psi:
     h_psi:pot    :  31463.33s CPU   8665.95s WALL (   20845 calls)
     h_psi:calbec :   5074.44s CPU    591.58s WALL (   20845 calls)
     vloc_psi     :  21778.91s CPU   7533.70s WALL (   20845 calls)
     add_vuspsi   :   4609.33s CPU    540.59s WALL (   20845 calls)

     General routines
     calbec       :   8216.48s CPU    901.19s WALL (   28005 calls)
     fft          :    468.08s CPU    159.01s WALL (   11422 calls)
     ffts         :     18.08s CPU      6.08s WALL (    1240 calls)
     fftw         :  21500.73s CPU   5245.41s WALL ( 2287064 calls)
     interpolate  :     75.95s CPU     30.63s WALL (    1240 calls)
     davcio       :      0.05s CPU      0.12s WALL (       8 calls)

     Parallel routines
     fft_scatter  :    350.98s CPU   1378.76s WALL ( 2299726 calls)

     PWSCF        :     1d   10h30m CPU        0d   14h33m WALL


   This run was terminated on:   2:22:47  21Dec2025            

=------------------------------------------------------------------------------=
   JOB DONE.
=------------------------------------------------------------------------------=
