
     Program PWSCF v.6.7MaX starts on 26Feb2026 at 19:23:26 

     This program is part of the open-source Quantum ESPRESSO suite
     for quantum simulation of materials; please cite
         "P. Giannozzi et al., J. Phys.:Condens. Matter 21 395502 (2009);
         "P. Giannozzi et al., J. Phys.:Condens. Matter 29 465901 (2017);
          URL http://www.quantum-espresso.org", 
     in publications or presentations arising from this work. More details at
     http://www.quantum-espresso.org/quote

     Parallel version (MPI), running on     2 processors

     MPI processes distributed on     1 nodes
     R & G space division:  proc/nbgrp/npool/nimage =       2
     Waiting for input...
     Reading input from standard input

     Current dimensions of program PWSCF are:
     Max number of different atomic species (ntypx) = 10
     Max number of k-points (npk) =  40000
     Max angular momentum in pseudopotentials (lmaxx) =  3
     file H.UPF: wavefunction(s)  1S renormalized

     Subspace diagonalization in iterative solution of the eigenvalue problem:
     a serial algorithm will be used


     Parallelization info
     --------------------
     sticks:   dense  smooth     PW     G-vecs:    dense   smooth      PW
     Min        1719     858    250                86697    30653    4731
     Max        1720     859    251                86698    30654    4732
     Sum        3439    1717    501               173395    61307    9463



     bravais-lattice index     =            0
     lattice parameter (alat)  =       9.2568  a.u.
     unit-cell volume          =    1284.0507 (a.u.)^3
     number of atoms/cell      =           20
     number of atomic types    =            4
     number of electrons       =        33.00
     number of Kohn-Sham states=           21
     kinetic-energy cutoff     =      50.0000  Ry
     charge density cutoff     =     400.0000  Ry
     scf convergence threshold =      1.0E-06
     mixing beta               =       0.7000
     number of iterations used =            8  plain     mixing
     energy convergence thresh.=      1.0E-04
     force convergence thresh. =      1.0E-03
     press convergence thresh. =      5.0E-01
     Exchange-correlation= SLA  PW   PBE  PBE
                           (   1   4   3   4   0   0   0)
     nstep                     =           50


     celldm(1)=   9.256795  celldm(2)=   0.000000  celldm(3)=   0.000000
     celldm(4)=   0.000000  celldm(5)=   0.000000  celldm(6)=   0.000000

     crystal axes: (cart. coord. in units of alat)
               a(1) = (  -0.998680   0.033520  -0.038919 )  
               a(2) = (   0.064526   1.258753   0.012549 )  
               a(3) = (  -0.048679  -0.142934  -1.288591 )  

     reciprocal axes: (cart. coord. in units 2 pi/alat)
               b(1) = ( -1.000864  0.050986  0.032154 )  
               b(2) = (  0.030118  0.793782 -0.089187 )  
               b(3) = (  0.030522  0.006190 -0.777881 )  


     PseudoPot. # 1 for B  read from file:
     /home/marco/ZOS_Cloud_Compute/pseudo/B.UPF
     MD5 check sum: d9c678ba5d3b2fd7b74e61139c9288d8
     Pseudo is Projector augmented-wave + core cor, Zval =  3.0
     Generated using "atomic" code by A. Dal Corso  v.5.1.2
     Shape of augmentation charge: PSQ
     Using radial grid of 1059 points,  4 beta functions with: 
                l(1) =   0
                l(2) =   0
                l(3) =   1
                l(4) =   1
     Q(r) pseudized with 0 coefficients 


     PseudoPot. # 2 for H  read from file:
     /home/marco/ZOS_Cloud_Compute/pseudo/H.UPF
     MD5 check sum: 850d63dcbcc06c5de8b44e0ab9f952da
     Pseudo is Projector augmented-wave, Zval =  1.0
     Generated using "atomic" code by A. Dal Corso  v.5.1.2
     Shape of augmentation charge: PSQ
     Using radial grid of  929 points,  2 beta functions with: 
                l(1) =   0
                l(2) =   0
     Q(r) pseudized with 0 coefficients 


     PseudoPot. # 3 for Li read from file:
     /home/marco/ZOS_Cloud_Compute/pseudo/Li.UPF
     MD5 check sum: 057edeeab9105e5446fd9e29ea3f9c2f
     Pseudo is Ultrasoft + core correction, Zval =  1.0
     Generated by new atomic code, or converted to UPF format
     Using radial grid of  751 points,  2 beta functions with: 
                l(1) =   1
                l(2) =   1
     Q(r) pseudized with  8 coefficients,  rinner =    1.000   1.000   1.000


     PseudoPot. # 4 for Sr read from file:
     /home/marco/ZOS_Cloud_Compute/pseudo/Sr.UPF
     MD5 check sum: 71c4688e601547c0814ef38edf55aea6
     Pseudo is Ultrasoft + core correction, Zval = 10.0
     Generated by new atomic code, or converted to UPF format
     Using radial grid of  883 points,  6 beta functions with: 
                l(1) =   0
                l(2) =   0
                l(3) =   1
                l(4) =   1
                l(5) =   2
                l(6) =   2
     Q(r) pseudized with  8 coefficients,  rinner =    1.200   1.200   1.200
                                                       1.200   1.200

     atomic species   valence    mass     pseudopotential
        B              3.00     1.00000     B ( 1.00)
        H              1.00     1.00000     H ( 1.00)
        Li             1.00     1.00000     Li( 1.00)
        Sr            10.00     1.00000     Sr( 1.00)

     No symmetry found



   Cartesian axes

     site n.     atom                  positions (alat units)
         1           Li  tau(   1) = (  -0.5974619   1.1940281  -1.0518681  )
         2           Li  tau(   2) = (  -0.6120274   0.6424092  -0.3481007  )
         3           Sr  tau(   3) = (  -0.1778448   0.8886343  -0.6945819  )
         4           Li  tau(   4) = (  -0.9319155   0.2694092  -0.6461457  )
         5           Li  tau(   5) = (  -0.2516507   0.3920792  -1.1434417  )
         6           Li  tau(   6) = (  -0.4891749   1.2917057  -0.3124076  )
         7           B   tau(   7) = (  -0.4427095   0.3410975  -0.6749387  )
         8           B   tau(   8) = (  -0.0630097   0.0021670  -1.2713388  )
         9           H   tau(   9) = (  -0.4212280   0.9115298  -0.1731092  )
        10           H   tau(  10) = (  -0.5560774   0.3253453  -0.9071327  )
        11           H   tau(  11) = (  -0.2417986  -0.1000693  -1.1233683  )
        12           H   tau(  12) = (  -0.3085231   0.1270395  -0.6242536  )
        13           H   tau(  13) = (  -0.9308655   0.2083654  -1.1756073  )
        14           H   tau(  14) = (  -0.8578154   0.6468053  -1.0203593  )
        15           H   tau(  15) = (   0.0668919   0.8361965  -0.2488390  )
        16           H   tau(  16) = (  -0.9160847   0.7557508  -1.1202086  )
        17           H   tau(  17) = (  -0.8068190   1.2551723  -0.1049251  )
        18           H   tau(  18) = (  -0.1308180   0.2802569  -0.1575138  )
        19           H   tau(  19) = (   0.0339795   0.6791167  -0.2712102  )
        20           H   tau(  20) = (  -0.6861138   1.0874960  -0.6988295  )

     number of k points=     8  Methfessel-Paxton smearing, width (Ry)=  0.0200
                       cart. coord. in units 2pi/alat
        k(    1) = (   0.0000000   0.0000000   0.0000000), wk =   0.2500000
        k(    2) = (  -0.0152612  -0.0030951   0.3889405), wk =   0.2500000
        k(    3) = (  -0.0150591  -0.3968912   0.0445933), wk =   0.2500000
        k(    4) = (  -0.0303203  -0.3999863   0.4335338), wk =   0.2500000
        k(    5) = (   0.5004318  -0.0254930  -0.0160771), wk =   0.2500000
        k(    6) = (   0.4851706  -0.0285881   0.3728634), wk =   0.2500000
        k(    7) = (   0.4853727  -0.4223841   0.0285161), wk =   0.2500000
        k(    8) = (   0.4701114  -0.4254792   0.4174567), wk =   0.2500000

     Dense  grid:   173395 G-vectors     FFT dimensions: (  60,  75,  80)

     Smooth grid:    61307 G-vectors     FFT dimensions: (  45,  54,  60)

     Estimated max dynamical RAM per process >     376.71 MB

     Estimated total dynamical RAM >     753.42 MB

     Initial potential from superposition of free atoms

     starting charge   32.94232, renormalised to   33.00000
     Starting wfcs are   53 randomized atomic wfcs
     Checking if some PAW data can be deallocated... 

     total cpu time spent up to now is       16.4 secs

     Self-consistent Calculation

     iteration #  1     ecut=    50.00 Ry     beta= 0.70
     Davidson diagonalization with overlap
     ethr =  1.00E-02,  avg # of iterations =  2.2

     total cpu time spent up to now is       21.6 secs

     total energy              =    -118.64226767 Ry
     estimated scf accuracy    <       1.52002726 Ry

     iteration #  2     ecut=    50.00 Ry     beta= 0.70
     Davidson diagonalization with overlap
     ethr =  4.61E-03,  avg # of iterations =  3.5

     total cpu time spent up to now is       26.8 secs

     total energy              =    -118.75891905 Ry
     estimated scf accuracy    <       1.47835353 Ry

     iteration #  3     ecut=    50.00 Ry     beta= 0.70
     Davidson diagonalization with overlap
     ethr =  4.48E-03,  avg # of iterations =  2.5

     total cpu time spent up to now is       31.6 secs

     total energy              =    -119.14485510 Ry
     estimated scf accuracy    <       0.09381984 Ry

     iteration #  4     ecut=    50.00 Ry     beta= 0.70
     Davidson diagonalization with overlap
     ethr =  2.84E-04,  avg # of iterations =  4.9

     total cpu time spent up to now is       36.9 secs

     total energy              =    -119.16112686 Ry
     estimated scf accuracy    <       0.02045973 Ry

     iteration #  5     ecut=    50.00 Ry     beta= 0.70
     Davidson diagonalization with overlap
     ethr =  6.20E-05,  avg # of iterations =  7.2

     total cpu time spent up to now is       42.4 secs

     total energy              =    -119.16453036 Ry
     estimated scf accuracy    <       0.00124407 Ry

     iteration #  6     ecut=    50.00 Ry     beta= 0.70
     Davidson diagonalization with overlap
     ethr =  3.77E-06,  avg # of iterations = 11.2

     total cpu time spent up to now is       49.5 secs

     total energy              =    -119.16514631 Ry
     estimated scf accuracy    <       0.00041033 Ry

     iteration #  7     ecut=    50.00 Ry     beta= 0.70
     Davidson diagonalization with overlap
     ethr =  1.24E-06,  avg # of iterations =  2.6

     total cpu time spent up to now is       54.2 secs

     total energy              =    -119.16517418 Ry
     estimated scf accuracy    <       0.00005818 Ry

     iteration #  8     ecut=    50.00 Ry     beta= 0.70
     Davidson diagonalization with overlap
     ethr =  1.76E-07,  avg # of iterations =  5.1

     total cpu time spent up to now is       59.6 secs

     total energy              =    -119.16519430 Ry
     estimated scf accuracy    <       0.00001299 Ry

     iteration #  9     ecut=    50.00 Ry     beta= 0.70
     Davidson diagonalization with overlap
     ethr =  3.94E-08,  avg # of iterations =  3.0

     total cpu time spent up to now is       64.3 secs

     End of self-consistent calculation

          k = 0.0000 0.0000 0.0000 (  7659 PWs)   bands (ev):

   -32.3033 -14.5313 -14.4425 -14.2581  -8.0099  -5.9355  -5.4503  -5.0414
    -3.1876  -2.7653  -2.6320  -1.6591  -0.5919   0.2902   1.7709   2.9067
     4.2581   4.8394   5.0441   5.4655   5.6985

          k =-0.0153-0.0031 0.3889 (  7674 PWs)   bands (ev):

   -32.3032 -14.5364 -14.4418 -14.2579  -7.9131  -5.8951  -5.8043  -4.9346
    -3.2319  -2.7184  -2.3424  -1.7749  -0.6221   0.2923   1.6496   2.8962
     4.3128   4.7637   5.3790   5.8222   6.1359

          k =-0.0151-0.3969 0.0446 (  7706 PWs)   bands (ev):

   -32.3032 -14.5312 -14.4450 -14.2624  -7.8228  -6.4067  -5.3742  -4.9632
    -2.8942  -2.7693  -2.5865  -1.7435  -0.6908   0.3378   1.8267   2.9080
     4.0770   4.4846   5.2618   5.8168   5.9931

          k =-0.0303-0.4000 0.4335 (  7660 PWs)   bands (ev):

   -32.3032 -14.5357 -14.4443 -14.2620  -7.7952  -6.2172  -5.5884  -5.1325
    -2.8450  -2.6424  -2.4618  -1.8229  -0.6500   0.2652   1.5489   2.9876
     4.6779   4.8401   4.9466   5.5253   5.9635

          k = 0.5004-0.0255-0.0161 (  7660 PWs)   bands (ev):

   -32.3023 -14.5277 -14.4729 -14.2693  -7.8705  -5.8642  -5.4652  -5.1075
    -3.2392  -3.0161  -2.4875  -1.8174  -0.5231   0.0519   1.7683   2.7442
     3.7253   4.7575   5.1244   5.4823   6.0072

          k = 0.4852-0.0286 0.3729 (  7650 PWs)   bands (ev):

   -32.3023 -14.5322 -14.4720 -14.2690  -7.8080  -5.8489  -5.4008  -5.3314
    -3.2678  -3.1559  -2.5441  -1.4463  -0.4770   0.1692   1.7868   2.6115
     3.8920   4.6404   5.4310   5.7131   6.1681

          k = 0.4854-0.4224 0.0285 (  7644 PWs)   bands (ev):

   -32.3023 -14.5276 -14.4742 -14.2741  -7.7081  -6.2609  -5.4296  -5.0501
    -3.1408  -2.6690  -2.5680  -1.9471  -0.6632   0.1739   1.7238   2.5848
     4.1044   4.5201   5.1973   5.8591   6.2904

          k = 0.4701-0.4255 0.4175 (  7654 PWs)   bands (ev):

   -32.3023 -14.5315 -14.4732 -14.2737  -7.6999  -6.1585  -5.4392  -5.1432
    -3.2628  -2.9632  -2.5622  -1.5053  -0.4894  -0.0355   1.8787   2.6428
     4.2807   4.7326   5.3502   5.9250   6.2145

     the Fermi energy is     4.1747 ev

!    total energy              =    -119.16519675 Ry
     estimated scf accuracy    <       0.00000034 Ry
     smearing contrib. (-TS)   =      -0.00058381 Ry
     internal energy E=F+TS    =    -119.16461293 Ry

     The total energy is F=E-TS. E is the sum of the following terms:
     one-electron contribution =     -32.18443976 Ry
     hartree contribution      =      24.53481527 Ry
     xc contribution           =     -44.65916652 Ry
     ewald contribution        =     -56.42492467 Ry
     one-center paw contrib.   =     -10.43089725 Ry

     convergence has been achieved in   9 iterations

     Forces acting on atoms (cartesian axes, Ry/au):

     atom    1 type  3   force =    -0.00516401    0.01026413    0.01000557
     atom    2 type  3   force =     0.00947510   -0.00388490    0.00160781
     atom    3 type  4   force =    -0.00011838    0.00393673    0.01782179
     atom    4 type  3   force =    -0.00344349    0.00160262    0.00021959
     atom    5 type  3   force =    -0.01367693    0.01304518    0.00581647
     atom    6 type  3   force =     0.00022980   -0.00670800   -0.01085925
     atom    7 type  1   force =     0.01432998    0.02932152    0.00014586
     atom    8 type  1   force =     0.00403535    0.00023939    0.00296157
     atom    9 type  2   force =     0.00499979    0.00788565   -0.00726217
     atom   10 type  2   force =     0.00113013   -0.01270497    0.00070978
     atom   11 type  2   force =    -0.00139004   -0.00309041   -0.00451383
     atom   12 type  2   force =    -0.00162125   -0.01209264   -0.00002797
     atom   13 type  2   force =     0.00508683   -0.01047569    0.00108883
     atom   14 type  2   force =    -0.00066724    0.00799248   -0.00714193
     atom   15 type  2   force =     0.00371224   -0.00051693    0.00204248
     atom   16 type  2   force =     0.00566529   -0.01066922   -0.00335981
     atom   17 type  2   force =    -0.00363363    0.00175149    0.00742894
     atom   18 type  2   force =    -0.00214188   -0.00651026   -0.00867114
     atom   19 type  2   force =    -0.01129077   -0.00071152   -0.00565074
     atom   20 type  2   force =    -0.00551689   -0.00867465   -0.00236184

     Total force =     0.060891     Total SCF correction =     0.000635


     Computing stress (Cartesian axis) and pressure

          total   stress  (Ry/bohr**3)                   (kbar)     P=       48.83
   0.00031821   0.00005823  -0.00003948           46.81        8.57       -5.81
   0.00005823   0.00035877   0.00005394            8.57       52.78        7.93
  -0.00003948   0.00005394   0.00031886           -5.81        7.93       46.91


     BFGS Geometry Optimization
     Energy error            =      0.0E+00
     Gradient error          =      2.9E-02
     Cell gradient error     =      3.6E-04


     number of scf cycles    =   1
     number of bfgs steps    =   0

     enthalpy new            =    -119.1651967464 Ry

     new trust radius        =       0.0658346961 bohr
     new conv_thr            =       0.0000010000 Ry

     new unit-cell volume =   1316.27776 a.u.^3 (   195.05224 Ang^3 )
     density =      0.17027 g/cm^3

CELL_PARAMETERS (angstrom)
  -4.930509072   0.158290318  -0.187116217
   0.327511664   6.221829397   0.069963001
  -0.235141507  -0.715301106  -6.363170715

ATOMIC_POSITIONS (angstrom)
Li           -2.9390925038        5.8956644134       -5.1775113717
Li           -3.0105431052        3.1663273576       -1.7107066125
Sr           -0.8684752360        4.3882630880       -3.4132827829
Li           -4.5980802433        1.3214734325       -3.1839611378
Li           -1.2414778105        1.9354313979       -5.6388564823
Li           -2.4044343000        6.3750122201       -1.5374227814
B            -2.1724966132        1.6938987233       -3.3280478073
B            -0.3027946318        0.0019958649       -6.2753815072
H            -2.0697802469        4.5052256785       -0.8505455802
H            -2.7383084904        1.5912537414       -4.4737919797
H            -1.1898936744       -0.5053837952       -5.5485703227
H            -1.5202689617        0.6151011506       -3.0799652870
H            -4.5862317312        1.0098377412       -5.7981536898
H            -4.2262248375        3.1881886751       -5.0334424780
H             0.3394199815        4.1313965588       -1.2223634375
H            -4.5093055928        3.7156118721       -5.5234493605
H            -3.9761147913        6.1980814271       -0.5019136312
H            -0.6442908091        1.3796901924       -0.7798746603
H             0.1679059468        3.3545387143       -1.3377963458
H            -3.3794699171        5.3607167886       -3.4412568431



     Writing output data file ./tmp/SrLi5BH62.save/
     NEW-OLD atomic charge density approx. for the potential
     extrapolated charge   33.80654, renormalised to   33.00000

     total cpu time spent up to now is      116.5 secs

     Self-consistent Calculation

     iteration #  1     ecut=    50.00 Ry     beta= 0.70
     Davidson diagonalization with overlap
     c_bands:  1 eigenvalues not converged
     c_bands:  1 eigenvalues not converged
     c_bands:  1 eigenvalues not converged
     c_bands:  1 eigenvalues not converged
     c_bands:  1 eigenvalues not converged
     ethr =  1.00E-06,  avg # of iterations = 18.4

     total cpu time spent up to now is      127.8 secs

     total energy              =    -119.14953107 Ry
     estimated scf accuracy    <       0.02023827 Ry

     iteration #  2     ecut=    50.00 Ry     beta= 0.70
     Davidson diagonalization with overlap
     ethr =  6.13E-05,  avg # of iterations = 11.1

     total cpu time spent up to now is      135.0 secs

     total energy              =    -119.17629814 Ry
     estimated scf accuracy    <       0.06314239 Ry

     iteration #  3     ecut=    50.00 Ry     beta= 0.70
     Davidson diagonalization with overlap
     ethr =  6.13E-05,  avg # of iterations =  2.2

     total cpu time spent up to now is      139.7 secs

     total energy              =    -119.17886315 Ry
     estimated scf accuracy    <       0.01042966 Ry

     iteration #  4     ecut=    50.00 Ry     beta= 0.70
     Davidson diagonalization with overlap
     ethr =  3.16E-05,  avg # of iterations =  3.1

     total cpu time spent up to now is      144.3 secs

     total energy              =    -119.17762525 Ry
     estimated scf accuracy    <       0.00506748 Ry

     iteration #  5     ecut=    50.00 Ry     beta= 0.70
     Davidson diagonalization with overlap
     ethr =  1.54E-05,  avg # of iterations =  6.9

     total cpu time spent up to now is      149.8 secs

     total energy              =    -119.17820472 Ry
     estimated scf accuracy    <       0.00064145 Ry

     iteration #  6     ecut=    50.00 Ry     beta= 0.70
     Davidson diagonalization with overlap
     ethr =  1.94E-06,  avg # of iterations =  8.6

     total cpu time spent up to now is      155.8 secs

     total energy              =    -119.17834748 Ry
     estimated scf accuracy    <       0.00011602 Ry

     iteration #  7     ecut=    50.00 Ry     beta= 0.70
     Davidson diagonalization with overlap
     ethr =  3.52E-07,  avg # of iterations =  3.5

     total cpu time spent up to now is      160.6 secs

     total energy              =    -119.17832547 Ry
     estimated scf accuracy    <       0.00006188 Ry

     iteration #  8     ecut=    50.00 Ry     beta= 0.70
     Davidson diagonalization with overlap
     ethr =  1.88E-07,  avg # of iterations =  4.5

     total cpu time spent up to now is      166.0 secs

     total energy              =    -119.17834628 Ry
     estimated scf accuracy    <       0.00000290 Ry

     iteration #  9     ecut=    50.00 Ry     beta= 0.70
     Davidson diagonalization with overlap
     ethr =  8.80E-09,  avg # of iterations =  5.1

     total cpu time spent up to now is      171.4 secs

     total energy              =    -119.17834649 Ry
     estimated scf accuracy    <       0.00000130 Ry

     iteration # 10     ecut=    50.00 Ry     beta= 0.70
     Davidson diagonalization with overlap
     ethr =  3.94E-09,  avg # of iterations =  2.5

     total cpu time spent up to now is      176.2 secs

     End of self-consistent calculation

          k = 0.0000 0.0000 0.0000 (  7659 PWs)   bands (ev):

   -32.5018 -14.7123 -14.6300 -14.4474  -8.0242  -6.0046  -5.4980  -5.1354
    -3.2393  -2.8268  -2.6871  -1.7077  -0.7011   0.1748   1.6127   2.7663
     4.1012   4.7125   4.8805   5.2843   5.5257

          k =-0.0148-0.0036 0.3859 (  7674 PWs)   bands (ev):

   -32.5018 -14.7166 -14.6294 -14.4472  -7.9331  -5.9300  -5.8825  -5.0248
    -3.2770  -2.7835  -2.4150  -1.8149  -0.7305   0.1783   1.4990   2.7483
     4.1762   4.6023   5.2123   5.6604   5.9516

          k =-0.0143-0.3934 0.0448 (  7706 PWs)   bands (ev):

   -32.5018 -14.7122 -14.6320 -14.4511  -7.8451  -6.4529  -5.4368  -5.0487
    -2.9512  -2.8281  -2.6567  -1.7972  -0.7912   0.2236   1.6691   2.7646
     3.9283   4.3302   5.0917   5.6622   5.7794

          k =-0.0291-0.3970 0.4306 (  7660 PWs)   bands (ev):

   -32.5018 -14.7160 -14.6314 -14.4508  -7.8182  -6.2717  -5.6462  -5.2064
    -2.9040  -2.7200  -2.5323  -1.8580  -0.7614   0.1536   1.4042   2.8382
     4.5220   4.7021   4.7717   5.3606   5.7781

          k = 0.4965-0.0260-0.0154 (  7660 PWs)   bands (ev):

   -32.5010 -14.7093 -14.6574 -14.4572  -7.8891  -5.9332  -5.5132  -5.1988
    -3.2860  -3.0749  -2.5521  -1.8605  -0.6340  -0.0529   1.6308   2.5652
     3.5800   4.6140   4.9812   5.3117   5.7952

          k = 0.4817-0.0295 0.3704 (  7650 PWs)   bands (ev):

   -32.5010 -14.7130 -14.6567 -14.4570  -7.8307  -5.9086  -5.4618  -5.4065
    -3.3177  -3.2182  -2.5993  -1.5011  -0.5904   0.0570   1.6406   2.4469
     3.7535   4.5019   5.2805   5.5291   5.9618

          k = 0.4822-0.4194 0.0293 (  7644 PWs)   bands (ev):

   -32.5010 -14.7093 -14.6584 -14.4614  -7.7338  -6.3116  -5.4783  -5.1432
    -3.1916  -2.7562  -2.6187  -1.9849  -0.7712   0.0641   1.5703   2.4266
     3.9526   4.3748   5.0331   5.6646   6.0993

          k = 0.4674-0.4229 0.4152 (  7654 PWs)   bands (ev):

   -32.5010 -14.7126 -14.6577 -14.4610  -7.7255  -6.2126  -5.4972  -5.2229
    -3.3121  -3.0234  -2.6262  -1.5572  -0.6049  -0.1446   1.7157   2.4801
     4.1181   4.5917   5.1899   5.7456   6.0252

     the Fermi energy is     4.0226 ev

!    total energy              =    -119.17834674 Ry
     estimated scf accuracy    <       0.00000002 Ry
     smearing contrib. (-TS)   =      -0.00063766 Ry
     internal energy E=F+TS    =    -119.17770908 Ry

     The total energy is F=E-TS. E is the sum of the following terms:
     one-electron contribution =     -32.95010409 Ry
     hartree contribution      =      24.72907833 Ry
     xc contribution           =     -44.57197090 Ry
     ewald contribution        =     -55.95315868 Ry
     one-center paw contrib.   =     -10.43155374 Ry

     convergence has been achieved in  10 iterations

     Forces acting on atoms (cartesian axes, Ry/au):

     atom    1 type  3   force =    -0.00526018    0.00992166    0.00986790
     atom    2 type  3   force =     0.00856463   -0.00333098    0.00134706
     atom    3 type  4   force =     0.00099821    0.00275251    0.01589820
     atom    4 type  3   force =    -0.00322000    0.00209319    0.00012785
     atom    5 type  3   force =    -0.01239450    0.01064761    0.00549674
     atom    6 type  3   force =     0.00005271   -0.00628637   -0.01057969
     atom    7 type  1   force =     0.01489224    0.01780045   -0.00353430
     atom    8 type  1   force =    -0.00040255    0.00258824    0.00248212
     atom    9 type  2   force =     0.00421563    0.00661271   -0.00833416
     atom   10 type  2   force =     0.00352246   -0.01137361    0.00647916
     atom   11 type  2   force =     0.00353554   -0.00033184   -0.00721336
     atom   12 type  2   force =    -0.00618660   -0.00262389   -0.00128093
     atom   13 type  2   force =     0.00111149   -0.01308380   -0.00183181
     atom   14 type  2   force =     0.00066852    0.00547042   -0.00462721
     atom   15 type  2   force =     0.00168656   -0.00845151    0.00029074
     atom   16 type  2   force =     0.00369624   -0.00713388   -0.00468686
     atom   17 type  2   force =    -0.00487088    0.00520613    0.00890837
     atom   18 type  2   force =     0.00185199   -0.00942325   -0.00174437
     atom   19 type  2   force =    -0.00747902    0.00673910   -0.00421326
     atom   20 type  2   force =    -0.00498251   -0.00779289   -0.00285221

     Total force =     0.053399     Total SCF correction =     0.000105


     Computing stress (Cartesian axis) and pressure

          total   stress  (Ry/bohr**3)                   (kbar)     P=       36.30
   0.00023563   0.00005661  -0.00003469           34.66        8.33       -5.10
   0.00005661   0.00026235   0.00004868            8.33       38.59        7.16
  -0.00003469   0.00004868   0.00024235           -5.10        7.16       35.65

     Energy error            =      1.3E-02
     Gradient error          =      1.8E-02
     Cell gradient error     =      2.6E-04


     number of scf cycles    =   2
     number of bfgs steps    =   1

     enthalpy old            =    -119.1651967464 Ry
     enthalpy new            =    -119.1783467357 Ry

     CASE: enthalpy_new < enthalpy_old

     new trust radius        =       0.0726161637 bohr
     new conv_thr            =       0.0000001780 Ry

     new unit-cell volume =   1352.41257 a.u.^3 (   200.40687 Ang^3 )
     density =      0.16572 g/cm^3

CELL_PARAMETERS (angstrom)
  -4.972729267   0.149761709  -0.182437116
   0.342545192   6.282696320   0.080848812
  -0.230755178  -0.733595252  -6.420616869

ATOMIC_POSITIONS (angstrom)
Li           -2.9505277546        5.9454998591       -5.2022404623
Li           -3.0217387920        3.1854813048       -1.7157480261
Sr           -0.8625322762        4.4253458647       -3.4227639271
Li           -4.6338827910        1.3212192317       -3.2041905830
Li           -1.2509652001        1.9503012416       -5.6798308473
Li           -2.4107526226        6.4243587922       -1.5452402725
B            -2.1726171455        1.7150186557       -3.3542854587
B            -0.2975229540       -0.0076283300       -6.3287991369
H            -2.0744789611        4.5483366587       -0.8540080943
H            -2.7510485774        1.5848013052       -4.5031717540
H            -1.1922068851       -0.5226913539       -5.6024297332
H            -1.5326565983        0.6097429518       -3.1052269221
H            -4.6156570392        0.9909350631       -5.8433909859
H            -4.2499912691        3.2064031177       -5.0712225902
H             0.3534837942        4.1643094236       -1.2261775319
H            -4.5312922147        3.7273341691       -5.5640189490
H            -4.0013072058        6.2528353544       -0.4842386194
H            -0.6452409204        1.3835625563       -0.7857224205
H             0.1716031821        3.3892634660       -1.3474339631
H            -3.3978087056        5.3938884440       -3.4605859909



     Writing output data file ./tmp/SrLi5BH62.save/
     NEW-OLD atomic charge density approx. for the potential
     extrapolated charge   33.88018, renormalised to   33.00000

     total cpu time spent up to now is      228.4 secs

     Self-consistent Calculation

     iteration #  1     ecut=    50.00 Ry     beta= 0.70
     Davidson diagonalization with overlap
     c_bands:  1 eigenvalues not converged
     c_bands:  2 eigenvalues not converged
     c_bands:  1 eigenvalues not converged
     c_bands:  1 eigenvalues not converged
     c_bands:  1 eigenvalues not converged
     c_bands:  1 eigenvalues not converged
     ethr =  1.00E-06,  avg # of iterations = 18.5

     total cpu time spent up to now is      240.0 secs

     total energy              =    -119.15716695 Ry
     estimated scf accuracy    <       0.02264255 Ry

     iteration #  2     ecut=    50.00 Ry     beta= 0.70
     Davidson diagonalization with overlap
     ethr =  6.86E-05,  avg # of iterations = 10.1

     total cpu time spent up to now is      247.1 secs

     total energy              =    -119.18824761 Ry
     estimated scf accuracy    <       0.07296848 Ry

     iteration #  3     ecut=    50.00 Ry     beta= 0.70
     Davidson diagonalization with overlap
     ethr =  6.86E-05,  avg # of iterations =  2.8

     total cpu time spent up to now is      251.9 secs

     total energy              =    -119.19116319 Ry
     estimated scf accuracy    <       0.01236044 Ry

     iteration #  4     ecut=    50.00 Ry     beta= 0.70
     Davidson diagonalization with overlap
     ethr =  3.75E-05,  avg # of iterations =  2.0

     total cpu time spent up to now is      256.3 secs

     total energy              =    -119.18931682 Ry
     estimated scf accuracy    <       0.00636302 Ry

     iteration #  5     ecut=    50.00 Ry     beta= 0.70
     Davidson diagonalization with overlap
     ethr =  1.93E-05,  avg # of iterations =  6.4

     total cpu time spent up to now is      261.7 secs

     total energy              =    -119.19018950 Ry
     estimated scf accuracy    <       0.00056901 Ry

     iteration #  6     ecut=    50.00 Ry     beta= 0.70
     Davidson diagonalization with overlap
     ethr =  1.72E-06,  avg # of iterations =  8.6

     total cpu time spent up to now is      267.9 secs

     total energy              =    -119.19039651 Ry
     estimated scf accuracy    <       0.00006825 Ry

     iteration #  7     ecut=    50.00 Ry     beta= 0.70
     Davidson diagonalization with overlap
     ethr =  2.07E-07,  avg # of iterations =  2.8

     total cpu time spent up to now is      272.7 secs

     total energy              =    -119.19034731 Ry
     estimated scf accuracy    <       0.00012173 Ry

     iteration #  8     ecut=    50.00 Ry     beta= 0.70
     Davidson diagonalization with overlap
     ethr =  2.07E-07,  avg # of iterations =  3.8

     total cpu time spent up to now is      278.0 secs

     total energy              =    -119.19036764 Ry
     estimated scf accuracy    <       0.00000306 Ry

     iteration #  9     ecut=    50.00 Ry     beta= 0.70
     Davidson diagonalization with overlap
     ethr =  9.28E-09,  avg # of iterations =  5.6

     total cpu time spent up to now is      284.0 secs

     total energy              =    -119.19036949 Ry
     estimated scf accuracy    <       0.00000322 Ry

     iteration # 10     ecut=    50.00 Ry     beta= 0.70
     Davidson diagonalization with overlap
     ethr =  9.28E-09,  avg # of iterations =  2.0

     total cpu time spent up to now is      288.5 secs

     total energy              =    -119.19036961 Ry
     estimated scf accuracy    <       0.00000037 Ry

     iteration # 11     ecut=    50.00 Ry     beta= 0.70
     Davidson diagonalization with overlap
     ethr =  1.12E-09,  avg # of iterations =  4.8

     total cpu time spent up to now is      293.8 secs

     End of self-consistent calculation

          k = 0.0000 0.0000 0.0000 (  7659 PWs)   bands (ev):

   -32.7206 -14.9134 -14.8369 -14.6560  -8.0510  -6.1056  -5.5823  -5.2449
    -3.2878  -2.8917  -2.7566  -1.7737  -0.8259   0.0470   1.4497   2.6152
     3.9405   4.5768   4.7082   5.0886   5.3429

          k =-0.0142-0.0041 0.3824 (  7674 PWs)   bands (ev):

   -32.7206 -14.9169 -14.8365 -14.6558  -7.9657  -6.0201  -5.9657  -5.1366
    -3.3169  -2.8537  -2.5052  -1.8724  -0.8530   0.0510   1.3449   2.5889
     4.0376   4.4315   5.0296   5.4882   5.7474

          k =-0.0134-0.3897 0.0450 (  7706 PWs)   bands (ev):

   -32.7206 -14.9134 -14.8384 -14.6592  -7.8810  -6.5235  -5.5362  -5.1532
    -3.0047  -2.9028  -2.7340  -1.8673  -0.9072   0.0971   1.5050   2.6098
     3.7707   4.1750   4.9078   5.5108   5.6000

          k =-0.0275-0.3938 0.4275 (  7660 PWs)   bands (ev):

   -32.7206 -14.9165 -14.8380 -14.6590  -7.8554  -6.3519  -5.7361  -5.2990
    -2.9613  -2.8069  -2.6170  -1.9119  -0.8878   0.0299   1.2559   2.6757
     4.3574   4.5447   4.6066   5.1845   5.5873

          k = 0.4923-0.0267-0.0146 (  7660 PWs)   bands (ev):

   -32.7199 -14.9111 -14.8612 -14.6647  -7.9215  -6.0348  -5.5960  -5.3066
    -3.3228  -3.1437  -2.6334  -1.9184  -0.7571  -0.1685   1.4918   2.3729
     3.4366   4.4639   4.8336   5.1273   5.5702

          k = 0.4781-0.0308 0.3678 (  7650 PWs)   bands (ev):

   -32.7199 -14.9142 -14.8606 -14.6645  -7.8671  -6.0089  -5.5669  -5.4809
    -3.3624  -3.2832  -2.6689  -1.5772  -0.7161  -0.0662   1.4920   2.2726
     3.6122   4.3592   5.1233   5.3312   5.7356

          k = 0.4789-0.4163 0.0304 (  7644 PWs)   bands (ev):

   -32.7199 -14.9111 -14.8620 -14.6682  -7.7741  -6.3902  -5.5565  -5.2581
    -3.2412  -2.8503  -2.6848  -2.0368  -0.8914  -0.0571   1.4143   2.2563
     3.7960   4.2244   4.8550   5.4638   5.8917

          k = 0.4647-0.4205 0.4128 (  7654 PWs)   bands (ev):

   -32.7198 -14.9138 -14.8614 -14.6679  -7.7660  -6.2940  -5.5908  -5.3199
    -3.3667  -3.0835  -2.6996  -1.6290  -0.7333  -0.2630   1.5465   2.3047
     3.9549   4.4358   5.0193   5.5469   5.8282

     the Fermi energy is     3.8663 ev

!    total energy              =    -119.19036973 Ry
     estimated scf accuracy    <          8.1E-09 Ry
     smearing contrib. (-TS)   =      -0.00061143 Ry
     internal energy E=F+TS    =    -119.18975830 Ry

     The total energy is F=E-TS. E is the sum of the following terms:
     one-electron contribution =     -33.88681721 Ry
     hartree contribution      =      24.99676617 Ry
     xc contribution           =     -44.49428114 Ry
     ewald contribution        =     -55.37322636 Ry
     one-center paw contrib.   =     -10.43219976 Ry

     convergence has been achieved in  11 iterations

     Forces acting on atoms (cartesian axes, Ry/au):

     atom    1 type  3   force =    -0.00537322    0.00945821    0.00946391
     atom    2 type  3   force =     0.00788445   -0.00308625    0.00073123
     atom    3 type  4   force =     0.00172371    0.00170674    0.01307556
     atom    4 type  3   force =    -0.00306987    0.00260211   -0.00009617
     atom    5 type  3   force =    -0.01114051    0.00842116    0.00547627
     atom    6 type  3   force =    -0.00028198   -0.00572417   -0.00990275
     atom    7 type  1   force =     0.01354776    0.00940928   -0.00597452
     atom    8 type  1   force =    -0.00194556    0.00203711    0.00253191
     atom    9 type  2   force =     0.00348693    0.00512642   -0.00951037
     atom   10 type  2   force =     0.00515320   -0.00964314    0.01044640
     atom   11 type  2   force =     0.00657901    0.00160545   -0.00826450
     atom   12 type  2   force =    -0.00816036    0.00341254   -0.00156654
     atom   13 type  2   force =    -0.00217165   -0.01395876   -0.00377987
     atom   14 type  2   force =     0.00163736    0.00376400   -0.00277110
     atom   15 type  2   force =     0.00102750   -0.00920954   -0.00034262
     atom   16 type  2   force =     0.00204431   -0.00443253   -0.00527405
     atom   17 type  2   force =    -0.00547903    0.00803011    0.00987292
     atom   18 type  2   force =     0.00385510   -0.00987804    0.00246265
     atom   19 type  2   force =    -0.00489992    0.00711275   -0.00345393
     atom   20 type  2   force =    -0.00441724   -0.00675346   -0.00312445

     Total force =     0.050513     Total SCF correction =     0.000090


     Computing stress (Cartesian axis) and pressure

          total   stress  (Ry/bohr**3)                   (kbar)     P=       25.60
   0.00016240   0.00004998  -0.00002644           23.89        7.35       -3.89
   0.00004998   0.00018348   0.00004084            7.35       26.99        6.01
  -0.00002644   0.00004084   0.00017612           -3.89        6.01       25.91

     Energy error            =      1.2E-02
     Gradient error          =      1.4E-02
     Cell gradient error     =      1.8E-04


     number of scf cycles    =   3
     number of bfgs steps    =   2

     enthalpy old            =    -119.1783467357 Ry
     enthalpy new            =    -119.1903697293 Ry

     CASE: enthalpy_new < enthalpy_old

     new trust radius        =       0.1092262739 bohr
     new conv_thr            =       0.0000001396 Ry

     new unit-cell volume =   1407.51505 a.u.^3 (   208.57221 Ang^3 )
     density =      0.15923 g/cm^3

CELL_PARAMETERS (angstrom)
  -5.034859958   0.135119524  -0.175180590
   0.367263732   6.373382484   0.098587182
  -0.224072219  -0.762501808  -6.507877284

ATOMIC_POSITIONS (angstrom)
Li           -2.9661316716        6.0196532792       -5.2361740427
Li           -3.0348894768        3.2116925960       -1.7229961593
Sr           -0.8508414757        4.4793093247       -3.4346882112
Li           -4.6866280395        1.3192930304       -3.2346297703
Li           -1.2661582422        1.9715362350       -5.7399551213
Li           -2.4176029854        6.4950631235       -1.5579512035
B            -2.1686965669        1.7427377713       -3.3966770799
B            -0.2904440524       -0.0236824201       -6.4090312638
H            -2.0787663594        4.6119521629       -0.8615518097
H            -2.7665409724        1.5714671385       -4.5423511774
H            -1.1917431162       -0.5487365438       -5.6868919066
H            -1.5536983495        0.6046557016       -3.1438125958
H            -4.6607894551        0.9551473371       -5.9139271234
H            -4.2821970102        3.2307060077       -5.1273613320
H             0.3759808023        4.2107228662       -1.2316088900
H            -4.5620860241        3.7419064289       -5.6264370905
H            -4.0377201368        6.3366359174       -0.4528342580
H            -0.6439801526        1.3860451188       -0.7913392505
H             0.1786111962        3.4421089167       -1.3617978437
H            -3.4233446839        5.4396891370       -3.4897546708



     Writing output data file ./tmp/SrLi5BH62.save/
     NEW-OLD atomic charge density approx. for the potential
     extrapolated charge   34.28965, renormalised to   33.00000

     total cpu time spent up to now is      346.0 secs

     Self-consistent Calculation

     iteration #  1     ecut=    50.00 Ry     beta= 0.70
     Davidson diagonalization with overlap
     c_bands:  1 eigenvalues not converged
     c_bands:  2 eigenvalues not converged
     c_bands:  1 eigenvalues not converged
     c_bands:  1 eigenvalues not converged
     c_bands:  1 eigenvalues not converged
     c_bands:  1 eigenvalues not converged
     ethr =  1.00E-06,  avg # of iterations = 19.5

     total cpu time spent up to now is      358.8 secs

     total energy              =    -119.13565797 Ry
     estimated scf accuracy    <       0.04550077 Ry

     iteration #  2     ecut=    50.00 Ry     beta= 0.70
     Davidson diagonalization with overlap
     ethr =  1.38E-04,  avg # of iterations = 10.0

     total cpu time spent up to now is      365.8 secs

     total energy              =    -119.20111474 Ry
     estimated scf accuracy    <       0.14776933 Ry

     iteration #  3     ecut=    50.00 Ry     beta= 0.70
     Davidson diagonalization with overlap
     ethr =  1.38E-04,  avg # of iterations =  3.2

     total cpu time spent up to now is      370.6 secs

     total energy              =    -119.20611518 Ry
     estimated scf accuracy    <       0.02690658 Ry

     iteration #  4     ecut=    50.00 Ry     beta= 0.70
     Davidson diagonalization with overlap
     ethr =  8.15E-05,  avg # of iterations =  2.2

     total cpu time spent up to now is      375.1 secs

     total energy              =    -119.20219188 Ry
     estimated scf accuracy    <       0.01332795 Ry

     iteration #  5     ecut=    50.00 Ry     beta= 0.70
     Davidson diagonalization with overlap
     ethr =  4.04E-05,  avg # of iterations =  5.9

     total cpu time spent up to now is      380.4 secs

     total energy              =    -119.20401160 Ry
     estimated scf accuracy    <       0.00107230 Ry

     iteration #  6     ecut=    50.00 Ry     beta= 0.70
     Davidson diagonalization with overlap
     ethr =  3.25E-06,  avg # of iterations =  9.2

     total cpu time spent up to now is      386.7 secs

     total energy              =    -119.20437916 Ry
     estimated scf accuracy    <       0.00013998 Ry

     iteration #  7     ecut=    50.00 Ry     beta= 0.70
     Davidson diagonalization with overlap
     ethr =  4.24E-07,  avg # of iterations =  4.4

     total cpu time spent up to now is      391.5 secs

     total energy              =    -119.20434729 Ry
     estimated scf accuracy    <       0.00008953 Ry

     iteration #  8     ecut=    50.00 Ry     beta= 0.70
     Davidson diagonalization with overlap
     ethr =  2.71E-07,  avg # of iterations =  3.8

     total cpu time spent up to now is      396.9 secs

     total energy              =    -119.20437314 Ry
     estimated scf accuracy    <       0.00000347 Ry

     iteration #  9     ecut=    50.00 Ry     beta= 0.70
     Davidson diagonalization with overlap
     ethr =  1.05E-08,  avg # of iterations =  5.8

     total cpu time spent up to now is      402.7 secs

     total energy              =    -119.20437380 Ry
     estimated scf accuracy    <       0.00000275 Ry

     iteration # 10     ecut=    50.00 Ry     beta= 0.70
     Davidson diagonalization with overlap
     ethr =  8.34E-09,  avg # of iterations =  2.0

     total cpu time spent up to now is      407.4 secs

     total energy              =    -119.20437410 Ry
     estimated scf accuracy    <       0.00000021 Ry

     iteration # 11     ecut=    50.00 Ry     beta= 0.70
     Davidson diagonalization with overlap
     ethr =  6.51E-10,  avg # of iterations =  5.1

     total cpu time spent up to now is      412.6 secs

     End of self-consistent calculation

          k = 0.0000 0.0000 0.0000 (  7659 PWs)   bands (ev):

   -33.0397 -15.2088 -15.1393 -14.9611  -8.1004  -6.2593  -5.7243  -5.4027
    -3.3557  -2.9866  -2.8556  -1.8800  -1.0127  -0.1414   1.2198   2.3986
     3.7113   4.3771   4.4605   4.8041   5.0815

          k =-0.0133-0.0051 0.3774 (  7674 PWs)   bands (ev):

   -33.0396 -15.2113 -15.1391 -14.9610  -8.0238  -6.1819  -6.0737  -5.3039
    -3.3699  -2.9575  -2.6398  -1.9648  -1.0355  -0.1378   1.1286   2.3601
     3.8394   4.1864   4.7636   5.2380   5.4456

          k =-0.0119-0.3843 0.0454 (  7706 PWs)   bands (ev):

   -33.0396 -15.2088 -15.1404 -14.9637  -7.9459  -6.6285  -5.6961  -5.3101
    -3.0872  -3.0089  -2.8403  -1.9779  -1.0813  -0.0904   1.2725   2.3869
     3.5457   3.9566   4.6422   5.2924   5.3397

          k =-0.0252-0.3894 0.4228 (  7660 PWs)   bands (ev):

   -33.0396 -15.2111 -15.1402 -14.9635  -7.9224  -6.4706  -5.8793  -5.4397
    -3.0410  -2.9362  -2.7391  -2.0013  -1.0748  -0.1536   1.0488   2.4395
     4.1147   4.3106   4.3857   4.9303   5.3160

          k = 0.4862-0.0278-0.0135 (  7660 PWs)   bands (ev):

   -33.0391 -15.2076 -15.1594 -14.9683  -7.9800  -6.1900  -5.7347  -5.4608
    -3.3681  -3.2493  -2.7502  -2.0124  -0.9396  -0.3399   1.2983   2.0979
     3.2354   4.2480   4.6267   4.8560   5.2527

          k = 0.4729-0.0329 0.3639 (  7650 PWs)   bands (ev):

   -33.0391 -15.2098 -15.1591 -14.9682  -7.9314  -6.1656  -5.7232  -5.5998
    -3.4352  -3.3616  -2.7702  -1.7009  -0.9027  -0.2479   1.2834   2.0257
     3.4116   4.1580   4.8891   5.0499   5.4059

          k = 0.4743-0.4121 0.0320 (  7644 PWs)   bands (ev):

   -33.0391 -15.2077 -15.1599 -14.9711  -7.8461  -6.5072  -5.6896  -5.4246
    -3.3128  -2.9836  -2.7810  -2.1212  -1.0698  -0.2371   1.1969   2.0124
     3.5732   4.0101   4.5963   5.1739   5.5958

          k = 0.4610-0.4172 0.4094 (  7654 PWs)   bands (ev):

   -33.0391 -15.2096 -15.1597 -14.9709  -7.8386  -6.4153  -5.7411  -5.4660
    -3.4473  -3.1655  -2.8037  -1.7452  -0.9238  -0.4354   1.3060   2.0562
     3.7229   4.2050   4.7726   5.2506   5.5531

     the Fermi energy is     3.6434 ev

!    total energy              =    -119.20437410 Ry
     estimated scf accuracy    <       0.00000004 Ry
     smearing contrib. (-TS)   =      -0.00056599 Ry
     internal energy E=F+TS    =    -119.20380810 Ry

     The total energy is F=E-TS. E is the sum of the following terms:
     one-electron contribution =     -35.36726284 Ry
     hartree contribution      =      25.45139298 Ry
     xc contribution           =     -44.39693055 Ry
     ewald contribution        =     -54.45798076 Ry
     one-center paw contrib.   =     -10.43302693 Ry

     convergence has been achieved in  11 iterations

     Forces acting on atoms (cartesian axes, Ry/au):

     atom    1 type  3   force =    -0.00549433    0.00863832    0.00873284
     atom    2 type  3   force =     0.00700702   -0.00283120   -0.00036267
     atom    3 type  4   force =     0.00232146    0.00026328    0.00880398
     atom    4 type  3   force =    -0.00312934    0.00339337   -0.00043581
     atom    5 type  3   force =    -0.00932504    0.00563385    0.00564590
     atom    6 type  3   force =    -0.00080692   -0.00492502   -0.00851812
     atom    7 type  1   force =     0.01045377    0.00030833   -0.00756692
     atom    8 type  1   force =    -0.00318573    0.00075080    0.00235645
     atom    9 type  2   force =     0.00256063    0.00296360   -0.01111847
     atom   10 type  2   force =     0.00633408   -0.00678108    0.01344302
     atom   11 type  2   force =     0.00870948    0.00323831   -0.00774569
     atom   12 type  2   force =    -0.00856410    0.00886798   -0.00122127
     atom   13 type  2   force =    -0.00558421   -0.01312758   -0.00500436
     atom   14 type  2   force =     0.00248018    0.00236899   -0.00113430
     atom   15 type  2   force =     0.00054126   -0.00769758   -0.00083821
     atom   16 type  2   force =     0.00038712   -0.00186916   -0.00527379
     atom   17 type  2   force =    -0.00462795    0.00963582    0.00988165
     atom   18 type  2   force =     0.00526392   -0.00883751    0.00629195
     atom   19 type  2   force =    -0.00180248    0.00514937   -0.00259243
     atom   20 type  2   force =    -0.00353882   -0.00514290   -0.00334373

     Total force =     0.047503     Total SCF correction =     0.000156


     Computing stress (Cartesian axis) and pressure

          total   stress  (Ry/bohr**3)                   (kbar)     P=       13.05
   0.00007616   0.00003565  -0.00001468           11.20        5.24       -2.16
   0.00003565   0.00009120   0.00002974            5.24       13.42        4.38
  -0.00001468   0.00002974   0.00009874           -2.16        4.38       14.53

     Energy error            =      1.4E-02
     Gradient error          =      1.3E-02
     Cell gradient error     =      9.9E-05


     number of scf cycles    =   4
     number of bfgs steps    =   3

     enthalpy old            =    -119.1903697293 Ry
     enthalpy new            =    -119.2043740967 Ry

     CASE: enthalpy_new < enthalpy_old

     new trust radius        =       0.1644612510 bohr
     new conv_thr            =       0.0000001344 Ry

     new unit-cell volume =   1492.52918 a.u.^3 (   221.17001 Ang^3 )
     density =      0.15016 g/cm^3

CELL_PARAMETERS (angstrom)
  -5.126030349   0.111269965  -0.164317127
   0.406457044   6.508572678   0.127460294
  -0.214198439  -0.808177948  -6.641335621

ATOMIC_POSITIONS (angstrom)
Li           -2.9892214921        6.1315316079       -5.2820074109
Li           -3.0488454728        3.2474531272       -1.7344033351
Sr           -0.8300483597        4.5577746510       -3.4495745934
Li           -4.7651697630        1.3156035138       -3.2812897410
Li           -1.2918937999        2.0023228849       -5.8277794370
Li           -2.4253764918        6.5960223065       -1.5794037308
B            -2.1572926259        1.7788559050       -3.4654251929
B            -0.2815075146       -0.0509207578       -6.5303293395
H            -2.0814673481        4.7059963439       -0.8786126058
H            -2.7847217122        1.5466983294       -4.5941366036
H            -1.1853259576       -0.5878539188       -5.8193362976
H            -1.5884092592        0.6016844296       -3.2025810700
H            -4.7311027312        0.8908674523       -6.0247517481
H            -4.3258607500        3.2642424355       -5.2123152286
H             0.4112353896        4.2773141748       -1.2393765134
H            -4.6055998936        3.7592600001       -5.7235723563
H            -4.0901516576        6.4655899938       -0.3981477780
H            -0.6385604349        1.3853858416       -0.7951733757
H             0.1907287544        3.5206439720       -1.3836349839
H            -3.4599899193        5.5027579332       -3.5348614906



     Writing output data file ./tmp/SrLi5BH62.save/
     NEW-OLD atomic charge density approx. for the potential
     extrapolated charge   34.87639, renormalised to   33.00000

     total cpu time spent up to now is      464.7 secs

     Self-consistent Calculation

     iteration #  1     ecut=    50.00 Ry     beta= 0.70
     Davidson diagonalization with overlap
     c_bands:  1 eigenvalues not converged
     c_bands:  1 eigenvalues not converged
     c_bands:  2 eigenvalues not converged
     c_bands:  1 eigenvalues not converged
     c_bands:  1 eigenvalues not converged
     c_bands:  2 eigenvalues not converged
     c_bands:  1 eigenvalues not converged
     c_bands:  1 eigenvalues not converged
     ethr =  1.00E-06,  avg # of iterations = 20.0

     total cpu time spent up to now is      478.8 secs

     total energy              =    -119.07229733 Ry
     estimated scf accuracy    <       0.09498887 Ry

     iteration #  2     ecut=    50.00 Ry     beta= 0.70
     Davidson diagonalization with overlap
     ethr =  2.88E-04,  avg # of iterations = 10.1

     total cpu time spent up to now is      486.1 secs

     total energy              =    -119.21267474 Ry
     estimated scf accuracy    <       0.31000672 Ry

     iteration #  3     ecut=    50.00 Ry     beta= 0.70
     Davidson diagonalization with overlap
     ethr =  2.88E-04,  avg # of iterations =  4.2

     total cpu time spent up to now is      491.0 secs

     total energy              =    -119.22169995 Ry
     estimated scf accuracy    <       0.06059002 Ry

     iteration #  4     ecut=    50.00 Ry     beta= 0.70
     Davidson diagonalization with overlap
     ethr =  1.84E-04,  avg # of iterations =  1.8

     total cpu time spent up to now is      495.4 secs

     total energy              =    -119.21196121 Ry
     estimated scf accuracy    <       0.03056255 Ry

     iteration #  5     ecut=    50.00 Ry     beta= 0.70
     Davidson diagonalization with overlap
     ethr =  9.26E-05,  avg # of iterations =  5.9

     total cpu time spent up to now is      500.9 secs

     total energy              =    -119.21659040 Ry
     estimated scf accuracy    <       0.00171570 Ry

     iteration #  6     ecut=    50.00 Ry     beta= 0.70
     Davidson diagonalization with overlap
     ethr =  5.20E-06,  avg # of iterations = 10.0

     total cpu time spent up to now is      507.5 secs

     total energy              =    -119.21729812 Ry
     estimated scf accuracy    <       0.00012464 Ry

     iteration #  7     ecut=    50.00 Ry     beta= 0.70
     Davidson diagonalization with overlap
     ethr =  3.78E-07,  avg # of iterations =  4.2

     total cpu time spent up to now is      512.7 secs

     total energy              =    -119.21724007 Ry
     estimated scf accuracy    <       0.00017683 Ry

     iteration #  8     ecut=    50.00 Ry     beta= 0.70
     Davidson diagonalization with overlap
     ethr =  3.78E-07,  avg # of iterations =  3.6

     total cpu time spent up to now is      518.0 secs

     total energy              =    -119.21727856 Ry
     estimated scf accuracy    <       0.00000615 Ry

     iteration #  9     ecut=    50.00 Ry     beta= 0.70
     Davidson diagonalization with overlap
     ethr =  1.86E-08,  avg # of iterations =  5.5

     total cpu time spent up to now is      523.7 secs

     total energy              =    -119.21728048 Ry
     estimated scf accuracy    <       0.00000130 Ry

     iteration # 10     ecut=    50.00 Ry     beta= 0.70
     Davidson diagonalization with overlap
     ethr =  3.93E-09,  avg # of iterations =  3.0

     total cpu time spent up to now is      528.5 secs

     End of self-consistent calculation

          k = 0.0000 0.0000 0.0000 (  7659 PWs)   bands (ev):

   -33.5004 -15.6396 -15.5773 -15.4040  -8.1832  -6.4825  -5.9408  -5.6301
    -3.4502  -3.1136  -2.9873  -2.0421  -1.2852  -0.4139   0.8953   2.0934
     3.3857   4.0673   4.1206   4.3973   4.7087

          k =-0.0120-0.0065 0.3700 (  7674 PWs)   bands (ev):

   -33.5004 -15.6411 -15.5773 -15.4040  -8.1190  -6.4227  -6.2298  -5.5479
    -3.4383  -3.1029  -2.8256  -2.1053  -1.3008  -0.4120   0.8242   2.0376
     3.5542   3.8380   4.3822   4.8719   5.0025

          k =-0.0097-0.3766 0.0461 (  7706 PWs)   bands (ev):

   -33.5004 -15.6397 -15.5779 -15.4058  -8.0531  -6.7784  -5.9323  -5.5456
    -3.2370  -3.1225  -2.9754  -2.1445  -1.3359  -0.3634   0.9442   2.0702
     3.2302   3.6490   4.2645   4.9350   4.9848

          k =-0.0217-0.3831 0.4161 (  7660 PWs)   bands (ev):

   -33.5004 -15.6410 -15.5779 -15.4057  -8.0330  -6.6409  -6.0884  -5.6529
    -3.1567  -3.1086  -2.9023  -2.1398  -1.3443  -0.4211   0.7602   2.1005
     3.7588   3.9862   4.0731   4.5668   4.9341

          k = 0.4775-0.0296-0.0118 (  7660 PWs)   bands (ev):

   -33.5000 -15.6398 -15.5921 -15.4096  -8.0767  -6.4172  -5.9455  -5.6812
    -3.4209  -3.4004  -2.9058  -2.1565  -1.2048  -0.5910   1.0239   1.7174
     2.9545   3.9363   4.3373   4.4517   4.8185

          k = 0.4655-0.0361 0.3582 (  7650 PWs)   bands (ev):

   -33.5000 -15.6411 -15.5921 -15.4095  -8.0363  -6.3975  -5.9340  -5.7958
    -3.5660  -3.4262  -2.9086  -1.8897  -1.1742  -0.5117   0.9852   1.6874
     3.1265   3.8770   4.5170   4.6732   4.9354

          k = 0.4679-0.4062 0.0343 (  7644 PWs)   bands (ev):

   -33.5000 -15.6400 -15.5924 -15.4115  -7.9644  -6.6741  -5.8973  -5.6627
    -3.4187  -3.1536  -2.9103  -2.2503  -1.3297  -0.5009   0.8921   1.6711
     3.2598   3.7060   4.2233   4.7580   5.1831

          k = 0.4559-0.4127 0.4043 (  7654 PWs)   bands (ev):

   -33.5000 -15.6411 -15.5924 -15.4114  -7.9578  -6.5903  -5.9581  -5.6895
    -3.5646  -3.2666  -2.9399  -1.9221  -1.2006  -0.6829   0.9639   1.7144
     3.3953   3.8695   4.4152   4.8136   5.1780

     the Fermi energy is     3.3285 ev

!    total energy              =    -119.21728071 Ry
     estimated scf accuracy    <       0.00000007 Ry
     smearing contrib. (-TS)   =      -0.00053941 Ry
     internal energy E=F+TS    =    -119.21674129 Ry

     The total energy is F=E-TS. E is the sum of the following terms:
     one-electron contribution =     -37.68654307 Ry
     hartree contribution      =      26.21553345 Ry
     xc contribution           =     -44.28016389 Ry
     ewald contribution        =     -53.03148602 Ry
     one-center paw contrib.   =     -10.43408176 Ry

     convergence has been achieved in  10 iterations

     Forces acting on atoms (cartesian axes, Ry/au):

     atom    1 type  3   force =    -0.00568338    0.00722147    0.00753275
     atom    2 type  3   force =     0.00589308   -0.00254721   -0.00215224
     atom    3 type  4   force =     0.00243767   -0.00156723    0.00278534
     atom    4 type  3   force =    -0.00377463    0.00459728   -0.00084479
     atom    5 type  3   force =    -0.00678398    0.00245772    0.00624734
     atom    6 type  3   force =    -0.00143615   -0.00381853   -0.00602903
     atom    7 type  1   force =     0.00535209   -0.00966471   -0.00742787
     atom    8 type  1   force =    -0.00377847   -0.00163187    0.00148282
     atom    9 type  2   force =     0.00149744    0.00004127   -0.01319045
     atom   10 type  2   force =     0.00661733   -0.00208584    0.01429847
     atom   11 type  2   force =     0.00855657    0.00395918   -0.00441128
     atom   12 type  2   force =    -0.00645842    0.01312331    0.00002413
     atom   13 type  2   force =    -0.00832388   -0.00891242   -0.00430494
     atom   14 type  2   force =     0.00316868    0.00122691    0.00025050
     atom   15 type  2   force =    -0.00000392   -0.00428553   -0.00134513
     atom   16 type  2   force =    -0.00110530    0.00046257   -0.00472917
     atom   17 type  2   force =    -0.00131094    0.00824548    0.00801579
     atom   18 type  2   force =     0.00538802   -0.00538090    0.00869920
     atom   19 type  2   force =     0.00192798    0.00130519   -0.00142786
     atom   20 type  2   force =    -0.00217979   -0.00274613   -0.00347358

     Total force =     0.043048     Total SCF correction =     0.000299


     Computing stress (Cartesian axis) and pressure

          total   stress  (Ry/bohr**3)                   (kbar)     P=       -0.39
  -0.00001517   0.00001045  -0.00000001           -2.23        1.54       -0.00
   0.00001045  -0.00000960   0.00001507            1.54       -1.41        2.22
  -0.00000001   0.00001507   0.00001685           -0.00        2.22        2.48

     Energy error            =      1.3E-02
     Gradient error          =      1.4E-02
     Cell gradient error     =      1.7E-05


     number of scf cycles    =   5
     number of bfgs steps    =   4

     enthalpy old            =    -119.2043740967 Ry
     enthalpy new            =    -119.2172807050 Ry

     CASE: enthalpy_new < enthalpy_old

     new trust radius        =       0.1094902141 bohr
     new conv_thr            =       0.0000001430 Ry

     new unit-cell volume =   1550.84862 a.u.^3 (   229.81206 Ang^3 )
     density =      0.14451 g/cm^3

CELL_PARAMETERS (angstrom)
  -5.184608948   0.094562530  -0.157431646
   0.433288876   6.597265944   0.149380353
  -0.207969839  -0.841259873  -6.734521439

ATOMIC_POSITIONS (angstrom)
Li           -3.0069199224        6.2075301129       -5.3074130859
Li           -3.0520734324        3.2675228234       -1.7439087808
Sr           -0.8139979187        4.6065870269       -3.4578225085
Li           -4.8183549867        1.3142012004       -3.3145372859
Li           -1.3135610925        2.0218286607       -5.8837952912
Li           -2.4298279552        6.6575788114       -1.5966333753
B            -2.1453207040        1.7951919486       -3.5174522616
B            -0.2777962016       -0.0737809233       -6.6140061634
H            -2.0802999680        4.7666759250       -0.8987465635
H            -2.7917362713        1.5267051047       -4.6218175847
H            -1.1757319119       -0.6139928353       -5.9135321250
H            -1.6140525205        0.6058946451       -3.2426538451
H            -4.7818506670        0.8388061112       -6.1045553666
H            -4.3507278915        3.2845497863       -5.2712615365
H             0.4352551579        4.3188039936       -1.2444360414
H            -4.6328627903        3.7664192522       -5.7937298577
H            -4.1224843638        6.5543954598       -0.3540041921
H            -0.6317924721        1.3815004714       -0.7928539949
H             0.2002423279        3.5707331703       -1.3987901471
H            -3.4840496215        5.5392781541       -3.5676412720



     Writing output data file ./tmp/SrLi5BH62.save/
     NEW-OLD atomic charge density approx. for the potential
     extrapolated charge   34.23879, renormalised to   33.00000

     total cpu time spent up to now is      581.0 secs

     Self-consistent Calculation

     iteration #  1     ecut=    50.00 Ry     beta= 0.70
     Davidson diagonalization with overlap
     c_bands:  1 eigenvalues not converged
     c_bands:  2 eigenvalues not converged
     c_bands:  1 eigenvalues not converged
     c_bands:  1 eigenvalues not converged
     c_bands:  1 eigenvalues not converged
     c_bands:  1 eigenvalues not converged
     ethr =  1.00E-06,  avg # of iterations = 19.5

     total cpu time spent up to now is      594.2 secs

     total energy              =    -119.15707922 Ry
     estimated scf accuracy    <       0.04285557 Ry

     iteration #  2     ecut=    50.00 Ry     beta= 0.70
     Davidson diagonalization with overlap
     ethr =  1.30E-04,  avg # of iterations =  9.5

     total cpu time spent up to now is      601.3 secs

     total energy              =    -119.21877818 Ry
     estimated scf accuracy    <       0.15093741 Ry

     iteration #  3     ecut=    50.00 Ry     beta= 0.70
     Davidson diagonalization with overlap
     ethr =  1.30E-04,  avg # of iterations =  4.1

     total cpu time spent up to now is      606.4 secs

     total energy              =    -119.22382143 Ry
     estimated scf accuracy    <       0.02752325 Ry

     iteration #  4     ecut=    50.00 Ry     beta= 0.70
     Davidson diagonalization with overlap
     ethr =  8.34E-05,  avg # of iterations =  1.9

     total cpu time spent up to now is      610.8 secs

     total energy              =    -119.21912759 Ry
     estimated scf accuracy    <       0.01381283 Ry

     iteration #  5     ecut=    50.00 Ry     beta= 0.70
     Davidson diagonalization with overlap
     ethr =  4.19E-05,  avg # of iterations =  6.0

     total cpu time spent up to now is      616.3 secs

     total energy              =    -119.22171460 Ry
     estimated scf accuracy    <       0.00042028 Ry

     iteration #  6     ecut=    50.00 Ry     beta= 0.70
     Davidson diagonalization with overlap
     c_bands:  1 eigenvalues not converged
     ethr =  1.27E-06,  avg # of iterations =  9.9

     total cpu time spent up to now is      623.0 secs

     total energy              =    -119.22194827 Ry
     estimated scf accuracy    <       0.00003896 Ry

     iteration #  7     ecut=    50.00 Ry     beta= 0.70
     Davidson diagonalization with overlap
     ethr =  1.18E-07,  avg # of iterations =  3.6

     total cpu time spent up to now is      628.1 secs

     total energy              =    -119.22194377 Ry
     estimated scf accuracy    <       0.00003353 Ry

     iteration #  8     ecut=    50.00 Ry     beta= 0.70
     Davidson diagonalization with overlap
     ethr =  1.02E-07,  avg # of iterations =  3.0

     total cpu time spent up to now is      633.0 secs

     total energy              =    -119.22194804 Ry
     estimated scf accuracy    <       0.00000221 Ry

     iteration #  9     ecut=    50.00 Ry     beta= 0.70
     Davidson diagonalization with overlap
     ethr =  6.71E-09,  avg # of iterations =  6.2

     total cpu time spent up to now is      639.0 secs

     total energy              =    -119.22194905 Ry
     estimated scf accuracy    <       0.00000176 Ry

     iteration # 10     ecut=    50.00 Ry     beta= 0.70
     Davidson diagonalization with overlap
     ethr =  5.33E-09,  avg # of iterations =  2.1

     total cpu time spent up to now is      643.7 secs

     End of self-consistent calculation

          k = 0.0000 0.0000 0.0000 (  7659 PWs)   bands (ev):

   -33.7958 -15.9180 -15.8588 -15.6898  -8.2472  -6.6246  -6.0928  -5.7878
    -3.5064  -3.1820  -3.0687  -2.1686  -1.4661  -0.5924   0.6979   1.9013
     3.1779   3.8439   3.9148   4.1375   4.4711

          k =-0.0112-0.0075 0.3650 (  7674 PWs)   bands (ev):

   -33.7958 -15.9190 -15.8589 -15.6897  -8.1910  -6.5755  -6.3411  -5.7173
    -3.4766  -3.1882  -2.9403  -2.2172  -1.4765  -0.5925   0.6399   1.8341
     3.3704   3.6170   4.1365   4.6321   4.7080

          k =-0.0082-0.3718 0.0467 (  7706 PWs)   bands (ev):

   -33.7958 -15.9181 -15.8592 -15.6912  -8.1343  -6.8718  -6.0924  -5.7156
    -3.3388  -3.1767  -3.0526  -2.2684  -1.5089  -0.5436   0.7434   1.8687
     3.0349   3.4526   4.0239   4.6811   4.7649

          k =-0.0194-0.3793 0.4117 (  7660 PWs)   bands (ev):

   -33.7958 -15.9190 -15.8593 -15.6911  -8.1164  -6.7484  -6.2279  -5.8102
    -3.2580  -3.1756  -3.0014  -2.2513  -1.5208  -0.5979   0.5876   1.8819
     3.5316   3.7851   3.8689   4.3345   4.6960

          k = 0.4722-0.0308-0.0107 (  7660 PWs)   bands (ev):

   -33.7954 -15.9190 -15.8706 -15.6946  -8.1500  -6.5621  -6.0958  -5.8314
    -3.5061  -3.4309  -2.9986  -2.2719  -1.3794  -0.7583   0.8547   1.4860
     2.7791   3.7329   4.1477   4.1932   4.5499

          k = 0.4610-0.0383 0.3542 (  7650 PWs)   bands (ev):

   -33.7954 -15.9199 -15.8707 -15.6946  -8.1149  -6.5464  -6.0662  -5.9499
    -3.6491  -3.4474  -2.9947  -2.0339  -1.3535  -0.6857   0.8011   1.4830
     2.9456   3.7020   4.2459   4.4491   4.6350

          k = 0.4640-0.4025 0.0360 (  7644 PWs)   bands (ev):

   -33.7954 -15.9192 -15.8708 -15.6961  -8.0533  -6.7777  -6.0460  -5.8275
    -3.4949  -3.2350  -2.9874  -2.3551  -1.5007  -0.6777   0.7083   1.4597
     3.0627   3.5147   3.9791   4.4872   4.9286

          k = 0.4528-0.4101 0.4009 (  7654 PWs)   bands (ev):

   -33.7954 -15.9199 -15.8709 -15.6960  -8.0473  -6.7008  -6.0978  -5.8587
    -3.6383  -3.3185  -3.0179  -2.0577  -1.3826  -0.8440   0.7533   1.5059
     3.1871   3.6485   4.1829   4.5254   4.9508

     the Fermi energy is     3.1296 ev

!    total energy              =    -119.22194935 Ry
     estimated scf accuracy    <       0.00000007 Ry
     smearing contrib. (-TS)   =      -0.00056397 Ry
     internal energy E=F+TS    =    -119.22138539 Ry

     The total energy is F=E-TS. E is the sum of the following terms:
     one-electron contribution =     -39.36735725 Ry
     hartree contribution      =      26.81431229 Ry
     xc contribution           =     -44.22874423 Ry
     ewald contribution        =     -52.00512414 Ry
     one-center paw contrib.   =     -10.43447207 Ry

     convergence has been achieved in  10 iterations

     Forces acting on atoms (cartesian axes, Ry/au):

     atom    1 type  3   force =    -0.00581265    0.00609135    0.00646981
     atom    2 type  3   force =     0.00505987   -0.00250325   -0.00347680
     atom    3 type  4   force =     0.00217854   -0.00257286   -0.00085523
     atom    4 type  3   force =    -0.00448220    0.00542299   -0.00094613
     atom    5 type  3   force =    -0.00490492    0.00078168    0.00664179
     atom    6 type  3   force =    -0.00186265   -0.00304830   -0.00402013
     atom    7 type  1   force =     0.00215519   -0.01164362   -0.00421048
     atom    8 type  1   force =    -0.00259926   -0.00236439    0.00078610
     atom    9 type  2   force =     0.00101698   -0.00164439   -0.01432315
     atom   10 type  2   force =     0.00472010    0.00064194    0.01086023
     atom   11 type  2   force =     0.00497057    0.00234009    0.00013381
     atom   12 type  2   force =    -0.00293889    0.01172903    0.00154730
     atom   13 type  2   force =    -0.00792626   -0.00348618   -0.00170642
     atom   14 type  2   force =     0.00293031    0.00164777   -0.00017982
     atom   15 type  2   force =    -0.00030522   -0.00180253   -0.00159421
     atom   16 type  2   force =    -0.00118779    0.00058739   -0.00333670
     atom   17 type  2   force =     0.00263811    0.00391073    0.00508006
     atom   18 type  2   force =     0.00363799   -0.00153982    0.00718842
     atom   19 type  2   force =     0.00395266   -0.00136760   -0.00069526
     atom   20 type  2   force =    -0.00124051   -0.00118000   -0.00336318

     Total force =     0.035661     Total SCF correction =     0.000189


     Computing stress (Cartesian axis) and pressure

          total   stress  (Ry/bohr**3)                   (kbar)     P=       -5.59
  -0.00005055  -0.00000683   0.00000869           -7.44       -1.00        1.28
  -0.00000683  -0.00004954   0.00000695           -1.00       -7.29        1.02
   0.00000869   0.00000695  -0.00001388            1.28        1.02       -2.04

     Energy error            =      4.7E-03
     Gradient error          =      1.4E-02
     Cell gradient error     =      5.1E-05


     number of scf cycles    =   6
     number of bfgs steps    =   5

     enthalpy old            =    -119.2172807050 Ry
     enthalpy new            =    -119.2219493531 Ry

     CASE: enthalpy_new < enthalpy_old

     new trust radius        =       0.0549752513 bohr
     new conv_thr            =       0.0000001432 Ry

     new unit-cell volume =   1576.91162 a.u.^3 (   233.67419 Ang^3 )
     density =      0.14212 g/cm^3

CELL_PARAMETERS (angstrom)
  -5.207794341   0.087282684  -0.155342731
   0.444638213   6.634344984   0.161998777
  -0.206136470  -0.858654592  -6.781169825

ATOMIC_POSITIONS (angstrom)
Li           -3.0193055325        6.2426862826       -5.3141331399
Li           -3.0474473332        3.2723174024       -1.7514669501
Sr           -0.8056645752        4.6235152227       -3.4614272879
Li           -4.8436875527        1.3162525602       -3.3325145420
Li           -1.3286461801        2.0290843146       -5.9062380542
Li           -2.4325801845        6.6786694412       -1.6073670096
B            -2.1367971227        1.7942300383       -3.5459188227
B            -0.2785427392       -0.0888427374       -6.6551841409
H            -2.0775385611        4.7906541862       -0.9190064851
H            -2.7907888296        1.5151801275       -4.6292066301
H            -1.1684199687       -0.6265458071       -5.9599970252
H            -1.6268528574        0.6138259270       -3.2611170781
H            -4.8084400143        0.8093425519       -6.1458534236
H            -4.3581460867        3.2925510836       -5.3016428414
H             0.4453626556        4.3339788878       -1.2468450209
H            -4.6438241181        3.7650372521       -5.8311959406
H            -4.1328306916        6.5945322236       -0.3281013586
H            -0.6264513927        1.3777418939       -0.7875812000
H             0.2059729161        3.5895327316       -1.4062108615
H            -3.4951578660        5.5502122486       -3.5860534009



     Writing output data file ./tmp/SrLi5BH62.save/
     NEW-OLD atomic charge density approx. for the potential
     extrapolated charge   33.54447, renormalised to   33.00000

     total cpu time spent up to now is      695.8 secs

     Self-consistent Calculation

     iteration #  1     ecut=    50.00 Ry     beta= 0.70
     Davidson diagonalization with overlap
     c_bands:  1 eigenvalues not converged
     c_bands:  1 eigenvalues not converged
     c_bands:  1 eigenvalues not converged
     ethr =  1.00E-06,  avg # of iterations = 16.5

     total cpu time spent up to now is      707.1 secs

     total energy              =    -119.21126283 Ry
     estimated scf accuracy    <       0.00883965 Ry

     iteration #  2     ecut=    50.00 Ry     beta= 0.70
     Davidson diagonalization with overlap
     ethr =  2.68E-05,  avg # of iterations =  9.0

     total cpu time spent up to now is      714.1 secs

     total energy              =    -119.22343252 Ry
     estimated scf accuracy    <       0.03164228 Ry

     iteration #  3     ecut=    50.00 Ry     beta= 0.70
     Davidson diagonalization with overlap
     ethr =  2.68E-05,  avg # of iterations =  3.2

     total cpu time spent up to now is      718.8 secs

     total energy              =    -119.22426327 Ry
     estimated scf accuracy    <       0.00556537 Ry

     iteration #  4     ecut=    50.00 Ry     beta= 0.70
     Davidson diagonalization with overlap
     ethr =  1.69E-05,  avg # of iterations =  3.0

     total cpu time spent up to now is      723.4 secs

     total energy              =    -119.22356683 Ry
     estimated scf accuracy    <       0.00218311 Ry

     iteration #  5     ecut=    50.00 Ry     beta= 0.70
     Davidson diagonalization with overlap
     ethr =  6.62E-06,  avg # of iterations =  6.6

     total cpu time spent up to now is      729.2 secs

     total energy              =    -119.22410454 Ry
     estimated scf accuracy    <       0.00002642 Ry

     iteration #  6     ecut=    50.00 Ry     beta= 0.70
     Davidson diagonalization with overlap
     ethr =  8.01E-08,  avg # of iterations =  6.4

     total cpu time spent up to now is      735.5 secs

     total energy              =    -119.22413749 Ry
     estimated scf accuracy    <       0.00000965 Ry

     iteration #  7     ecut=    50.00 Ry     beta= 0.70
     Davidson diagonalization with overlap
     ethr =  2.92E-08,  avg # of iterations =  3.5

     total cpu time spent up to now is      740.5 secs

     total energy              =    -119.22413938 Ry
     estimated scf accuracy    <       0.00000056 Ry

     iteration #  8     ecut=    50.00 Ry     beta= 0.70
     Davidson diagonalization with overlap
     ethr =  1.70E-09,  avg # of iterations =  5.4

     total cpu time spent up to now is      746.5 secs

     total energy              =    -119.22413923 Ry
     estimated scf accuracy    <       0.00000094 Ry

     iteration #  9     ecut=    50.00 Ry     beta= 0.70
     Davidson diagonalization with overlap
     ethr =  1.70E-09,  avg # of iterations =  4.1

     total cpu time spent up to now is      751.8 secs

     End of self-consistent calculation

          k = 0.0000 0.0000 0.0000 (  7659 PWs)   bands (ev):

   -33.9194 -16.0350 -15.9770 -15.8107  -8.2830  -6.6832  -6.1834  -5.8691
    -3.5228  -3.2063  -3.1087  -2.2550  -1.5536  -0.6741   0.6254   1.8179
     3.0868   3.7412   3.8246   4.0232   4.3711

          k =-0.0110-0.0081 0.3625 (  7674 PWs)   bands (ev):

   -33.9194 -16.0358 -15.9771 -15.8107  -8.2304  -6.6369  -6.4099  -5.8082
    -3.4862  -3.2201  -2.9954  -2.2969  -1.5608  -0.6754   0.5740   1.7447
     3.2908   3.5232   4.0300   4.5267   4.5730

          k =-0.0076-0.3698 0.0471 (  7706 PWs)   bands (ev):

   -33.9194 -16.0351 -15.9773 -15.8120  -8.1789  -6.9078  -6.1826  -5.8074
    -3.3750  -3.2008  -3.0847  -2.3465  -1.5983  -0.6268   0.6684   1.7800
     2.9549   3.3675   3.9199   4.5701   4.6699

          k =-0.0186-0.3779 0.4096 (  7660 PWs)   bands (ev):

   -33.9194 -16.0358 -15.9774 -15.8120  -8.1618  -6.7900  -6.3060  -5.8986
    -3.2962  -3.1987  -3.0482  -2.3311  -1.6053  -0.6794   0.5270   1.7834
     3.4358   3.6995   3.7804   4.2346   4.5991

          k = 0.4701-0.0313-0.0103 (  7660 PWs)   bands (ev):

   -33.9191 -16.0363 -15.9877 -15.8153  -8.1901  -6.6205  -6.1901  -5.9051
    -3.5426  -3.4335  -3.0410  -2.3542  -1.4610  -0.8369   0.7950   1.3879
     2.7047   3.6420   4.0496   4.1042   4.4327

          k = 0.4591-0.0394 0.3522 (  7650 PWs)   bands (ev):

   -33.9190 -16.0370 -15.9878 -15.8153  -8.1573  -6.6066  -6.1512  -6.0275
    -3.6779  -3.4516  -3.0352  -2.1287  -1.4383  -0.7668   0.7354   1.3975
     2.8692   3.6291   4.1185   4.3521   4.5007

          k = 0.4625-0.4011 0.0367 (  7644 PWs)   bands (ev):

   -33.9190 -16.0365 -15.9878 -15.8166  -8.1012  -6.8167  -6.1390  -5.9091
    -3.5280  -3.2596  -3.0213  -2.4324  -1.5803  -0.7626   0.6438   1.3695
     2.9780   3.4356   3.8695   4.3649   4.8236

          k = 0.4515-0.4092 0.3993 (  7654 PWs)   bands (ev):

   -33.9190 -16.0371 -15.9879 -15.8166  -8.0955  -6.7432  -6.1768  -5.9528
    -3.6653  -3.3391  -3.0495  -2.1480  -1.4681  -0.9174   0.6749   1.4181
     3.0961   3.5444   4.0820   4.3957   4.8610

     the Fermi energy is     3.0444 ev

!    total energy              =    -119.22413944 Ry
     estimated scf accuracy    <       0.00000013 Ry
     smearing contrib. (-TS)   =      -0.00060431 Ry
     internal energy E=F+TS    =    -119.22353513 Ry

     The total energy is F=E-TS. E is the sum of the following terms:
     one-electron contribution =     -40.25292155 Ry
     hartree contribution      =      27.15899224 Ry
     xc contribution           =     -44.22581525 Ry
     ewald contribution        =     -51.46946122 Ry
     one-center paw contrib.   =     -10.43432934 Ry

     convergence has been achieved in   9 iterations

     Forces acting on atoms (cartesian axes, Ry/au):

     atom    1 type  3   force =    -0.00569499    0.00542584    0.00565879
     atom    2 type  3   force =     0.00435572   -0.00260606   -0.00408887
     atom    3 type  4   force =     0.00188704   -0.00266504   -0.00262483
     atom    4 type  3   force =    -0.00474979    0.00578435   -0.00078348
     atom    5 type  3   force =    -0.00361810    0.00002556    0.00658625
     atom    6 type  3   force =    -0.00221307   -0.00261784   -0.00281801
     atom    7 type  1   force =     0.00094977   -0.00714604    0.00007518
     atom    8 type  1   force =    -0.00070330   -0.00194990    0.00065262
     atom    9 type  2   force =     0.00092020   -0.00228948   -0.01467902
     atom   10 type  2   force =     0.00159320    0.00095359    0.00566334
     atom   11 type  2   force =     0.00073742   -0.00019466    0.00371540
     atom   12 type  2   force =     0.00046442    0.00650313    0.00301072
     atom   13 type  2   force =    -0.00598297    0.00088046    0.00091474
     atom   14 type  2   force =     0.00275327    0.00198040   -0.00061775
     atom   15 type  2   force =    -0.00029096   -0.00050213   -0.00162973
     atom   16 type  2   force =    -0.00110051    0.00044342   -0.00255256
     atom   17 type  2   force =     0.00533693    0.00008325    0.00283318
     atom   18 type  2   force =     0.00145187    0.00115723    0.00424115
     atom   19 type  2   force =     0.00469608   -0.00275269   -0.00043821
     atom   20 type  2   force =    -0.00079224   -0.00051340   -0.00311890

     Total force =     0.028724     Total SCF correction =     0.000241


     Computing stress (Cartesian axis) and pressure

          total   stress  (Ry/bohr**3)                   (kbar)     P=       -5.81
  -0.00005365  -0.00001413   0.00001381           -7.89       -2.08        2.03
  -0.00001413  -0.00005045   0.00000311           -2.08       -7.42        0.46
   0.00001381   0.00000311  -0.00001443            2.03        0.46       -2.12

     Energy error            =      2.2E-03
     Gradient error          =      1.5E-02
     Cell gradient error     =      5.4E-05


     number of scf cycles    =   7
     number of bfgs steps    =   6

     enthalpy old            =    -119.2219493531 Ry
     enthalpy new            =    -119.2241394422 Ry

     CASE: enthalpy_new < enthalpy_old

     new trust radius        =       0.0605213943 bohr
     new conv_thr            =       0.0000001468 Ry

     new unit-cell volume =   1591.43307 a.u.^3 (   235.82605 Ang^3 )
     density =      0.14083 g/cm^3

CELL_PARAMETERS (angstrom)
  -5.216497857   0.083991341  -0.156378696
   0.449479140   6.652251057   0.172857869
  -0.207352068  -0.871907939  -6.815633299

ATOMIC_POSITIONS (angstrom)
Li           -3.0341529110        6.2654132236       -5.3130663751
Li           -3.0369225284        3.2695372752       -1.7617975120
Sr           -0.8002079811        4.6267098225       -3.4652277813
Li           -4.8609498703        1.3224872266       -3.3482770146
Li           -1.3453520687        2.0313628713       -5.9162747729
Li           -2.4363985040        6.6825502789       -1.6183325884
B            -2.1282654249        1.7858493314       -3.5676273607
B            -0.2822905785       -0.1032906832       -6.6847701476
H            -2.0733758698        4.8000260859       -0.9482441599
H            -2.7870500182        1.5051687023       -4.6302869230
H            -1.1632050604       -0.6361448923       -5.9915118339
H            -1.6348697689        0.6241970506       -3.2722448349
H            -4.8288046281        0.7871885676       -6.1773713154
H            -4.3578771476        3.2966417672       -5.3262458664
H             0.4495510091        4.3382628366       -1.2489197507
H            -4.6495129707        3.7590952082       -5.8627792466
H            -4.1320052039        6.6170749244       -0.3067271392
H            -0.6213265535        1.3741407681       -0.7801622547
H             0.2113490768        3.5951935655       -1.4116690226
H            -3.5027364702        5.5500778079       -3.6032129988



     Writing output data file ./tmp/SrLi5BH62.save/
     NEW-OLD atomic charge density approx. for the potential
     extrapolated charge   33.30059, renormalised to   33.00000

     total cpu time spent up to now is      803.9 secs

     Self-consistent Calculation

     iteration #  1     ecut=    50.00 Ry     beta= 0.70
     Davidson diagonalization with overlap
     c_bands:  1 eigenvalues not converged
     ethr =  1.00E-06,  avg # of iterations = 12.8

     total cpu time spent up to now is      814.1 secs

     total energy              =    -119.22262817 Ry
     estimated scf accuracy    <       0.00294421 Ry

     iteration #  2     ecut=    50.00 Ry     beta= 0.70
     Davidson diagonalization with overlap
     ethr =  8.92E-06,  avg # of iterations = 10.1

     total cpu time spent up to now is      821.0 secs

     total energy              =    -119.22609621 Ry
     estimated scf accuracy    <       0.00938092 Ry

     iteration #  3     ecut=    50.00 Ry     beta= 0.70
     Davidson diagonalization with overlap
     ethr =  8.92E-06,  avg # of iterations =  2.8

     total cpu time spent up to now is      825.7 secs

     total energy              =    -119.22618933 Ry
     estimated scf accuracy    <       0.00155211 Ry

     iteration #  4     ecut=    50.00 Ry     beta= 0.70
     Davidson diagonalization with overlap
     ethr =  4.70E-06,  avg # of iterations =  6.1

     total cpu time spent up to now is      830.7 secs

     total energy              =    -119.22627293 Ry
     estimated scf accuracy    <       0.00022763 Ry

     iteration #  5     ecut=    50.00 Ry     beta= 0.70
     Davidson diagonalization with overlap
     ethr =  6.90E-07,  avg # of iterations =  5.6

     total cpu time spent up to now is      836.6 secs

     total energy              =    -119.22635072 Ry
     estimated scf accuracy    <       0.00000680 Ry

     iteration #  6     ecut=    50.00 Ry     beta= 0.70
     Davidson diagonalization with overlap
     ethr =  2.06E-08,  avg # of iterations =  6.0

     total cpu time spent up to now is      842.2 secs

     total energy              =    -119.22635279 Ry
     estimated scf accuracy    <       0.00000341 Ry

     iteration #  7     ecut=    50.00 Ry     beta= 0.70
     Davidson diagonalization with overlap
     ethr =  1.03E-08,  avg # of iterations =  3.1

     total cpu time spent up to now is      846.9 secs

     total energy              =    -119.22635329 Ry
     estimated scf accuracy    <       0.00000019 Ry

     iteration #  8     ecut=    50.00 Ry     beta= 0.70
     Davidson diagonalization with overlap
     ethr =  5.64E-10,  avg # of iterations =  6.0

     total cpu time spent up to now is      852.9 secs

     End of self-consistent calculation

          k = 0.0000 0.0000 0.0000 (  7659 PWs)   bands (ev):

   -33.9864 -16.0978 -16.0408 -15.8774  -8.3096  -6.7101  -6.2681  -5.9196
    -3.5226  -3.2167  -3.1381  -2.3403  -1.6135  -0.7228   0.5912   1.7661
     3.0338   3.6773   3.7719   3.9560   4.3210

          k =-0.0110-0.0086 0.3608 (  7674 PWs)   bands (ev):

   -33.9864 -16.0985 -16.0409 -15.8773  -8.2592  -6.6646  -6.4735  -5.8725
    -3.4830  -3.2335  -3.0352  -2.3784  -1.6183  -0.7253   0.5454   1.6881
     3.2454   3.4734   3.9702   4.4610   4.4951

          k =-0.0074-0.3689 0.0474 (  7706 PWs)   bands (ev):

   -33.9864 -16.0979 -16.0411 -15.8786  -8.2115  -6.9200  -6.2636  -5.8690
    -3.3864  -3.2173  -3.1032  -2.4201  -1.6656  -0.6773   0.6328   1.7239
     2.9163   3.3164   3.8626   4.5103   4.6192

          k =-0.0183-0.3776 0.4082 (  7660 PWs)   bands (ev):

   -33.9864 -16.0986 -16.0412 -15.8785  -8.1949  -6.8042  -6.3770  -5.9611
    -3.3045  -3.2136  -3.0805  -2.4133  -1.6633  -0.7285   0.5028   1.7187
     3.3864   3.6508   3.7320   4.1791   4.5495

          k = 0.4693-0.0314-0.0103 (  7660 PWs)   bands (ev):

   -33.9861 -16.0995 -16.0507 -15.8819  -8.2189  -6.6451  -6.2821  -5.9469
    -3.5546  -3.4329  -3.0703  -2.4383  -1.5133  -0.8871   0.7706   1.3275
     2.6614   3.5887   3.9911   4.0671   4.3646

          k = 0.4584-0.0401 0.3505 (  7650 PWs)   bands (ev):

   -33.9861 -16.1001 -16.0509 -15.8819  -8.1878  -6.6328  -6.2459  -6.0635
    -3.6847  -3.4536  -3.0623  -2.2197  -1.4945  -0.8176   0.7078   1.3468
     2.8264   3.5900   4.0409   4.2939   4.4171

          k = 0.4620-0.4004 0.0372 (  7644 PWs)   bands (ev):

   -33.9861 -16.0996 -16.0509 -15.8832  -8.1357  -6.8288  -6.2324  -5.9543
    -3.5411  -3.2695  -3.0430  -2.5135  -1.6309  -0.8185   0.6166   1.3149
     2.9294   3.3940   3.8030   4.2921   4.7700

          k = 0.4510-0.4090 0.3980 (  7654 PWs)   bands (ev):

   -33.9861 -16.1001 -16.0510 -15.8831  -8.1302  -6.7571  -6.2562  -6.0119
    -3.6729  -3.3538  -3.0665  -2.2358  -1.5245  -0.9615   0.6379   1.3659
     3.0418   3.4727   4.0258   4.3171   4.8200

     the Fermi energy is     2.9966 ev

!    total energy              =    -119.22635335 Ry
     estimated scf accuracy    <       0.00000008 Ry
     smearing contrib. (-TS)   =      -0.00065602 Ry
     internal energy E=F+TS    =    -119.22569733 Ry

     The total energy is F=E-TS. E is the sum of the following terms:
     one-electron contribution =     -40.91068998 Ry
     hartree contribution      =      27.44271053 Ry
     xc contribution           =     -44.24331672 Ry
     ewald contribution        =     -51.08038863 Ry
     one-center paw contrib.   =     -10.43401252 Ry

     convergence has been achieved in   8 iterations

     Forces acting on atoms (cartesian axes, Ry/au):

     atom    1 type  3   force =    -0.00523856    0.00483315    0.00475790
     atom    2 type  3   force =     0.00342776   -0.00270311   -0.00435202
     atom    3 type  4   force =     0.00164023   -0.00227620   -0.00379031
     atom    4 type  3   force =    -0.00473014    0.00590657   -0.00040844
     atom    5 type  3   force =    -0.00223626   -0.00052182    0.00622296
     atom    6 type  3   force =    -0.00264030   -0.00228639   -0.00182238
     atom    7 type  1   force =    -0.00000493    0.00119725    0.00460402
     atom    8 type  1   force =     0.00122373   -0.00132272    0.00076470
     atom    9 type  2   force =     0.00093583   -0.00253825   -0.01466837
     atom   10 type  2   force =    -0.00233847    0.00022187   -0.00049304
     atom   11 type  2   force =    -0.00368245   -0.00315534    0.00664101
     atom   12 type  2   force =     0.00438073   -0.00167666    0.00482422
     atom   13 type  2   force =    -0.00308522    0.00521414    0.00370276
     atom   14 type  2   force =     0.00239286    0.00265609   -0.00153444
     atom   15 type  2   force =    -0.00006412    0.00048084   -0.00155887
     atom   16 type  2   force =    -0.00079338   -0.00015719   -0.00150080
     atom   17 type  2   force =     0.00730496   -0.00322317    0.00101194
     atom   18 type  2   force =    -0.00097128    0.00330386    0.00073051
     atom   19 type  2   force =     0.00495953   -0.00378924   -0.00043230
     atom   20 type  2   force =    -0.00048050   -0.00016369   -0.00269904

     Total force =     0.028517     Total SCF correction =     0.000207


     Computing stress (Cartesian axis) and pressure

          total   stress  (Ry/bohr**3)                   (kbar)     P=       -4.02
  -0.00004411  -0.00001751   0.00001788           -6.49       -2.58        2.63
  -0.00001751  -0.00003458   0.00000038           -2.58       -5.09        0.06
   0.00001788   0.00000038  -0.00000323            2.63        0.06       -0.48

     Energy error            =      2.2E-03
     Gradient error          =      1.5E-02
     Cell gradient error     =      4.4E-05


     number of scf cycles    =   8
     number of bfgs steps    =   7

     enthalpy old            =    -119.2241394422 Ry
     enthalpy new            =    -119.2263533461 Ry

     CASE: enthalpy_new < enthalpy_old

     new trust radius        =       0.0912206601 bohr
     new conv_thr            =       0.0000001467 Ry

     new unit-cell volume =   1600.04085 a.u.^3 (   237.10159 Ang^3 )
     density =      0.14007 g/cm^3

CELL_PARAMETERS (angstrom)
  -5.214824288   0.083837401  -0.161287825
   0.449342318   6.659320578   0.184549624
  -0.212530431  -0.884593443  -6.849456053

ATOMIC_POSITIONS (angstrom)
Li           -3.0562395046        6.2850928340       -5.3069730022
Li           -3.0195759344        3.2602640239       -1.7786296669
Sr           -0.7966828356        4.6200923163       -3.4721738944
Li           -4.8763726835        1.3353506570       -3.3673727645
Li           -1.3680679402        2.0304521749       -5.9193375440
Li           -2.4434036594        6.6741425742       -1.6332065665
B            -2.1186286332        1.7746337746       -3.5875240480
B            -0.2899021563       -0.1199817304       -6.7128578363
H            -2.0675274511        4.7998797822       -0.9948762183
H            -2.7829451793        1.4940367259       -4.6304843071
H            -1.1615860997       -0.6468751881       -6.0177250189
H            -1.6393621457        0.6352618806       -3.2795236016
H            -4.8486061063        0.7693677928       -6.2087857268
H            -4.3519393659        3.3002673231       -5.3545590659
H             0.4491593855        4.3350861203       -1.2518774142
H            -4.6533073354        3.7490827436       -5.8989609299
H            -4.1207929765        6.6304448617       -0.2856522070
H            -0.6162996936        1.3710033120       -0.7705776705
H             0.2178324600        3.5913790767       -1.4173693869
H            -3.5100661498        5.5421304269       -3.6252942587



     Writing output data file ./tmp/SrLi5BH62.save/
     NEW-OLD atomic charge density approx. for the potential
     extrapolated charge   33.17722, renormalised to   33.00000

     total cpu time spent up to now is      905.1 secs

     Self-consistent Calculation

     iteration #  1     ecut=    50.00 Ry     beta= 0.70
     Davidson diagonalization with overlap
     c_bands:  1 eigenvalues not converged
     ethr =  1.00E-06,  avg # of iterations = 11.6

     total cpu time spent up to now is      915.0 secs

     total energy              =    -119.22786573 Ry
     estimated scf accuracy    <       0.00162085 Ry

     iteration #  2     ecut=    50.00 Ry     beta= 0.70
     Davidson diagonalization with overlap
     ethr =  4.91E-06,  avg # of iterations =  8.2

     total cpu time spent up to now is      921.5 secs

     total energy              =    -119.22882792 Ry
     estimated scf accuracy    <       0.00306215 Ry

     iteration #  3     ecut=    50.00 Ry     beta= 0.70
     Davidson diagonalization with overlap
     ethr =  4.91E-06,  avg # of iterations =  3.1

     total cpu time spent up to now is      926.2 secs

     total energy              =    -119.22897221 Ry
     estimated scf accuracy    <       0.00030159 Ry

     iteration #  4     ecut=    50.00 Ry     beta= 0.70
     Davidson diagonalization with overlap
     ethr =  9.14E-07,  avg # of iterations =  5.4

     total cpu time spent up to now is      931.8 secs

     total energy              =    -119.22906103 Ry
     estimated scf accuracy    <       0.00001966 Ry

     iteration #  5     ecut=    50.00 Ry     beta= 0.70
     Davidson diagonalization with overlap
     ethr =  5.96E-08,  avg # of iterations =  5.2

     total cpu time spent up to now is      937.3 secs

     total energy              =    -119.22906878 Ry
     estimated scf accuracy    <       0.00000842 Ry

     iteration #  6     ecut=    50.00 Ry     beta= 0.70
     Davidson diagonalization with overlap
     ethr =  2.55E-08,  avg # of iterations =  2.0

     total cpu time spent up to now is      941.8 secs

     total energy              =    -119.22906911 Ry
     estimated scf accuracy    <       0.00000132 Ry

     iteration #  7     ecut=    50.00 Ry     beta= 0.70
     Davidson diagonalization with overlap
     ethr =  3.99E-09,  avg # of iterations =  5.1

     total cpu time spent up to now is      947.0 secs

     End of self-consistent calculation

          k = 0.0000 0.0000 0.0000 (  7659 PWs)   bands (ev):

   -34.0105 -16.1199 -16.0635 -15.9037  -8.3272  -6.7171  -6.3506  -5.9485
    -3.5095  -3.2176  -3.1616  -2.4259  -1.6590  -0.7560   0.5687   1.7272
     2.9985   3.6312   3.7382   3.9144   4.3038

          k =-0.0113-0.0092 0.3591 (  7674 PWs)   bands (ev):

   -34.0105 -16.1206 -16.0636 -15.9037  -8.2784  -6.6724  -6.5341  -5.9176
    -3.4700  -3.2324  -3.0675  -2.4623  -1.6628  -0.7591   0.5290   1.6443
     3.2158   3.4485   3.9361   4.4048   4.4595

          k =-0.0074-0.3686 0.0478 (  7706 PWs)   bands (ev):

   -34.0105 -16.1201 -16.0637 -15.9048  -8.2336  -6.9159  -6.3435  -5.9069
    -3.3824  -3.2262  -3.1139  -2.4930  -1.7218  -0.7131   0.6115   1.6806
     2.9008   3.2796   3.8325   4.4820   4.5931

          k =-0.0187-0.3778 0.4070 (  7660 PWs)   bands (ev):

   -34.0105 -16.1206 -16.0639 -15.9048  -8.2174  -6.7994  -6.4491  -6.0018
    -3.2893  -3.2247  -3.1050  -2.4986  -1.7092  -0.7626   0.4929   1.6664
     3.3630   3.6183   3.7081   4.1469   4.5244

          k = 0.4695-0.0314-0.0105 (  7660 PWs)   bands (ev):

   -34.0102 -16.1220 -16.0729 -15.9084  -8.2375  -6.6469  -6.3732  -5.9680
    -3.5471  -3.4312  -3.0931  -2.5242  -1.5510  -0.9246   0.7571   1.2819
     2.6303   3.5512   3.9595   4.0556   4.3247

          k = 0.4582-0.0406 0.3486 (  7650 PWs)   bands (ev):

   -34.0102 -16.1225 -16.0731 -15.9084  -8.2076  -6.6371  -6.3418  -6.0768
    -3.6734  -3.4570  -3.0807  -2.3089  -1.5374  -0.8547   0.6927   1.3106
     2.7984   3.5656   3.9894   4.2559   4.3573

          k = 0.4621-0.4000 0.0373 (  7644 PWs)   bands (ev):

   -34.0102 -16.1222 -16.0730 -15.9096  -8.1586  -6.8215  -6.3275  -5.9752
    -3.5380  -3.2713  -3.0590  -2.5980  -1.6668  -0.8619   0.6007   1.2749
     2.8979   3.3696   3.7564   4.2441   4.7482

          k = 0.4508-0.4092 0.3964 (  7654 PWs)   bands (ev):

   -34.0102 -16.1226 -16.0732 -15.9095  -8.1533  -6.7506  -6.3430  -6.0419
    -3.6646  -3.3673  -3.0737  -2.3228  -1.5682  -0.9913   0.6148   1.3285
     3.0035   3.4104   3.9934   4.2636   4.8077

     the Fermi energy is     2.9667 ev

!    total energy              =    -119.22906953 Ry
     estimated scf accuracy    <       0.00000005 Ry
     smearing contrib. (-TS)   =      -0.00071362 Ry
     internal energy E=F+TS    =    -119.22835591 Ry

     The total energy is F=E-TS. E is the sum of the following terms:
     one-electron contribution =     -41.48837079 Ry
     hartree contribution      =      27.71197357 Ry
     xc contribution           =     -44.27060159 Ry
     ewald contribution        =     -50.74773032 Ry
     one-center paw contrib.   =     -10.43362678 Ry

     convergence has been achieved in   7 iterations

     Forces acting on atoms (cartesian axes, Ry/au):

     atom    1 type  3   force =    -0.00423334    0.00420480    0.00355562
     atom    2 type  3   force =     0.00209104   -0.00273499   -0.00421914
     atom    3 type  4   force =     0.00133030   -0.00131345   -0.00471934
     atom    4 type  3   force =    -0.00437686    0.00572166    0.00025185
     atom    5 type  3   force =    -0.00051615   -0.00107180    0.00546716
     atom    6 type  3   force =    -0.00316158   -0.00197867   -0.00088362
     atom    7 type  1   force =    -0.00139749    0.01143447    0.00844335
     atom    8 type  1   force =     0.00277896   -0.00057935    0.00120841
     atom    9 type  2   force =     0.00097661   -0.00248812   -0.01421588
     atom   10 type  2   force =    -0.00645512   -0.00095788   -0.00651945
     atom   11 type  2   force =    -0.00775913   -0.00617970    0.00849612
     atom   12 type  2   force =     0.00857921   -0.01159796    0.00688632
     atom   13 type  2   force =     0.00041279    0.00938209    0.00634672
     atom   14 type  2   force =     0.00206741    0.00332198   -0.00261273
     atom   15 type  2   force =     0.00035055    0.00116614   -0.00142006
     atom   16 type  2   force =    -0.00049683   -0.00083841   -0.00039576
     atom   17 type  2   force =     0.00843534   -0.00566020   -0.00028227
     atom   18 type  2   force =    -0.00337299    0.00468720   -0.00275824
     atom   19 type  2   force =     0.00493215   -0.00446874   -0.00061126
     atom   20 type  2   force =    -0.00018489   -0.00004908   -0.00201781

     Total force =     0.038520     Total SCF correction =     0.000274


     Computing stress (Cartesian axis) and pressure

          total   stress  (Ry/bohr**3)                   (kbar)     P=       -1.35
  -0.00002970  -0.00001803   0.00002034           -4.37       -2.65        2.99
  -0.00001803  -0.00000989  -0.00000233           -2.65       -1.46       -0.34
   0.00002034  -0.00000233   0.00001205            2.99       -0.34        1.77

     Energy error            =      2.7E-03
     Gradient error          =      1.4E-02
     Cell gradient error     =      3.0E-05


     number of scf cycles    =   9
     number of bfgs steps    =   8

     enthalpy old            =    -119.2263533461 Ry
     enthalpy new            =    -119.2290695262 Ry

     CASE: enthalpy_new < enthalpy_old

     new trust radius        =       0.1374701271 bohr
     new conv_thr            =       0.0000001422 Ry

     new unit-cell volume =   1604.24735 a.u.^3 (   237.72493 Ang^3 )
     density =      0.13970 g/cm^3

CELL_PARAMETERS (angstrom)
  -5.202158622   0.087099983  -0.171368263
   0.443906494   6.657924514   0.198233531
  -0.223053693  -0.898101035  -6.888142073

ATOMIC_POSITIONS (angstrom)
Li           -3.0888791803        6.3066075382       -5.2965912845
Li           -2.9937127519        3.2439148355       -1.8054065042
Sr           -0.7950388882        4.6044011252       -3.4850122866
Li           -4.8922105155        1.3578304156       -3.3931485479
Li           -1.3996272957        2.0268464819       -5.9167184449
Li           -2.4553667699        6.6538922508       -1.6549862019
B            -2.1076332278        1.7643083539       -3.6075367426
B            -0.3027961920       -0.1403707708       -6.7437655917
H            -2.0594690321        4.7910245354       -1.0676890280
H            -2.7799675379        1.4804194489       -4.6327866322
H            -1.1653668692       -0.6612069616       -6.0423502570
H            -1.6393509496        0.6446342911       -3.2832765955
H            -4.8696110241        0.7565211240       -6.2445624605
H            -4.3397270811        3.3055946867       -5.3924371053
H             0.4439301665        4.3248703366       -1.2567864536
H            -4.6562911403        3.7350294513       -5.9461402164
H            -4.0970389334        6.6375639044       -0.2629492905
H            -0.6115244896        1.3685812866       -0.7585499407
H             0.2265157895        3.5782332941       -1.4247108169
H            -3.5183946807        5.5269219738       -3.6566431168



     Writing output data file ./tmp/SrLi5BH62.save/
     NEW-OLD atomic charge density approx. for the potential
     extrapolated charge   33.08638, renormalised to   33.00000

     total cpu time spent up to now is      998.9 secs

     Self-consistent Calculation

     iteration #  1     ecut=    50.00 Ry     beta= 0.70
     Davidson diagonalization with overlap
     ethr =  1.00E-06,  avg # of iterations = 10.5

     total cpu time spent up to now is     1009.2 secs

     total energy              =    -119.23234812 Ry
     estimated scf accuracy    <       0.00191064 Ry

     iteration #  2     ecut=    50.00 Ry     beta= 0.70
     Davidson diagonalization with overlap
     ethr =  5.79E-06,  avg # of iterations =  3.0

     total cpu time spent up to now is     1014.3 secs

     total energy              =    -119.23252598 Ry
     estimated scf accuracy    <       0.00091330 Ry

     iteration #  3     ecut=    50.00 Ry     beta= 0.70
     Davidson diagonalization with overlap
     ethr =  2.77E-06,  avg # of iterations =  3.4

     total cpu time spent up to now is     1019.1 secs

     total energy              =    -119.23275164 Ry
     estimated scf accuracy    <       0.00014588 Ry

     iteration #  4     ecut=    50.00 Ry     beta= 0.70
     Davidson diagonalization with overlap
     ethr =  4.42E-07,  avg # of iterations =  3.0

     total cpu time spent up to now is     1023.7 secs

     total energy              =    -119.23277882 Ry
     estimated scf accuracy    <       0.00000773 Ry

     iteration #  5     ecut=    50.00 Ry     beta= 0.70
     Davidson diagonalization with overlap
     ethr =  2.34E-08,  avg # of iterations =  5.5

     total cpu time spent up to now is     1029.2 secs

     total energy              =    -119.23278259 Ry
     estimated scf accuracy    <       0.00000126 Ry

     iteration #  6     ecut=    50.00 Ry     beta= 0.70
     Davidson diagonalization with overlap
     ethr =  3.81E-09,  avg # of iterations =  3.0

     total cpu time spent up to now is     1034.1 secs

     total energy              =    -119.23278280 Ry
     estimated scf accuracy    <       0.00000018 Ry

     iteration #  7     ecut=    50.00 Ry     beta= 0.70
     Davidson diagonalization with overlap
     ethr =  5.36E-10,  avg # of iterations =  5.2

     total cpu time spent up to now is     1039.4 secs

     End of self-consistent calculation

          k = 0.0000 0.0000 0.0000 (  7659 PWs)   bands (ev):

   -33.9949 -16.1047 -16.0478 -15.8931  -8.3363  -6.7085  -6.4209  -5.9583
    -3.4893  -3.2089  -3.1827  -2.5098  -1.6937  -0.7767   0.5402   1.6919
     2.9759   3.5950   3.7167   3.8949   4.3186

          k =-0.0119-0.0098 0.3572 (  7674 PWs)   bands (ev):

   -33.9949 -16.1052 -16.0480 -15.8931  -8.2887  -6.6755  -6.5735  -5.9428
    -3.4538  -3.2139  -3.0971  -2.5463  -1.6986  -0.7799   0.5084   1.6041
     3.1961   3.4434   3.9214   4.3600   4.4541

          k =-0.0078-0.3688 0.0483 (  7706 PWs)   bands (ev):

   -33.9949 -16.1049 -16.0480 -15.8943  -8.2461  -6.8962  -6.4159  -5.9224
    -3.3744  -3.2221  -3.1203  -2.5648  -1.7700  -0.7377   0.5886   1.6407
     2.9055   3.2482   3.8265   4.4794   4.5838

          k =-0.0197-0.3786 0.4056 (  7660 PWs)   bands (ev):

   -33.9949 -16.1053 -16.0482 -15.8943  -8.2303  -6.7765  -6.5165  -6.0207
    -3.2677  -3.2189  -3.1273  -2.5848  -1.7480  -0.7849   0.4830   1.6161
     3.3610   3.5937   3.7056   4.1322   4.5153

          k = 0.4707-0.0310-0.0112 (  7660 PWs)   bands (ev):

   -33.9946 -16.1074 -16.0568 -15.8981  -8.2462  -6.6292  -6.4531  -5.9714
    -3.5273  -3.4264  -3.1134  -2.6098  -1.5780  -0.9536   0.7366   1.2421
     2.6025   3.5227   3.9483   4.0651   4.3076

          k = 0.4587-0.0409 0.3461 (  7650 PWs)   bands (ev):

   -33.9946 -16.1078 -16.0570 -15.8981  -8.2174  -6.6252  -6.4214  -6.0750
    -3.6461  -3.4649  -3.0946  -2.3935  -1.5714  -0.8821   0.6723   1.2802
     2.7771   3.5481   3.9556   4.2353   4.3131

          k = 0.4629-0.3998 0.0371 (  7644 PWs)   bands (ev):

   -33.9945 -16.1076 -16.0569 -15.8993  -8.1708  -6.7946  -6.4148  -5.9768
    -3.5244  -3.2635  -3.0749  -2.6830  -1.6917  -0.8969   0.5777   1.2405
     2.8757   3.3557   3.7211   4.2127   4.7555

          k = 0.4510-0.4097 0.3944 (  7654 PWs)   bands (ev):

   -33.9945 -16.1079 -16.0571 -15.8993  -8.1657  -6.7244  -6.4257  -6.0488
    -3.6432  -3.3828  -3.0744  -2.4067  -1.6041  -1.0097   0.5871   1.2973
     2.9731   3.3473   3.9770   4.2279   4.8163

     the Fermi energy is     2.9486 ev

!    total energy              =    -119.23278281 Ry
     estimated scf accuracy    <       0.00000008 Ry
     smearing contrib. (-TS)   =      -0.00076248 Ry
     internal energy E=F+TS    =    -119.23202034 Ry

     The total energy is F=E-TS. E is the sum of the following terms:
     one-electron contribution =     -42.03847527 Ry
     hartree contribution      =      27.99131479 Ry
     xc contribution           =     -44.30354558 Ry
     ewald contribution        =     -50.44799004 Ry
     one-center paw contrib.   =     -10.43332424 Ry

     convergence has been achieved in   7 iterations

     Forces acting on atoms (cartesian axes, Ry/au):

     atom    1 type  3   force =    -0.00250606    0.00344096    0.00189928
     atom    2 type  3   force =     0.00021150   -0.00265165   -0.00362412
     atom    3 type  4   force =     0.00100280    0.00053999   -0.00556170
     atom    4 type  3   force =    -0.00353309    0.00507721    0.00126652
     atom    5 type  3   force =     0.00175572   -0.00162173    0.00425550
     atom    6 type  3   force =    -0.00374709   -0.00169056   -0.00010852
     atom    7 type  1   force =    -0.00324043    0.02000816    0.01076130
     atom    8 type  1   force =     0.00388465    0.00042517    0.00230966
     atom    9 type  2   force =     0.00102291   -0.00201140   -0.01311221
     atom   10 type  2   force =    -0.00979059   -0.00219049   -0.01083827
     atom   11 type  2   force =    -0.01078861   -0.00886057    0.00867440
     atom   12 type  2   force =     0.01186856   -0.02036713    0.00839501
     atom   13 type  2   force =     0.00388408    0.01263966    0.00821280
     atom   14 type  2   force =     0.00171153    0.00406430   -0.00401711
     atom   15 type  2   force =     0.00089126    0.00141321   -0.00127253
     atom   16 type  2   force =    -0.00021313   -0.00166464    0.00098670
     atom   17 type  2   force =     0.00822316   -0.00661349   -0.00071445
     atom   18 type  2   force =    -0.00542377    0.00485881   -0.00558091
     atom   19 type  2   force =     0.00461385   -0.00456887   -0.00099025
     atom   20 type  2   force =     0.00017277   -0.00022696   -0.00094109

     Total force =     0.050197     Total SCF correction =     0.000238


     Computing stress (Cartesian axis) and pressure

          total   stress  (Ry/bohr**3)                   (kbar)     P=        1.85
  -0.00001200  -0.00001472   0.00001929           -1.77       -2.17        2.84
  -0.00001472   0.00001963  -0.00000518           -2.17        2.89       -0.76
   0.00001929  -0.00000518   0.00003020            2.84       -0.76        4.44

     Energy error            =      3.7E-03
     Gradient error          =      2.0E-02
     Cell gradient error     =      3.0E-05


     number of scf cycles    =  10
     number of bfgs steps    =   9

     enthalpy old            =    -119.2290695262 Ry
     enthalpy new            =    -119.2327828130 Ry

     CASE: enthalpy_new < enthalpy_old

     new trust radius        =       0.2072802167 bohr
     new conv_thr            =       0.0000002037 Ry

     new unit-cell volume =   1607.60845 a.u.^3 (   238.22299 Ang^3 )
     density =      0.13941 g/cm^3

CELL_PARAMETERS (angstrom)
  -5.178854312   0.093641915  -0.188010451
   0.433507058   6.653290137   0.215871564
  -0.240353174  -0.914981439  -6.941958749

ATOMIC_POSITIONS (angstrom)
Li           -3.1363014701        6.3385986973       -5.2837873426
Li           -2.9570549070        3.2198845206       -1.8473466643
Sr           -0.7944647685        4.5821802108       -3.5084442086
Li           -4.9124209324        1.3940748721       -3.4308515824
Li           -1.4436014029        2.0217697451       -5.9116049968
Li           -2.4746780011        6.6235266997       -1.6887012951
B            -2.0946893480        1.7584016270       -3.6319923196
B            -0.3223448207       -0.1666819494       -6.7853116257
H            -2.0483357326        4.7757835011       -1.1803554895
H            -2.7796104271        1.4622267471       -4.6412557898
H            -1.1763183675       -0.6831773939       -6.0733127074
H            -1.6341577597        0.6504739564       -3.2850996958
H            -4.8951697579        0.7482609120       -6.2930695749
H            -4.3205449903        3.3163405993       -5.4500793625
H             0.4342472349        4.3090630207       -1.2656196010
H            -4.6600644064        3.7168188377       -6.0148910235
H            -4.0583716610        6.6446692672       -0.2342917989
H            -0.6070005600        1.3668752855       -0.7434328656
H             0.2393913201        3.5569879744       -1.4363190116
H            -3.5295175501        5.5057836108       -3.7042571336



     Writing output data file ./tmp/SrLi5BH62.save/
     NEW-OLD atomic charge density approx. for the potential
     extrapolated charge   33.06887, renormalised to   33.00000

     total cpu time spent up to now is     1091.6 secs

     Self-consistent Calculation

     iteration #  1     ecut=    50.00 Ry     beta= 0.70
     Davidson diagonalization with overlap
     ethr =  1.00E-06,  avg # of iterations = 11.5

     total cpu time spent up to now is     1102.8 secs

     total energy              =    -119.23710433 Ry
     estimated scf accuracy    <       0.00376247 Ry

     iteration #  2     ecut=    50.00 Ry     beta= 0.70
     Davidson diagonalization with overlap
     ethr =  1.14E-05,  avg # of iterations =  2.0

     total cpu time spent up to now is     1107.6 secs

     total energy              =    -119.23741390 Ry
     estimated scf accuracy    <       0.00098605 Ry

     iteration #  3     ecut=    50.00 Ry     beta= 0.70
     Davidson diagonalization with overlap
     ethr =  2.99E-06,  avg # of iterations =  4.0

     total cpu time spent up to now is     1112.5 secs

     total energy              =    -119.23766653 Ry
     estimated scf accuracy    <       0.00033605 Ry

     iteration #  4     ecut=    50.00 Ry     beta= 0.70
     Davidson diagonalization with overlap
     ethr =  1.02E-06,  avg # of iterations =  2.9

     total cpu time spent up to now is     1117.1 secs

     total energy              =    -119.23773134 Ry
     estimated scf accuracy    <       0.00000517 Ry

     iteration #  5     ecut=    50.00 Ry     beta= 0.70
     Davidson diagonalization with overlap
     ethr =  1.57E-08,  avg # of iterations =  6.6

     total cpu time spent up to now is     1123.1 secs

     total energy              =    -119.23773602 Ry
     estimated scf accuracy    <       0.00000498 Ry

     iteration #  6     ecut=    50.00 Ry     beta= 0.70
     Davidson diagonalization with overlap
     ethr =  1.51E-08,  avg # of iterations =  2.0

     total cpu time spent up to now is     1127.7 secs

     total energy              =    -119.23773639 Ry
     estimated scf accuracy    <       0.00000059 Ry

     iteration #  7     ecut=    50.00 Ry     beta= 0.70
     Davidson diagonalization with overlap
     ethr =  1.78E-09,  avg # of iterations =  5.0

     total cpu time spent up to now is     1133.2 secs

     total energy              =    -119.23773665 Ry
     estimated scf accuracy    <       0.00000030 Ry

     iteration #  8     ecut=    50.00 Ry     beta= 0.70
     Davidson diagonalization with overlap
     ethr =  9.03E-10,  avg # of iterations =  2.0

     total cpu time spent up to now is     1137.8 secs

     End of self-consistent calculation

          k = 0.0000 0.0000 0.0000 (  7659 PWs)   bands (ev):

   -33.9456 -16.0587 -15.9992 -15.8527  -8.3352  -6.6967  -6.4650  -5.9562
    -3.4720  -3.2085  -3.1781  -2.5897  -1.7265  -0.7934   0.4853   1.6485
     2.9561   3.5531   3.6919   3.8891   4.3583

          k =-0.0131-0.0107 0.3547 (  7674 PWs)   bands (ev):

   -33.9456 -16.0592 -15.9994 -15.8527  -8.2887  -6.7040  -6.5608  -5.9536
    -3.4434  -3.1743  -3.1236  -2.6281  -1.7354  -0.7959   0.4639   1.5555
     3.1755   3.4475   3.9106   4.3183   4.4635

          k =-0.0085-0.3692 0.0489 (  7706 PWs)   bands (ev):

   -33.9456 -16.0590 -15.9995 -15.8539  -8.2477  -6.8655  -6.4737  -5.9229
    -3.3787  -3.2003  -3.1160  -2.6342  -1.8188  -0.7603   0.5452   1.5923
     2.9229   3.2071   3.8363   4.4881   4.5746

          k =-0.0215-0.3798 0.4036 (  7660 PWs)   bands (ev):

   -33.9456 -16.0594 -15.9997 -15.8539  -8.2327  -6.7430  -6.5695  -6.0241
    -3.2784  -3.1609  -3.1504  -2.6694  -1.7901  -0.8041   0.4563   1.5547
     3.3696   3.5641   3.7147   4.1225   4.5086

          k = 0.4728-0.0304-0.0124 (  7660 PWs)   bands (ev):

   -33.9453 -16.0623 -16.0079 -15.8582  -8.2435  -6.6101  -6.5020  -5.9635
    -3.5123  -3.4058  -3.1306  -2.6937  -1.6031  -0.9828   0.6876   1.1967
     2.5629   3.4874   3.9424   4.0883   4.2974

          k = 0.4598-0.0411 0.3423 (  7650 PWs)   bands (ev):

   -33.9453 -16.0626 -16.0082 -15.8582  -8.2157  -6.6179  -6.4618  -6.0641
    -3.6073  -3.4758  -3.1058  -2.4715  -1.6056  -0.9097   0.6260   1.2446
     2.7486   3.5195   3.9211   4.2211   4.2733

          k = 0.4644-0.3996 0.0366 (  7644 PWs)   bands (ev):

   -33.9453 -16.0625 -16.0080 -15.8594  -8.1710  -6.7515  -6.4875  -5.9666
    -3.5096  -3.2391  -3.0954  -2.7656  -1.7137  -0.9325   0.5269   1.2001
     2.8468   3.3386   3.6804   4.1824   4.7848

          k = 0.4513-0.4102 0.3913 (  7654 PWs)   bands (ev):

   -33.9453 -16.0628 -16.0082 -15.8594  -8.1665  -6.6837  -6.4933  -6.0419
    -3.6134  -3.4000  -3.0694  -2.4858  -1.6420  -1.0247   0.5338   1.2607
     2.9349   3.2658   3.9602   4.1965   4.8286

     the Fermi energy is     2.9299 ev

!    total energy              =    -119.23773663 Ry
     estimated scf accuracy    <       0.00000005 Ry
     smearing contrib. (-TS)   =      -0.00077935 Ry
     internal energy E=F+TS    =    -119.23695728 Ry

     The total energy is F=E-TS. E is the sum of the following terms:
     one-electron contribution =     -42.69068368 Ry
     hartree contribution      =      28.33270784 Ry
     xc contribution           =     -44.33566368 Ry
     ewald contribution        =     -50.11020298 Ry
     one-center paw contrib.   =     -10.43311478 Ry

     convergence has been achieved in   8 iterations

     Forces acting on atoms (cartesian axes, Ry/au):

     atom    1 type  3   force =     0.00008654    0.00242954   -0.00046100
     atom    2 type  3   force =    -0.00239682   -0.00234365   -0.00236509
     atom    3 type  4   force =     0.00062779    0.00338775   -0.00684613
     atom    4 type  3   force =    -0.00179620    0.00373223    0.00278576
     atom    5 type  3   force =     0.00487307   -0.00209342    0.00241463
     atom    6 type  3   force =    -0.00444566   -0.00141492    0.00045648
     atom    7 type  1   force =    -0.00528515    0.02250636    0.01142746
     atom    8 type  1   force =     0.00438453    0.00209557    0.00405729
     atom    9 type  2   force =     0.00090115   -0.00094478   -0.01077863
     atom   10 type  2   force =    -0.01156168   -0.00307108   -0.01211683
     atom   11 type  2   force =    -0.01213995   -0.01076605    0.00661687
     atom   12 type  2   force =     0.01275739   -0.02433013    0.00820179
     atom   13 type  2   force =     0.00684230    0.01439960    0.00871351
     atom   14 type  2   force =     0.00141226    0.00468063   -0.00573200
     atom   15 type  2   force =     0.00143379    0.00089188   -0.00110864
     atom   16 type  2   force =    -0.00007227   -0.00251658    0.00267154
     atom   17 type  2   force =     0.00633034   -0.00557986   -0.00013921
     atom   18 type  2   force =    -0.00677629    0.00340710   -0.00701441
     atom   19 type  2   force =     0.00404508   -0.00375657   -0.00148174
     atom   20 type  2   force =     0.00077979   -0.00071360    0.00069836

     Total force =     0.054965     Total SCF correction =     0.000182


     Computing stress (Cartesian axis) and pressure

          total   stress  (Ry/bohr**3)                   (kbar)     P=        4.95
   0.00000491  -0.00000609   0.00001247            0.72       -0.90        1.83
  -0.00000609   0.00004748  -0.00000844           -0.90        6.98       -1.24
   0.00001247  -0.00000844   0.00004862            1.83       -1.24        7.15

     Energy error            =      5.0E-03
     Gradient error          =      2.4E-02
     Cell gradient error     =      4.9E-05


     number of scf cycles    =  11
     number of bfgs steps    =  10

     enthalpy old            =    -119.2327828130 Ry
     enthalpy new            =    -119.2377366304 Ry

     CASE: enthalpy_new < enthalpy_old

     new trust radius        =       0.3131425491 bohr
     new conv_thr            =       0.0000002433 Ry

     new unit-cell volume =   1612.72428 a.u.^3 (   238.98108 Ang^3 )
     density =      0.13897 g/cm^3

CELL_PARAMETERS (angstrom)
  -5.141577576   0.103682388  -0.213462810
   0.417824163   6.649590215   0.238625624
  -0.266569817  -0.936842933  -7.023456794

ATOMIC_POSITIONS (angstrom)
Li           -3.2019266137        6.3916552275       -5.2723339401
Li           -2.9061456029        3.1861305316       -1.9128168653
Sr           -0.7937687294        4.5565144626       -3.5526602755
Li           -4.9387277439        1.4509452244       -3.4866576813
Li           -1.5018458506        2.0165263693       -5.9073165057
Li           -2.5044612861        6.5829262240       -1.7424532227
B            -2.0797617929        1.7607569181       -3.6640902158
B            -0.3498909043       -0.1994197857       -6.8456031068
H            -2.0324335558        4.7549250788       -1.3554806166
H            -2.7838887146        1.4375000716       -4.6621016661
H            -1.1982031393       -0.7186084269       -6.1192734413
H            -1.6204463237        0.6498158155       -3.2858092157
H            -4.9256289910        0.7488994816       -6.3634002616
H            -4.2905301262        3.3382003509       -5.5427843492
H             0.4199791279        4.2879136583       -1.2822890622
H            -4.6644189852        3.6942217293       -6.1189159248
H            -3.9979890838        6.6572318660       -0.1951317963
H            -0.6034894739        1.3659780072       -0.7248541913
H             0.2599832222        3.5273991287       -1.4564777968
H            -3.5432299192        5.4793384001       -3.7781832956



     Writing output data file ./tmp/SrLi5BH62.save/
     NEW-OLD atomic charge density approx. for the potential
     extrapolated charge   33.10450, renormalised to   33.00000

     total cpu time spent up to now is     1189.7 secs

     Self-consistent Calculation

     iteration #  1     ecut=    50.00 Ry     beta= 0.70
     Davidson diagonalization with overlap
     c_bands:  1 eigenvalues not converged
     c_bands:  1 eigenvalues not converged
     ethr =  1.00E-06,  avg # of iterations = 15.0

     total cpu time spent up to now is     1202.1 secs

     total energy              =    -119.24172648 Ry
     estimated scf accuracy    <       0.00844185 Ry

     iteration #  2     ecut=    50.00 Ry     beta= 0.70
     Davidson diagonalization with overlap
     ethr =  2.56E-05,  avg # of iterations =  2.0

     total cpu time spent up to now is     1207.0 secs

     total energy              =    -119.24260839 Ry
     estimated scf accuracy    <       0.00161253 Ry

     iteration #  3     ecut=    50.00 Ry     beta= 0.70
     Davidson diagonalization with overlap
     ethr =  4.89E-06,  avg # of iterations =  2.2

     total cpu time spent up to now is     1211.9 secs

     total energy              =    -119.24302430 Ry
     estimated scf accuracy    <       0.00040231 Ry

     iteration #  4     ecut=    50.00 Ry     beta= 0.70
     Davidson diagonalization with overlap
     ethr =  1.22E-06,  avg # of iterations =  1.9

     total cpu time spent up to now is     1216.4 secs

     total energy              =    -119.24309920 Ry
     estimated scf accuracy    <       0.00001547 Ry

     iteration #  5     ecut=    50.00 Ry     beta= 0.70
     Davidson diagonalization with overlap
     ethr =  4.69E-08,  avg # of iterations =  5.6

     total cpu time spent up to now is     1222.2 secs

     total energy              =    -119.24310755 Ry
     estimated scf accuracy    <       0.00000386 Ry

     iteration #  6     ecut=    50.00 Ry     beta= 0.70
     Davidson diagonalization with overlap
     ethr =  1.17E-08,  avg # of iterations =  5.4

     total cpu time spent up to now is     1227.2 secs

     total energy              =    -119.24310837 Ry
     estimated scf accuracy    <       0.00000071 Ry

     iteration #  7     ecut=    50.00 Ry     beta= 0.70
     Davidson diagonalization with overlap
     ethr =  2.16E-09,  avg # of iterations =  3.2

     total cpu time spent up to now is     1232.1 secs

     End of self-consistent calculation

          k = 0.0000 0.0000 0.0000 (  7659 PWs)   bands (ev):

   -33.8567 -15.9784 -15.9122 -15.7785  -8.3180  -6.6920  -6.4629  -5.9457
    -3.4713  -3.2317  -3.1299  -2.6575  -1.7634  -0.8063   0.3783   1.5850
     2.9372   3.4934   3.6510   3.8950   4.4229

          k =-0.0148-0.0117 0.3508 (  7674 PWs)   bands (ev):

   -33.8567 -15.9788 -15.9125 -15.7785  -8.2729  -6.7374  -6.5083  -5.9522
    -3.4460  -3.1726  -3.0892  -2.7009  -1.7811  -0.8069   0.3697   1.4871
     3.1499   3.4542   3.8862   4.2776   4.4805

          k =-0.0095-0.3695 0.0496 (  7706 PWs)   bands (ev):

   -33.8567 -15.9787 -15.9125 -15.7797  -8.2326  -6.8279  -6.5017  -5.9136
    -3.3990  -3.1887  -3.0799  -2.6941  -1.8762  -0.7825   0.4591   1.5249
     2.9514   3.1429   3.8612   4.4958   4.5599

          k =-0.0243-0.3812 0.4005 (  7660 PWs)   bands (ev):

   -33.8567 -15.9790 -15.9127 -15.7797  -8.2188  -6.7143  -6.5822  -6.0160
    -3.2993  -3.1810  -3.0759  -2.7448  -1.8443  -0.8210   0.3906   1.4717
     3.3775   3.5295   3.7257   4.1095   4.4935

          k = 0.4764-0.0294-0.0142 (  7660 PWs)   bands (ev):

   -33.8563 -15.9829 -15.9206 -15.7851  -8.2227  -6.6198  -6.4794  -5.9471
    -3.5134  -3.3735  -3.1372  -2.7728  -1.6310  -1.0144   0.5830   1.1363
     2.4955   3.4319   3.9255   4.1208   4.2810

          k = 0.4616-0.0411 0.3367 (  7650 PWs)   bands (ev):

   -33.8563 -15.9831 -15.9209 -15.7851  -8.1962  -6.6305  -6.4386  -6.0453
    -3.5676  -3.4868  -3.1160  -2.5378  -1.6440  -0.9415   0.5282   1.1931
     2.6995   3.4567   3.8704   4.1869   4.2509

          k = 0.4668-0.3989 0.0355 (  7644 PWs)   bands (ev):

   -33.8563 -15.9831 -15.9207 -15.7864  -8.1526  -6.6963  -6.5301  -5.9483
    -3.5015  -3.1962  -3.1253  -2.8396  -1.7370  -0.9706   0.4244   1.1436
     2.7928   3.3051   3.6180   4.1483   4.8033

          k = 0.4520-0.4106 0.3863 (  7654 PWs)   bands (ev):

   -33.8563 -15.9833 -15.9209 -15.7864  -8.1491  -6.6409  -6.5216  -6.0252
    -3.5840  -3.4158  -3.0621  -2.5550  -1.6869  -1.0381   0.4315   1.2088
     2.8706   3.1525   3.9233   4.1627   4.8146

     the Fermi energy is     2.8992 ev

!    total energy              =    -119.24310853 Ry
     estimated scf accuracy    <       0.00000008 Ry
     smearing contrib. (-TS)   =      -0.00069190 Ry
     internal energy E=F+TS    =    -119.24241663 Ry

     The total energy is F=E-TS. E is the sum of the following terms:
     one-electron contribution =     -43.57672273 Ry
     hartree contribution      =      28.79590306 Ry
     xc contribution           =     -44.35929607 Ry
     ewald contribution        =     -49.66918767 Ry
     one-center paw contrib.   =     -10.43311322 Ry

     convergence has been achieved in   7 iterations

     Forces acting on atoms (cartesian axes, Ry/au):

     atom    1 type  3   force =     0.00350032    0.00102573   -0.00355980
     atom    2 type  3   force =    -0.00574725   -0.00138171    0.00010694
     atom    3 type  4   force =     0.00030790    0.00741034   -0.00961742
     atom    4 type  3   force =     0.00198391    0.00118872    0.00500341
     atom    5 type  3   force =     0.00905858   -0.00209313   -0.00023583
     atom    6 type  3   force =    -0.00523713   -0.00125694    0.00058049
     atom    7 type  1   force =    -0.00801708    0.01251729    0.00934789
     atom    8 type  1   force =     0.00351060    0.00493273    0.00676958
     atom    9 type  2   force =     0.00010316    0.00103090   -0.00588421
     atom   10 type  2   force =    -0.00981245   -0.00268671   -0.00754384
     atom   11 type  2   force =    -0.00967843   -0.01040199    0.00066607
     atom   12 type  2   force =     0.00906021   -0.01874673    0.00429899
     atom   13 type  2   force =     0.00814624    0.01268519    0.00634019
     atom   14 type  2   force =     0.00174898    0.00448093   -0.00717506
     atom   15 type  2   force =     0.00176593   -0.00116547   -0.00089421
     atom   16 type  2   force =    -0.00085133   -0.00283795    0.00404448
     atom   17 type  2   force =     0.00150678   -0.00114364    0.00201487
     atom   18 type  2   force =    -0.00636132   -0.00082862   -0.00518968
     atom   19 type  2   force =     0.00301605   -0.00121882   -0.00199179
     atom   20 type  2   force =     0.00199632   -0.00151013    0.00291893

     Total force =     0.045535     Total SCF correction =     0.000343


     Computing stress (Cartesian axis) and pressure

          total   stress  (Ry/bohr**3)                   (kbar)     P=        7.28
   0.00001757   0.00000974  -0.00000354            2.58        1.43       -0.52
   0.00000974   0.00006580  -0.00001203            1.43        9.68       -1.77
  -0.00000354  -0.00001203   0.00006514           -0.52       -1.77        9.58

     Energy error            =      5.4E-03
     Gradient error          =      1.9E-02
     Cell gradient error     =      6.6E-05


     number of scf cycles    =  12
     number of bfgs steps    =  11

     enthalpy old            =    -119.2377366304 Ry
     enthalpy new            =    -119.2431085288 Ry

     CASE: enthalpy_new < enthalpy_old

     new trust radius        =       0.1407580643 bohr
     new conv_thr            =       0.0000001875 Ry

     new unit-cell volume =   1618.58701 a.u.^3 (   239.84985 Ang^3 )
     density =      0.13846 g/cm^3

CELL_PARAMETERS (angstrom)
  -5.125038267   0.106685937  -0.223783811
   0.413180617   6.656030041   0.245025901
  -0.276809304  -0.943805323  -7.066514549

ATOMIC_POSITIONS (angstrom)
Li           -3.2235118877        6.4239909109       -5.2797587870
Li           -2.8874010149        3.1748847212       -1.9442365522
Sr           -0.7910678940        4.5574632069       -3.5861205889
Li           -4.9462156892        1.4779717579       -3.5109216285
Li           -1.5178200612        2.0176742182       -5.9141074846
Li           -2.5178320922        6.5729864113       -1.7704114994
B            -2.0776290278        1.7689561258       -3.6768019326
B            -0.3587389451       -0.2060103900       -6.8743381832
H            -2.0244247037        4.7520186682       -1.4384330740
H            -2.7894683567        1.4289162750       -4.6806031323
H            -1.2116417852       -0.7382490999       -6.1469038820
H            -1.6094088655        0.6424501770       -3.2884767281
H            -4.9317478680        0.7602236209       -6.3968478531
H            -4.2740837430        3.3552611598       -5.5950595089
H             0.4162117763        4.2830453841       -1.2943822950
H            -4.6645873084        3.6895916336       -6.1694696629
H            -3.9695164204        6.6699300694       -0.1793668079
H            -0.6047745537        1.3659323751       -0.7206090404
H             0.2723206726        3.5199890456       -1.4700389536
H            -3.5446351201        5.4748708687       -3.8146989149



     Writing output data file ./tmp/SrLi5BH62.save/
     NEW-OLD atomic charge density approx. for the potential
     extrapolated charge   33.11932, renormalised to   33.00000

     total cpu time spent up to now is     1284.2 secs

     Self-consistent Calculation

     iteration #  1     ecut=    50.00 Ry     beta= 0.70
     Davidson diagonalization with overlap
     ethr =  1.00E-06,  avg # of iterations = 11.9

     total cpu time spent up to now is     1294.5 secs

     total energy              =    -119.24498882 Ry
     estimated scf accuracy    <       0.00212450 Ry

     iteration #  2     ecut=    50.00 Ry     beta= 0.70
     Davidson diagonalization with overlap
     ethr =  6.44E-06,  avg # of iterations =  2.9

     total cpu time spent up to now is     1299.9 secs

     total energy              =    -119.24563522 Ry
     estimated scf accuracy    <       0.00129248 Ry

     iteration #  3     ecut=    50.00 Ry     beta= 0.70
     Davidson diagonalization with overlap
     ethr =  3.92E-06,  avg # of iterations =  2.0

     total cpu time spent up to now is     1304.6 secs

     total energy              =    -119.24579334 Ry
     estimated scf accuracy    <       0.00006582 Ry

     iteration #  4     ecut=    50.00 Ry     beta= 0.70
     Davidson diagonalization with overlap
     ethr =  1.99E-07,  avg # of iterations =  4.2

     total cpu time spent up to now is     1310.2 secs

     total energy              =    -119.24582328 Ry
     estimated scf accuracy    <       0.00002146 Ry

     iteration #  5     ecut=    50.00 Ry     beta= 0.70
     Davidson diagonalization with overlap
     ethr =  6.50E-08,  avg # of iterations =  3.6

     total cpu time spent up to now is     1315.2 secs

     total energy              =    -119.24582652 Ry
     estimated scf accuracy    <       0.00000665 Ry

     iteration #  6     ecut=    50.00 Ry     beta= 0.70
     Davidson diagonalization with overlap
     ethr =  2.01E-08,  avg # of iterations =  2.0

     total cpu time spent up to now is     1319.8 secs

     total energy              =    -119.24582758 Ry
     estimated scf accuracy    <       0.00000022 Ry

     iteration #  7     ecut=    50.00 Ry     beta= 0.70
     Davidson diagonalization with overlap
     ethr =  6.81E-10,  avg # of iterations =  6.1

     total cpu time spent up to now is     1326.2 secs

     total energy              =    -119.24582780 Ry
     estimated scf accuracy    <       0.00000028 Ry

     iteration #  8     ecut=    50.00 Ry     beta= 0.70
     Davidson diagonalization with overlap
     ethr =  6.81E-10,  avg # of iterations =  2.0

     total cpu time spent up to now is     1330.7 secs

     End of self-consistent calculation

          k = 0.0000 0.0000 0.0000 (  7659 PWs)   bands (ev):

   -33.8313 -15.9561 -15.8868 -15.7588  -8.3070  -6.6836  -6.4498  -5.9666
    -3.4919  -3.2436  -3.1199  -2.6695  -1.7809  -0.8051   0.3080   1.5487
     2.9240   3.4641   3.6282   3.8927   4.4411

          k =-0.0155-0.0119 0.3488 (  7674 PWs)   bands (ev):

   -33.8313 -15.9565 -15.8871 -15.7588  -8.2628  -6.7258  -6.5011  -5.9692
    -3.4628  -3.1795  -3.0874  -2.7105  -1.8032  -0.8047   0.3040   1.4488
     3.1303   3.4507   3.8643   4.2651   4.4771

          k =-0.0099-0.3692 0.0497 (  7706 PWs)   bands (ev):

   -33.8313 -15.9564 -15.8871 -15.7600  -8.2216  -6.8222  -6.4866  -5.9335
    -3.4115  -3.1890  -3.0918  -2.7042  -1.9005  -0.7853   0.4011   1.4897
     2.9557   3.1109   3.8622   4.4884   4.5502

          k =-0.0253-0.3811 0.3985 (  7660 PWs)   bands (ev):

   -33.8313 -15.9567 -15.8874 -15.7599  -8.2086  -6.7050  -6.5720  -6.0324
    -3.3092  -3.1941  -3.0787  -2.7533  -1.8713  -0.8213   0.3390   1.4322
     3.3642   3.5226   3.7214   4.0890   4.4715

          k = 0.4779-0.0291-0.0148 (  7660 PWs)   bands (ev):

   -33.8309 -15.9609 -15.8950 -15.7662  -8.2096  -6.6052  -6.4692  -5.9658
    -3.5167  -3.3904  -3.1419  -2.7894  -1.6426  -1.0208   0.5142   1.1009
     2.4536   3.3970   3.9030   4.1118   4.2670

          k = 0.4625-0.0410 0.3340 (  7650 PWs)   bands (ev):

   -33.8309 -15.9611 -15.8952 -15.7662  -8.1838  -6.6143  -6.4293  -6.0631
    -3.5656  -3.5037  -3.1269  -2.5509  -1.6590  -0.9495   0.4629   1.1589
     2.6627   3.4155   3.8269   4.1541   4.2455

          k = 0.4681-0.3983 0.0349 (  7644 PWs)   bands (ev):

   -33.8309 -15.9612 -15.8950 -15.7674  -8.1396  -6.6885  -6.5129  -5.9671
    -3.5022  -3.2047  -3.1442  -2.8539  -1.7475  -0.9789   0.3605   1.1097
     2.7514   3.2782   3.5770   4.1320   4.7869

          k = 0.4526-0.4102 0.3837 (  7654 PWs)   bands (ev):

   -33.8309 -15.9613 -15.8952 -15.7674  -8.1366  -6.6314  -6.5062  -6.0428
    -3.5837  -3.4233  -3.0826  -2.5666  -1.7063  -1.0399   0.3699   1.1752
     2.8333   3.0953   3.8845   4.1437   4.7794

     the Fermi energy is     2.8747 ev

!    total energy              =    -119.24582779 Ry
     estimated scf accuracy    <       0.00000005 Ry
     smearing contrib. (-TS)   =      -0.00054792 Ry
     internal energy E=F+TS    =    -119.24527987 Ry

     The total energy is F=E-TS. E is the sum of the following terms:
     one-electron contribution =     -43.93692626 Ry
     hartree contribution      =      28.96386035 Ry
     xc contribution           =     -44.34752058 Ry
     ewald contribution        =     -49.49134429 Ry
     one-center paw contrib.   =     -10.43334908 Ry

     convergence has been achieved in   8 iterations

     Forces acting on atoms (cartesian axes, Ry/au):

     atom    1 type  3   force =     0.00474291    0.00007793   -0.00400361
     atom    2 type  3   force =    -0.00618744   -0.00021216    0.00134458
     atom    3 type  4   force =    -0.00026320    0.00834610   -0.01023364
     atom    4 type  3   force =     0.00381211   -0.00005561    0.00572552
     atom    5 type  3   force =     0.01015391   -0.00206365   -0.00063223
     atom    6 type  3   force =    -0.00515878   -0.00140712    0.00026757
     atom    7 type  1   force =    -0.00884529    0.00013413    0.00592784
     atom    8 type  1   force =     0.00052568    0.00595443    0.00647803
     atom    9 type  2   force =    -0.00055597    0.00186843   -0.00346923
     atom   10 type  2   force =    -0.00586322   -0.00106128   -0.00154789
     atom   11 type  2   force =    -0.00492532   -0.00706164   -0.00384664
     atom   12 type  2   force =     0.00450599   -0.00952499    0.00022470
     atom   13 type  2   force =     0.00638957    0.00891378    0.00344120
     atom   14 type  2   force =     0.00425700    0.00234707   -0.00437710
     atom   15 type  2   force =     0.00192381   -0.00202029   -0.00079615
     atom   16 type  2   force =    -0.00370218   -0.00098390    0.00122163
     atom   17 type  2   force =    -0.00160999    0.00267653    0.00395673
     atom   18 type  2   force =    -0.00399283   -0.00429101   -0.00045145
     atom   19 type  2   force =     0.00209120   -0.00019435   -0.00222507
     atom   20 type  2   force =     0.00270204   -0.00144239    0.00299521

     Total force =     0.034189     Total SCF correction =     0.000136


     Computing stress (Cartesian axis) and pressure

          total   stress  (Ry/bohr**3)                   (kbar)     P=        6.05
   0.00001067   0.00001501  -0.00001103            1.57        2.21       -1.62
   0.00001501   0.00005386  -0.00001087            2.21        7.92       -1.60
  -0.00001103  -0.00001087   0.00005886           -1.62       -1.60        8.66

     Energy error            =      2.7E-03
     Gradient error          =      1.0E-02
     Cell gradient error     =      5.9E-05


     number of scf cycles    =  13
     number of bfgs steps    =  12

     enthalpy old            =    -119.2431085288 Ry
     enthalpy new            =    -119.2458277885 Ry

     CASE: enthalpy_new < enthalpy_old

     new trust radius        =       0.1299019636 bohr
     new conv_thr            =       0.0000001023 Ry

     new unit-cell volume =   1631.56244 a.u.^3 (   241.77261 Ang^3 )
     density =      0.13736 g/cm^3

CELL_PARAMETERS (angstrom)
  -5.111248666   0.106095778  -0.230533792
   0.414001987   6.676948683   0.246108281
  -0.282717990  -0.947317203  -7.120454956

ATOMIC_POSITIONS (angstrom)
Li           -3.2297773909        6.4678929549       -5.3070363202
Li           -2.8752680998        3.1714802576       -1.9755545397
Sr           -0.7838075594        4.5794936494       -3.6397611651
Li           -4.9460672211        1.5042168530       -3.5317281415
Li           -1.5157935400        2.0237981829       -5.9358593781
Li           -2.5296354890        6.5771692836       -1.8022012524
B            -2.0826125405        1.7801596200       -3.6895767315
B            -0.3625714066       -0.2000282699       -6.9074428920
H            -2.0144492063        4.7615932622       -1.5211597729
H            -2.7974990439        1.4248481494       -4.7094192003
H            -1.2261039516       -0.7619819441       -6.1900576865
H            -1.5935171848        0.6285373696       -3.2987674615
H            -4.9267528424        0.7836500226       -6.4345741681
H            -4.2501575518        3.3807654487       -5.6591203895
H             0.4186678851        4.2868585345       -1.3127798411
H            -4.6639479822        3.6943363308       -6.2276289966
H            -3.9420586514        6.6968938741       -0.1635354943
H            -0.6087752430        1.3638946006       -0.7194679149
H             0.2889557779        3.5230137878       -1.4907557371
H            -3.5372172321        5.4824697243       -3.8542936259



     Writing output data file ./tmp/SrLi5BH62.save/
     NEW-OLD atomic charge density approx. for the potential
     extrapolated charge   33.26198, renormalised to   33.00000

     total cpu time spent up to now is     1382.9 secs

     Self-consistent Calculation

     iteration #  1     ecut=    50.00 Ry     beta= 0.70
     Davidson diagonalization with overlap
     c_bands:  1 eigenvalues not converged
     c_bands:  1 eigenvalues not converged
     ethr =  1.00E-06,  avg # of iterations = 14.0

     total cpu time spent up to now is     1394.0 secs

     total energy              =    -119.24461075 Ry
     estimated scf accuracy    <       0.00527845 Ry

     iteration #  2     ecut=    50.00 Ry     beta= 0.70
     Davidson diagonalization with overlap
     ethr =  1.60E-05,  avg # of iterations =  7.1

     total cpu time spent up to now is     1400.1 secs

     total energy              =    -119.24849157 Ry
     estimated scf accuracy    <       0.01052945 Ry

     iteration #  3     ecut=    50.00 Ry     beta= 0.70
     Davidson diagonalization with overlap
     ethr =  1.60E-05,  avg # of iterations =  2.0

     total cpu time spent up to now is     1404.9 secs

     total energy              =    -119.24888283 Ry
     estimated scf accuracy    <       0.00135899 Ry

     iteration #  4     ecut=    50.00 Ry     beta= 0.70
     Davidson diagonalization with overlap
     ethr =  4.12E-06,  avg # of iterations =  5.5

     total cpu time spent up to now is     1410.3 secs

     total energy              =    -119.24910105 Ry
     estimated scf accuracy    <       0.00015778 Ry

     iteration #  5     ecut=    50.00 Ry     beta= 0.70
     Davidson diagonalization with overlap
     ethr =  4.78E-07,  avg # of iterations =  4.9

     total cpu time spent up to now is     1415.9 secs

     total energy              =    -119.24917274 Ry
     estimated scf accuracy    <       0.00004643 Ry

     iteration #  6     ecut=    50.00 Ry     beta= 0.70
     Davidson diagonalization with overlap
     ethr =  1.41E-07,  avg # of iterations =  2.0

     total cpu time spent up to now is     1420.4 secs

     total energy              =    -119.24917187 Ry
     estimated scf accuracy    <       0.00000962 Ry

     iteration #  7     ecut=    50.00 Ry     beta= 0.70
     Davidson diagonalization with overlap
     ethr =  2.92E-08,  avg # of iterations =  4.9

     total cpu time spent up to now is     1425.9 secs

     total energy              =    -119.24917529 Ry
     estimated scf accuracy    <       0.00000216 Ry

     iteration #  8     ecut=    50.00 Ry     beta= 0.70
     Davidson diagonalization with overlap
     ethr =  6.53E-09,  avg # of iterations =  2.0

     total cpu time spent up to now is     1430.5 secs

     total energy              =    -119.24917559 Ry
     estimated scf accuracy    <       0.00000016 Ry

     iteration #  9     ecut=    50.00 Ry     beta= 0.70
     Davidson diagonalization with overlap
     ethr =  4.70E-10,  avg # of iterations =  5.0

     total cpu time spent up to now is     1436.0 secs

     End of self-consistent calculation

          k = 0.0000 0.0000 0.0000 (  7659 PWs)   bands (ev):

   -33.8490 -15.9729 -15.9009 -15.7789  -8.3043  -6.6760  -6.4378  -6.0002
    -3.5457  -3.2666  -3.1312  -2.6833  -1.8089  -0.8030   0.2220   1.5001
     2.8940   3.4228   3.5921   3.8763   4.4310

          k =-0.0159-0.0118 0.3462 (  7674 PWs)   bands (ev):

   -33.8490 -15.9732 -15.9012 -15.7789  -8.2621  -6.6992  -6.5167  -5.9917
    -3.5083  -3.1861  -3.1292  -2.7155  -1.8352  -0.8021   0.2216   1.3977
     3.0913   3.4330   3.8256   4.2511   4.4437

          k =-0.0099-0.3680 0.0494 (  7706 PWs)   bands (ev):

   -33.8490 -15.9733 -15.9011 -15.7799  -8.2200  -6.8269  -6.4600  -5.9685
    -3.4353  -3.2028  -3.1481  -2.7169  -1.9309  -0.7868   0.3284   1.4456
     2.9394   3.0683   3.8376   4.4507   4.5424

          k =-0.0257-0.3798 0.3955 (  7660 PWs)   bands (ev):

   -33.8490 -15.9735 -15.9014 -15.7799  -8.2081  -6.6998  -6.5619  -6.0588
    -3.3281  -3.2240  -3.1296  -2.7562  -1.9076  -0.8199   0.2691   1.3874
     3.3266   3.5143   3.7005   4.0392   4.4254

          k = 0.4793-0.0292-0.0151 (  7660 PWs)   bands (ev):

   -33.8486 -15.9780 -15.9083 -15.7874  -8.2051  -6.5801  -6.4701  -5.9977
    -3.5196  -3.4626  -3.1639  -2.8024  -1.6624  -1.0233   0.4321   1.0506
     2.3918   3.3423   3.8603   4.0510   4.2329

          k = 0.4634-0.0409 0.3310 (  7650 PWs)   bands (ev):

   -33.8486 -15.9782 -15.9085 -15.7874  -8.1806  -6.5857  -6.4338  -6.0913
    -3.6043  -3.5273  -3.1562  -2.5685  -1.6806  -0.9548   0.3848   1.1072
     2.5995   3.3606   3.7398   4.0946   4.2221

          k = 0.4694-0.3972 0.0342 (  7644 PWs)   bands (ev):

   -33.8486 -15.9783 -15.9084 -15.7885  -8.1358  -6.6989  -6.4733  -6.0035
    -3.5092  -3.2765  -3.1662  -2.8652  -1.7673  -0.9829   0.2902   1.0609
     2.6780   3.2339   3.5093   4.1001   4.7435

          k = 0.4535-0.4090 0.3804 (  7654 PWs)   bands (ev):

   -33.8486 -15.9784 -15.9086 -15.7885  -8.1335  -6.6348  -6.4761  -6.0750
    -3.6099  -3.4351  -3.1413  -2.5789  -1.7339  -1.0415   0.3040   1.1245
     2.7829   3.0146   3.8122   4.1062   4.7157

     the Fermi energy is     2.8291 ev

!    total energy              =    -119.24917565 Ry
     estimated scf accuracy    <       0.00000003 Ry
     smearing contrib. (-TS)   =      -0.00031905 Ry
     internal energy E=F+TS    =    -119.24885660 Ry

     The total energy is F=E-TS. E is the sum of the following terms:
     one-electron contribution =     -44.28735415 Ry
     hartree contribution      =      29.08597183 Ry
     xc contribution           =     -44.30776489 Ry
     ewald contribution        =     -49.30599300 Ry
     one-center paw contrib.   =     -10.43371639 Ry

     convergence has been achieved in   9 iterations

     Forces acting on atoms (cartesian axes, Ry/au):

     atom    1 type  3   force =     0.00554458   -0.00142342   -0.00302196
     atom    2 type  3   force =    -0.00480280    0.00182762    0.00211015
     atom    3 type  4   force =    -0.00192157    0.00755386   -0.00885898
     atom    4 type  3   force =     0.00477230   -0.00101709    0.00579190
     atom    5 type  3   force =     0.00997708   -0.00218546    0.00064541
     atom    6 type  3   force =    -0.00441900   -0.00176903   -0.00043322
     atom    7 type  1   force =    -0.00819223   -0.01490886    0.00067779
     atom    8 type  1   force =    -0.00334057    0.00493988    0.00424523
     atom    9 type  2   force =    -0.00118039    0.00234247   -0.00184971
     atom   10 type  2   force =    -0.00020821    0.00142331    0.00575603
     atom   11 type  2   force =     0.00232184   -0.00046798   -0.00834160
     atom   12 type  2   force =    -0.00139266    0.00252455   -0.00449856
     atom   13 type  2   force =     0.00191995    0.00245763   -0.00074187
     atom   14 type  2   force =     0.00628622    0.00117511   -0.00266356
     atom   15 type  2   force =     0.00205747   -0.00301803   -0.00083568
     atom   16 type  2   force =    -0.00633741   -0.00006207   -0.00042235
     atom   17 type  2   force =    -0.00479157    0.00770976    0.00658649
     atom   18 type  2   force =    -0.00042017   -0.00735223    0.00660350
     atom   19 type  2   force =     0.00077810    0.00081290   -0.00234721
     atom   20 type  2   force =     0.00334903   -0.00056290    0.00159819

     Total force =     0.035309     Total SCF correction =     0.000186


     Computing stress (Cartesian axis) and pressure

          total   stress  (Ry/bohr**3)                   (kbar)     P=        1.93
  -0.00001328   0.00001460  -0.00001530           -1.95        2.15       -2.25
   0.00001460   0.00001942  -0.00000726            2.15        2.86       -1.07
  -0.00001530  -0.00000726   0.00003331           -2.25       -1.07        4.90

     Energy error            =      3.3E-03
     Gradient error          =      1.5E-02
     Cell gradient error     =      3.3E-05


     number of scf cycles    =  14
     number of bfgs steps    =  13

     enthalpy old            =    -119.2458277885 Ry
     enthalpy new            =    -119.2491756530 Ry

     CASE: enthalpy_new < enthalpy_old

     new trust radius        =       0.1089725321 bohr
     new conv_thr            =       0.0000001491 Ry

     new unit-cell volume =   1646.51927 a.u.^3 (   243.98898 Ang^3 )
     density =      0.13612 g/cm^3

CELL_PARAMETERS (angstrom)
  -5.097845682   0.102756252  -0.233100971
   0.418662299   6.703455781   0.243581021
  -0.283767728  -0.948121264  -7.175673027

ATOMIC_POSITIONS (angstrom)
Li           -3.2201835228        6.5113516101       -5.3439039284
Li           -2.8667198222        3.1741423935       -2.0018776875
Sr           -0.7744273441        4.6131439417       -3.7022697593
Li           -4.9360516411        1.5257866107       -3.5451031718
Li           -1.4978111299        2.0311746447       -5.9633365698
Li           -2.5374975429        6.5874465950       -1.8328749946
B            -2.0915944358        1.7829223509       -3.7025771309
B            -0.3631708656       -0.1864477559       -6.9399308408
H            -2.0027620702        4.7778071566       -1.5946062454
H            -2.8019793110        1.4250881836       -4.7374698196
H            -1.2349479740       -0.7832432957       -6.2421333234
H            -1.5764511132        0.6149806336       -3.3154581497
H            -4.9122390729        0.8099417302       -6.4717296704
H            -4.2182174336        3.4085472967       -5.7243369586
H             0.4260990371        4.2942697591       -1.3336215043
H            -4.6609819821        3.7026341161       -6.2832650173
H            -3.9173397011        6.7322572775       -0.1450799376
H            -0.6127080025        1.3579952172       -0.7157238927
H             0.3063424810        3.5315575624       -1.5149018012
H            -3.5205076340        5.4958621394       -3.8912345612



     Writing output data file ./tmp/SrLi5BH62.save/
     NEW-OLD atomic charge density approx. for the potential
     extrapolated charge   33.29925, renormalised to   33.00000

     total cpu time spent up to now is     1488.3 secs

     Self-consistent Calculation

     iteration #  1     ecut=    50.00 Ry     beta= 0.70
     Davidson diagonalization with overlap
     c_bands:  1 eigenvalues not converged
     c_bands:  1 eigenvalues not converged
     ethr =  1.00E-06,  avg # of iterations = 16.0

     total cpu time spent up to now is     1499.6 secs

     total energy              =    -119.24650781 Ry
     estimated scf accuracy    <       0.00575712 Ry

     iteration #  2     ecut=    50.00 Ry     beta= 0.70
     Davidson diagonalization with overlap
     ethr =  1.74E-05,  avg # of iterations =  9.0

     total cpu time spent up to now is     1506.1 secs

     total energy              =    -119.25148768 Ry
     estimated scf accuracy    <       0.01360254 Ry

     iteration #  3     ecut=    50.00 Ry     beta= 0.70
     Davidson diagonalization with overlap
     ethr =  1.74E-05,  avg # of iterations =  2.4

     total cpu time spent up to now is     1510.9 secs

     total energy              =    -119.25197127 Ry
     estimated scf accuracy    <       0.00187150 Ry

     iteration #  4     ecut=    50.00 Ry     beta= 0.70
     Davidson diagonalization with overlap
     ethr =  5.67E-06,  avg # of iterations =  5.4

     total cpu time spent up to now is     1516.1 secs

     total energy              =    -119.25208330 Ry
     estimated scf accuracy    <       0.00036217 Ry

     iteration #  5     ecut=    50.00 Ry     beta= 0.70
     Davidson diagonalization with overlap
     ethr =  1.10E-06,  avg # of iterations =  5.0

     total cpu time spent up to now is     1521.6 secs

     total energy              =    -119.25222657 Ry
     estimated scf accuracy    <       0.00005393 Ry

     iteration #  6     ecut=    50.00 Ry     beta= 0.70
     Davidson diagonalization with overlap
     ethr =  1.63E-07,  avg # of iterations =  3.1

     total cpu time spent up to now is     1526.3 secs

     total energy              =    -119.25222478 Ry
     estimated scf accuracy    <       0.00001663 Ry

     iteration #  7     ecut=    50.00 Ry     beta= 0.70
     Davidson diagonalization with overlap
     ethr =  5.04E-08,  avg # of iterations =  4.5

     total cpu time spent up to now is     1531.2 secs

     total energy              =    -119.25222862 Ry
     estimated scf accuracy    <       0.00000061 Ry

     iteration #  8     ecut=    50.00 Ry     beta= 0.70
     Davidson diagonalization with overlap
     ethr =  1.85E-09,  avg # of iterations =  6.8

     total cpu time spent up to now is     1537.1 secs

     total energy              =    -119.25222895 Ry
     estimated scf accuracy    <       0.00000021 Ry

     iteration #  9     ecut=    50.00 Ry     beta= 0.70
     Davidson diagonalization with overlap
     ethr =  6.32E-10,  avg # of iterations =  2.1

     total cpu time spent up to now is     1541.6 secs

     End of self-consistent calculation

          k = 0.0000 0.0000 0.0000 (  7659 PWs)   bands (ev):

   -33.8953 -16.0153 -15.9412 -15.8250  -8.3224  -6.6904  -6.4406  -6.0299
    -3.6275  -3.2964  -3.1547  -2.7158  -1.8454  -0.8023   0.1576   1.4529
     2.8604   3.3805   3.5563   3.8609   4.4075

          k =-0.0159-0.0115 0.3435 (  7674 PWs)   bands (ev):

   -33.8953 -16.0155 -15.9415 -15.8250  -8.2830  -6.6954  -6.5426  -6.0127
    -3.5832  -3.1989  -3.1832  -2.7397  -1.8741  -0.8017   0.1596   1.3474
     3.0485   3.4144   3.7851   4.2463   4.3975

          k =-0.0096-0.3665 0.0488 (  7706 PWs)   bands (ev):

   -33.8953 -16.0156 -15.9415 -15.8259  -8.2415  -6.8417  -6.4541  -6.0047
    -3.4813  -3.2653  -3.1797  -2.7491  -1.9655  -0.7887   0.2725   1.4055
     2.9172   3.0284   3.8025   4.4048   4.5482

          k =-0.0256-0.3780 0.3923 (  7660 PWs)   bands (ev):

   -33.8953 -16.0158 -15.9418 -15.8259  -8.2306  -6.7125  -6.5648  -6.0858
    -3.3863  -3.2648  -3.1769  -2.7793  -1.9472  -0.8190   0.2127   1.3486
     3.2866   3.5040   3.6788   3.9819   4.3827

          k = 0.4805-0.0295-0.0151 (  7660 PWs)   bands (ev):

   -33.8949 -16.0206 -15.9478 -15.8349  -8.2221  -6.5861  -6.4757  -6.0262
    -3.5758  -3.5202  -3.1937  -2.8332  -1.6889  -1.0237   0.3729   1.0009
     2.3299   3.2845   3.8206   3.9627   4.1900

          k = 0.4646-0.0409 0.3284 (  7650 PWs)   bands (ev):

   -33.8949 -16.0208 -15.9480 -15.8349  -8.1994  -6.5864  -6.4471  -6.1128
    -3.6929  -3.5358  -3.1968  -2.6075  -1.7072  -0.9584   0.3299   1.0546
     2.5305   3.3108   3.6368   4.0252   4.1901

          k = 0.4709-0.3960 0.0337 (  7644 PWs)   bands (ev):

   -33.8949 -16.0209 -15.9479 -15.8359  -8.1554  -6.7211  -6.4531  -6.0395
    -3.5397  -3.3664  -3.1945  -2.8938  -1.7936  -0.9847   0.2471   1.0128
     2.5917   3.1939   3.4374   4.0607   4.7090

          k = 0.4550-0.4075 0.3772 (  7654 PWs)   bands (ev):

   -33.8949 -16.0210 -15.9481 -15.8358  -8.1535  -6.6552  -6.4622  -6.1049
    -3.6695  -3.4470  -3.2124  -2.6125  -1.7661  -1.0425   0.2658   1.0730
     2.7351   2.9266   3.7316   4.0662   4.6499

     the Fermi energy is     2.7781 ev

!    total energy              =    -119.25222896 Ry
     estimated scf accuracy    <       0.00000003 Ry
     smearing contrib. (-TS)   =      -0.00008217 Ry
     internal energy E=F+TS    =    -119.25214679 Ry

     The total energy is F=E-TS. E is the sum of the following terms:
     one-electron contribution =     -44.66330957 Ry
     hartree contribution      =      29.20845083 Ry
     xc contribution           =     -44.27122405 Ry
     ewald contribution        =     -49.09218304 Ry
     one-center paw contrib.   =     -10.43388096 Ry

     convergence has been achieved in   9 iterations

     Forces acting on atoms (cartesian axes, Ry/au):

     atom    1 type  3   force =     0.00580907   -0.00287215   -0.00151250
     atom    2 type  3   force =    -0.00219442    0.00369411    0.00202968
     atom    3 type  4   force =    -0.00403981    0.00542876   -0.00650986
     atom    4 type  3   force =     0.00468893   -0.00152476    0.00530162
     atom    5 type  3   force =     0.00896736   -0.00221424    0.00290858
     atom    6 type  3   force =    -0.00333647   -0.00206760   -0.00123066
     atom    7 type  1   force =    -0.00582535   -0.02346671   -0.00285170
     atom    8 type  1   force =    -0.00531898    0.00272098    0.00151112
     atom    9 type  2   force =    -0.00148122    0.00248730   -0.00110865
     atom   10 type  2   force =     0.00358797    0.00283249    0.00981931
     atom   11 type  2   force =     0.00759402    0.00588594   -0.00980109
     atom   12 type  2   force =    -0.00582435    0.01024170   -0.00728194
     atom   13 type  2   force =    -0.00295154   -0.00358354   -0.00403748
     atom   14 type  2   force =     0.00734899    0.00109383   -0.00246203
     atom   15 type  2   force =     0.00217701   -0.00377271   -0.00088042
     atom   16 type  2   force =    -0.00823289   -0.00014261   -0.00046090
     atom   17 type  2   force =    -0.00579269    0.01080461    0.00817393
     atom   18 type  2   force =     0.00181218   -0.00763530    0.01108183
     atom   19 type  2   force =    -0.00066480    0.00141763   -0.00228965
     atom   20 type  2   force =     0.00367699    0.00067229   -0.00039919

     Total force =     0.045456     Total SCF correction =     0.000175


     Computing stress (Cartesian axis) and pressure

          total   stress  (Ry/bohr**3)                   (kbar)     P=       -1.88
  -0.00003649   0.00000845  -0.00001362           -5.37        1.24       -2.00
   0.00000845  -0.00001176  -0.00000639            1.24       -1.73       -0.94
  -0.00001362  -0.00000639   0.00000986           -2.00       -0.94        1.45

     Energy error            =      3.1E-03
     Gradient error          =      2.3E-02
     Cell gradient error     =      3.6E-05


     number of scf cycles    =  15
     number of bfgs steps    =  14

     enthalpy old            =    -119.2491756530 Ry
     enthalpy new            =    -119.2522289633 Ry

     CASE: enthalpy_new < enthalpy_old

     new trust radius        =       0.1208009215 bohr
     new conv_thr            =       0.0000002347 Ry

     new unit-cell volume =   1661.49107 a.u.^3 (   246.20758 Ang^3 )
     density =      0.13489 g/cm^3

CELL_PARAMETERS (angstrom)
  -5.080420966   0.099245028  -0.235330125
   0.423338388   6.730262491   0.241087724
  -0.284109867  -0.949134098  -7.236318306

ATOMIC_POSITIONS (angstrom)
Li           -3.2065226230        6.5556176329       -5.3825599409
Li           -2.8542450106        3.1777873152       -2.0299204639
Sr           -0.7656623531        4.6483744748       -3.7705408399
Li           -4.9214627260        1.5485839795       -3.5579636759
Li           -1.4761489064        2.0383379055       -5.9902686075
Li           -2.5448029537        6.5953799296       -1.8673261187
B            -2.0997449257        1.7766175315       -3.7193459881
B            -0.3648014538       -0.1730285008       -6.9767574891
H            -1.9891552587        4.7948350898       -1.6759708127
H            -2.8023187760        1.4259555880       -4.7631494958
H            -1.2392606810       -0.8019262596       -6.3020048704
H            -1.5597499516        0.6049002331       -3.3364426884
H            -4.8962568490        0.8337988760       -6.5148009502
H            -4.1786260145        3.4385613863       -5.7965136912
H             0.4346900445        4.3000728361       -1.3565976479
H            -4.6572266130        3.7094510345       -6.3438348730
H            -3.8897502591        6.7731153696       -0.1202626016
H            -0.6154075227        1.3495483872       -0.7063798074
H             0.3237530851        3.5395584857       -1.5422292273
H            -3.4994079921        5.5091560237       -3.9326972796



     Writing output data file ./tmp/SrLi5BH62.save/
     NEW-OLD atomic charge density approx. for the potential
     extrapolated charge   33.29685, renormalised to   33.00000

     total cpu time spent up to now is     1593.9 secs

     Self-consistent Calculation

     iteration #  1     ecut=    50.00 Ry     beta= 0.70
     Davidson diagonalization with overlap
     c_bands:  1 eigenvalues not converged
     c_bands:  1 eigenvalues not converged
     c_bands:  1 eigenvalues not converged
     ethr =  1.00E-06,  avg # of iterations = 15.8

     total cpu time spent up to now is     1605.3 secs

     total energy              =    -119.25045479 Ry
     estimated scf accuracy    <       0.00484677 Ry

     iteration #  2     ecut=    50.00 Ry     beta= 0.70
     Davidson diagonalization with overlap
     ethr =  1.47E-05,  avg # of iterations =  9.4

     total cpu time spent up to now is     1612.0 secs

     total energy              =    -119.25482423 Ry
     estimated scf accuracy    <       0.01121224 Ry

     iteration #  3     ecut=    50.00 Ry     beta= 0.70
     Davidson diagonalization with overlap
     ethr =  1.47E-05,  avg # of iterations =  2.4

     total cpu time spent up to now is     1616.7 secs

     total energy              =    -119.25506849 Ry
     estimated scf accuracy    <       0.00166442 Ry

     iteration #  4     ecut=    50.00 Ry     beta= 0.70
     Davidson diagonalization with overlap
     ethr =  5.04E-06,  avg # of iterations =  5.6

     total cpu time spent up to now is     1622.0 secs

     total energy              =    -119.25523884 Ry
     estimated scf accuracy    <       0.00025956 Ry

     iteration #  5     ecut=    50.00 Ry     beta= 0.70
     Davidson diagonalization with overlap
     ethr =  7.87E-07,  avg # of iterations =  5.4

     total cpu time spent up to now is     1627.5 secs

     total energy              =    -119.25534747 Ry
     estimated scf accuracy    <       0.00006051 Ry

     iteration #  6     ecut=    50.00 Ry     beta= 0.70
     Davidson diagonalization with overlap
     ethr =  1.83E-07,  avg # of iterations =  2.0

     total cpu time spent up to now is     1632.0 secs

     total energy              =    -119.25534611 Ry
     estimated scf accuracy    <       0.00001500 Ry

     iteration #  7     ecut=    50.00 Ry     beta= 0.70
     Davidson diagonalization with overlap
     ethr =  4.55E-08,  avg # of iterations =  4.4

     total cpu time spent up to now is     1637.0 secs

     total energy              =    -119.25534963 Ry
     estimated scf accuracy    <       0.00000051 Ry

     iteration #  8     ecut=    50.00 Ry     beta= 0.70
     Davidson diagonalization with overlap
     ethr =  1.53E-09,  avg # of iterations =  6.1

     total cpu time spent up to now is     1642.9 secs

     End of self-consistent calculation

          k = 0.0000 0.0000 0.0000 (  7659 PWs)   bands (ev):

   -33.9431 -16.0591 -15.9831 -15.8731  -8.3568  -6.7198  -6.4669  -6.0406
    -3.7193  -3.3282  -3.1794  -2.7718  -1.8927  -0.8078   0.1110   1.4057
     2.8308   3.3347   3.5217   3.8524   4.3866

          k =-0.0160-0.0112 0.3406 (  7674 PWs)   bands (ev):

   -33.9431 -16.0593 -15.9834 -15.8731  -8.3206  -6.7216  -6.5673  -6.0229
    -3.6717  -3.2448  -3.2028  -2.7898  -1.9231  -0.8081   0.1150   1.2971
     3.0112   3.3993   3.7423   4.2458   4.3521

          k =-0.0094-0.3651 0.0482 (  7706 PWs)   bands (ev):

   -33.9431 -16.0595 -15.9834 -15.8739  -8.2815  -6.8570  -6.4778  -6.0296
    -3.5509  -3.3301  -3.1963  -2.8041  -2.0099  -0.7970   0.2301   1.3670
     2.9011   2.9879   3.7701   4.3644   4.5598

          k =-0.0254-0.3762 0.3888 (  7660 PWs)   bands (ev):

   -33.9431 -16.0596 -15.9836 -15.8739  -8.2715  -6.7306  -6.5891  -6.1041
    -3.4812  -3.2931  -3.2096  -2.8295  -1.9940  -0.8242   0.1694   1.3107
     3.2519   3.4883   3.6620   3.9288   4.3512

          k = 0.4822-0.0298-0.0150 (  7660 PWs)   bands (ev):

   -33.9426 -16.0647 -15.9888 -15.8847  -8.2557  -6.6129  -6.4979  -6.0355
    -3.6883  -3.5297  -3.2266  -2.8890  -1.7243  -1.0294   0.3316   0.9527
     2.2690   3.2258   3.7859   3.8721   4.1436

          k = 0.4662-0.0410 0.3255 (  7650 PWs)   bands (ev):

   -33.9426 -16.0649 -15.9890 -15.8847  -8.2352  -6.6124  -6.4760  -6.1113
    -3.7906  -3.5446  -3.2407  -2.6718  -1.7422  -0.9674   0.2936   1.0040
     2.4610   3.2641   3.5326   3.9490   4.1525

          k = 0.4728-0.3948 0.0332 (  7644 PWs)   bands (ev):

   -33.9426 -16.0650 -15.9889 -15.8855  -8.1936  -6.7420  -6.4672  -6.0593
    -3.6101  -3.4190  -3.2306  -2.9478  -1.8277  -0.9922   0.2229   0.9670
     2.5008   3.1611   3.3654   4.0164   4.6783

          k = 0.4568-0.4060 0.3738 (  7654 PWs)   bands (ev):

   -33.9426 -16.0651 -15.9891 -15.8855  -8.1921  -6.6781  -6.4799  -6.1179
    -3.7465  -3.4572  -3.2788  -2.6730  -1.8055  -1.0470   0.2460   1.0237
     2.6832   2.8366   3.6518   4.0279   4.5898

     the Fermi energy is     2.7256 ev

!    total energy              =    -119.25534987 Ry
     estimated scf accuracy    <       0.00000015 Ry
     smearing contrib. (-TS)   =       0.00019693 Ry
     internal energy E=F+TS    =    -119.25554680 Ry

     The total energy is F=E-TS. E is the sum of the following terms:
     one-electron contribution =     -45.18952643 Ry
     hartree contribution      =      29.41073259 Ry
     xc contribution           =     -44.25129627 Ry
     ewald contribution        =     -48.79174229 Ry
     one-center paw contrib.   =     -10.43371440 Ry

     convergence has been achieved in   8 iterations

     Forces acting on atoms (cartesian axes, Ry/au):

     atom    1 type  3   force =     0.00580124   -0.00406805   -0.00033834
     atom    2 type  3   force =     0.00054535    0.00509980    0.00161869
     atom    3 type  4   force =    -0.00586620    0.00304382   -0.00484303
     atom    4 type  3   force =     0.00449157   -0.00198490    0.00470060
     atom    5 type  3   force =     0.00798358   -0.00190992    0.00503564
     atom    6 type  3   force =    -0.00226260   -0.00217573   -0.00194338
     atom    7 type  1   force =    -0.00304190   -0.02650942   -0.00403208
     atom    8 type  1   force =    -0.00586509    0.00085265   -0.00049037
     atom    9 type  2   force =    -0.00168485    0.00259663   -0.00010714
     atom   10 type  2   force =     0.00541166    0.00305599    0.01091534
     atom   11 type  2   force =     0.01016812    0.01055572   -0.00897164
     atom   12 type  2   force =    -0.00879130    0.01372986   -0.00864186
     atom   13 type  2   force =    -0.00660269   -0.00782719   -0.00584127
     atom   14 type  2   force =     0.00696272    0.00198581   -0.00418731
     atom   15 type  2   force =     0.00227876   -0.00419341   -0.00077514
     atom   16 type  2   force =    -0.00887372   -0.00121751    0.00144702
     atom   17 type  2   force =    -0.00489666    0.01153204    0.00831132
     atom   18 type  2   force =     0.00259305   -0.00616796    0.01243652
     atom   19 type  2   force =    -0.00219014    0.00166698   -0.00212554
     atom   20 type  2   force =     0.00383909    0.00193479   -0.00216806

     Total force =     0.051392     Total SCF correction =     0.000303


     Computing stress (Cartesian axis) and pressure

          total   stress  (Ry/bohr**3)                   (kbar)     P=       -4.12
  -0.00005159   0.00000158  -0.00000974           -7.59        0.23       -1.43
   0.00000158  -0.00002905  -0.00000814            0.23       -4.27       -1.20
  -0.00000974  -0.00000814  -0.00000343           -1.43       -1.20       -0.50

     Energy error            =      3.1E-03
     Gradient error          =      2.7E-02
     Cell gradient error     =      5.2E-05


     number of scf cycles    =  16
     number of bfgs steps    =  15

     enthalpy old            =    -119.2522289633 Ry
     enthalpy new            =    -119.2553498668 Ry

     CASE: enthalpy_new < enthalpy_old

     new trust radius        =       0.1827412355 bohr
     new conv_thr            =       0.0000002651 Ry

     new unit-cell volume =   1681.27403 a.u.^3 (   249.13911 Ang^3 )
     density =      0.13330 g/cm^3

CELL_PARAMETERS (angstrom)
  -5.049315117   0.095007306  -0.238769396
   0.428726813   6.766967434   0.236436302
  -0.284408143  -0.949413169  -7.326703860

ATOMIC_POSITIONS (angstrom)
Li           -3.1827998034        6.6184418760       -5.4398936982
Li           -2.8312673374        3.1847543534       -2.0724202657
Sr           -0.7555043490        4.6989393096       -3.8749955235
Li           -4.8941801407        1.5830306632       -3.5755961518
Li           -1.4415313642        2.0489385467       -6.0260338672
Li           -2.5544118289        6.6034024413       -1.9216035184
B            -2.1096332769        1.7585234001       -3.7458548789
B            -0.3685125426       -0.1533097591       -7.0324745178
H            -1.9681913406        4.8195068203       -1.8006562074
H            -2.7982836262        1.4285340275       -4.7974476584
H            -1.2408482872       -0.8230319293       -6.3928731419
H            -1.5367976786        0.5945019606       -3.3707097533
H            -4.8715509063        0.8662824091       -6.5818089579
H            -4.1145749335        3.4852632360       -5.9088761632
H             0.4470548278        4.3056345696       -1.3919526269
H            -4.6503610457        3.7176943717       -6.4329273383
H            -3.8459154798        6.8355843763       -0.0800498908
H            -0.6183985537        1.3359983629       -0.6875274460
H             0.3469741616        3.5495759018       -1.5847712351
H            -3.4644220490        5.5286457924       -3.9976557017



     Writing output data file ./tmp/SrLi5BH62.save/
     NEW-OLD atomic charge density approx. for the potential
     extrapolated charge   33.38762, renormalised to   33.00000

     total cpu time spent up to now is     1695.0 secs

     Self-consistent Calculation

     iteration #  1     ecut=    50.00 Ry     beta= 0.70
     Davidson diagonalization with overlap
     c_bands:  2 eigenvalues not converged
     c_bands:  1 eigenvalues not converged
     c_bands:  1 eigenvalues not converged
     c_bands:  1 eigenvalues not converged
     ethr =  1.00E-06,  avg # of iterations = 17.4

     total cpu time spent up to now is     1707.5 secs

     total energy              =    -119.25244952 Ry
     estimated scf accuracy    <       0.00823512 Ry

     iteration #  2     ecut=    50.00 Ry     beta= 0.70
     Davidson diagonalization with overlap
     ethr =  2.50E-05,  avg # of iterations =  8.4

     total cpu time spent up to now is     1713.9 secs

     total energy              =    -119.25915250 Ry
     estimated scf accuracy    <       0.01555478 Ry

     iteration #  3     ecut=    50.00 Ry     beta= 0.70
     Davidson diagonalization with overlap
     ethr =  2.50E-05,  avg # of iterations =  2.2

     total cpu time spent up to now is     1718.6 secs

     total energy              =    -119.25929218 Ry
     estimated scf accuracy    <       0.00235537 Ry

     iteration #  4     ecut=    50.00 Ry     beta= 0.70
     Davidson diagonalization with overlap
     ethr =  7.14E-06,  avg # of iterations =  6.0

     total cpu time spent up to now is     1724.3 secs

     total energy              =    -119.25983417 Ry
     estimated scf accuracy    <       0.00024626 Ry

     iteration #  5     ecut=    50.00 Ry     beta= 0.70
     Davidson diagonalization with overlap
     ethr =  7.46E-07,  avg # of iterations =  6.1

     total cpu time spent up to now is     1730.0 secs

     total energy              =    -119.25992671 Ry
     estimated scf accuracy    <       0.00009833 Ry

     iteration #  6     ecut=    50.00 Ry     beta= 0.70
     Davidson diagonalization with overlap
     ethr =  2.98E-07,  avg # of iterations =  2.0

     total cpu time spent up to now is     1734.5 secs

     total energy              =    -119.25992588 Ry
     estimated scf accuracy    <       0.00001888 Ry

     iteration #  7     ecut=    50.00 Ry     beta= 0.70
     Davidson diagonalization with overlap
     ethr =  5.72E-08,  avg # of iterations =  5.0

     total cpu time spent up to now is     1739.9 secs

     total energy              =    -119.25993196 Ry
     estimated scf accuracy    <       0.00000239 Ry

     iteration #  8     ecut=    50.00 Ry     beta= 0.70
     Davidson diagonalization with overlap
     ethr =  7.24E-09,  avg # of iterations =  3.6

     total cpu time spent up to now is     1744.7 secs

     End of self-consistent calculation

          k = 0.0000 0.0000 0.0000 (  7659 PWs)   bands (ev):

   -34.0018 -16.1135 -16.0354 -15.9339  -8.4181  -6.7761  -6.5262  -6.0344
    -3.8533  -3.3714  -3.2087  -2.8663  -1.9688  -0.8237   0.0674   1.3433
     2.8010   3.2710   3.4854   3.8533   4.3641

          k =-0.0161-0.0107 0.3363 (  7674 PWs)   bands (ev):

   -34.0018 -16.1136 -16.0356 -15.9339  -8.3867  -6.7838  -6.6072  -6.0221
    -3.8052  -3.3154  -3.2104  -2.8796  -2.0010  -0.8255   0.0733   1.2312
     2.9728   3.3838   3.6861   4.2450   4.3092

          k =-0.0091-0.3630 0.0474 (  7706 PWs)   bands (ev):

   -34.0018 -16.1138 -16.0357 -15.9345  -8.3517  -6.8848  -6.5350  -6.0511
    -3.6733  -3.3961  -3.2137  -2.8976  -2.0806  -0.8168   0.1874   1.3198
     2.8910   2.9368   3.7338   4.3193   4.5887

          k =-0.0252-0.3738 0.3837 (  7660 PWs)   bands (ev):

   -34.0018 -16.1139 -16.0359 -15.9345  -8.3429  -6.7696  -6.6379  -6.1180
    -3.6267  -3.3354  -3.2334  -2.9198  -2.0658  -0.8396   0.1248   1.2640
     3.2122   3.4666   3.6472   3.8650   4.3297

          k = 0.4852-0.0302-0.0149 (  7660 PWs)   bands (ev):

   -34.0013 -16.1195 -16.0398 -15.9482  -8.3158  -6.6686  -6.5477  -6.0256
    -3.8422  -3.5469  -3.2687  -2.9861  -1.7828  -1.0419   0.2943   0.8922
     2.1882   3.1476   3.7341   3.7603   4.0807

          k = 0.4691-0.0409 0.3214 (  7650 PWs)   bands (ev):

   -34.0013 -16.1196 -16.0400 -15.9482  -8.2983  -6.6697  -6.5339  -6.0853
    -3.9272  -3.5602  -3.2987  -2.7795  -1.7992  -0.9848   0.2643   0.9403
     2.3655   3.2078   3.3921   3.8375   4.0982

          k = 0.4761-0.3932 0.0325 (  7644 PWs)   bands (ev):

   -34.0013 -16.1198 -16.0399 -15.9489  -8.2611  -6.7779  -6.5146  -6.0669
    -3.7455  -3.4515  -3.2801  -3.0439  -1.8832  -1.0070   0.2093   0.9121
     2.3741   3.1272   3.2720   3.9535   4.6124

          k = 0.4600-0.4040 0.3688 (  7654 PWs)   bands (ev):

   -34.0012 -16.1199 -16.0401 -15.9489  -8.2600  -6.7202  -6.5298  -6.1159
    -3.8647  -3.4695  -3.3603  -2.7772  -1.8675  -1.0559   0.2386   0.9626
     2.5954   2.7301   3.5462   3.9844   4.5197

     the Fermi energy is     2.6523 ev

!    total energy              =    -119.25993253 Ry
     estimated scf accuracy    <       0.00000020 Ry
     smearing contrib. (-TS)   =       0.00069996 Ry
     internal energy E=F+TS    =    -119.26063249 Ry

     The total energy is F=E-TS. E is the sum of the following terms:
     one-electron contribution =     -46.08995941 Ry
     hartree contribution      =      29.78523360 Ry
     xc contribution           =     -44.24229655 Ry
     ewald contribution        =     -48.28054343 Ry
     one-center paw contrib.   =     -10.43306670 Ry

     convergence has been achieved in   8 iterations

     Forces acting on atoms (cartesian axes, Ry/au):

     atom    1 type  3   force =     0.00554997   -0.00530260    0.00078548
     atom    2 type  3   force =     0.00448323    0.00646707    0.00077763
     atom    3 type  4   force =    -0.00781420   -0.00044258   -0.00323635
     atom    4 type  3   force =     0.00414129   -0.00265566    0.00371365
     atom    5 type  3   force =     0.00642809   -0.00108230    0.00746591
     atom    6 type  3   force =    -0.00074052   -0.00208505   -0.00284952
     atom    7 type  1   force =     0.00100703   -0.02597521   -0.00362947
     atom    8 type  1   force =    -0.00578864   -0.00118724   -0.00217671
     atom    9 type  2   force =    -0.00183146    0.00263693    0.00185908
     atom   10 type  2   force =     0.00631423    0.00236238    0.00987513
     atom   11 type  2   force =     0.01110560    0.01526496   -0.00587106
     atom   12 type  2   force =    -0.01172251    0.01512784   -0.00954188
     atom   13 type  2   force =    -0.01017772   -0.01180757   -0.00677052
     atom   14 type  2   force =     0.00543811    0.00320532   -0.00713060
     atom   15 type  2   force =     0.00242168   -0.00419111   -0.00048184
     atom   16 type  2   force =    -0.00884636   -0.00276489    0.00462907
     atom   17 type  2   force =    -0.00198004    0.01036153    0.00703342
     atom   18 type  2   force =     0.00268578   -0.00308972    0.01164457
     atom   19 type  2   force =    -0.00448495    0.00147342   -0.00176590
     atom   20 type  2   force =     0.00381138    0.00368448   -0.00433009

     Total force =     0.054519     Total SCF correction =     0.000875


     Computing stress (Cartesian axis) and pressure

          total   stress  (Ry/bohr**3)                   (kbar)     P=       -5.58
  -0.00006352  -0.00000706  -0.00000253           -9.34       -1.04       -0.37
  -0.00000706  -0.00003821  -0.00001232           -1.04       -5.62       -1.81
  -0.00000253  -0.00001232  -0.00001202           -0.37       -1.81       -1.77

     Energy error            =      4.6E-03
     Gradient error          =      2.6E-02
     Cell gradient error     =      6.4E-05


     number of scf cycles    =  17
     number of bfgs steps    =  16

     enthalpy old            =    -119.2553498668 Ry
     enthalpy new            =    -119.2599325338 Ry

     CASE: enthalpy_new < enthalpy_old

     new trust radius        =       0.2775645728 bohr
     new conv_thr            =       0.0000002598 Ry

     new unit-cell volume =   1707.70814 a.u.^3 (   253.05624 Ang^3 )
     density =      0.13124 g/cm^3

CELL_PARAMETERS (angstrom)
  -4.990581553   0.090042787  -0.243951303
   0.434752058   6.821212559   0.224078528
  -0.283804680  -0.944540165  -7.467227588

ATOMIC_POSITIONS (angstrom)
Li           -3.1345340833        6.7125944214       -5.5361348822
Li           -2.7889029799        3.2024470488       -2.1399491869
Sr           -0.7452156128        4.7798127942       -4.0498564414
Li           -4.8373207813        1.6370970843       -3.5985559360
Li           -1.3780178954        2.0678636451       -6.0763516081
Li           -2.5655699615        6.6139104207       -2.0131878010
B            -2.1223575982        1.7171957058       -3.7870929192
B            -0.3755608532       -0.1176458693       -7.1189183449
H            -1.9342638536        4.8608182470       -1.9976825504
H            -2.7847829050        1.4374117278       -4.8477544881
H            -1.2359663225       -0.8412696549       -6.5373989468
H            -1.5038164326        0.5845094721       -3.4320231107
H            -4.8269153220        0.9170500037       -6.6904025766
H            -4.0049269436        3.5654935124       -6.0971754294
H             0.4662653219        4.3113619861       -1.4509807170
H            -4.6361464994        3.7313949004       -6.5678203016
H            -3.7716268376        6.9378300890       -0.0156799176
H            -0.6224902982        1.3140215967       -0.6513996234
H             0.3771654592        3.5644614548       -1.6563492291
H            -3.4006007342        5.5641297605       -4.1058986720



     Writing output data file ./tmp/SrLi5BH62.save/
     NEW-OLD atomic charge density approx. for the potential
     extrapolated charge   33.50992, renormalised to   33.00000

     total cpu time spent up to now is     1796.9 secs

     Self-consistent Calculation

     iteration #  1     ecut=    50.00 Ry     beta= 0.70
     Davidson diagonalization with overlap
     c_bands:  2 eigenvalues not converged
     c_bands:  2 eigenvalues not converged
     c_bands:  1 eigenvalues not converged
     ethr =  1.00E-06,  avg # of iterations = 18.9

     total cpu time spent up to now is     1810.5 secs

     total energy              =    -119.25424588 Ry
     estimated scf accuracy    <       0.01682678 Ry

     iteration #  2     ecut=    50.00 Ry     beta= 0.70
     Davidson diagonalization with overlap
     ethr =  5.10E-05,  avg # of iterations =  8.5

     total cpu time spent up to now is     1816.7 secs

     total energy              =    -119.26450859 Ry
     estimated scf accuracy    <       0.02108545 Ry

     iteration #  3     ecut=    50.00 Ry     beta= 0.70
     Davidson diagonalization with overlap
     ethr =  5.10E-05,  avg # of iterations =  2.2

     total cpu time spent up to now is     1821.4 secs

     total energy              =    -119.26511187 Ry
     estimated scf accuracy    <       0.00256011 Ry

     iteration #  4     ecut=    50.00 Ry     beta= 0.70
     Davidson diagonalization with overlap
     c_bands:  1 eigenvalues not converged
     ethr =  7.76E-06,  avg # of iterations =  9.4

     total cpu time spent up to now is     1827.6 secs

     total energy              =    -119.26605013 Ry
     estimated scf accuracy    <       0.00039836 Ry

     iteration #  5     ecut=    50.00 Ry     beta= 0.70
     Davidson diagonalization with overlap
     c_bands:  1 eigenvalues not converged
     ethr =  1.21E-06,  avg # of iterations =  7.4

     total cpu time spent up to now is     1833.0 secs

     total energy              =    -119.26611989 Ry
     estimated scf accuracy    <       0.00014484 Ry

     iteration #  6     ecut=    50.00 Ry     beta= 0.70
     Davidson diagonalization with overlap
     ethr =  4.39E-07,  avg # of iterations =  3.0

     total cpu time spent up to now is     1837.6 secs

     total energy              =    -119.26612810 Ry
     estimated scf accuracy    <       0.00001702 Ry

     iteration #  7     ecut=    50.00 Ry     beta= 0.70
     Davidson diagonalization with overlap
     ethr =  5.16E-08,  avg # of iterations =  5.5

     total cpu time spent up to now is     1843.2 secs

     total energy              =    -119.26613604 Ry
     estimated scf accuracy    <       0.00000384 Ry

     iteration #  8     ecut=    50.00 Ry     beta= 0.70
     Davidson diagonalization with overlap
     ethr =  1.16E-08,  avg # of iterations =  2.9

     total cpu time spent up to now is     1847.9 secs

     End of self-consistent calculation

          k = 0.0000 0.0000 0.0000 (  7659 PWs)   bands (ev):

   -34.0833 -16.1898 -16.1105 -16.0196  -8.5252  -6.8910  -6.6483  -5.9745
    -4.0579  -3.4339  -3.2408  -3.0130  -2.0945  -0.8614   0.0317   1.2526
     2.7815   3.1833   3.4608   3.8750   4.3280

          k =-0.0163-0.0098 0.3299 (  7674 PWs)   bands (ev):

   -34.0833 -16.1899 -16.1107 -16.0196  -8.5001  -6.9102  -6.6956  -5.9721
    -4.0134  -3.4140  -3.1980  -3.0335  -2.1289  -0.8655   0.0372   1.1400
     2.9455   3.3586   3.6223   4.1876   4.3283

          k =-0.0087-0.3600 0.0459 (  7706 PWs)   bands (ev):

   -34.0833 -16.1902 -16.1108 -16.0200  -8.4718  -6.9542  -6.6547  -6.0402
    -3.8740  -3.4706  -3.2231  -3.0494  -2.1955  -0.8587   0.1447   1.2602
     2.8692   2.9039   3.6995   4.2526   4.5398

          k =-0.0250-0.3698 0.3757 (  7660 PWs)   bands (ev):

   -34.0833 -16.1903 -16.1110 -16.0199  -8.4644  -6.8707  -6.7306  -6.0951
    -3.8423  -3.4140  -3.2274  -3.0739  -2.1802  -0.8757   0.0768   1.2067
     3.1631   3.4459   3.6368   3.7887   4.3154

          k = 0.4909-0.0308-0.0148 (  7660 PWs)   bands (ev):

   -34.0826 -16.1965 -16.1125 -16.0397  -8.4195  -6.7871  -6.6519  -5.9557
    -4.0663  -3.5771  -3.3206  -3.1441  -1.8819  -1.0642   0.2599   0.8182
     2.0738   3.0388   3.5676   3.6946   3.9847

          k = 0.4746-0.0406 0.3151 (  7650 PWs)   bands (ev):

   -34.0826 -16.1966 -16.1127 -16.0397  -8.4061  -6.7902  -6.6472  -5.9951
    -4.1311  -3.5851  -3.3758  -2.9511  -1.8952  -1.0137   0.2441   0.8603
     2.2218   3.1439   3.1979   3.6691   4.0118

          k = 0.4822-0.3908 0.0311 (  7644 PWs)   bands (ev):

   -34.0826 -16.1968 -16.1126 -16.0402  -8.3758  -6.8604  -6.6229  -6.0247
    -3.9630  -3.4802  -3.3390  -3.2046  -1.9769  -1.0299   0.2064   0.8523
     2.1882   3.0891   3.1549   3.8489   4.4980

          k = 0.4659-0.4006 0.3610 (  7654 PWs)   bands (ev):

   -34.0826 -16.1968 -16.1128 -16.0402  -8.3751  -6.8175  -6.6366  -6.0599
    -4.0523  -3.4923  -3.4519  -2.9468  -1.9689  -1.0695   0.2469   0.8895
     2.4152   2.6358   3.3993   3.9413   4.4479

     the Fermi energy is     2.5367 ev

!    total energy              =    -119.26613682 Ry
     estimated scf accuracy    <       0.00000021 Ry
     smearing contrib. (-TS)   =       0.00146043 Ry
     internal energy E=F+TS    =    -119.26759725 Ry

     The total energy is F=E-TS. E is the sum of the following terms:
     one-electron contribution =     -47.67250169 Ry
     hartree contribution      =      30.48367708 Ry
     xc contribution           =     -44.25542290 Ry
     ewald contribution        =     -47.39167994 Ry
     one-center paw contrib.   =     -10.43166980 Ry

     convergence has been achieved in   8 iterations

     Forces acting on atoms (cartesian axes, Ry/au):

     atom    1 type  3   force =     0.00474051   -0.00606606    0.00157877
     atom    2 type  3   force =     0.01083801    0.00719637   -0.00086330
     atom    3 type  4   force =    -0.00922071   -0.00552423   -0.00154386
     atom    4 type  3   force =     0.00305864   -0.00362104    0.00183191
     atom    5 type  3   force =     0.00306411    0.00045622    0.00995136
     atom    6 type  3   force =     0.00171496   -0.00139995   -0.00400910
     atom    7 type  1   force =     0.00647026   -0.01869071   -0.00015000
     atom    8 type  1   force =    -0.00414164   -0.00329860   -0.00470521
     atom    9 type  2   force =    -0.00165427    0.00232031    0.00546468
     atom   10 type  2   force =     0.00540939    0.00030654    0.00484033
     atom   11 type  2   force =     0.00815093    0.01917236    0.00181355
     atom   12 type  2   force =    -0.01405879    0.01266973   -0.00951036
     atom   13 type  2   force =    -0.01342498   -0.01500498   -0.00568908
     atom   14 type  2   force =    -0.00086445    0.00455112   -0.01209177
     atom   15 type  2   force =     0.00268877   -0.00314030    0.00020544
     atom   16 type  2   force =    -0.00427554   -0.00465110    0.01027651
     atom   17 type  2   force =     0.00473177    0.00584934    0.00334083
     atom   18 type  2   force =     0.00186727    0.00238791    0.00726345
     atom   19 type  2   force =    -0.00808949    0.00036239   -0.00085770
     atom   20 type  2   force =     0.00299524    0.00612467   -0.00714644

     Total force =     0.054634     Total SCF correction =     0.000735


     Computing stress (Cartesian axis) and pressure

          total   stress  (Ry/bohr**3)                   (kbar)     P=       -5.33
  -0.00006613  -0.00001746   0.00000908           -9.73       -2.57        1.34
  -0.00001746  -0.00003049  -0.00001979           -2.57       -4.49       -2.91
   0.00000908  -0.00001979  -0.00001210            1.34       -2.91       -1.78

     Energy error            =      6.2E-03
     Gradient error          =      1.9E-02
     Cell gradient error     =      6.6E-05


     number of scf cycles    =  18
     number of bfgs steps    =  17

     enthalpy old            =    -119.2599325338 Ry
     enthalpy new            =    -119.2661368243 Ry

     CASE: enthalpy_new < enthalpy_old

     new trust radius        =       0.1132766309 bohr
     new conv_thr            =       0.0000001917 Ry

     new unit-cell volume =   1714.36602 a.u.^3 (   254.04283 Ang^3 )
     density =      0.13073 g/cm^3

CELL_PARAMETERS (angstrom)
  -4.948869491   0.089346175  -0.244327448
   0.435550590   6.845757594   0.206713431
  -0.279721758  -0.930860003  -7.529085279

ATOMIC_POSITIONS (angstrom)
Li           -3.0873230390        6.7505236285       -5.6002595583
Li           -2.7619286091        3.2262881144       -2.1695836295
Sr           -0.7480970786        4.8271381574       -4.1509220543
Li           -4.7849885249        1.6591101835       -3.6001079175
Li           -1.3260216524        2.0826400622       -6.0977275219
Li           -2.5630878119        6.6234912562       -2.0639347170
B            -2.1273358723        1.6806459460       -3.8036114075
B            -0.3783922121       -0.0875385315       -7.1585357502
H            -1.9163639499        4.8892456467       -2.0757462790
H            -2.7685592362        1.4526826422       -4.8714092865
H            -1.2231079580       -0.8240310174       -6.6067480551
H            -1.4918368908        0.5877837668       -3.4761046041
H            -4.7919911823        0.9450213876       -6.7443472532
H            -3.9399314316        3.6155764412       -6.2031103560
H             0.4775043903        4.3139254008       -1.4845932837
H            -4.6211231345        3.7447928160       -6.6178269910
H            -3.7292682489        6.9947456196        0.0090193487
H            -0.6246307256        1.3033501191       -0.6286110630
H             0.3816234163        3.5745768672       -1.6974117395
H            -3.3532054304        5.5952666824       -4.1644533528



     Writing output data file ./tmp/SrLi5BH62.save/
     NEW-OLD atomic charge density approx. for the potential
     extrapolated charge   33.12793, renormalised to   33.00000

     total cpu time spent up to now is     1900.1 secs

     Self-consistent Calculation

     iteration #  1     ecut=    50.00 Ry     beta= 0.70
     Davidson diagonalization with overlap
     c_bands:  1 eigenvalues not converged
