
     Program PWSCF v.6.1 starts on 12Dec2025 at 16:23:28 

     This program is part of the open-source Quantum ESPRESSO suite
     for quantum simulation of materials; please cite
         "P. Giannozzi et al., J. Phys.:Condens. Matter 21 395502 (2009);
          URL http://www.quantum-espresso.org", 
     in publications or presentations arising from this work. More details at
     http://www.quantum-espresso.org/quote

     Parallel version (MPI & OpenMP), running on      12 processor cores
     Number of MPI processes:                 1
     Threads/MPI process:                    12
     Waiting for input...
     Reading input from standard input

     Current dimensions of program PWSCF are:
     Max number of different atomic species (ntypx) = 10
     Max number of k-points (npk) =  40000
     Max angular momentum in pseudopotentials (lmaxx) =  3
               file H.UPF: wavefunction(s)  1S renormalized
               file P.UPF: wavefunction(s)  3S 3P renormalized
               file Si.UPF: wavefunction(s)  3S 3P renormalized

     Subspace diagonalization in iterative solution of the eigenvalue problem:
     a serial algorithm will be used


     G-vector sticks info
     --------------------
     sticks:   dense  smooth     PW     G-vecs:    dense   smooth      PW
     Sum        9331    4647   1283               712871   252041   36431



     bravais-lattice index     =            0
     lattice parameter (alat)  =      24.5251  a.u.
     unit-cell volume          =    5277.4000 (a.u.)^3
     number of atoms/cell      =           52
     number of atomic types    =            5
     number of electrons       =       115.00
     number of Kohn-Sham states=           70
     kinetic-energy cutoff     =      50.0000  Ry
     charge density cutoff     =     400.0000  Ry
     convergence threshold     =      1.0E-08
     mixing beta               =       0.7000
     number of iterations used =            8  plain     mixing
     Exchange-correlation      = SLA  PW   PBE  PBE ( 1  4  3  4 0 0)

     celldm(1)=  24.525148  celldm(2)=   0.000000  celldm(3)=   0.000000
     celldm(4)=   0.000000  celldm(5)=   0.000000  celldm(6)=   0.000000

     crystal axes: (cart. coord. in units of alat)
               a(1) = (   0.999354  -0.030330  -0.019301 )  
               a(2) = (  -0.016913   0.487357  -0.023147 )  
               a(3) = (  -0.020079   0.033224   0.734135 )  

     reciprocal axes: (cart. coord. in units 2 pi/alat)
               b(1) = (  1.002238  0.036006  0.025782 )  
               b(2) = (  0.060447  2.049655 -0.091105 )  
               b(3) = (  0.028255  0.065572  1.359952 )  


     PseudoPot. # 1 for Ca read from file:
     C:/Users/Acer/Desktop/Quantum_Espresso/pseudo/Ca.UPF
     MD5 check sum: 0c1c990b756df134246005b196012f4b
     Pseudo is Ultrasoft + core correction, Zval = 10.0
     Generated by new atomic code, or converted to UPF format
     Using radial grid of  845 points,  6 beta functions with: 
                l(1) =   0
                l(2) =   0
                l(3) =   1
                l(4) =   1
                l(5) =   2
                l(6) =   2
     Q(r) pseudized with  6 coefficients,  rinner =    1.200   1.200   1.200
                                                       1.200   1.200

     PseudoPot. # 2 for  H read from file:
     C:/Users/Acer/Desktop/Quantum_Espresso/pseudo/H.UPF
     MD5 check sum: 850d63dcbcc06c5de8b44e0ab9f952da
     Pseudo is Projector augmented-wave, Zval =  1.0
     Generated using "atomic" code by A. Dal Corso  v.5.1.2
     Shape of augmentation charge: PSQ
     Using radial grid of  929 points,  2 beta functions with: 
                l(1) =   0
                l(2) =   0
     Q(r) pseudized with 0 coefficients 


     PseudoPot. # 3 for  P read from file:
     C:/Users/Acer/Desktop/Quantum_Espresso/pseudo/P.UPF
     MD5 check sum: eb3fe15b3ea470210e113e871cdf0757
     Pseudo is Projector augmented-wave + core cor, Zval =  5.0
     Generated using "atomic" code by A. Dal Corso  v.5.1.2
     Shape of augmentation charge: PSQ
     Using radial grid of 1147 points,  6 beta functions with: 
                l(1) =   0
                l(2) =   0
                l(3) =   1
                l(4) =   1
                l(5) =   2
                l(6) =   2
     Q(r) pseudized with 0 coefficients 


     PseudoPot. # 4 for Si read from file:
     C:/Users/Acer/Desktop/Quantum_Espresso/pseudo/Si.UPF
     MD5 check sum: 9aa59a521a94d8167cd5008988816ac3
     Pseudo is Projector augmented-wave + core cor, Zval =  4.0
     Generated using "atomic" code by A. Dal Corso  v.5.1.2
     Shape of augmentation charge: PSQ
     Using radial grid of 1141 points,  6 beta functions with: 
                l(1) =   0
                l(2) =   0
                l(3) =   1
                l(4) =   1
                l(5) =   2
                l(6) =   2
     Q(r) pseudized with 0 coefficients 


     PseudoPot. # 5 for Sr read from file:
     C:/Users/Acer/Desktop/Quantum_Espresso/pseudo/Sr.UPF
     MD5 check sum: 71c4688e601547c0814ef38edf55aea6
     Pseudo is Ultrasoft + core correction, Zval = 10.0
     Generated by new atomic code, or converted to UPF format
     Using radial grid of  883 points,  6 beta functions with: 
                l(1) =   0
                l(2) =   0
                l(3) =   1
                l(4) =   1
                l(5) =   2
                l(6) =   2
     Q(r) pseudized with  8 coefficients,  rinner =    1.200   1.200   1.200
                                                       1.200   1.200

     atomic species   valence    mass     pseudopotential
        Ca            10.00     1.00000     Ca( 1.00)
        H              1.00     1.00000      H( 1.00)
        P              5.00     1.00000      P( 1.00)
        Si             4.00     1.00000     Si( 1.00)
        Sr            10.00     1.00000     Sr( 1.00)

     No symmetry found



   Cartesian axes

     site n.     atom                  positions (alat units)
         1           Si  tau(   1) = (   0.8809060   0.4654261   0.1773596  )
         2           Si  tau(   2) = (   0.3687275   0.0133740   0.0961347  )
         3           Si  tau(   3) = (   0.0781645   0.0431340   0.4728155  )
         4           Si  tau(   4) = (   0.5793230   0.4472618   0.5797036  )
         5           Si  tau(   5) = (   0.7720831   0.0781799   0.1080115  )
         6           Si  tau(   6) = (   0.2652034   0.3346810   0.2527764  )
         7           Ca  tau(   7) = (   0.2482519   0.3658041   0.6097587  )
         8           Si  tau(   8) = (   0.6852217   0.1304770   0.4350451  )
         9           Si  tau(   9) = (   0.0324060   0.1174651   0.1335167  )
        10           Si  tau(  10) = (   0.5232549   0.3256936   0.1903153  )
        11           Si  tau(  11) = (   0.9227856   0.3311597   0.5591082  )
        12           Si  tau(  12) = (   0.4305637   0.1452449   0.4904228  )
        13           Sr  tau(  13) = (   0.9130107   0.2548692   0.2801832  )
        14           P   tau(  14) = (   0.3679746   0.3319433   0.1113048  )
        15           P   tau(  15) = (   0.0665118   0.3606939   0.4830542  )
        16           P   tau(  16) = (   0.5817000   0.1316043   0.5757470  )
        17           H   tau(  17) = (   0.9691921   0.4224208   0.2532087  )
        18           H   tau(  18) = (   0.4588589   0.0542134   0.0379214  )
        19           H   tau(  19) = (  -0.0138980   0.0845367   0.4141815  )
        20           H   tau(  20) = (   0.5233119   0.4159422   0.6749244  )
        21           H   tau(  21) = (   0.8030413   0.4029496   0.2549393  )
        22           H   tau(  22) = (   0.2551489   0.1823419  -0.0254605  )
        23           H   tau(  23) = (   0.1715915   0.0713923   0.4114778  )
        24           H   tau(  24) = (   0.6921680   0.4317203   0.5995678  )
        25           H   tau(  25) = (   0.8890335   0.3698463   0.1062871  )
        26           H   tau(  26) = (   0.3456433   0.0774209   0.1886240  )
        27           H   tau(  27) = (   0.0839719   0.1036812   0.5715021  )
        28           H   tau(  28) = (   0.5485451   0.3831817   0.4893479  )
        29           H   tau(  29) = (   0.6596603   0.0548314   0.1250348  )
        30           H   tau(  30) = (   0.1612125   0.3696243   0.2189626  )
        31           H   tau(  31) = (   0.3610946   0.4676576   0.5640558  )
        32           H   tau(  32) = (   0.7924535   0.1027512   0.4684628  )
        33           H   tau(  33) = (   0.4002797   0.0646009   0.4146130  )
        34           H   tau(  34) = (   0.9158501   0.4172652   0.6351368  )
        35           H   tau(  35) = (   0.5289776   0.4068947   0.2709670  )
        36           H   tau(  36) = (   0.0690461   0.1311489   0.0224146  )
        37           H   tau(  37) = (   0.3444829   0.1710606   0.5646899  )
        38           H   tau(  38) = (   0.8317565   0.3431560   0.4877429  )
        39           H   tau(  39) = (   0.6038480   0.3404646   0.1109534  )
        40           H   tau(  40) = (   0.1328949   0.1148947   0.1923387  )
        41           H   tau(  41) = (   0.4439554   0.2441766   0.4304250  )
        42           H   tau(  42) = (   0.9105089   0.2295998   0.6114023  )
        43           H   tau(  43) = (   0.5287102   0.2214145   0.2375855  )
        44           H   tau(  44) = (   0.0045923   0.2313196   0.1467551  )
        45           H   tau(  45) = (   0.6530191   0.0565373   0.3526843  )
        46           H   tau(  46) = (   0.2363018   0.5363006   0.7410309  )
        47           H   tau(  47) = (   0.3064073   0.4079364   0.3311312  )
        48           H   tau(  48) = (   0.7867670   0.0889087  -0.0064686  )
        49           H   tau(  49) = (   0.6889634   0.2365075   0.3879968  )
        50           H   tau(  50) = (   0.1760189   0.2137994   0.7038045  )
        51           H   tau(  51) = (   0.2616960   0.2287907   0.2966124  )
        52           H   tau(  52) = (   0.7802029   0.1901935   0.1437732  )

     number of k points=    36  Methfessel-Paxton smearing, width (Ry)=  0.0100
                       cart. coord. in units 2pi/alat
        k(    1) = (   0.0000000   0.0000000   0.0000000), wk =   0.0312500
        k(    2) = (   0.0070638   0.0163931   0.3399879), wk =   0.0625000
        k(    3) = (  -0.0141277  -0.0327862  -0.6799759), wk =   0.0312500
        k(    4) = (   0.0151118   0.5124138  -0.0227761), wk =   0.0625000
        k(    5) = (   0.0221756   0.5288069   0.3172118), wk =   0.0625000
        k(    6) = (   0.0009841   0.4796276  -0.7027520), wk =   0.0625000
        k(    7) = (   0.0080479   0.4960207  -0.3627641), wk =   0.0625000
        k(    8) = (  -0.0302236  -1.0248276   0.0455523), wk =   0.0312500
        k(    9) = (  -0.0231597  -1.0084345   0.3855402), wk =   0.0625000
        k(   10) = (  -0.0443513  -1.0576139  -0.6344236), wk =   0.0312500
        k(   11) = (   0.2505594   0.0090015   0.0064456), wk =   0.0625000
        k(   12) = (   0.2576232   0.0253946   0.3464335), wk =   0.0625000
        k(   13) = (   0.2364317  -0.0237848  -0.6735302), wk =   0.0625000
        k(   14) = (   0.2434955  -0.0073917  -0.3335423), wk =   0.0625000
        k(   15) = (   0.2656712   0.5214153  -0.0163305), wk =   0.0625000
        k(   16) = (   0.2727350   0.5378084   0.3236574), wk =   0.0625000
        k(   17) = (   0.2515435   0.4886290  -0.6963064), wk =   0.0625000
        k(   18) = (   0.2586073   0.5050222  -0.3563184), wk =   0.0625000
        k(   19) = (   0.2203358  -1.0158262   0.0519979), wk =   0.0625000
        k(   20) = (   0.2273997  -0.9994331   0.3919858), wk =   0.0625000
        k(   21) = (   0.2062081  -1.0486124  -0.6279780), wk =   0.0625000
        k(   22) = (   0.2132720  -1.0322193  -0.2879900), wk =   0.0625000
        k(   23) = (   0.2354476  -0.5034124   0.0292217), wk =   0.0625000
        k(   24) = (   0.2425115  -0.4870192   0.3692097), wk =   0.0625000
        k(   25) = (   0.2213199  -0.5361986  -0.6507541), wk =   0.0625000
        k(   26) = (   0.2283838  -0.5198055  -0.3107662), wk =   0.0625000
        k(   27) = (  -0.5011188  -0.0180029  -0.0128912), wk =   0.0312500
        k(   28) = (  -0.4940549  -0.0016098   0.3270967), wk =   0.0625000
        k(   29) = (  -0.5152465  -0.0507891  -0.6928671), wk =   0.0312500
        k(   30) = (  -0.4860070   0.4944109  -0.0356674), wk =   0.0625000
        k(   31) = (  -0.4789431   0.5108040   0.3043206), wk =   0.0625000
        k(   32) = (  -0.5001347   0.4616247  -0.7156432), wk =   0.0625000
        k(   33) = (  -0.4930708   0.4780178  -0.3756553), wk =   0.0625000
        k(   34) = (  -0.5313424  -1.0428305   0.0326610), wk =   0.0312500
        k(   35) = (  -0.5242785  -1.0264374   0.3726490), wk =   0.0625000
        k(   36) = (  -0.5454701  -1.0756168  -0.6473148), wk =   0.0312500

     Dense  grid:   712871 G-vectors     FFT dimensions: ( 160,  80, 120)

     Smooth grid:   252041 G-vectors     FFT dimensions: ( 120,  54,  81)

     Estimated max dynamical RAM per process >    2121.29MB

     Initial potential from superposition of free atoms
     Check: negative starting charge=   -0.000163

     starting charge  114.95392, renormalised to  115.00000

     negative rho (up, down):  1.634E-04 0.000E+00
     Starting wfc are  115 randomized atomic wfcs
     Checking if some PAW data can be deallocated... 

     total cpu time spent up to now is      251.4 secs

     Self-consistent Calculation

     iteration #  1     ecut=    50.00 Ry     beta=0.70
     Davidson diagonalization with overlap
     ethr =  1.00E-02,  avg # of iterations =  3.3

     negative rho (up, down):  1.518E-04 0.000E+00

     total cpu time spent up to now is      487.6 secs

     total energy              =    -870.35150947 Ry
     Harris-Foulkes estimate   =    -871.49180544 Ry
     estimated scf accuracy    <       2.65344614 Ry

     iteration #  2     ecut=    50.00 Ry     beta=0.70
     Davidson diagonalization with overlap
     ethr =  2.31E-03,  avg # of iterations =  3.0

     negative rho (up, down):  7.459E-05 0.000E+00

     total cpu time spent up to now is      679.5 secs

     total energy              =    -870.34323778 Ry
     Harris-Foulkes estimate   =    -870.70494061 Ry
     estimated scf accuracy    <       0.51058990 Ry

     iteration #  3     ecut=    50.00 Ry     beta=0.70
     Davidson diagonalization with overlap
     ethr =  4.44E-04,  avg # of iterations =  6.8

     negative rho (up, down):  8.805E-05 0.000E+00

     total cpu time spent up to now is      988.1 secs

     total energy              =    -870.23136155 Ry
     Harris-Foulkes estimate   =    -870.91911765 Ry
     estimated scf accuracy    <       2.23175734 Ry

     iteration #  4     ecut=    50.00 Ry     beta=0.70
     Davidson diagonalization with overlap
     ethr =  4.44E-04,  avg # of iterations =  6.7

     negative rho (up, down):  1.086E-04 0.000E+00

     total cpu time spent up to now is     1301.1 secs

     total energy              =    -870.62626042 Ry
     Harris-Foulkes estimate   =    -870.67667498 Ry
     estimated scf accuracy    <       0.11082434 Ry

     iteration #  5     ecut=    50.00 Ry     beta=0.70
     Davidson diagonalization with overlap
     ethr =  9.64E-05,  avg # of iterations =  6.4

     negative rho (up, down):  1.171E-04 0.000E+00

     total cpu time spent up to now is     1562.5 secs

     total energy              =    -870.63776440 Ry
     Harris-Foulkes estimate   =    -870.64160015 Ry
     estimated scf accuracy    <       0.01107493 Ry

     iteration #  6     ecut=    50.00 Ry     beta=0.70
     Davidson diagonalization with overlap
     ethr =  9.63E-06,  avg # of iterations =  8.2

     negative rho (up, down):  1.233E-04 0.000E+00

     total cpu time spent up to now is     1864.4 secs

     total energy              =    -870.63845458 Ry
     Harris-Foulkes estimate   =    -870.63933269 Ry
     estimated scf accuracy    <       0.00227169 Ry

     iteration #  7     ecut=    50.00 Ry     beta=0.70
     Davidson diagonalization with overlap
     ethr =  1.98E-06,  avg # of iterations =  7.9

     negative rho (up, down):  1.235E-04 0.000E+00

     total cpu time spent up to now is     2176.6 secs

     total energy              =    -870.63891222 Ry
     Harris-Foulkes estimate   =    -870.63903056 Ry
     estimated scf accuracy    <       0.00027436 Ry

     iteration #  8     ecut=    50.00 Ry     beta=0.70
     Davidson diagonalization with overlap
     ethr =  2.39E-07,  avg # of iterations =  3.6

     negative rho (up, down):  1.235E-04 0.000E+00

     total cpu time spent up to now is     2400.6 secs

     total energy              =    -870.63897038 Ry
     Harris-Foulkes estimate   =    -870.63900688 Ry
     estimated scf accuracy    <       0.00008578 Ry

     iteration #  9     ecut=    50.00 Ry     beta=0.70
     Davidson diagonalization with overlap
     ethr =  7.46E-08,  avg # of iterations =  3.2

     negative rho (up, down):  1.235E-04 0.000E+00

     total cpu time spent up to now is     2614.0 secs

     total energy              =    -870.63898724 Ry
     Harris-Foulkes estimate   =    -870.63899010 Ry
     estimated scf accuracy    <       0.00000564 Ry

     iteration # 10     ecut=    50.00 Ry     beta=0.70
     Davidson diagonalization with overlap
     ethr =  4.90E-09,  avg # of iterations =  3.6

     negative rho (up, down):  1.234E-04 0.000E+00

     total cpu time spent up to now is     2852.8 secs

     total energy              =    -870.63898899 Ry
     Harris-Foulkes estimate   =    -870.63898915 Ry
     estimated scf accuracy    <       0.00000042 Ry

     iteration # 11     ecut=    50.00 Ry     beta=0.70
     Davidson diagonalization with overlap
     ethr =  3.69E-10,  avg # of iterations =  3.0

     negative rho (up, down):  1.234E-04 0.000E+00

     total cpu time spent up to now is     3084.3 secs

     total energy              =    -870.63898911 Ry
     Harris-Foulkes estimate   =    -870.63898912 Ry
     estimated scf accuracy    <       0.00000004 Ry

     iteration # 12     ecut=    50.00 Ry     beta=0.70
     Davidson diagonalization with overlap
     ethr =  3.13E-11,  avg # of iterations =  3.7

     negative rho (up, down):  1.234E-04 0.000E+00

     total cpu time spent up to now is     3327.4 secs

     total energy              =    -870.63898912 Ry
     Harris-Foulkes estimate   =    -870.63898912 Ry
     estimated scf accuracy    <       0.00000001 Ry

     iteration # 13     ecut=    50.00 Ry     beta=0.70
     Davidson diagonalization with overlap
     ethr =  9.18E-12,  avg # of iterations =  3.7

     negative rho (up, down):  1.234E-04 0.000E+00

     total cpu time spent up to now is     3554.0 secs

     End of self-consistent calculation

          k = 0.0000 0.0000 0.0000 ( 31559 PWs)   bands (ev):

   -40.3825 -34.0595 -21.5162 -21.3898 -21.2369 -16.1438 -16.0668 -16.0413
   -11.0298 -10.4497  -9.7655  -8.1827  -8.1536  -8.0128  -7.7249  -7.4895
    -7.3580  -7.0053  -6.7930  -6.4653  -6.3747  -6.1349  -6.0962  -4.0827
    -3.9743  -3.8592  -3.6114  -3.5651  -3.4034  -3.3780  -3.3083  -3.2016
    -3.0925  -3.0668  -3.0066  -2.8876  -2.8306  -2.6979  -2.5963  -2.4920
    -2.4288  -2.3110  -2.2412  -2.1799  -2.1067  -1.9058  -1.8251  -1.7683
    -1.6829  -1.6299  -1.4515  -1.3651  -1.1023  -0.6620  -0.0725   0.2610
     0.9650   3.2202   3.4231   3.4897   3.6863   3.7008   3.8818   4.0203
     4.1836   4.2121   4.3665   4.4557   4.6241   4.7315

          k = 0.0071 0.0164 0.3400 ( 31527 PWs)   bands (ev):

   -40.3825 -34.0595 -21.5162 -21.3898 -21.2369 -16.1438 -16.0668 -16.0413
   -11.0284 -10.4510  -9.7644  -8.1944  -8.1535  -8.0200  -7.7193  -7.4838
    -7.3467  -7.0045  -6.7831  -6.4985  -6.3381  -6.1701  -6.0857  -4.0440
    -3.9766  -3.8643  -3.6404  -3.5339  -3.4210  -3.3705  -3.2798  -3.1935
    -3.0977  -3.0551  -2.9779  -2.9104  -2.8452  -2.7022  -2.6412  -2.5101
    -2.4365  -2.3024  -2.2620  -2.1807  -2.0845  -1.9260  -1.8241  -1.7487
    -1.6813  -1.6442  -1.4471  -1.3474  -1.1194  -0.6508  -0.0775   0.2492
     0.9767   3.0823   3.4521   3.5993   3.7223   3.7676   3.8812   3.9643
     4.1201   4.2139   4.3595   4.5037   4.6128   4.6848

          k =-0.0141-0.0328-0.6800 ( 31540 PWs)   bands (ev):

   -40.3825 -34.0595 -21.5162 -21.3898 -21.2369 -16.1438 -16.0668 -16.0413
   -11.0269 -10.4524  -9.7634  -8.2026  -8.1549  -8.0316  -7.7084  -7.4816
    -7.3348  -7.0048  -6.7712  -6.5249  -6.2960  -6.2142  -6.0797  -4.0028
    -3.9737  -3.8627  -3.6928  -3.4944  -3.4327  -3.3546  -3.2697  -3.1683
    -3.0927  -3.0365  -2.9541  -2.9345  -2.8930  -2.7383  -2.6496  -2.5137
    -2.4440  -2.3046  -2.2534  -2.2057  -2.0679  -1.9467  -1.8077  -1.7567
    -1.6718  -1.6479  -1.4454  -1.3294  -1.1387  -0.6385  -0.0834   0.2372
     0.9894   2.9924   3.4562   3.6299   3.7221   3.8243   3.9323   4.0652
     4.1423   4.1974   4.2519   4.4912   4.5614   4.7076

          k = 0.0151 0.5124-0.0228 ( 31511 PWs)   bands (ev):

   -40.3825 -34.0595 -21.5162 -21.3898 -21.2369 -16.1436 -16.0677 -16.0430
   -11.0048 -10.4263  -9.7351  -8.2266  -8.1273  -7.9963  -7.7237  -7.5775
    -7.3822  -7.0149  -6.8317  -6.4694  -6.3972  -6.2334  -6.0857  -4.1675
    -4.0142  -3.8557  -3.6696  -3.5758  -3.4259  -3.3941  -3.2888  -3.2057
    -3.0934  -3.0244  -2.9373  -2.9000  -2.7540  -2.6606  -2.5824  -2.4550
    -2.4194  -2.3601  -2.2527  -2.1383  -2.0335  -1.9433  -1.8144  -1.6723
    -1.5979  -1.5219  -1.3923  -1.2375  -1.0192  -0.5803  -0.1172   0.2729
     1.0285   2.8879   3.3968   3.5465   3.7186   3.8313   3.9186   4.0422
     4.2013   4.2385   4.3496   4.4182   4.5604   4.6878

          k = 0.0222 0.5288 0.3172 ( 31513 PWs)   bands (ev):

   -40.3825 -34.0595 -21.5162 -21.3898 -21.2369 -16.1436 -16.0677 -16.0430
   -11.0042 -10.4259  -9.7347  -8.2288  -8.1246  -7.9921  -7.7320  -7.5854
    -7.3904  -7.0138  -6.8391  -6.4629  -6.3611  -6.2088  -6.1326  -4.1381
    -4.0018  -3.8055  -3.6447  -3.5376  -3.4789  -3.3950  -3.2669  -3.2133
    -3.1323  -3.0405  -2.9214  -2.8873  -2.8082  -2.6827  -2.5743  -2.5243
    -2.4578  -2.3552  -2.2424  -2.1669  -2.0282  -1.9538  -1.8168  -1.6544
    -1.5781  -1.5186  -1.3510  -1.2269  -1.0235  -0.5719  -0.1189   0.2694
     1.0262   2.9008   3.4373   3.5266   3.8040   3.8423   3.9542   4.0051
     4.1599   4.2704   4.3573   4.4484   4.5081   4.6738

          k = 0.0010 0.4796-0.7028 ( 31514 PWs)   bands (ev):

   -40.3825 -34.0595 -21.5162 -21.3898 -21.2369 -16.1436 -16.0677 -16.0430
   -11.0029 -10.4271  -9.7340  -8.2290  -8.1334  -8.0015  -7.7271  -7.5743
    -7.3776  -7.0235  -6.8299  -6.4860  -6.3504  -6.2134  -6.1352  -4.1054
    -3.9922  -3.8265  -3.6760  -3.5137  -3.4018  -3.3663  -3.2926  -3.2230
    -3.1475  -3.0367  -2.9500  -2.8801  -2.8081  -2.7311  -2.5945  -2.5194
    -2.4445  -2.3041  -2.2317  -2.1902  -2.0516  -1.9631  -1.8106  -1.6698
    -1.5883  -1.5303  -1.3323  -1.2255  -1.0427  -0.5570  -0.1186   0.2473
     1.0367   2.8314   3.4655   3.5847   3.7106   3.8463   3.9374   4.0878
     4.2363   4.2974   4.3337   4.4379   4.5791   4.5982

          k = 0.0080 0.4960-0.3628 ( 31496 PWs)   bands (ev):

   -40.3825 -34.0595 -21.5162 -21.3898 -21.2369 -16.1436 -16.0677 -16.0430
   -11.0035 -10.4275  -9.7344  -8.2260  -8.1375  -8.0051  -7.7172  -7.5678
    -7.3699  -7.0240  -6.8220  -6.4974  -6.3829  -6.2361  -6.0898  -4.1310
    -4.0196  -3.8689  -3.6789  -3.5292  -3.3961  -3.3788  -3.2977  -3.2351
    -3.1281  -2.9922  -2.9367  -2.8853  -2.7583  -2.6974  -2.6289  -2.4617
    -2.3995  -2.3383  -2.2370  -2.1219  -2.0623  -1.9539  -1.8174  -1.6893
    -1.6054  -1.5337  -1.3775  -1.2291  -1.0412  -0.5670  -0.1160   0.2517
     1.0384   2.8263   3.4259   3.5910   3.7366   3.7596   3.9020   4.0710
     4.1871   4.3011   4.3557   4.4751   4.5854   4.7057

          k =-0.0302-1.0248 0.0456 ( 31466 PWs)   bands (ev):

   -40.3825 -34.0595 -21.5163 -21.3898 -21.2369 -16.1433 -16.0688 -16.0446
   -10.9787 -10.4021  -9.7033  -8.2967  -8.0803  -7.9749  -7.7348  -7.6379
    -7.4283  -7.0167  -6.8518  -6.5056  -6.4191  -6.2922  -6.0902  -4.2363
    -4.0609  -3.8910  -3.7168  -3.5595  -3.4948  -3.3541  -3.3177  -3.1417
    -3.1357  -2.9933  -2.9536  -2.8679  -2.6888  -2.6493  -2.4800  -2.4610
    -2.4074  -2.3650  -2.2340  -2.0843  -2.0047  -1.9819  -1.8138  -1.6424
    -1.5612  -1.4147  -1.2605  -1.1046  -0.8512  -0.4636  -0.1318   0.2795
     1.0842   2.6044   3.3790   3.5218   3.7263   3.7815   3.8342   3.9049
     4.0844   4.1531   4.2201   4.3497   4.3836   4.5927

          k =-0.0232-1.0084 0.3855 ( 31482 PWs)   bands (ev):

   -40.3825 -34.0595 -21.5163 -21.3898 -21.2369 -16.1434 -16.0688 -16.0446
   -10.9784 -10.4015  -9.7033  -8.2969  -8.0778  -7.9691  -7.7438  -7.6412
    -7.4332  -7.0294  -6.8564  -6.4900  -6.4118  -6.2856  -6.1021  -4.2095
    -4.0408  -3.8451  -3.7087  -3.5413  -3.4331  -3.3982  -3.3038  -3.1848
    -3.1568  -3.0279  -2.9547  -2.8426  -2.7417  -2.6233  -2.5820  -2.4874
    -2.4052  -2.3195  -2.2363  -2.0992  -2.0404  -1.9685  -1.8306  -1.6311
    -1.5449  -1.4149  -1.2215  -1.0978  -0.8603  -0.4535  -0.1304   0.2671
     1.0831   2.6335   3.4114   3.4642   3.6825   3.7863   3.8479   3.9482
     4.0564   4.2092   4.2804   4.3366   4.4704   4.5780

          k =-0.0444-1.0576-0.6344 ( 31470 PWs)   bands (ev):

   -40.3825 -34.0595 -21.5163 -21.3898 -21.2369 -16.1434 -16.0688 -16.0446
   -10.9780 -10.4008  -9.7032  -8.2973  -8.0747  -7.9635  -7.7526  -7.6441
    -7.4396  -7.0406  -6.8612  -6.4726  -6.4072  -6.2786  -6.1142  -4.1855
    -4.0053  -3.8158  -3.6768  -3.5406  -3.4268  -3.3528  -3.3104  -3.2091
    -3.1804  -3.0955  -2.9275  -2.8601  -2.7674  -2.6503  -2.6084  -2.4775
    -2.4541  -2.3268  -2.2081  -2.1213  -2.0663  -1.9592  -1.8294  -1.6250
    -1.5306  -1.4180  -1.1878  -1.0951  -0.8622  -0.4431  -0.1304   0.2538
     1.0814   2.6660   3.3271   3.5329   3.6864   3.7130   3.8923   3.9786
     4.1179   4.1952   4.3394   4.4304   4.4856   4.5331

          k = 0.2506 0.0090 0.0064 ( 31562 PWs)   bands (ev):

   -40.3825 -34.0595 -21.5162 -21.3898 -21.2369 -16.1438 -16.0668 -16.0413
   -11.0297 -10.4496  -9.7660  -8.2217  -8.1262  -7.9848  -7.7212  -7.4892
    -7.3736  -7.0564  -6.7463  -6.4848  -6.3307  -6.1607  -6.0938  -4.0810
    -3.9770  -3.8617  -3.6339  -3.5561  -3.4295  -3.3369  -3.3039  -3.1919
    -3.0978  -3.0622  -2.9936  -2.8875  -2.8362  -2.7044  -2.5882  -2.5205
    -2.4435  -2.3050  -2.2544  -2.1653  -2.0924  -1.9056  -1.8244  -1.7670
    -1.6925  -1.6219  -1.4546  -1.3553  -1.1074  -0.6647  -0.0716   0.2573
     0.9613   3.2354   3.4003   3.5006   3.7013   3.7646   3.8649   3.9864
     4.1234   4.2926   4.4111   4.4453   4.5913   4.6897

          k = 0.2576 0.0254 0.3464 ( 31524 PWs)   bands (ev):

   -40.3825 -34.0595 -21.5162 -21.3898 -21.2369 -16.1438 -16.0668 -16.0413
   -11.0283 -10.4509  -9.7651  -8.2282  -8.1363  -7.9836  -7.7200  -7.4874
    -7.3594  -7.0523  -6.7374  -6.4732  -6.3677  -6.1551  -6.0965  -4.0384
    -3.9812  -3.8645  -3.6542  -3.5285  -3.4520  -3.3234  -3.2684  -3.1887
    -3.1037  -3.0627  -2.9687  -2.9168  -2.8494  -2.7103  -2.6199  -2.5298
    -2.4449  -2.3187  -2.2588  -2.1777  -2.0722  -1.9215  -1.8468  -1.7381
    -1.6888  -1.6312  -1.4482  -1.3434  -1.1121  -0.6535  -0.0783   0.2441
     0.9738   3.1158   3.4295   3.6045   3.6764   3.8431   3.8982   3.9775
     4.0931   4.2678   4.3181   4.4195   4.6204   4.6826

          k = 0.2364-0.0238-0.6735 ( 31528 PWs)   bands (ev):

   -40.3825 -34.0595 -21.5162 -21.3898 -21.2369 -16.1438 -16.0668 -16.0413
   -11.0269 -10.4522  -9.7640  -8.2371  -8.1366  -7.9962  -7.7072  -7.4962
    -7.3394  -7.0414  -6.7355  -6.5057  -6.3266  -6.1948  -6.0879  -4.0037
    -3.9746  -3.8651  -3.7053  -3.4832  -3.4309  -3.3243  -3.2610  -3.1623
    -3.0944  -3.0648  -2.9699  -2.9379  -2.8676  -2.7441  -2.6415  -2.5260
    -2.4604  -2.2990  -2.2558  -2.2037  -2.0735  -1.9419  -1.8337  -1.7454
    -1.6806  -1.6301  -1.4477  -1.3266  -1.1246  -0.6383  -0.0830   0.2327
     0.9834   3.0212   3.4547   3.6217   3.6896   3.8528   3.9388   4.0629
     4.1150   4.1980   4.2909   4.4767   4.5661   4.6856

          k = 0.2435-0.0074-0.3335 ( 31524 PWs)   bands (ev):

   -40.3825 -34.0595 -21.5162 -21.3898 -21.2369 -16.1438 -16.0668 -16.0413
   -11.0283 -10.4509  -9.7649  -8.2313  -8.1264  -7.9953  -7.7129  -7.4952
    -7.3533  -7.0452  -6.7457  -6.5101  -6.2882  -6.2065  -6.0869  -4.0475
    -3.9774  -3.8685  -3.6575  -3.5158  -3.4171  -3.3549  -3.2778  -3.1818
    -3.1024  -3.0663  -2.9592  -2.9341  -2.8176  -2.7135  -2.6489  -2.5262
    -2.4575  -2.2859  -2.2607  -2.1688  -2.0961  -1.9291  -1.8192  -1.7511
    -1.6947  -1.6290  -1.4522  -1.3384  -1.1199  -0.6484  -0.0757   0.2455
     0.9699   3.0957   3.4465   3.6221   3.6714   3.8076   3.9299   3.9393
     4.0885   4.2443   4.3705   4.5369   4.5629   4.6851

          k = 0.2657 0.5214-0.0163 ( 31529 PWs)   bands (ev):

   -40.3825 -34.0595 -21.5162 -21.3898 -21.2369 -16.1436 -16.0677 -16.0430
   -11.0047 -10.4262  -9.7355  -8.2295  -8.1434  -7.9660  -7.7189  -7.5814
    -7.3925  -7.0271  -6.8391  -6.4686  -6.3336  -6.2767  -6.0876  -4.1692
    -4.0213  -3.8556  -3.6765  -3.5461  -3.4672  -3.3818  -3.2576  -3.2114
    -3.1405  -3.0217  -2.9337  -2.8728  -2.7243  -2.6462  -2.6116  -2.4644
    -2.4251  -2.3377  -2.2552  -2.1409  -2.0211  -1.9661  -1.8042  -1.6821
    -1.5951  -1.5227  -1.3989  -1.2356  -1.0250  -0.5814  -0.1162   0.2685
     1.0246   2.8845   3.3821   3.5805   3.7439   3.8776   3.9279   4.0602
     4.1707   4.3050   4.3690   4.4270   4.5387   4.6028

          k = 0.2727 0.5378 0.3237 ( 31508 PWs)   bands (ev):

   -40.3825 -34.0595 -21.5162 -21.3898 -21.2369 -16.1436 -16.0677 -16.0430
   -11.0042 -10.4258  -9.7351  -8.2227  -8.1544  -7.9592  -7.7274  -7.5791
    -7.4088  -7.0310  -6.8362  -6.4466  -6.3436  -6.2285  -6.1330  -4.1412
    -4.0095  -3.8037  -3.6450  -3.5476  -3.4609  -3.3914  -3.2608  -3.1956
    -3.1390  -3.0763  -2.9452  -2.8835  -2.7405  -2.6771  -2.5914  -2.5293
    -2.4699  -2.3264  -2.2582  -2.1778  -2.0210  -1.9652  -1.8080  -1.6642
    -1.5765  -1.5201  -1.3521  -1.2323  -1.0201  -0.5718  -0.1124   0.2581
     1.0223   2.9258   3.4308   3.5316   3.7678   3.8429   3.9788   4.0757
     4.1671   4.3189   4.3786   4.4687   4.5070   4.5753

          k = 0.2515 0.4886-0.6963 ( 31512 PWs)   bands (ev):

   -40.3825 -34.0595 -21.5162 -21.3898 -21.2369 -16.1436 -16.0677 -16.0430
   -11.0029 -10.4270  -9.7345  -8.2219  -8.1653  -7.9645  -7.7229  -7.5821
    -7.3849  -7.0381  -6.8270  -6.4593  -6.3478  -6.2402  -6.1270  -4.1068
    -4.0060  -3.8283  -3.6853  -3.5152  -3.3837  -3.3481  -3.2857  -3.1921
    -3.1515  -3.0478  -2.9646  -2.8930  -2.7955  -2.7391  -2.5783  -2.5320
    -2.4510  -2.3029  -2.2409  -2.1847  -2.0514  -1.9639  -1.8049  -1.6816
    -1.5836  -1.5318  -1.3376  -1.2248  -1.0382  -0.5591  -0.1184   0.2416
     1.0349   2.8646   3.4792   3.5406   3.6993   3.8745   3.9689   4.0971
     4.2308   4.2887   4.3640   4.4636   4.5240   4.6286

          k = 0.2586 0.5050-0.3563 ( 31521 PWs)   bands (ev):

   -40.3825 -34.0595 -21.5162 -21.3898 -21.2369 -16.1436 -16.0677 -16.0430
   -11.0034 -10.4274  -9.7349  -8.2288  -8.1547  -7.9711  -7.7134  -7.5828
    -7.3710  -7.0347  -6.8283  -6.4811  -6.3400  -6.2826  -6.0863  -4.1316
    -4.0307  -3.8707  -3.6952  -3.5086  -3.4184  -3.3511  -3.2785  -3.2193
    -3.1504  -3.0055  -2.9221  -2.8809  -2.7743  -2.6940  -2.6020  -2.4874
    -2.4022  -2.3286  -2.2402  -2.1193  -2.0525  -1.9690  -1.8126  -1.6981
    -1.5999  -1.5351  -1.3835  -1.2270  -1.0449  -0.5671  -0.1220   0.2519
     1.0367   2.8363   3.4253   3.5655   3.7166   3.8311   3.9548   4.0963
     4.1709   4.3202   4.3687   4.4747   4.5742   4.6347

          k = 0.2203-1.0158 0.0520 ( 31482 PWs)   bands (ev):

   -40.3825 -34.0595 -21.5163 -21.3898 -21.2369 -16.1433 -16.0688 -16.0446
   -10.9787 -10.4021  -9.7033  -8.2984  -8.0736  -7.9801  -7.7321  -7.6448
    -7.4249  -7.0268  -6.8371  -6.5026  -6.4008  -6.3099  -6.0977  -4.2341
    -4.0736  -3.8885  -3.7375  -3.5478  -3.4681  -3.4260  -3.3146  -3.1702
    -3.0767  -2.9697  -2.9171  -2.8652  -2.6779  -2.6266  -2.5061  -2.4665
    -2.3983  -2.3575  -2.2281  -2.1087  -2.0366  -1.9782  -1.8214  -1.6445
    -1.5590  -1.4233  -1.2546  -1.1049  -0.8526  -0.4634  -0.1249   0.2696
     1.0806   2.6115   3.3700   3.4785   3.7523   3.8025   3.8701   3.9102
     4.0516   4.1805   4.2609   4.3382   4.3730   4.6044

          k = 0.2274-0.9994 0.3920 ( 31478 PWs)   bands (ev):

   -40.3825 -34.0595 -21.5163 -21.3898 -21.2369 -16.1433 -16.0688 -16.0446
   -10.9784 -10.4015  -9.7032  -8.2968  -8.0724  -7.9798  -7.7443  -7.6354
    -7.4336  -7.0335  -6.8491  -6.4851  -6.4039  -6.2937  -6.1105  -4.2085
    -4.0570  -3.8367  -3.7228  -3.5658  -3.4440  -3.3748  -3.2757  -3.2267
    -3.0893  -3.0217  -2.9543  -2.8601  -2.7187  -2.6284  -2.5813  -2.4726
    -2.4063  -2.2992  -2.2364  -2.1250  -2.0674  -1.9904  -1.8275  -1.6268
    -1.5410  -1.4204  -1.2186  -1.1009  -0.8557  -0.4539  -0.1234   0.2561
     1.0786   2.6398   3.3775   3.4759   3.6907   3.7811   3.8480   3.9456
     4.1194   4.2218   4.2850   4.3262   4.4397   4.6226

          k = 0.2062-1.0486-0.6280 ( 31485 PWs)   bands (ev):

   -40.3825 -34.0595 -21.5163 -21.3898 -21.2369 -16.1434 -16.0688 -16.0446
   -10.9780 -10.4008  -9.7032  -8.2960  -8.0726  -7.9719  -7.7570  -7.6352
    -7.4382  -7.0520  -6.8447  -6.4703  -6.3911  -6.2994  -6.1184  -4.1851
    -4.0268  -3.8014  -3.6887  -3.5814  -3.4216  -3.3304  -3.2930  -3.2380
    -3.1447  -3.0552  -2.9338  -2.8826  -2.7291  -2.6648  -2.5953  -2.4829
    -2.4391  -2.2978  -2.2245  -2.1341  -2.0920  -1.9954  -1.8270  -1.6244
    -1.5211  -1.4216  -1.1870  -1.0963  -0.8618  -0.4438  -0.1358   0.2533
     1.0816   2.6825   3.3219   3.5430   3.7001   3.7096   3.8511   3.9709
     4.1479   4.2219   4.3114   4.4250   4.4796   4.5320

          k = 0.2133-1.0322-0.2880 ( 31471 PWs)   bands (ev):

   -40.3825 -34.0595 -21.5163 -21.3898 -21.2369 -16.1433 -16.0688 -16.0446
   -10.9784 -10.4015  -9.7032  -8.2974  -8.0749  -7.9717  -7.7439  -7.6458
    -7.4285  -7.0459  -6.8329  -6.4880  -6.3866  -6.3157  -6.1062  -4.2062
    -4.0572  -3.8462  -3.7195  -3.5356  -3.4752  -3.3955  -3.3042  -3.1904
    -3.1122  -3.0156  -2.9212  -2.8400  -2.7165  -2.6313  -2.5643  -2.4632
    -2.4279  -2.3261  -2.2358  -2.1147  -2.0713  -1.9821  -1.8286  -1.6369
    -1.5389  -1.4215  -1.2185  -1.0991  -0.8615  -0.4545  -0.1357   0.2662
     1.0845   2.6506   3.3775   3.4868   3.7006   3.7822   3.8286   4.0104
     4.0477   4.1912   4.2657   4.3578   4.4778   4.5194

          k = 0.2354-0.5034 0.0292 ( 31508 PWs)   bands (ev):

   -40.3825 -34.0595 -21.5162 -21.3898 -21.2369 -16.1436 -16.0677 -16.0430
   -11.0047 -10.4262  -9.7353  -8.2418  -8.1098  -7.9908  -7.7277  -7.5721
    -7.3916  -7.0558  -6.7737  -6.4734  -6.4059  -6.2251  -6.0980  -4.1702
    -4.0188  -3.8484  -3.6826  -3.5758  -3.4321  -3.4077  -3.3062  -3.2066
    -3.0484  -3.0165  -2.9145  -2.8758  -2.7704  -2.6517  -2.5891  -2.4846
    -2.4132  -2.3644  -2.2152  -2.1323  -2.0834  -1.9362  -1.8286  -1.6632
    -1.6050  -1.5227  -1.3927  -1.2391  -1.0129  -0.5806  -0.1093   0.2623
     1.0236   2.8953   3.3794   3.5512   3.7231   3.8563   3.8991   4.0283
     4.2079   4.2451   4.3690   4.4380   4.5587   4.6994

          k = 0.2425-0.4870 0.3692 ( 31502 PWs)   bands (ev):

   -40.3825 -34.0595 -21.5162 -21.3898 -21.2369 -16.1436 -16.0677 -16.0430
   -11.0035 -10.4274  -9.7346  -8.2410  -8.1249  -7.9931  -7.7240  -7.5634
    -7.3781  -7.0554  -6.7737  -6.4860  -6.4171  -6.2157  -6.1038  -4.1321
    -4.0255  -3.8602  -3.6947  -3.5206  -3.4372  -3.3550  -3.3151  -3.2093
    -3.1027  -2.9974  -2.9270  -2.8635  -2.7591  -2.7255  -2.6197  -2.4777
    -2.3840  -2.3454  -2.2092  -2.1271  -2.0931  -1.9432  -1.8377  -1.6776
    -1.6164  -1.5331  -1.3797  -1.2329  -1.0242  -0.5674  -0.1151   0.2434
     1.0352   2.8324   3.4003   3.5324   3.7503   3.8429   3.9515   4.0476
     4.2281   4.2724   4.3336   4.4598   4.5661   4.6242

          k = 0.2213-0.5362-0.6508 ( 31494 PWs)   bands (ev):

   -40.3825 -34.0595 -21.5162 -21.3898 -21.2369 -16.1436 -16.0677 -16.0430
   -11.0029 -10.4271  -9.7341  -8.2409  -8.1229  -7.9947  -7.7332  -7.5625
    -7.3865  -7.0619  -6.7781  -6.4873  -6.3596  -6.2069  -6.1476  -4.1048
    -4.0013  -3.8215  -3.6902  -3.5248  -3.4202  -3.3347  -3.2894  -3.2152
    -3.1292  -3.0186  -2.9743  -2.8719  -2.7729  -2.7496  -2.6248  -2.5073
    -2.4304  -2.3202  -2.2121  -2.1838  -2.0922  -1.9571  -1.8239  -1.6659
    -1.5925  -1.5247  -1.3362  -1.2243  -1.0313  -0.5577  -0.1238   0.2461
     1.0340   2.8446   3.4294   3.6103   3.7352   3.8357   3.9138   4.1201
     4.2274   4.2885   4.3480   4.4087   4.5165   4.6427

          k = 0.2284-0.5198-0.3108 ( 31491 PWs)   bands (ev):

   -40.3825 -34.0595 -21.5162 -21.3898 -21.2369 -16.1436 -16.0677 -16.0430
   -11.0042 -10.4259  -9.7347  -8.2415  -8.1074  -7.9932  -7.7355  -7.5736
    -7.3981  -7.0631  -6.7771  -6.4771  -6.3432  -6.2226  -6.1394  -4.1378
    -4.0116  -3.8010  -3.6606  -3.5650  -3.4565  -3.3891  -3.2750  -3.2185
    -3.1191  -3.0163  -2.8970  -2.8775  -2.8045  -2.6881  -2.5924  -2.5108
    -2.4585  -2.3567  -2.2310  -2.1552  -2.0936  -1.9438  -1.8240  -1.6516
    -1.5776  -1.5161  -1.3536  -1.2229  -1.0214  -0.5727  -0.1167   0.2645
     1.0222   2.9131   3.4511   3.5407   3.7801   3.8250   3.9463   4.0222
     4.1138   4.2743   4.3616   4.4119   4.5414   4.6384

          k =-0.5011-0.0180-0.0129 ( 31554 PWs)   bands (ev):

   -40.3825 -34.0595 -21.5162 -21.3898 -21.2369 -16.1438 -16.0668 -16.0413
   -11.0297 -10.4495  -9.7666  -8.2427  -8.1168  -7.9553  -7.7173  -7.4887
    -7.3915  -7.0947  -6.7113  -6.4995  -6.2728  -6.2048  -6.0923  -4.0792
    -3.9802  -3.8631  -3.6511  -3.5517  -3.4443  -3.3078  -3.3021  -3.1755
    -3.1020  -3.0596  -2.9803  -2.9115  -2.8154  -2.7142  -2.5791  -2.5508
    -2.4544  -2.3145  -2.2553  -2.1529  -2.0784  -1.9049  -1.8270  -1.7645
    -1.6992  -1.6158  -1.4578  -1.3446  -1.1132  -0.6674  -0.0706   0.2536
     0.9577   3.2521   3.3783   3.5190   3.7066   3.7786   3.8934   3.9966
     4.1035   4.3096   4.3975   4.4573   4.5743   4.6463

          k =-0.4941-0.0016 0.3271 ( 31515 PWs)   bands (ev):

   -40.3825 -34.0595 -21.5162 -21.3898 -21.2369 -16.1438 -16.0668 -16.0413
   -11.0283 -10.4507  -9.7656  -8.2507  -8.1229  -7.9577  -7.7141  -7.5004
    -7.3657  -7.0836  -6.7091  -6.4923  -6.3177  -6.1864  -6.0958  -4.0423
    -3.9820  -3.8680  -3.6694  -3.5058  -3.4563  -3.3080  -3.2626  -3.1715
    -3.1159  -3.0729  -2.9595  -2.9334  -2.8181  -2.7240  -2.6226  -2.5522
    -2.4638  -2.3090  -2.2508  -2.1687  -2.0822  -1.9248  -1.8427  -1.7408
    -1.6956  -1.6210  -1.4528  -1.3354  -1.1119  -0.6512  -0.0764   0.2403
     0.9670   3.1293   3.4234   3.6017   3.6901   3.8253   3.9477   3.9965
     4.0648   4.2611   4.2861   4.4988   4.6046   4.6969

          k =-0.5152-0.0508-0.6929 ( 31498 PWs)   bands (ev):

   -40.3825 -34.0595 -21.5162 -21.3898 -21.2369 -16.1438 -16.0668 -16.0413
   -11.0269 -10.4520  -9.7646  -8.2585  -8.1290  -7.9607  -7.7079  -7.5113
    -7.3441  -7.0715  -6.7066  -6.4792  -6.3600  -6.1779  -6.0981  -4.0043
    -3.9760  -3.8669  -3.7164  -3.4708  -3.4304  -3.2919  -3.2489  -3.1545
    -3.1076  -3.0957  -2.9770  -2.9328  -2.8508  -2.7528  -2.6271  -2.5461
    -2.4767  -2.3015  -2.2346  -2.2162  -2.0799  -1.9341  -1.8555  -1.7435
    -1.6797  -1.6187  -1.4503  -1.3242  -1.1103  -0.6383  -0.0824   0.2280
     0.9775   3.0515   3.4578   3.6023   3.6764   3.8541   3.9432   4.0348
     4.1365   4.2289   4.3237   4.4231   4.5954   4.6446

          k =-0.4860 0.4944-0.0357 ( 31520 PWs)   bands (ev):

   -40.3825 -34.0595 -21.5162 -21.3898 -21.2369 -16.1436 -16.0677 -16.0430
   -11.0047 -10.4262  -9.7357  -8.2449  -8.1268  -7.9590  -7.7226  -7.5766
    -7.4022  -7.0660  -6.7849  -6.4721  -6.3476  -6.2621  -6.0996  -4.1720
    -4.0251  -3.8496  -3.6896  -3.5418  -3.4651  -3.4024  -3.3059  -3.2018
    -3.0778  -3.0112  -2.9210  -2.8421  -2.7326  -2.6573  -2.6059  -2.4923
    -2.4142  -2.3605  -2.2043  -2.1265  -2.0896  -1.9535  -1.8172  -1.6717
    -1.6031  -1.5239  -1.3986  -1.2373  -1.0186  -0.5817  -0.1081   0.2578
     1.0198   2.8918   3.3692   3.5711   3.7855   3.8342   3.9358   4.0716
     4.2100   4.3105   4.3559   4.4012   4.5422   4.5984

          k =-0.4789 0.5108 0.3043 ( 31523 PWs)   bands (ev):

   -40.3825 -34.0595 -21.5162 -21.3898 -21.2369 -16.1436 -16.0677 -16.0430
   -11.0042 -10.4258  -9.7352  -8.2384  -8.1363  -7.9582  -7.7305  -7.5662
    -7.4182  -7.0758  -6.7803  -6.4599  -6.3168  -6.2504  -6.1400  -4.1409
    -4.0184  -3.8011  -3.6609  -3.5670  -3.4335  -3.3976  -3.2653  -3.2251
    -3.1119  -3.0435  -2.9215  -2.8744  -2.7327  -2.6804  -2.6094  -2.5376
    -2.4504  -2.3469  -2.2288  -2.1641  -2.0976  -1.9512  -1.8140  -1.6613
    -1.5774  -1.5173  -1.3540  -1.2285  -1.0178  -0.5727  -0.1100   0.2531
     1.0184   2.9380   3.4414   3.5464   3.7550   3.8372   3.9334   4.1234
     4.1402   4.2914   4.3678   4.4120   4.5230   4.6069

          k =-0.5001 0.4616-0.7156 ( 31517 PWs)   bands (ev):

   -40.3825 -34.0595 -21.5162 -21.3898 -21.2369 -16.1436 -16.0677 -16.0430
   -11.0029 -10.4270  -9.7346  -8.2376  -8.1508  -7.9575  -7.7297  -7.5699
    -7.3938  -7.0736  -6.7794  -6.4574  -6.3600  -6.2354  -6.1367  -4.1062
    -4.0143  -3.8243  -3.7001  -3.5205  -3.3962  -3.3474  -3.2630  -3.1896
    -3.1157  -3.0624  -2.9563  -2.8835  -2.7964  -2.7279  -2.6194  -2.5223
    -2.4358  -2.3121  -2.2212  -2.1810  -2.0892  -1.9603  -1.8169  -1.6790
    -1.5876  -1.5259  -1.3410  -1.2236  -1.0267  -0.5599  -0.1237   0.2404
     1.0323   2.8780   3.4400   3.5672   3.7142   3.8850   3.9307   4.1494
     4.2237   4.2545   4.3851   4.4185   4.4929   4.6441

          k =-0.4931 0.4780-0.3757 ( 31508 PWs)   bands (ev):

   -40.3825 -34.0595 -21.5162 -21.3898 -21.2369 -16.1436 -16.0677 -16.0430
   -11.0034 -10.4273  -9.7351  -8.2444  -8.1411  -7.9588  -7.7209  -7.5792
    -7.3785  -7.0651  -6.7827  -6.4684  -6.3885  -6.2492  -6.0987  -4.1329
    -4.0358  -3.8627  -3.7104  -3.4860  -3.4534  -3.3578  -3.2978  -3.1928
    -3.0990  -3.0303  -2.8990  -2.8648  -2.7762  -2.7230  -2.5942  -2.4966
    -2.4029  -2.3247  -2.2106  -2.1333  -2.0789  -1.9608  -1.8283  -1.6876
    -1.6107  -1.5343  -1.3856  -1.2312  -1.0274  -0.5675  -0.1213   0.2438
     1.0336   2.8424   3.4092   3.4981   3.7815   3.8597   4.0096   4.0891
     4.1756   4.2964   4.3588   4.4492   4.5200   4.6277

          k =-0.5313-1.0428 0.0327 ( 31466 PWs)   bands (ev):

   -40.3825 -34.0595 -21.5163 -21.3898 -21.2369 -16.1433 -16.0688 -16.0446
   -10.9787 -10.4021  -9.7033  -8.3001  -8.0661  -7.9858  -7.7302  -7.6507
    -7.4219  -7.0357  -6.8237  -6.4994  -6.3647  -6.3453  -6.1053  -4.2321
    -4.0847  -3.8878  -3.7540  -3.5306  -3.4819  -3.4369  -3.3314  -3.1817
    -3.0387  -2.9654  -2.8764  -2.8454  -2.6573  -2.6238  -2.5275  -2.4726
    -2.3963  -2.3357  -2.2045  -2.1620  -2.0693  -1.9698  -1.8327  -1.6398
    -1.5625  -1.4307  -1.2489  -1.1052  -0.8541  -0.4635  -0.1174   0.2592
     1.0771   2.6189   3.3623   3.4409   3.7693   3.8372   3.8892   3.9330
     4.0125   4.2105   4.2612   4.3205   4.4741   4.5418

          k =-0.5243-1.0264 0.3726 ( 31459 PWs)   bands (ev):

   -40.3825 -34.0595 -21.5163 -21.3898 -21.2369 -16.1433 -16.0688 -16.0446
   -10.9784 -10.4015  -9.7032  -8.2972  -8.0691  -7.9827  -7.7451  -7.6395
    -7.4289  -7.0491  -6.8266  -6.4829  -6.3679  -6.3347  -6.1146  -4.2049
    -4.0723  -3.8395  -3.7335  -3.5636  -3.4717  -3.3761  -3.2887  -3.2125
    -3.0543  -3.0142  -2.9112  -2.8669  -2.6937  -2.6401  -2.5414  -2.4771
    -2.4209  -2.3047  -2.1987  -2.1570  -2.1270  -1.9937  -1.8261  -1.6301
    -1.5383  -1.4261  -1.2155  -1.1023  -0.8569  -0.4548  -0.1289   0.2554
     1.0800   2.6568   3.3564   3.4790   3.7206   3.7832   3.8241   3.9802
     4.1468   4.2025   4.2425   4.3702   4.4667   4.5447

          k =-0.5455-1.0756-0.6473 ( 31488 PWs)   bands (ev):

   -40.3825 -34.0595 -21.5163 -21.3898 -21.2369 -16.1434 -16.0688 -16.0446
   -10.9780 -10.4008  -9.7031  -8.2946  -8.0702  -7.9804  -7.7611  -7.6267
    -7.4368  -7.0617  -6.8299  -6.4677  -6.3579  -6.3374  -6.1230  -4.1849
    -4.0452  -3.7874  -3.7064  -3.6064  -3.4267  -3.3056  -3.2817  -3.2491
    -3.1179  -3.0126  -2.9484  -2.9053  -2.6980  -2.6552  -2.5979  -2.4651
    -2.4556  -2.2482  -2.2225  -2.1534  -2.1448  -2.0323  -1.8223  -1.6246
    -1.5134  -1.4243  -1.1860  -1.0976  -0.8614  -0.4445  -0.1411   0.2527
     1.0819   2.6991   3.3171   3.5580   3.7008   3.7196   3.8017   3.9833
     4.1706   4.2061   4.3544   4.4056   4.4816   4.5235

     the Fermi energy is     2.8741 ev

!    total energy              =    -870.63898912 Ry
     Harris-Foulkes estimate   =    -870.63898912 Ry
     estimated scf accuracy    <          3.0E-09 Ry

     The total energy is the sum of the following terms:

     one-electron contribution =    -125.27051698 Ry
     hartree contribution      =      91.24234214 Ry
     xc contribution           =    -139.13103600 Ry
     ewald contribution        =    -179.93522708 Ry
     one-center paw contrib.   =    -517.54374929 Ry
     smearing contrib. (-TS)   =      -0.00080191 Ry

     convergence has been achieved in  13 iterations

     Writing output data file 06_SrCaSi11PH123.save

     init_run     :    602.08s CPU    250.45s WALL (       1 calls)
     electrons    :  12017.48s CPU   3302.71s WALL (       1 calls)

     Called by init_run:
     wfcinit      :    417.91s CPU     89.51s WALL (       1 calls)
     potinit      :     60.16s CPU     56.93s WALL (       1 calls)

     Called by electrons:
     c_bands      :   9257.69s CPU   2719.48s WALL (      13 calls)
     sum_band     :   2327.58s CPU    474.09s WALL (      13 calls)
     v_of_rho     :     22.64s CPU     12.84s WALL (      14 calls)
     newd         :    392.67s CPU     87.53s WALL (      14 calls)
     PAW_pot      :     45.50s CPU     14.48s WALL (      14 calls)
     mix_rho      :      2.28s CPU      1.64s WALL (      13 calls)

     Called by c_bands:
     init_us_2    :     53.33s CPU     47.73s WALL (     972 calls)
     cegterg      :   9071.08s CPU   2528.82s WALL (     468 calls)

     Called by sum_band:
     sum_band:bec :      4.62s CPU      2.75s WALL (     468 calls)
     addusdens    :    836.53s CPU    109.57s WALL (      13 calls)

     Called by *egterg:
     h_psi        :   6620.03s CPU   1702.95s WALL (    2779 calls)
     s_psi        :   1228.28s CPU    229.16s WALL (    2779 calls)
     g_psi        :      8.33s CPU      6.39s WALL (    2275 calls)
     cdiaghg      :    248.16s CPU    252.56s WALL (    2743 calls)

     Called by h_psi:
     h_psi:pot    :   6607.55s CPU   1692.89s WALL (    2779 calls)
     h_psi:calbec :   1080.22s CPU    211.05s WALL (    2779 calls)
     vloc_psi     :   4302.41s CPU   1258.70s WALL (    2779 calls)
     add_vuspsi   :   1224.73s CPU    223.14s WALL (    2779 calls)

     General routines
     calbec       :   1491.17s CPU    247.76s WALL (    3247 calls)
     fft          :     19.81s CPU      5.92s WALL (     220 calls)
     ffts         :      0.84s CPU      0.20s WALL (      27 calls)
     fftw         :   3768.98s CPU    961.98s WALL (  224030 calls)
     interpolate  :      3.48s CPU      1.21s WALL (      27 calls)
     davcio       :      0.48s CPU      2.01s WALL (      36 calls)

     Parallel routines
     fft_scatter  :     72.00s CPU    166.09s WALL (  224277 calls)

     PWSCF        :     3h30m CPU        0h59m WALL


   This run was terminated on:  17:22:45  12Dec2025            

=------------------------------------------------------------------------------=
   JOB DONE.
=------------------------------------------------------------------------------=
