
     Program PWSCF v.6.1 starts on 12Dec2025 at 17:22:45 

     This program is part of the open-source Quantum ESPRESSO suite
     for quantum simulation of materials; please cite
         "P. Giannozzi et al., J. Phys.:Condens. Matter 21 395502 (2009);
          URL http://www.quantum-espresso.org", 
     in publications or presentations arising from this work. More details at
     http://www.quantum-espresso.org/quote

     Parallel version (MPI & OpenMP), running on      12 processor cores
     Number of MPI processes:                 1
     Threads/MPI process:                    12
     Waiting for input...
     Reading input from standard input

     Current dimensions of program PWSCF are:
     Max number of different atomic species (ntypx) = 10
     Max number of k-points (npk) =  40000
     Max angular momentum in pseudopotentials (lmaxx) =  3

     Atomic positions and unit cell read from directory:
     ./tmp/06_SrCaSi11PH123.save/

               file H.UPF: wavefunction(s)  1S renormalized
               file P.UPF: wavefunction(s)  3S 3P renormalized
               file Si.UPF: wavefunction(s)  3S 3P renormalized

     Subspace diagonalization in iterative solution of the eigenvalue problem:
     a serial algorithm will be used


     G-vector sticks info
     --------------------
     sticks:   dense  smooth     PW     G-vecs:    dense   smooth      PW
     Sum        9331    4647   1283               712871   252041   36431



     bravais-lattice index     =            0
     lattice parameter (alat)  =      24.5251  a.u.
     unit-cell volume          =    5277.4000 (a.u.)^3
     number of atoms/cell      =           52
     number of atomic types    =            5
     number of electrons       =       115.00
     number of Kohn-Sham states=           70
     kinetic-energy cutoff     =      50.0000  Ry
     charge density cutoff     =     400.0000  Ry
     Exchange-correlation      = SLA  PW   PBE  PBE ( 1  4  3  4 0 0)

     celldm(1)=  24.525148  celldm(2)=   0.000000  celldm(3)=   0.000000
     celldm(4)=   0.000000  celldm(5)=   0.000000  celldm(6)=   0.000000

     crystal axes: (cart. coord. in units of alat)
               a(1) = (   0.999354  -0.030330  -0.019301 )  
               a(2) = (  -0.016913   0.487357  -0.023147 )  
               a(3) = (  -0.020079   0.033224   0.734135 )  

     reciprocal axes: (cart. coord. in units 2 pi/alat)
               b(1) = (  1.002238  0.036006  0.025782 )  
               b(2) = (  0.060447  2.049655 -0.091105 )  
               b(3) = (  0.028255  0.065572  1.359952 )  


     PseudoPot. # 1 for Ca read from file:
     C:/Users/Acer/Desktop/Quantum_Espresso/pseudo/Ca.UPF
     MD5 check sum: 0415571acf0fc5e752b4fcf57c560a15
     Pseudo is Ultrasoft + core correction, Zval = 10.0
     Generated by new atomic code, or converted to UPF format
     Using radial grid of  845 points,  6 beta functions with: 
                l(1) =   0
                l(2) =   0
                l(3) =   1
                l(4) =   1
                l(5) =   2
                l(6) =   2
     Q(r) pseudized with  6 coefficients,  rinner =    1.200   1.200   1.200
                                                       1.200   1.200

     PseudoPot. # 2 for  H read from file:
     C:/Users/Acer/Desktop/Quantum_Espresso/pseudo/H.UPF
     MD5 check sum: f872269930354f4c44a8fadb7eac41ed
     Pseudo is Projector augmented-wave, Zval =  1.0
     Generated using "atomic" code by A. Dal Corso  v.5.1.2
     Shape of augmentation charge: PSQ
     Using radial grid of  929 points,  2 beta functions with: 
                l(1) =   0
                l(2) =   0
     Q(r) pseudized with 0 coefficients 


     PseudoPot. # 3 for  P read from file:
     C:/Users/Acer/Desktop/Quantum_Espresso/pseudo/P.UPF
     MD5 check sum: cf1c6f487bb6a77cd6007faf4eeec691
     Pseudo is Projector augmented-wave + core cor, Zval =  5.0
     Generated using "atomic" code by A. Dal Corso  v.5.1.2
     Shape of augmentation charge: PSQ
     Using radial grid of 1147 points,  6 beta functions with: 
                l(1) =   0
                l(2) =   0
                l(3) =   1
                l(4) =   1
                l(5) =   2
                l(6) =   2
     Q(r) pseudized with 0 coefficients 


     PseudoPot. # 4 for Si read from file:
     C:/Users/Acer/Desktop/Quantum_Espresso/pseudo/Si.UPF
     MD5 check sum: a415e0af462b5a8f550c7d470cdfd13c
     Pseudo is Projector augmented-wave + core cor, Zval =  4.0
     Generated using "atomic" code by A. Dal Corso  v.5.1.2
     Shape of augmentation charge: PSQ
     Using radial grid of 1141 points,  6 beta functions with: 
                l(1) =   0
                l(2) =   0
                l(3) =   1
                l(4) =   1
                l(5) =   2
                l(6) =   2
     Q(r) pseudized with 0 coefficients 


     PseudoPot. # 5 for Sr read from file:
     C:/Users/Acer/Desktop/Quantum_Espresso/pseudo/Sr.UPF
     MD5 check sum: c68c63002e5401f2868976ad802e5de3
     Pseudo is Ultrasoft + core correction, Zval = 10.0
     Generated by new atomic code, or converted to UPF format
     Using radial grid of  883 points,  6 beta functions with: 
                l(1) =   0
                l(2) =   0
                l(3) =   1
                l(4) =   1
                l(5) =   2
                l(6) =   2
     Q(r) pseudized with  8 coefficients,  rinner =    1.200   1.200   1.200
                                                       1.200   1.200

     atomic species   valence    mass     pseudopotential
        Ca            10.00     1.00000     Ca( 1.00)
        H              1.00     1.00000      H( 1.00)
        P              5.00     1.00000      P( 1.00)
        Si             4.00     1.00000     Si( 1.00)
        Sr            10.00     1.00000     Sr( 1.00)

     No symmetry found



   Cartesian axes

     site n.     atom                  positions (alat units)
         1           Si  tau(   1) = (   0.8809060   0.4654261   0.1773596  )
         2           Si  tau(   2) = (   0.3687275   0.0133740   0.0961347  )
         3           Si  tau(   3) = (   0.0781645   0.0431340   0.4728155  )
         4           Si  tau(   4) = (   0.5793230   0.4472618   0.5797036  )
         5           Si  tau(   5) = (   0.7720831   0.0781799   0.1080115  )
         6           Si  tau(   6) = (   0.2652034   0.3346810   0.2527764  )
         7           Ca  tau(   7) = (   0.2482519   0.3658041   0.6097587  )
         8           Si  tau(   8) = (   0.6852217   0.1304770   0.4350451  )
         9           Si  tau(   9) = (   0.0324060   0.1174651   0.1335167  )
        10           Si  tau(  10) = (   0.5232549   0.3256936   0.1903153  )
        11           Si  tau(  11) = (   0.9227856   0.3311597   0.5591082  )
        12           Si  tau(  12) = (   0.4305637   0.1452449   0.4904228  )
        13           Sr  tau(  13) = (   0.9130107   0.2548692   0.2801832  )
        14           P   tau(  14) = (   0.3679746   0.3319433   0.1113048  )
        15           P   tau(  15) = (   0.0665118   0.3606939   0.4830542  )
        16           P   tau(  16) = (   0.5817000   0.1316043   0.5757470  )
        17           H   tau(  17) = (   0.9691921   0.4224208   0.2532087  )
        18           H   tau(  18) = (   0.4588589   0.0542134   0.0379214  )
        19           H   tau(  19) = (  -0.0138980   0.0845367   0.4141815  )
        20           H   tau(  20) = (   0.5233119   0.4159422   0.6749244  )
        21           H   tau(  21) = (   0.8030413   0.4029496   0.2549393  )
        22           H   tau(  22) = (   0.2551489   0.1823419  -0.0254605  )
        23           H   tau(  23) = (   0.1715915   0.0713923   0.4114778  )
        24           H   tau(  24) = (   0.6921680   0.4317203   0.5995678  )
        25           H   tau(  25) = (   0.8890335   0.3698463   0.1062871  )
        26           H   tau(  26) = (   0.3456433   0.0774209   0.1886240  )
        27           H   tau(  27) = (   0.0839719   0.1036812   0.5715021  )
        28           H   tau(  28) = (   0.5485451   0.3831817   0.4893479  )
        29           H   tau(  29) = (   0.6596603   0.0548314   0.1250348  )
        30           H   tau(  30) = (   0.1612125   0.3696243   0.2189626  )
        31           H   tau(  31) = (   0.3610946   0.4676576   0.5640558  )
        32           H   tau(  32) = (   0.7924535   0.1027512   0.4684628  )
        33           H   tau(  33) = (   0.4002797   0.0646009   0.4146130  )
        34           H   tau(  34) = (   0.9158501   0.4172652   0.6351368  )
        35           H   tau(  35) = (   0.5289776   0.4068947   0.2709670  )
        36           H   tau(  36) = (   0.0690461   0.1311489   0.0224146  )
        37           H   tau(  37) = (   0.3444829   0.1710606   0.5646899  )
        38           H   tau(  38) = (   0.8317565   0.3431560   0.4877429  )
        39           H   tau(  39) = (   0.6038480   0.3404646   0.1109534  )
        40           H   tau(  40) = (   0.1328949   0.1148947   0.1923387  )
        41           H   tau(  41) = (   0.4439554   0.2441766   0.4304250  )
        42           H   tau(  42) = (   0.9105089   0.2295998   0.6114023  )
        43           H   tau(  43) = (   0.5287102   0.2214145   0.2375855  )
        44           H   tau(  44) = (   0.0045923   0.2313196   0.1467551  )
        45           H   tau(  45) = (   0.6530191   0.0565373   0.3526843  )
        46           H   tau(  46) = (   0.2363018   0.5363006   0.7410309  )
        47           H   tau(  47) = (   0.3064073   0.4079364   0.3311312  )
        48           H   tau(  48) = (   0.7867670   0.0889087  -0.0064686  )
        49           H   tau(  49) = (   0.6889634   0.2365075   0.3879968  )
        50           H   tau(  50) = (   0.1760189   0.2137994   0.7038045  )
        51           H   tau(  51) = (   0.2616960   0.2287907   0.2966124  )
        52           H   tau(  52) = (   0.7802029   0.1901935   0.1437732  )

     number of k points=   260 (tetrahedron method)

     Number of k-points >= 100: set verbosity='high' to print them.

     Dense  grid:   712871 G-vectors     FFT dimensions: ( 160,  80, 120)

     Smooth grid:   252041 G-vectors     FFT dimensions: ( 120,  54,  81)

     Estimated max dynamical RAM per process >     713.10MB

     The potential is recalculated from file :
     ./tmp/06_SrCaSi11PH123.save/charge-density.dat


     negative rho (up, down):  1.234E-04 0.000E+00
     Starting wfc are  115 randomized atomic wfcs
     Checking if some PAW data can be deallocated... 

     Band Structure Calculation
     Davidson diagonalization with overlap
     c_bands:  1 eigenvalues not converged
     c_bands:  1 eigenvalues not converged
     c_bands:  1 eigenvalues not converged
     c_bands:  1 eigenvalues not converged
     c_bands:  1 eigenvalues not converged
     c_bands:  1 eigenvalues not converged
     c_bands:  1 eigenvalues not converged
     c_bands:  1 eigenvalues not converged
     c_bands:  1 eigenvalues not converged
     c_bands:  1 eigenvalues not converged
     c_bands:  1 eigenvalues not converged
     c_bands:  1 eigenvalues not converged
     c_bands:  1 eigenvalues not converged
     c_bands:  1 eigenvalues not converged
     c_bands:  1 eigenvalues not converged
     c_bands:  1 eigenvalues not converged
     c_bands:  1 eigenvalues not converged
     c_bands:  1 eigenvalues not converged
     c_bands:  1 eigenvalues not converged
     c_bands:  1 eigenvalues not converged
     c_bands:  1 eigenvalues not converged
     c_bands:  1 eigenvalues not converged
     c_bands:  1 eigenvalues not converged
     c_bands:  1 eigenvalues not converged
     c_bands:  1 eigenvalues not converged
     c_bands:  1 eigenvalues not converged
     c_bands:  1 eigenvalues not converged
     c_bands:  1 eigenvalues not converged
     c_bands:  1 eigenvalues not converged
     c_bands:  1 eigenvalues not converged
     c_bands:  1 eigenvalues not converged
     c_bands:  1 eigenvalues not converged
     c_bands:  1 eigenvalues not converged
     c_bands:  1 eigenvalues not converged
     c_bands:  1 eigenvalues not converged
     c_bands:  1 eigenvalues not converged
     c_bands:  1 eigenvalues not converged

     ethr =  8.70E-12,  avg # of iterations = 85.9

     total cpu time spent up to now is    15789.4 secs

     End of band structure calculation

     Number of k-points >= 100: set verbosity='high' to print the bands.

     the Fermi energy is     2.8723 ev

     Writing output data file 06_SrCaSi11PH123.save

     init_run     :    128.70s CPU    106.28s WALL (       1 calls)
     electrons    :  62864.12s CPU  15682.51s WALL (       1 calls)

     Called by init_run:
     wfcinit      :      0.00s CPU      0.00s WALL (       1 calls)
     potinit      :      4.28s CPU      2.00s WALL (       1 calls)

     Called by electrons:
     c_bands      :  62863.98s CPU  15682.33s WALL (       1 calls)
     v_of_rho     :      1.55s CPU      0.89s WALL (       1 calls)
     newd         :     26.92s CPU      5.96s WALL (       1 calls)
     PAW_pot      :      2.44s CPU      0.98s WALL (       1 calls)

     Called by c_bands:
     init_us_2    :     11.33s CPU     12.50s WALL (     260 calls)
     cegterg      :  59260.14s CPU  14893.80s WALL (    1239 calls)

     Called by sum_band:

     Called by *egterg:
     h_psi        :  37628.84s CPU   9127.69s WALL (   23831 calls)
     s_psi        :   8133.86s CPU   1382.38s WALL (   23831 calls)
     g_psi        :     54.50s CPU     38.36s WALL (   22332 calls)
     cdiaghg      :   2055.50s CPU   2204.29s WALL (   22592 calls)

     Called by h_psi:
     h_psi:pot    :  37563.53s CPU   9077.53s WALL (   23831 calls)
     h_psi:calbec :   7479.31s CPU   1244.68s WALL (   23831 calls)
     vloc_psi     :  22434.69s CPU   6508.98s WALL (   23831 calls)
     add_vuspsi   :   7648.44s CPU   1323.68s WALL (   23831 calls)

     General routines
     calbec       :   7478.94s CPU   1244.63s WALL (   23831 calls)
     fft          :      1.38s CPU      0.41s WALL (      13 calls)
     ffts         :      0.00s CPU      0.01s WALL (       1 calls)
     fftw         :  16062.70s CPU   3873.81s WALL (  985546 calls)
     interpolate  :      0.22s CPU      0.05s WALL (       1 calls)
     davcio       :      3.02s CPU      8.37s WALL (     260 calls)

     Parallel routines
     fft_scatter  :    314.03s CPU    721.67s WALL (  985560 calls)

     PWSCF        :    17h29m CPU        4h23m WALL


   This run was terminated on:  21:45:56  12Dec2025            

=------------------------------------------------------------------------------=
   JOB DONE.
=------------------------------------------------------------------------------=
