
     Program PWSCF v.6.7MaX starts on  8Jan2026 at  7:13:53 

     This program is part of the open-source Quantum ESPRESSO suite
     for quantum simulation of materials; please cite
         "P. Giannozzi et al., J. Phys.:Condens. Matter 21 395502 (2009);
         "P. Giannozzi et al., J. Phys.:Condens. Matter 29 465901 (2017);
          URL http://www.quantum-espresso.org", 
     in publications or presentations arising from this work. More details at
     http://www.quantum-espresso.org/quote

     Parallel version (MPI), running on     2 processors

     MPI processes distributed on     1 nodes
     R & G space division:  proc/nbgrp/npool/nimage =       2
     Waiting for input...
     Reading input from standard input

     Current dimensions of program PWSCF are:
     Max number of different atomic species (ntypx) = 10
     Max number of k-points (npk) =  40000
     Max angular momentum in pseudopotentials (lmaxx) =  3
     Message from routine iosys:
     restart disabled: needed files not found
     file Hf.UPF: wavefunction(s)  5P 4F renormalized
     file H.UPF: wavefunction(s)  1S renormalized

     Subspace diagonalization in iterative solution of the eigenvalue problem:
     a serial algorithm will be used


     Parallelization info
     --------------------
     sticks:   dense  smooth     PW     G-vecs:    dense   smooth      PW
     Min         742     374    116                21861     7756    1300
     Max         747     375    117                21862     7759    1301
     Sum        1489     749    233                43723    15515    2601



     bravais-lattice index     =            0
     lattice parameter (alat)  =       6.8677  a.u.
     unit-cell volume          =     323.9197 (a.u.)^3
     number of atoms/cell      =            4
     number of atomic types    =            2
     number of electrons       =        39.00
     number of Kohn-Sham states=           24
     kinetic-energy cutoff     =      50.0000  Ry
     charge density cutoff     =     400.0000  Ry
     scf convergence threshold =      1.0E-06
     mixing beta               =       0.7000
     number of iterations used =            8  plain     mixing
     energy convergence thresh.=      1.0E-04
     force convergence thresh. =      1.0E-03
     press convergence thresh. =      5.0E-01
     Exchange-correlation= SLA  PW   PBX  PBC
                           (   1   4   3   4   0   0   0)
     nstep                     =           50


     celldm(1)=   6.867718  celldm(2)=   0.000000  celldm(3)=   0.000000
     celldm(4)=   0.000000  celldm(5)=   0.000000  celldm(6)=   0.000000

     crystal axes: (cart. coord. in units of alat)
               a(1) = (   1.000000   0.000000   0.000000 )  
               a(2) = (   0.000000   1.000000   0.000000 )  
               a(3) = (   0.000000   0.000000   1.000000 )  

     reciprocal axes: (cart. coord. in units 2 pi/alat)
               b(1) = (  1.000000  0.000000  0.000000 )  
               b(2) = (  0.000000  1.000000  0.000000 )  
               b(3) = (  0.000000  0.000000  1.000000 )  


     PseudoPot. # 1 for Hf read from file:
     /home/marco/ZOS_Cloud_Compute/pseudo/Hf.UPF
     MD5 check sum: 054ab3954715fe03e42536d2af1a941a
     Pseudo is Projector augmented-wave + core cor, Zval = 36.0
     Generated using "atomic" code by A. Dal Corso  v.5.1.2
     Shape of augmentation charge: PSQ
     Using radial grid of 1271 points,  8 beta functions with: 
                l(1) =   0
                l(2) =   0
                l(3) =   1
                l(4) =   1
                l(5) =   2
                l(6) =   2
                l(7) =   3
                l(8) =   3
     Q(r) pseudized with 0 coefficients 


     PseudoPot. # 2 for H  read from file:
     /home/marco/ZOS_Cloud_Compute/pseudo/H.UPF
     MD5 check sum: 850d63dcbcc06c5de8b44e0ab9f952da
     Pseudo is Projector augmented-wave, Zval =  1.0
     Generated using "atomic" code by A. Dal Corso  v.5.1.2
     Shape of augmentation charge: PSQ
     Using radial grid of  929 points,  2 beta functions with: 
                l(1) =   0
                l(2) =   0
     Q(r) pseudized with 0 coefficients 


     atomic species   valence    mass     pseudopotential
        Hf            36.00   178.49000     Hf( 1.00)
        H              1.00     1.00800     H ( 1.00)

     No symmetry found



   Cartesian axes

     site n.     atom                  positions (alat units)
         1           Hf  tau(   1) = (   0.2340572   0.7000418   0.1721020  )
         2           H   tau(   2) = (   0.6554851   0.2689723   0.1913275  )
         3           H   tau(   3) = (   0.5357819   0.4644190   0.6267720  )
         4           H   tau(   4) = (   0.3475335   0.1270004   0.7251860  )

     number of k points=     8  Methfessel-Paxton smearing, width (Ry)=  0.0200
                       cart. coord. in units 2pi/alat
        k(    1) = (   0.0000000   0.0000000   0.0000000), wk =   0.2500000
        k(    2) = (   0.0000000   0.0000000  -0.5000000), wk =   0.2500000
        k(    3) = (   0.0000000  -0.5000000  -0.5000000), wk =   0.2500000
        k(    4) = (  -0.5000000  -0.5000000  -0.5000000), wk =   0.2500000
        k(    5) = (  -0.5000000   0.0000000   0.0000000), wk =   0.2500000
        k(    6) = (   0.0000000  -0.5000000   0.0000000), wk =   0.2500000
        k(    7) = (  -0.5000000   0.0000000   0.5000000), wk =   0.2500000
        k(    8) = (  -0.5000000   0.5000000   0.0000000), wk =   0.2500000

     Dense  grid:    43723 G-vectors     FFT dimensions: (  45,  45,  45)

     Smooth grid:    15515 G-vectors     FFT dimensions: (  32,  32,  32)

     Estimated max dynamical RAM per process >     226.16 MB

     Estimated total dynamical RAM >     452.31 MB

     Check: negative core charge=   -0.000004
     Cannot read rho : file not found

     Initial potential from superposition of free atoms

     starting charge   38.99803, renormalised to   39.00000
     Message from routine qexsd_readschema :
     xml data file ./tmp/01_HfH3_Top1.save/data-file-schema.xml not found
     Cannot read wfcs: file not found
     Starting wfcs are   25 randomized atomic wfcs
     Checking if some PAW data can be deallocated... 

     total cpu time spent up to now is        4.6 secs

     Self-consistent Calculation

     iteration #  1     ecut=    50.00 Ry     beta= 0.70
     Davidson diagonalization with overlap
     c_bands:  1 eigenvalues not converged
     ethr =  1.00E-05,  avg # of iterations = 13.1

     total cpu time spent up to now is        7.3 secs

     total energy              =   -1987.72678343 Ry
     estimated scf accuracy    <       1.40027016 Ry

     iteration #  2     ecut=    50.00 Ry     beta= 0.70
     Davidson diagonalization with overlap
     ethr =  3.59E-03,  avg # of iterations =  2.1

     total cpu time spent up to now is        9.4 secs

     total energy              =   -1988.04868978 Ry
     estimated scf accuracy    <       0.62496280 Ry

     iteration #  3     ecut=    50.00 Ry     beta= 0.70
     Davidson diagonalization with overlap
     ethr =  1.60E-03,  avg # of iterations =  2.1

     total cpu time spent up to now is       11.4 secs

     total energy              =   -1988.20037366 Ry
     estimated scf accuracy    <       0.02711124 Ry

     iteration #  4     ecut=    50.00 Ry     beta= 0.70
     Davidson diagonalization with overlap
     ethr =  6.95E-05,  avg # of iterations =  3.4

     total cpu time spent up to now is       13.3 secs

     total energy              =   -1988.20525233 Ry
     estimated scf accuracy    <       0.00306770 Ry

     iteration #  5     ecut=    50.00 Ry     beta= 0.70
     Davidson diagonalization with overlap
     ethr =  7.87E-06,  avg # of iterations =  3.8

     total cpu time spent up to now is       15.4 secs

     total energy              =   -1988.20579088 Ry
     estimated scf accuracy    <       0.00011715 Ry

     iteration #  6     ecut=    50.00 Ry     beta= 0.70
     Davidson diagonalization with overlap
     ethr =  3.00E-07,  avg # of iterations =  2.2

     total cpu time spent up to now is       17.4 secs

     total energy              =   -1988.20582116 Ry
     estimated scf accuracy    <       0.00001283 Ry

     iteration #  7     ecut=    50.00 Ry     beta= 0.70
     Davidson diagonalization with overlap
     ethr =  3.29E-08,  avg # of iterations =  2.0

     total cpu time spent up to now is       19.3 secs

     End of self-consistent calculation

          k = 0.0000 0.0000 0.0000 (  1935 PWs)   bands (ev):

  -170.2190-170.1897-168.9420-168.9383-168.9058 -55.2077 -23.5770 -23.5112
   -23.4447 -10.2394 -10.2093 -10.2032 -10.1829 -10.1738 -10.1387 -10.1272
    -0.1595   5.6999   7.0850   9.8952  11.3519  11.4997  11.8948  12.2128

          k = 0.0000 0.0000-0.5000 (  1936 PWs)   bands (ev):

  -170.1537-169.7382-169.7080-168.9495-168.3647 -55.2050 -23.6707 -23.5045
   -23.4409 -10.2366 -10.2008 -10.1884 -10.1693 -10.1567 -10.1466 -10.1347
     2.3732   2.8034   8.0493   8.3815   9.9233  11.5995  12.1678  12.9656

          k = 0.0000-0.5000-0.5000 (  1956 PWs)   bands (ev):

  -170.5489-170.5308-170.5022-170.1024-169.6533 -55.2025 -23.6616 -23.5615
   -23.4684 -10.2772 -10.2318 -10.2079 -10.1938 -10.1843 -10.1808 -10.1673
     2.7172   4.7094   6.5990   7.4250  10.2844  10.4050  12.4615  12.6530

          k =-0.5000-0.5000-0.5000 (  1904 PWs)   bands (ev):

  -169.0724-169.0439-167.0586-167.0536-167.0223 -55.1998 -23.6559 -23.5852
   -23.5200 -10.1736 -10.1491 -10.1399 -10.1180 -10.1142 -10.0828 -10.0717
     3.2300   4.3590   6.1422  10.2027  11.1993  11.4716  12.0306  12.5798

          k =-0.5000 0.0000 0.0000 (  1936 PWs)   bands (ev):

  -170.1627-169.7330-169.7238-168.9398-168.3465 -55.2051 -23.6098 -23.5535
   -23.4491 -10.2485 -10.2023 -10.1832 -10.1687 -10.1538 -10.1451 -10.1318
     1.1823   4.7378   7.4610   9.4129   9.9484  10.8663  11.6372  12.4475

          k = 0.0000-0.5000 0.0000 (  1936 PWs)   bands (ev):

  -170.1764-169.7323-169.7056-168.9252-168.3596 -55.2051 -23.5876 -23.5574
   -23.4696 -10.2430 -10.1989 -10.1896 -10.1666 -10.1632 -10.1529 -10.1187
     1.7759   4.0482   7.6653   8.6412   9.7368   9.8225  11.6625  12.3733

          k =-0.5000 0.0000 0.5000 (  1956 PWs)   bands (ev):

  -170.5485-170.5161-170.5119-170.1135-169.6379 -55.2025 -23.6654 -23.5811
   -23.4447 -10.2771 -10.2291 -10.2085 -10.1944 -10.1892 -10.1811 -10.1635
     2.8171   4.6879   6.9191   7.4885   9.3850  10.2752  12.3706  12.7811

          k =-0.5000 0.5000 0.0000 (  1956 PWs)   bands (ev):

  -170.5512-170.5139-170.4979-170.1165-169.6647 -55.2026 -23.6011 -23.5782
   -23.5087 -10.2769 -10.2259 -10.2088 -10.1954 -10.1847 -10.1802 -10.1720
     2.2576   5.3838   6.0290   8.7258  10.0576  10.3607  12.4792  12.7262

     the Fermi energy is     8.6779 ev

!    total energy              =   -1988.20582308 Ry

     total all-electron energy =    -30135.817469 Ry
     estimated scf accuracy    <       0.00000086 Ry
     smearing contrib. (-TS)   =      -0.00096327 Ry
     internal energy E=F+TS    =   -1988.20485980 Ry

     The total energy is F=E-TS. E is the sum of the following terms:
     one-electron contribution =   -1636.39779439 Ry
     hartree contribution      =     806.56319343 Ry
     xc contribution           =    -110.05312547 Ry
     ewald contribution        =    -554.42288263 Ry
     one-center paw contrib.   =    -493.89425075 Ry

     convergence has been achieved in   7 iterations

     Forces acting on atoms (cartesian axes, Ry/au):

     atom    1 type  1   force =     0.04813154   -0.02981507   -0.02069389
     atom    2 type  2   force =     0.01560772    0.00033802   -0.00159920
     atom    3 type  2   force =    -0.01822415    0.04655603    0.01907443
     atom    4 type  2   force =    -0.04551511   -0.01707897    0.00321866

     Total force =     0.095484     Total SCF correction =     0.009903
     SCF correction compared to forces is large: reduce conv_thr to get better values


     Computing stress (Cartesian axis) and pressure

          total   stress  (Ry/bohr**3)                   (kbar)     P=   -32160.19
  -0.21875812   0.00014045   0.00008745       -32180.43       20.66       12.86
   0.00014045  -0.21879472   0.00004905           20.66   -32185.81        7.22
   0.00008745   0.00004905  -0.21830881           12.86        7.22   -32114.33


     BFGS Geometry Optimization
     Energy error            =      0.0E+00
     Gradient error          =      4.8E-02
     Cell gradient error     =      2.2E-01


     number of scf cycles    =   1
     number of bfgs steps    =   0

     enthalpy new            =   -1988.2058230766 Ry

     new trust radius        =       0.5000000000 bohr
     new conv_thr            =       0.0000010000 Ry

     new unit-cell volume =    206.89799 a.u.^3 (    30.65912 Ang^3 )
     density =      9.83104 g/cm^3

CELL_PARAMETERS (angstrom)
   3.129506469   0.000324063   0.000201765
   0.000324063   3.129422025   0.000113176
   0.000201765   0.000113176   3.130543147

ATOMIC_POSITIONS (angstrom)
Hf            0.7333019960        2.1904766694        0.5386596873
H             2.0516510929        0.8419659343        0.5991031428
H             1.6767990536        1.4541462349        1.9625183694
H             1.0872689652        0.3974349165        2.2703478005



     Writing output data file ./tmp/01_HfH3_Top1.save/
     NEW-OLD atomic charge density approx. for the potential

     Check: negative core charge=   -0.000002
     extrapolated charge   16.94267, renormalised to   39.00000

     total cpu time spent up to now is       30.9 secs

     Self-consistent Calculation

     iteration #  1     ecut=    50.00 Ry     beta= 0.70
     Davidson diagonalization with overlap
     c_bands:  2 eigenvalues not converged
     ethr =  1.00E-06,  avg # of iterations = 18.2

     total cpu time spent up to now is       34.8 secs

     total energy              =   -1780.10281380 Ry
     estimated scf accuracy    <     300.22985924 Ry

     iteration #  2     ecut=    50.00 Ry     beta= 0.70
     Davidson diagonalization with overlap
     ethr =  1.00E-02,  avg # of iterations =  8.4

     total cpu time spent up to now is       38.1 secs

     total energy              =   -1919.12842532 Ry
     estimated scf accuracy    <     605.46371601 Ry

     iteration #  3     ecut=    50.00 Ry     beta= 0.70
     Davidson diagonalization with overlap
     ethr =  1.00E-02,  avg # of iterations =  5.2

     total cpu time spent up to now is       41.1 secs

     total energy              =   -2006.18882098 Ry
     estimated scf accuracy    <      11.89655153 Ry

     iteration #  4     ecut=    50.00 Ry     beta= 0.70
     Davidson diagonalization with overlap
     ethr =  1.00E-02,  avg # of iterations =  2.4

     total cpu time spent up to now is       43.5 secs

     total energy              =   -2007.55093316 Ry
     estimated scf accuracy    <       1.29120596 Ry

     iteration #  5     ecut=    50.00 Ry     beta= 0.70
     Davidson diagonalization with overlap
     ethr =  3.31E-03,  avg # of iterations =  1.9

     total cpu time spent up to now is       45.9 secs

     total energy              =   -2007.52713019 Ry
     estimated scf accuracy    <       0.34640533 Ry

     iteration #  6     ecut=    50.00 Ry     beta= 0.70
     Davidson diagonalization with overlap
     ethr =  8.88E-04,  avg # of iterations =  2.5

     total cpu time spent up to now is       48.4 secs

     total energy              =   -2007.55133362 Ry
     estimated scf accuracy    <       0.04355341 Ry

     iteration #  7     ecut=    50.00 Ry     beta= 0.70
     Davidson diagonalization with overlap
     ethr =  1.12E-04,  avg # of iterations =  4.2

     total cpu time spent up to now is       51.1 secs

     total energy              =   -2007.55807715 Ry
     estimated scf accuracy    <       0.00121438 Ry

     iteration #  8     ecut=    50.00 Ry     beta= 0.70
     Davidson diagonalization with overlap
     ethr =  3.11E-06,  avg # of iterations =  4.4

     total cpu time spent up to now is       53.9 secs

     total energy              =   -2007.55865489 Ry
     estimated scf accuracy    <       0.00042364 Ry

     iteration #  9     ecut=    50.00 Ry     beta= 0.70
     Davidson diagonalization with overlap
     ethr =  1.09E-06,  avg # of iterations =  2.0

     total cpu time spent up to now is       56.5 secs

     total energy              =   -2007.55869084 Ry
     estimated scf accuracy    <       0.00003253 Ry

     iteration # 10     ecut=    50.00 Ry     beta= 0.70
     Davidson diagonalization with overlap
     ethr =  8.34E-08,  avg # of iterations =  2.0

     total cpu time spent up to now is       59.1 secs

     total energy              =   -2007.55869459 Ry
     estimated scf accuracy    <       0.00000324 Ry

     iteration # 11     ecut=    50.00 Ry     beta= 0.70
     Davidson diagonalization with overlap
     ethr =  8.30E-09,  avg # of iterations =  2.0

     total cpu time spent up to now is       61.6 secs

     End of self-consistent calculation

          k = 0.0000 0.0000 0.0000 (  1935 PWs)   bands (ev):

  -181.9591-181.9369-181.5297-181.5222-181.4865 -46.8174 -15.4303 -15.3561
   -15.3127   1.6125   1.6256   1.6383   1.6469   1.6756   1.6846   1.7010
     3.5167  10.7842  12.5162  17.4985  19.4662  19.6930  20.3413  20.7625

          k = 0.0000 0.0000-0.5804 (  1936 PWs)   bands (ev):

  -181.9254-181.7710-181.7393-181.4599-181.3452 -46.7908 -16.0027 -15.2991
   -15.2614   1.6106   1.6194   1.6397   1.6520   1.6593   1.6954   1.7199
     7.1462   7.6444  14.0905  14.4995  16.6838  19.8973  20.2658  21.7411

          k = 0.0001-0.5806-0.5804 (  1956 PWs)   bands (ev):

  -182.0408-182.0343-181.9311-181.8788-181.7494 -46.7657 -15.9130 -15.7864
   -15.2459   1.6027   1.6179   1.6313   1.6568   1.6829   1.6872   1.7104
     6.6846  10.5255  12.9382  13.8578  17.4304  17.7115  21.5961  22.1573

          k =-0.5805-0.5806-0.5804 (  1904 PWs)   bands (ev):

  -181.4995-181.4778-180.9431-180.9352-180.8999 -46.7415 -15.8472 -15.7297
   -15.6957   1.5898   1.6383   1.6498   1.6700   1.6739   1.6859   1.6972
     7.5471   9.0036  11.2321  16.8889  19.1267  20.2403  20.9801  21.7907

          k =-0.5806 0.0001 0.0000 (  1936 PWs)   bands (ev):

  -181.9175-181.7747-181.7678-181.4684-181.3085 -46.7921 -15.8845 -15.3832
   -15.2691   1.5964   1.6216   1.6377   1.6483   1.6745   1.6897   1.7168
     5.5386  10.0973  13.2045  15.9947  16.7404  18.2197  19.9277  21.7644

          k = 0.0001-0.5807 0.0000 (  1936 PWs)   bands (ev):

  -181.9354-181.7768-181.7365-181.4511-181.3358 -46.7915 -15.8827 -15.3813
   -15.2946   1.6026   1.6185   1.6332   1.6526   1.6594   1.7041   1.7137
     6.3788   9.3550  13.5509  15.2132  16.4455  16.5821  19.9880  21.3756

          k =-0.5807 0.0000 0.5805 (  1956 PWs)   bands (ev):

  -182.0420-182.0029-181.9498-181.9068-181.7301 -46.7660 -15.9296 -15.8021
   -15.2171   1.6062   1.6167   1.6493   1.6522   1.6564   1.6766   1.7259
     7.3476  10.4571  12.6538  13.8519  16.0710  17.3981  21.4779  22.8821

          k =-0.5807 0.5807 0.0000 (  1956 PWs)   bands (ev):

  -182.0378-182.0038-181.9389-181.9111-181.7423 -46.7669 -15.8155 -15.7706
   -15.3367   1.6051   1.6109   1.6296   1.6676   1.6782   1.6837   1.7112
     6.4764  11.2281  11.6639  15.5201  17.0549  17.5596  21.2771  21.7942

     the Fermi energy is    15.3676 ev

!    total energy              =   -2007.55869483 Ry

     total all-electron energy =    -30155.170341 Ry
     estimated scf accuracy    <       0.00000037 Ry
     smearing contrib. (-TS)   =      -0.00032836 Ry
     internal energy E=F+TS    =   -2007.55836647 Ry

     The total energy is F=E-TS. E is the sum of the following terms:
     one-electron contribution =   -1505.14835254 Ry
     hartree contribution      =     748.97553895 Ry
     xc contribution           =    -111.50988010 Ry
     ewald contribution        =    -643.76642258 Ry
     one-center paw contrib.   =    -496.10925020 Ry

     convergence has been achieved in  11 iterations

     Forces acting on atoms (cartesian axes, Ry/au):

     atom    1 type  1   force =    -0.01042577    0.00226798   -0.05831108
     atom    2 type  2   force =     0.05416045   -0.04040446    0.00998988
     atom    3 type  2   force =     0.01933754    0.03874306    0.05424627
     atom    4 type  2   force =    -0.06307222   -0.00060658   -0.00592508

     Total force =     0.130426     Total SCF correction =     0.001337


     Computing stress (Cartesian axis) and pressure

          total   stress  (Ry/bohr**3)                   (kbar)     P=   -15543.54
  -0.10627212  -0.00004052   0.00038494       -15633.17       -5.96       56.63
  -0.00004052  -0.10567090  -0.00043609           -5.96   -15544.73      -64.15
   0.00038494  -0.00043609  -0.10504552           56.63      -64.15   -15452.73

     Energy error            =      1.9E+01
     Gradient error          =      6.3E-02
     Cell gradient error     =      1.1E-01


     number of scf cycles    =   2
     number of bfgs steps    =   1

     enthalpy old            =   -1988.2058230766 Ry
     enthalpy new            =   -2007.5586948325 Ry

     CASE: enthalpy_new < enthalpy_old

     new trust radius        =       0.3151397222 bohr
     new conv_thr            =       0.0000006307 Ry

     new unit-cell volume =    155.66806 a.u.^3 (    23.06763 Ang^3 )
     density =     13.06641 g/cm^3

CELL_PARAMETERS (angstrom)
   2.788815086  -0.009728634   0.037028457
  -0.009726622   2.853403600  -0.047731209
   0.037018780  -0.047707966   2.900131299

ATOMIC_POSITIONS (angstrom)
Hf            0.6360823783        1.9952326818        0.4455057596
H             1.8588757904        0.7291891638        0.5730505091
H             1.5275678219        1.3011392397        1.8419687249
H             0.9699698334        0.3279004730        2.1054888931



     Writing output data file ./tmp/01_HfH3_Top1.save/
     NEW-OLD atomic charge density approx. for the potential

     Check: negative core charge=   -0.000002
     extrapolated charge   26.16585, renormalised to   39.00000

     total cpu time spent up to now is       75.2 secs

     Self-consistent Calculation

     iteration #  1     ecut=    50.00 Ry     beta= 0.70
     Davidson diagonalization with overlap
     c_bands:  1 eigenvalues not converged
     c_bands:  2 eigenvalues not converged
     ethr =  1.00E-06,  avg # of iterations = 17.5

     total cpu time spent up to now is       79.2 secs

     total energy              =   -1879.34656004 Ry
     estimated scf accuracy    <     102.66378778 Ry

     iteration #  2     ecut=    50.00 Ry     beta= 0.70
     Davidson diagonalization with overlap
     ethr =  1.00E-02,  avg # of iterations =  8.0

     total cpu time spent up to now is       82.4 secs

     total energy              =   -1992.37254282 Ry
     estimated scf accuracy    <     534.70993731 Ry

     iteration #  3     ecut=    50.00 Ry     beta= 0.70
     Davidson diagonalization with overlap
     ethr =  1.00E-02,  avg # of iterations =  7.9

     total cpu time spent up to now is       85.6 secs

     total energy              =   -1997.18592100 Ry
     estimated scf accuracy    <      85.48110701 Ry

     iteration #  4     ecut=    50.00 Ry     beta= 0.70
     Davidson diagonalization with overlap
     ethr =  1.00E-02,  avg # of iterations =  4.6

     total cpu time spent up to now is       88.5 secs

     total energy              =   -2011.41365223 Ry
     estimated scf accuracy    <       0.74928621 Ry

     iteration #  5     ecut=    50.00 Ry     beta= 0.70
     Davidson diagonalization with overlap
     ethr =  1.92E-03,  avg # of iterations =  1.0

     total cpu time spent up to now is       91.1 secs

     total energy              =   -2011.39711589 Ry
     estimated scf accuracy    <       0.28573946 Ry

     iteration #  6     ecut=    50.00 Ry     beta= 0.70
     Davidson diagonalization with overlap
     ethr =  7.33E-04,  avg # of iterations =  2.0

     total cpu time spent up to now is       93.7 secs

     total energy              =   -2011.41890671 Ry
     estimated scf accuracy    <       0.04883840 Ry

     iteration #  7     ecut=    50.00 Ry     beta= 0.70
     Davidson diagonalization with overlap
     ethr =  1.25E-04,  avg # of iterations =  3.0

     total cpu time spent up to now is       96.3 secs

     total energy              =   -2011.42313753 Ry
     estimated scf accuracy    <       0.00706673 Ry

     iteration #  8     ecut=    50.00 Ry     beta= 0.70
     Davidson diagonalization with overlap
     ethr =  1.81E-05,  avg # of iterations =  3.1

     total cpu time spent up to now is       98.9 secs

     total energy              =   -2011.42570470 Ry
     estimated scf accuracy    <       0.00069832 Ry

     iteration #  9     ecut=    50.00 Ry     beta= 0.70
     Davidson diagonalization with overlap
     ethr =  1.79E-06,  avg # of iterations =  2.6

     total cpu time spent up to now is      101.7 secs

     total energy              =   -2011.42537326 Ry
     estimated scf accuracy    <       0.00165261 Ry

     iteration # 10     ecut=    50.00 Ry     beta= 0.70
     Davidson diagonalization with overlap
     ethr =  1.79E-06,  avg # of iterations =  2.0

     total cpu time spent up to now is      104.2 secs

     total energy              =   -2011.42528229 Ry
     estimated scf accuracy    <       0.00063861 Ry

     iteration # 11     ecut=    50.00 Ry     beta= 0.70
     Davidson diagonalization with overlap
     ethr =  1.64E-06,  avg # of iterations =  1.0

     total cpu time spent up to now is      106.7 secs

     total energy              =   -2011.42526190 Ry
     estimated scf accuracy    <       0.00024628 Ry

     iteration # 12     ecut=    50.00 Ry     beta= 0.70
     Davidson diagonalization with overlap
     ethr =  6.31E-07,  avg # of iterations =  1.6

     total cpu time spent up to now is      109.1 secs

     total energy              =   -2011.42519654 Ry
     estimated scf accuracy    <       0.00014097 Ry

     iteration # 13     ecut=    50.00 Ry     beta= 0.70
     Davidson diagonalization with overlap
     ethr =  3.61E-07,  avg # of iterations =  2.8

     total cpu time spent up to now is      111.7 secs

     total energy              =   -2011.42523354 Ry
     estimated scf accuracy    <       0.00000122 Ry

     iteration # 14     ecut=    50.00 Ry     beta= 0.70
     Davidson diagonalization with overlap
     ethr =  3.12E-09,  avg # of iterations =  4.0

     total cpu time spent up to now is      114.3 secs

     End of self-consistent calculation

          k = 0.0000 0.0000 0.0000 (  1935 PWs)   bands (ev):

  -179.5611-179.4790-179.1190-178.9631-178.7269 -40.7369  -9.2390  -9.0717
    -8.9804   7.1345   8.9969   9.0135   9.0408   9.0583   9.1156   9.1241
     9.1561  15.1210  17.1927  24.6543  26.2306  26.8221  27.7821  27.8621

          k = 0.0083-0.0105-0.6268 (  1936 PWs)   bands (ev):

  -179.5555-179.4616-179.0947-178.8866-178.7385 -40.6621 -10.4984  -8.9428
    -8.8723   8.9517   9.0010   9.0272   9.0388   9.0550   9.1368   9.1999
    11.7598  12.1311  18.9597  20.2008  22.8685  26.7905  27.4813  29.2386

          k = 0.0062-0.6475-0.6373 (  1956 PWs)   bands (ev):

  -179.6219-179.5454-179.2261-178.9778-178.8501 -40.5783 -10.2652 -10.1747
    -8.7581   8.9268   8.9528   8.9762   9.0941   9.1154   9.1363   9.1634
    10.4114  16.0905  18.8758  19.1764  23.6824  24.3687  29.3326  30.0011

          k =-0.6455-0.6495-0.6290 (  1904 PWs)   bands (ev):

  -179.3877-179.3083-178.9141-178.7524-178.5042 -40.4753 -10.1089 -10.0184
    -9.9100   8.8814   9.0341   9.0551   9.0765   9.0891   9.1213   9.1555
    11.6962  12.9625  15.5807  22.0394  26.5400  28.8475  29.6794  29.7263

          k =-0.6517-0.0021 0.0083 (  1936 PWs)   bands (ev):

  -179.5477-179.4410-179.1164-178.9731-178.6611 -40.6269 -10.5466  -9.0865
    -8.8960   8.8500   8.9251   9.0386   9.0654   9.0928   9.1461   9.1776
    10.2251  15.1607  18.3841  21.6752  22.0021  23.9938  27.0707  29.7877

          k =-0.0021-0.6370-0.0105 (  1936 PWs)   bands (ev):

  -179.5333-179.4822-179.0792-178.8672-178.7801 -40.6495 -10.4567  -9.1072
    -8.8599   8.9125   8.9526   9.0339   9.0403   9.0499   9.1533   9.1961
    11.1808  14.1695  18.6292  20.3665  22.5585  22.6388  27.4051  29.1678

          k =-0.6600 0.0084 0.6351 (  1956 PWs)   bands (ev):

  -179.6085-179.5541-179.2097-178.9656-178.8792 -40.5552 -10.3376 -10.2408
    -8.7850   8.9416   8.9841   9.0156   9.0398   9.0616   9.1181   9.2087
    11.4829  16.0690  17.8967  19.4755  22.2338  23.1990  29.4143  30.3752

          k =-0.6496 0.6349 0.0187 (  1956 PWs)   bands (ev):

  -179.5977-179.5613-179.2163-178.9804-178.8547 -40.5439 -10.2958 -10.1227
    -8.9654   8.9286   8.9778   9.0068   9.0666   9.0811   9.1235   9.1970
    10.3921  16.5550  16.9676  21.8146  22.9098  23.3364  28.6628  30.0954

     the Fermi energy is    21.4962 ev

!    total energy              =   -2011.42523450 Ry

     total all-electron energy =    -30159.036880 Ry
     estimated scf accuracy    <       0.00000021 Ry
     smearing contrib. (-TS)   =       0.00047932 Ry
     internal energy E=F+TS    =   -2011.42571382 Ry

     The total energy is F=E-TS. E is the sum of the following terms:
     one-electron contribution =   -1398.84847321 Ry
     hartree contribution      =     704.37036723 Ry
     xc contribution           =    -112.19421797 Ry
     ewald contribution        =    -708.23635875 Ry
     one-center paw contrib.   =    -496.51703113 Ry

     convergence has been achieved in  14 iterations

     Forces acting on atoms (cartesian axes, Ry/au):

     atom    1 type  1   force =    -0.04638432    0.01396135   -0.03386689
     atom    2 type  2   force =     0.07485510   -0.05831650    0.01441440
     atom    3 type  2   force =     0.03182602    0.02974719    0.03397877
     atom    4 type  2   force =    -0.06029679    0.01460795   -0.01452628

     Total force =     0.140775     Total SCF correction =     0.001436


     Computing stress (Cartesian axis) and pressure

          total   stress  (Ry/bohr**3)                   (kbar)     P=    -6713.18
  -0.04022902   0.00119914  -0.00395250        -5917.89      176.40     -581.43
   0.00119914  -0.04564880   0.00544015          176.40    -6715.17      800.27
  -0.00395250   0.00544015  -0.05102792         -581.43      800.27    -7506.47

     Energy error            =      3.9E+00
     Gradient error          =      7.5E-02
     Cell gradient error     =      5.1E-02


     number of scf cycles    =   3
     number of bfgs steps    =   2

     enthalpy old            =   -2007.5586948325 Ry
     enthalpy new            =   -2011.4252345040 Ry

     CASE: enthalpy_new < enthalpy_old

     new trust radius        =       0.6204428842 bohr
     new conv_thr            =       0.0000007486 Ry

     new unit-cell volume =    121.21065 a.u.^3 (    17.96157 Ang^3 )
     density =     16.78089 g/cm^3

CELL_PARAMETERS (angstrom)
   2.959446027   0.070106619  -0.238111182
   0.069764098   2.667508279   0.325786117
  -0.236781789   0.325682460   2.336889271

ATOMIC_POSITIONS (angstrom)
Hf            0.6553743496        1.9513139420        0.5370939088
H             1.9844869782        0.7736360911        0.3792792917
H             1.5043113341        1.5116451265        1.5297706259
H             0.8051934241        0.6088349218        1.6487572694



     Writing output data file ./tmp/01_HfH3_Top1.save/
     NEW-OLD atomic charge density approx. for the potential

     Check: negative core charge=   -0.000001
     extrapolated charge   27.91375, renormalised to   39.00000

     total cpu time spent up to now is      127.8 secs

     Self-consistent Calculation

     iteration #  1     ecut=    50.00 Ry     beta= 0.70
     Davidson diagonalization with overlap
     ethr =  1.00E-06,  avg # of iterations = 17.4

     total cpu time spent up to now is      132.0 secs

     total energy              =   -1897.53875038 Ry
     estimated scf accuracy    <      80.46103071 Ry

     iteration #  2     ecut=    50.00 Ry     beta= 0.70
     Davidson diagonalization with overlap
     ethr =  1.00E-02,  avg # of iterations =  7.1

     total cpu time spent up to now is      135.2 secs

     total energy              =   -2000.94306635 Ry
     estimated scf accuracy    <     487.68758274 Ry

     iteration #  3     ecut=    50.00 Ry     beta= 0.70
     Davidson diagonalization with overlap
     ethr =  1.00E-02,  avg # of iterations =  6.8

     total cpu time spent up to now is      138.2 secs

     total energy              =   -1992.44414726 Ry
     estimated scf accuracy    <     113.43369429 Ry

     iteration #  4     ecut=    50.00 Ry     beta= 0.70
     Davidson diagonalization with overlap
     ethr =  1.00E-02,  avg # of iterations =  4.5

     total cpu time spent up to now is      140.9 secs

     total energy              =   -2011.20279488 Ry
     estimated scf accuracy    <       0.98502981 Ry

     iteration #  5     ecut=    50.00 Ry     beta= 0.70
     Davidson diagonalization with overlap
     ethr =  2.53E-03,  avg # of iterations =  2.2

     total cpu time spent up to now is      143.4 secs

     total energy              =   -2011.32792062 Ry
     estimated scf accuracy    <       0.74606449 Ry

     iteration #  6     ecut=    50.00 Ry     beta= 0.70
     Davidson diagonalization with overlap
     ethr =  1.91E-03,  avg # of iterations =  1.0

     total cpu time spent up to now is      145.8 secs

     total energy              =   -2011.30408507 Ry
     estimated scf accuracy    <       0.38992446 Ry

     iteration #  7     ecut=    50.00 Ry     beta= 0.70
     Davidson diagonalization with overlap
     ethr =  1.00E-03,  avg # of iterations =  2.5

     total cpu time spent up to now is      148.4 secs

     total energy              =   -2011.29149425 Ry
     estimated scf accuracy    <       0.09324071 Ry

     iteration #  8     ecut=    50.00 Ry     beta= 0.70
     Davidson diagonalization with overlap
     ethr =  2.39E-04,  avg # of iterations =  3.0

     total cpu time spent up to now is      151.0 secs

     total energy              =   -2011.34778256 Ry
     estimated scf accuracy    <       0.04087425 Ry

     iteration #  9     ecut=    50.00 Ry     beta= 0.70
     Davidson diagonalization with overlap
     ethr =  1.05E-04,  avg # of iterations =  1.0

     total cpu time spent up to now is      153.5 secs

     total energy              =   -2011.33620425 Ry
     estimated scf accuracy    <       0.04103722 Ry

     iteration # 10     ecut=    50.00 Ry     beta= 0.70
     Davidson diagonalization with overlap
     ethr =  1.05E-04,  avg # of iterations =  1.2

     total cpu time spent up to now is      155.9 secs

     total energy              =   -2011.33573796 Ry
     estimated scf accuracy    <       0.01243542 Ry

     iteration # 11     ecut=    50.00 Ry     beta= 0.70
     Davidson diagonalization with overlap
     ethr =  3.19E-05,  avg # of iterations =  2.0

     total cpu time spent up to now is      158.4 secs

     total energy              =   -2011.33465525 Ry
     estimated scf accuracy    <       0.00477766 Ry

     iteration # 12     ecut=    50.00 Ry     beta= 0.70
     Davidson diagonalization with overlap
     ethr =  1.23E-05,  avg # of iterations =  2.0

     total cpu time spent up to now is      160.9 secs

     total energy              =   -2011.33468255 Ry
     estimated scf accuracy    <       0.00077907 Ry

     iteration # 13     ecut=    50.00 Ry     beta= 0.70
     Davidson diagonalization with overlap
     ethr =  2.00E-06,  avg # of iterations =  3.2

     total cpu time spent up to now is      163.5 secs

     total energy              =   -2011.33490678 Ry
     estimated scf accuracy    <       0.00000182 Ry

     iteration # 14     ecut=    50.00 Ry     beta= 0.70
     Davidson diagonalization with overlap
     ethr =  4.67E-09,  avg # of iterations =  4.6

     total cpu time spent up to now is      166.2 secs

     total energy              =   -2011.33490950 Ry
     estimated scf accuracy    <       0.00000507 Ry

     iteration # 15     ecut=    50.00 Ry     beta= 0.70
     Davidson diagonalization with overlap
     ethr =  4.67E-09,  avg # of iterations =  3.0

     total cpu time spent up to now is      168.9 secs

     End of self-consistent calculation

          k = 0.0000 0.0000 0.0000 (  1935 PWs)   bands (ev):

  -173.9727-173.6311-173.4941-172.3145-172.0461 -34.8414  -3.8548  -3.0801
    -1.1761  11.6691  15.2676  15.4026  15.4367  15.5020  15.6468  15.6995
    15.8241  20.0019  23.2246  29.4552  30.5391  33.5783  34.3767  36.6599

          k =-0.0666 0.0992-0.7982 (  1936 PWs)   bands (ev):

  -173.9889-173.6053-173.5634-172.2263-171.9736 -34.1840  -6.6839  -2.9782
    -2.6563  15.1067  15.1445  15.4155  15.5518  15.6411  15.7452  15.7693
    17.0989  20.3210  23.5132  26.4325  28.6582  31.9824  33.3510  36.9446

          k =-0.0421-0.5947-0.6990 (  1956 PWs)   bands (ev):

  -173.9774-173.6991-173.5688-172.3939-171.9806 -34.0562  -6.0376  -4.1953
    -2.7705  13.8252  15.3217  15.3614  15.4671  15.6230  15.7499  15.7705
    15.8047  21.4909  24.4458  25.1918  28.0109  32.8224  36.5029  38.0562

          k =-0.6621-0.5704-0.7652 (  1904 PWs)   bands (ev):

  -173.9189-173.5284-173.4750-172.0600-171.7638 -34.0103  -5.8509  -4.0711
    -3.4981  13.9827  15.3744  15.4274  15.5595  15.6312  15.6897  15.7986
    15.8799  18.4417  21.4508  28.3453  34.7514  35.4228  36.7185  38.2235

          k =-0.6199 0.0243-0.0662 (  1936 PWs)   bands (ev):

  -173.9562-173.6483-173.5718-172.1850-171.8005 -34.7732  -5.0148  -3.0877
    -1.1795  14.5397  15.2785  15.3699  15.4984  15.5920  15.7389  15.8137
    15.9027  19.0922  23.9037  27.5974  30.9854  32.7055  34.6979  35.6118

          k = 0.0244-0.6940 0.0992 (  1936 PWs)   bands (ev):

  -173.9676-173.6765-173.4924-172.2736-171.9828 -34.6176  -5.8506  -3.4139
    -1.3744  15.1034  15.2652  15.3875  15.5182  15.5765  15.7229  15.7977
    17.1063  20.3021  23.7479  25.5728  29.0543  31.8758  34.2139  38.9410

          k =-0.5533-0.0749 0.7320 (  1956 PWs)   bands (ev):

  -174.0240-173.6818-173.5262-172.3769-172.0811 -34.1369  -6.4884  -3.7571
    -2.5862  14.9273  15.1289  15.4517  15.5182  15.6592  15.7375  15.7690
    16.4437  21.6145  23.4892  26.0032  29.5522  30.4549  34.3948  39.0540

          k =-0.6443 0.7183-0.1654 (  1956 PWs)   bands (ev):

  -174.0251-173.6468-173.6285-172.3903-171.9800 -34.5579  -5.5651  -4.3901
    -1.3828  14.2050  15.2707  15.3601  15.4175  15.5422  15.6699  15.7219
    15.8012  22.6841  25.1009  26.8888  31.7246  32.9669  35.1784  38.3898

     the Fermi energy is    26.6596 ev

!    total energy              =   -2011.33491033 Ry

     total all-electron energy =    -30158.946556 Ry
     estimated scf accuracy    <       0.00000009 Ry
     smearing contrib. (-TS)   =       0.00030577 Ry
     internal energy E=F+TS    =   -2011.33521610 Ry

     The total energy is F=E-TS. E is the sum of the following terms:
     one-electron contribution =   -1307.74347394 Ry
     hartree contribution      =     668.00641660 Ry
     xc contribution           =    -112.74121788 Ry
     ewald contribution        =    -762.21984020 Ry
     one-center paw contrib.   =    -496.63710067 Ry

     convergence has been achieved in  15 iterations

     Forces acting on atoms (cartesian axes, Ry/au):

     atom    1 type  1   force =    -0.44073660   -0.06674412   -0.12001185
     atom    2 type  2   force =     0.10754062   -0.03946223    0.04330063
     atom    3 type  2   force =     0.24819872   -0.06110130    0.27053897
     atom    4 type  2   force =     0.08499727    0.16730766   -0.19382774

     Total force =     0.662885     Total SCF correction =     0.000225


     Computing stress (Cartesian axis) and pressure

          total   stress  (Ry/bohr**3)                   (kbar)     P=    -4402.75
  -0.05784793  -0.00069683   0.02142285        -8509.72     -102.51     3151.41
  -0.00069683  -0.02493624  -0.02502254         -102.51    -3668.25    -3680.94
   0.02142285  -0.02502254  -0.00700375         3151.41    -3680.94    -1030.29

     Energy error            =      9.0E-02
     Gradient error          =      4.4E-01
     Cell gradient error     =      5.8E-02


     number of scf cycles    =   4
     number of bfgs steps    =   3

     enthalpy old            =   -2011.4252345040 Ry
     enthalpy new            =   -2011.3349103302 Ry

     CASE: enthalpy_new > enthalpy_old

     new trust radius        =       0.3686596645 bohr
     new conv_thr            =       0.0000007486 Ry

     new unit-cell volume =    140.37789 a.u.^3 (    20.80186 Ang^3 )
     density =     14.48962 g/cm^3

CELL_PARAMETERS (angstrom)
   2.870331971   0.028411701  -0.094416204
   0.028249115   2.764594341   0.130712211
  -0.093786156   0.130674830   2.631049179

ATOMIC_POSITIONS (angstrom)
Hf            0.6450875381        1.9755063745        0.4868291959
H             1.9187280006        0.7491709729        0.4832705341
H             1.5166106920        1.4009895289        1.6940817961
H             0.8914648785        0.4628267402        1.8856686779



     Writing output data file ./tmp/01_HfH3_Top1.save/
     NEW-OLD atomic charge density approx. for the potential

     Check: negative core charge=   -0.000001
     extrapolated charge   44.32480, renormalised to   39.00000

     total cpu time spent up to now is      182.3 secs

     Self-consistent Calculation

     iteration #  1     ecut=    50.00 Ry     beta= 0.70
     Davidson diagonalization with overlap
     c_bands:  2 eigenvalues not converged
     c_bands:  1 eigenvalues not converged
     c_bands:  1 eigenvalues not converged
     ethr =  1.00E-06,  avg # of iterations = 18.6

     total cpu time spent up to now is      187.3 secs

     total energy              =   -1773.69942654 Ry
     estimated scf accuracy    <     224.28525616 Ry

     iteration #  2     ecut=    50.00 Ry     beta= 0.70
     Davidson diagonalization with overlap
     ethr =  1.00E-02,  avg # of iterations =  7.0

     total cpu time spent up to now is      190.4 secs

     total energy              =   -2036.37549222 Ry
     estimated scf accuracy    <     398.40512957 Ry

     iteration #  3     ecut=    50.00 Ry     beta= 0.70
     Davidson diagonalization with overlap
     ethr =  1.00E-02,  avg # of iterations =  3.8

     total cpu time spent up to now is      193.1 secs

     total energy              =   -2038.15299620 Ry
     estimated scf accuracy    <     102.58795362 Ry

     iteration #  4     ecut=    50.00 Ry     beta= 0.70
     Davidson diagonalization with overlap
     ethr =  1.00E-02,  avg # of iterations =  2.4

     total cpu time spent up to now is      195.6 secs

     total energy              =   -2026.00038885 Ry
     estimated scf accuracy    <      64.56266332 Ry

     iteration #  5     ecut=    50.00 Ry     beta= 0.70
     Davidson diagonalization with overlap
     ethr =  1.00E-02,  avg # of iterations =  2.5

     total cpu time spent up to now is      198.1 secs

     total energy              =   -2020.30202691 Ry
     estimated scf accuracy    <      37.16725199 Ry

     iteration #  6     ecut=    50.00 Ry     beta= 0.70
     Davidson diagonalization with overlap
     ethr =  1.00E-02,  avg # of iterations =  2.2

     total cpu time spent up to now is      200.6 secs

     total energy              =   -2017.58549715 Ry
     estimated scf accuracy    <      22.27068569 Ry

     iteration #  7     ecut=    50.00 Ry     beta= 0.70
     Davidson diagonalization with overlap
     ethr =  1.00E-02,  avg # of iterations =  1.1

     total cpu time spent up to now is      203.0 secs

     total energy              =   -2013.59573995 Ry
     estimated scf accuracy    <      14.94834403 Ry

     iteration #  8     ecut=    50.00 Ry     beta= 0.70
     Davidson diagonalization with overlap
     ethr =  1.00E-02,  avg # of iterations =  2.0

     total cpu time spent up to now is      205.5 secs

     total energy              =   -2013.73552298 Ry
     estimated scf accuracy    <       5.88293031 Ry

     iteration #  9     ecut=    50.00 Ry     beta= 0.70
     Davidson diagonalization with overlap
     ethr =  1.00E-02,  avg # of iterations =  1.0

     total cpu time spent up to now is      207.9 secs

     total energy              =   -2013.12310638 Ry
     estimated scf accuracy    <       5.00271230 Ry

     iteration # 10     ecut=    50.00 Ry     beta= 0.70
     Davidson diagonalization with overlap
     ethr =  1.00E-02,  avg # of iterations =  1.0

     total cpu time spent up to now is      210.4 secs

     total energy              =   -2010.96411655 Ry
     estimated scf accuracy    <       3.50077924 Ry

     iteration # 11     ecut=    50.00 Ry     beta= 0.70
     Davidson diagonalization with overlap
     ethr =  8.98E-03,  avg # of iterations =  2.0

     total cpu time spent up to now is      212.9 secs

     total energy              =   -2011.78131388 Ry
     estimated scf accuracy    <       0.08865752 Ry

     iteration # 12     ecut=    50.00 Ry     beta= 0.70
     Davidson diagonalization with overlap
     ethr =  2.27E-04,  avg # of iterations =  4.5

     total cpu time spent up to now is      215.5 secs

     total energy              =   -2011.78624658 Ry
     estimated scf accuracy    <       0.08611667 Ry

     iteration # 13     ecut=    50.00 Ry     beta= 0.70
     Davidson diagonalization with overlap
     ethr =  2.21E-04,  avg # of iterations =  1.2

     total cpu time spent up to now is      218.0 secs

     total energy              =   -2011.78864676 Ry
     estimated scf accuracy    <       0.04493058 Ry

     iteration # 14     ecut=    50.00 Ry     beta= 0.70
     Davidson diagonalization with overlap
     ethr =  1.15E-04,  avg # of iterations =  1.0

     total cpu time spent up to now is      220.5 secs

     total energy              =   -2011.76707157 Ry
     estimated scf accuracy    <       0.04222006 Ry

     iteration # 15     ecut=    50.00 Ry     beta= 0.70
     Davidson diagonalization with overlap
     ethr =  1.08E-04,  avg # of iterations =  2.0

     total cpu time spent up to now is      223.0 secs

     total energy              =   -2011.77559705 Ry
     estimated scf accuracy    <       0.00180711 Ry

     iteration # 16     ecut=    50.00 Ry     beta= 0.70
     Davidson diagonalization with overlap
     ethr =  4.63E-06,  avg # of iterations =  5.6

     total cpu time spent up to now is      225.7 secs

     total energy              =   -2011.77399097 Ry
     estimated scf accuracy    <       0.00467293 Ry

     iteration # 17     ecut=    50.00 Ry     beta= 0.70
     Davidson diagonalization with overlap
     ethr =  4.63E-06,  avg # of iterations =  3.0

     total cpu time spent up to now is      228.4 secs

     total energy              =   -2011.77508250 Ry
     estimated scf accuracy    <       0.00056469 Ry

     iteration # 18     ecut=    50.00 Ry     beta= 0.70
     Davidson diagonalization with overlap
     ethr =  1.45E-06,  avg # of iterations =  2.0

     total cpu time spent up to now is      230.9 secs

     total energy              =   -2011.77514753 Ry
     estimated scf accuracy    <       0.00005216 Ry

     iteration # 19     ecut=    50.00 Ry     beta= 0.70
     Davidson diagonalization with overlap
     ethr =  1.34E-07,  avg # of iterations =  3.0

     total cpu time spent up to now is      233.6 secs

     total energy              =   -2011.77516017 Ry
     estimated scf accuracy    <       0.00008442 Ry

     iteration # 20     ecut=    50.00 Ry     beta= 0.70
     Davidson diagonalization with overlap
     ethr =  1.34E-07,  avg # of iterations =  2.0

     total cpu time spent up to now is      236.1 secs

     total energy              =   -2011.77514979 Ry
     estimated scf accuracy    <       0.00002435 Ry

     iteration # 21     ecut=    50.00 Ry     beta= 0.70
     Davidson diagonalization with overlap
     ethr =  6.24E-08,  avg # of iterations =  3.0

     total cpu time spent up to now is      238.6 secs

     End of self-consistent calculation

          k = 0.0000 0.0000 0.0000 (  1935 PWs)   bands (ev):

  -177.4666-177.4207-177.2411-176.5693-176.4891 -38.3243  -6.9055  -6.5912
    -6.1842   8.8106  11.6303  11.6717  11.7382  11.7542  11.8160  11.8595
    11.8927  17.4556  18.8745  26.7221  28.4591  29.7675  30.4355  32.1502

          k =-0.0231 0.0330-0.6931 (  1936 PWs)   bands (ev):

  -177.4476-177.3944-177.2574-176.5738-176.4553 -38.1046  -8.9082  -6.4863
    -6.2826  11.5247  11.6021  11.6923  11.7591  11.8118  11.8799  11.9101
    14.3203  14.9196  21.4467  21.7330  24.0886  28.6993  29.9086  33.8156

          k =-0.0155-0.6259-0.6601 (  1956 PWs)   bands (ev):

  -177.4809-177.4543-177.3066-176.6476-176.5251 -37.9876  -8.5049  -7.8658
    -6.3048  11.1883  11.6416  11.6699  11.7315  11.7939  11.8519  11.9347
    12.1838  18.8864  21.0096  21.9464  25.3651  26.6832  32.5004  33.5418

          k =-0.6494-0.6184-0.6831 (  1904 PWs)   bands (ev):

  -177.3596-177.3135-177.1446-176.3893-176.3037 -37.9148  -8.3093  -7.6432
    -7.3479  11.3159  11.6962  11.7350  11.7914  11.8075  11.8395  11.8939
    13.0858  15.5221  16.8871  24.1759  30.9738  32.3262  32.7058  33.7219

          k =-0.6339 0.0076-0.0230 (  1936 PWs)   bands (ev):

  -177.4593-177.3856-177.2799-176.5284-176.4116 -38.2413  -8.1392  -6.5713
    -6.0963  11.2511  11.5885  11.6800  11.7491  11.7662  11.8690  11.9339
    12.2310  16.6299  20.2585  23.9894  26.2251  27.5434  29.7536  31.9895

          k = 0.0076-0.6589 0.0330 (  1936 PWs)   bands (ev):

  -177.4372-177.4034-177.2567-176.5632-176.4583 -38.1949  -8.4538  -6.6219
    -6.1313  11.4733  11.5809  11.6844  11.7474  11.7832  11.8719  11.9336
    13.3368  16.5572  20.7951  23.2380  23.9526  25.9655  30.0879  32.4421

          k =-0.6108-0.0254 0.6701 (  1956 PWs)   bands (ev):

  -177.5047-177.4492-177.2866-176.6536-176.5427 -38.0278  -8.6740  -7.6464
    -6.1870  11.5428  11.6040  11.6765  11.7328  11.7979  11.8440  11.9418
    13.2237  18.4584  20.8406  21.4069  24.1351  26.3584  32.5923  33.4504

          k =-0.6415 0.6665-0.0560 (  1956 PWs)   bands (ev):

  -177.5115-177.4387-177.2983-176.6369-176.5533 -38.1170  -8.1788  -7.7480
    -6.0806  11.3867  11.5919  11.6908  11.7930  11.8427  11.8715  11.8877
    12.0370  18.8262  19.7995  23.5402  26.3313  27.1667  32.3436  33.3221

     the Fermi energy is    23.3924 ev

!    total energy              =   -2011.77515764 Ry

     total all-electron energy =    -30159.386803 Ry
     estimated scf accuracy    <       0.00000071 Ry
     smearing contrib. (-TS)   =      -0.00025086 Ry
     internal energy E=F+TS    =   -2011.77490677 Ry

     The total energy is F=E-TS. E is the sum of the following terms:
     one-electron contribution =   -1358.76271322 Ry
     hartree contribution      =     687.95647982 Ry
     xc contribution           =    -112.42677937 Ry
     ewald contribution        =    -731.97275078 Ry
     one-center paw contrib.   =    -496.56914322 Ry

     convergence has been achieved in  21 iterations

     Forces acting on atoms (cartesian axes, Ry/au):

     atom    1 type  1   force =    -0.18522318   -0.01726237   -0.02675518
     atom    2 type  2   force =     0.11066130   -0.05397079    0.01196473
     atom    3 type  2   force =     0.09763123    0.01440502    0.11308595
     atom    4 type  2   force =    -0.02306935    0.05682815   -0.09829551

     Total force =     0.294236     Total SCF correction =     0.002235


     Computing stress (Cartesian axis) and pressure

          total   stress  (Ry/bohr**3)                   (kbar)     P=    -4489.94
  -0.04226018  -0.00186019   0.00931098        -6216.69     -273.64     1369.69
  -0.00186019  -0.02983291  -0.01327439         -273.64    -4388.57    -1952.73
   0.00931098  -0.01327439  -0.01947288         1369.69    -1952.73    -2864.56

     Energy error            =      3.5E-01
     Gradient error          =      1.9E-01
     Cell gradient error     =      4.2E-02


     number of scf cycles    =   5
     number of bfgs steps    =   3

     enthalpy old            =   -2011.4252345040 Ry
     enthalpy new            =   -2011.7751576390 Ry

     CASE: enthalpy_new < enthalpy_old

     new trust radius        =       0.2808696927 bohr
     new conv_thr            =       0.0000010000 Ry

     new unit-cell volume =    111.92478 a.u.^3 (    16.58554 Ang^3 )
     density =     18.17312 g/cm^3

CELL_PARAMETERS (angstrom)
   2.544450127   0.020610143   0.015554244
   0.023447299   2.591464851  -0.065021458
   0.016294520  -0.071171387   2.517380624

ATOMIC_POSITIONS (angstrom)
Hf            0.5083697168        1.8260951619        0.3300619426
H             1.7861953164        0.6149228893        0.4968482155
H             1.4519128119        1.2017220604        1.6345019190
H             0.8290092661        0.3155209077        1.7829850643



     Writing output data file ./tmp/01_HfH3_Top1.save/
     NEW-OLD atomic charge density approx. for the potential
     extrapolated charge   29.08606, renormalised to   39.00000

     total cpu time spent up to now is      252.1 secs

     Self-consistent Calculation

     iteration #  1     ecut=    50.00 Ry     beta= 0.70
     Davidson diagonalization with overlap
     ethr =  1.00E-06,  avg # of iterations = 15.0

     total cpu time spent up to now is      256.0 secs

     total energy              =   -1914.27085023 Ry
     estimated scf accuracy    <      69.57523326 Ry

     iteration #  2     ecut=    50.00 Ry     beta= 0.70
     Davidson diagonalization with overlap
     ethr =  1.00E-02,  avg # of iterations =  6.4

     total cpu time spent up to now is      259.1 secs

     total energy              =   -2001.94777276 Ry
     estimated scf accuracy    <     451.42480981 Ry

     iteration #  3     ecut=    50.00 Ry     beta= 0.70
     Davidson diagonalization with overlap
     ethr =  1.00E-02,  avg # of iterations =  7.2

     total cpu time spent up to now is      262.1 secs

     total energy              =   -1993.72536006 Ry
     estimated scf accuracy    <      90.17945704 Ry

     iteration #  4     ecut=    50.00 Ry     beta= 0.70
     Davidson diagonalization with overlap
     ethr =  1.00E-02,  avg # of iterations =  3.9

     total cpu time spent up to now is      264.8 secs

     total energy              =   -2012.70988938 Ry
     estimated scf accuracy    <       1.84126712 Ry

     iteration #  5     ecut=    50.00 Ry     beta= 0.70
     Davidson diagonalization with overlap
     ethr =  4.72E-03,  avg # of iterations =  1.0

     total cpu time spent up to now is      267.2 secs

     total energy              =   -2012.48479744 Ry
     estimated scf accuracy    <       1.65973422 Ry

     iteration #  6     ecut=    50.00 Ry     beta= 0.70
     Davidson diagonalization with overlap
     ethr =  4.26E-03,  avg # of iterations =  1.0

     total cpu time spent up to now is      269.5 secs

     total energy              =   -2012.23208591 Ry
     estimated scf accuracy    <       0.77920060 Ry

     iteration #  7     ecut=    50.00 Ry     beta= 0.70
     Davidson diagonalization with overlap
     ethr =  2.00E-03,  avg # of iterations =  2.0

     total cpu time spent up to now is      272.0 secs

     total energy              =   -2012.24300244 Ry
     estimated scf accuracy    <       0.11856880 Ry

     iteration #  8     ecut=    50.00 Ry     beta= 0.70
     Davidson diagonalization with overlap
     ethr =  3.04E-04,  avg # of iterations =  3.0

     total cpu time spent up to now is      274.7 secs

     total energy              =   -2012.29702727 Ry
     estimated scf accuracy    <       0.02836557 Ry

     iteration #  9     ecut=    50.00 Ry     beta= 0.70
     Davidson diagonalization with overlap
     ethr =  7.27E-05,  avg # of iterations =  1.1

     total cpu time spent up to now is      277.1 secs

     total energy              =   -2012.28923706 Ry
     estimated scf accuracy    <       0.02984834 Ry

     iteration # 10     ecut=    50.00 Ry     beta= 0.70
     Davidson diagonalization with overlap
     ethr =  7.27E-05,  avg # of iterations =  2.0

     total cpu time spent up to now is      279.6 secs

     total energy              =   -2012.28608496 Ry
     estimated scf accuracy    <       0.01162307 Ry

     iteration # 11     ecut=    50.00 Ry     beta= 0.70
     Davidson diagonalization with overlap
     ethr =  2.98E-05,  avg # of iterations =  2.1

     total cpu time spent up to now is      282.1 secs

     total energy              =   -2012.28727050 Ry
     estimated scf accuracy    <       0.00108297 Ry

     iteration # 12     ecut=    50.00 Ry     beta= 0.70
     Davidson diagonalization with overlap
     ethr =  2.78E-06,  avg # of iterations =  3.2

     total cpu time spent up to now is      284.6 secs

     total energy              =   -2012.28743210 Ry
     estimated scf accuracy    <       0.00008052 Ry

     iteration # 13     ecut=    50.00 Ry     beta= 0.70
     Davidson diagonalization with overlap
     ethr =  2.06E-07,  avg # of iterations =  3.1

     total cpu time spent up to now is      287.3 secs

     total energy              =   -2012.28746406 Ry
     estimated scf accuracy    <       0.00000262 Ry

     iteration # 14     ecut=    50.00 Ry     beta= 0.70
     Davidson diagonalization with overlap
     ethr =  6.71E-09,  avg # of iterations =  2.9

     total cpu time spent up to now is      289.8 secs

     End of self-consistent calculation

          k = 0.0000 0.0000 0.0000 (  1935 PWs)   bands (ev):

  -171.2797-171.2354-171.1757-171.1437-171.0917 -32.3102  -0.1599   0.0634
     0.1545  13.3622  18.2991  18.3188  18.3467  18.4645  18.4821  18.5062
    18.5586  22.4647  23.7838  35.2488  36.4547  37.9319  38.4138  38.4444

          k = 0.0046-0.0182-0.7224 (  1936 PWs)   bands (ev):

  -171.2840-171.2203-171.1669-171.1457-171.0885 -31.9420  -3.6334   0.3167
     0.4673  17.9917  18.1142  18.3863  18.3928  18.4389  18.5962  18.6744
    19.3404  20.6044  26.4462  28.5485  30.8158  35.4707  38.4246  42.3518

          k = 0.0104-0.7199-0.7423 (  1956 PWs)   bands (ev):

  -171.2950-171.2290-171.1991-171.1519-171.0807 -31.6874  -2.9653  -2.3948
     0.7136  15.9025  18.1663  18.1775  18.4103  18.4705  18.5300  18.5434
    18.6532  25.6969  27.2640  28.2178  32.4905  33.2870  40.6007  42.0201

          k =-0.7039-0.7133-0.7374 (  1904 PWs)   bands (ev):

  -171.2634-171.2095-171.1490-171.1167-171.0530 -31.3993  -2.3831  -2.0402
    -1.7315  17.2480  18.3832  18.3971  18.4765  18.5209  18.5342  18.5474
    19.0585  19.2359  21.2638  29.0199  40.4815  42.5828  42.8006  43.1493

          k =-0.7142 0.0066 0.0048 (  1936 PWs)   bands (ev):

  -171.2861-171.2152-171.1821-171.1392-171.0749 -31.9860  -3.4124   0.2820
     0.4814  17.3873  18.0635  18.3731  18.4147  18.4589  18.6002  18.6475
    18.7969  22.3371  26.4042  29.4043  30.9847  33.4456  38.3031  41.8252

          k = 0.0058-0.7017-0.0199 (  1936 PWs)   bands (ev):

  -171.2768-171.2314-171.1789-171.1503-171.0589 -32.0336  -3.3041   0.3207
     0.4357  17.7983  18.0411  18.3324  18.3860  18.4232  18.6371  18.6652
    19.3826  22.0650  26.2847  28.4644  31.2243  33.0891  38.6494  40.2923

          k =-0.7188 0.0247 0.7272 (  1956 PWs)   bands (ev):

  -171.2947-171.2245-171.1963-171.1582-171.0848 -31.6366  -2.9535  -2.6308
     0.6793  16.9270  18.1487  18.2190  18.3868  18.3988  18.4475  18.5707
    18.7010  25.7796  26.4369  28.3501  31.2201  32.0539  40.0558  41.8642

          k =-0.7200 0.7083 0.0247 (  1956 PWs)   bands (ev):

  -171.2942-171.2285-171.1964-171.1568-171.0802 -31.7297  -2.6927  -2.4789
     0.7283  15.7545  18.1195  18.2255  18.3463  18.4680  18.4825  18.5552
    18.6726  25.2846  26.5070  30.2826  32.7575  33.0671  40.4379  41.9391

     the Fermi energy is    28.7406 ev

!    total energy              =   -2012.28746478 Ry

     total all-electron energy =    -30159.899111 Ry
     estimated scf accuracy    <       0.00000022 Ry
     smearing contrib. (-TS)   =       0.00095033 Ry
     internal energy E=F+TS    =   -2012.28841511 Ry

     The total energy is F=E-TS. E is the sum of the following terms:
     one-electron contribution =   -1256.75068549 Ry
     hartree contribution      =     645.96958245 Ry
     xc contribution           =    -112.88473855 Ry
     ewald contribution        =    -792.10324308 Ry
     one-center paw contrib.   =    -496.51933043 Ry

     convergence has been achieved in  14 iterations

     Forces acting on atoms (cartesian axes, Ry/au):

     atom    1 type  1   force =    -0.05490353    0.00860902    0.08321629
     atom    2 type  2   force =     0.04429859   -0.03773333    0.00031030
     atom    3 type  2   force =     0.05007756   -0.00052515   -0.03561803
     atom    4 type  2   force =    -0.03947263    0.02964945   -0.04790855

     Total force =     0.148016     Total SCF correction =     0.001306


     Computing stress (Cartesian axis) and pressure

          total   stress  (Ry/bohr**3)                   (kbar)     P=     1034.25
   0.00700657  -0.00061798  -0.00118145         1030.70      -90.91     -173.80
  -0.00061798   0.00602186   0.00329937          -90.91      885.85      485.35
  -0.00118145   0.00329937   0.00806373         -173.80      485.35     1186.22

     Energy error            =      5.1E-01
     Gradient error          =      8.3E-02
     Cell gradient error     =      8.1E-03


     number of scf cycles    =   6
     number of bfgs steps    =   4

     enthalpy old            =   -2011.7751576390 Ry
     enthalpy new            =   -2012.2874647800 Ry

     CASE: enthalpy_new < enthalpy_old

     new trust radius        =       0.1263345058 bohr
     new conv_thr            =       0.0000008322 Ry

     new unit-cell volume =    115.65945 a.u.^3 (    17.13896 Ang^3 )
     density =     17.58631 g/cm^3

CELL_PARAMETERS (angstrom)
   2.525364495  -0.015562938  -0.000030484
  -0.012725651   2.576568003   0.023921871
   0.000966529   0.018475394   2.634270486

ATOMIC_POSITIONS (angstrom)
Hf            0.4681128681        1.8220644181        0.4285875842
H             1.7667635835        0.5990397234        0.5295964867
H             1.4226753907        1.2321341856        1.7347836299
H             0.8013602323        0.3714263991        1.8631015040



     Writing output data file ./tmp/01_HfH3_Top1.save/
     NEW-OLD atomic charge density approx. for the potential
     extrapolated charge   40.25926, renormalised to   39.00000

     total cpu time spent up to now is      303.4 secs

     Self-consistent Calculation

     iteration #  1     ecut=    50.00 Ry     beta= 0.70
     Davidson diagonalization with overlap
     ethr =  1.00E-06,  avg # of iterations = 14.5

     total cpu time spent up to now is      307.4 secs

     total energy              =   -1978.21321842 Ry
     estimated scf accuracy    <      31.10454296 Ry

     iteration #  2     ecut=    50.00 Ry     beta= 0.70
     Davidson diagonalization with overlap
     ethr =  1.00E-02,  avg # of iterations =  5.0

     total cpu time spent up to now is      310.2 secs

     total energy              =   -2011.46949425 Ry
     estimated scf accuracy    <      77.45722592 Ry

     iteration #  3     ecut=    50.00 Ry     beta= 0.70
     Davidson diagonalization with overlap
     ethr =  1.00E-02,  avg # of iterations =  3.0

     total cpu time spent up to now is      312.8 secs

     total energy              =   -2014.72099980 Ry
     estimated scf accuracy    <      13.20792149 Ry

     iteration #  4     ecut=    50.00 Ry     beta= 0.70
     Davidson diagonalization with overlap
     ethr =  1.00E-02,  avg # of iterations =  2.2

     total cpu time spent up to now is      315.2 secs

     total energy              =   -2013.71905290 Ry
     estimated scf accuracy    <       6.62766414 Ry

     iteration #  5     ecut=    50.00 Ry     beta= 0.70
     Davidson diagonalization with overlap
     ethr =  1.00E-02,  avg # of iterations =  1.2

     total cpu time spent up to now is      317.6 secs

     total energy              =   -2012.98079741 Ry
     estimated scf accuracy    <       3.75696966 Ry

     iteration #  6     ecut=    50.00 Ry     beta= 0.70
     Davidson diagonalization with overlap
     ethr =  9.63E-03,  avg # of iterations =  1.1

     total cpu time spent up to now is      320.0 secs

     total energy              =   -2012.66988091 Ry
     estimated scf accuracy    <       1.91412126 Ry

     iteration #  7     ecut=    50.00 Ry     beta= 0.70
     Davidson diagonalization with overlap
     ethr =  4.91E-03,  avg # of iterations =  1.0

     total cpu time spent up to now is      322.5 secs

     total energy              =   -2012.54553331 Ry
     estimated scf accuracy    <       1.03594590 Ry

     iteration #  8     ecut=    50.00 Ry     beta= 0.70
     Davidson diagonalization with overlap
     ethr =  2.66E-03,  avg # of iterations =  1.0

     total cpu time spent up to now is      324.9 secs

     total energy              =   -2012.48701354 Ry
     estimated scf accuracy    <       0.67367908 Ry

     iteration #  9     ecut=    50.00 Ry     beta= 0.70
     Davidson diagonalization with overlap
     ethr =  1.73E-03,  avg # of iterations =  1.0

     total cpu time spent up to now is      327.4 secs

     total energy              =   -2012.28952840 Ry
     estimated scf accuracy    <       0.50201924 Ry

     iteration # 10     ecut=    50.00 Ry     beta= 0.70
     Davidson diagonalization with overlap
     ethr =  1.29E-03,  avg # of iterations =  2.0

     total cpu time spent up to now is      329.9 secs

     total energy              =   -2012.27418909 Ry
     estimated scf accuracy    <       0.08875561 Ry

     iteration # 11     ecut=    50.00 Ry     beta= 0.70
     Davidson diagonalization with overlap
     ethr =  2.28E-04,  avg # of iterations =  3.1

     total cpu time spent up to now is      332.5 secs

     total energy              =   -2012.31139498 Ry
     estimated scf accuracy    <       0.00575940 Ry

     iteration # 12     ecut=    50.00 Ry     beta= 0.70
     Davidson diagonalization with overlap
     ethr =  1.48E-05,  avg # of iterations =  3.4

     total cpu time spent up to now is      335.0 secs

     total energy              =   -2012.31295324 Ry
     estimated scf accuracy    <       0.00918217 Ry

     iteration # 13     ecut=    50.00 Ry     beta= 0.70
     Davidson diagonalization with overlap
     ethr =  1.48E-05,  avg # of iterations =  1.0

     total cpu time spent up to now is      337.5 secs

     total energy              =   -2012.31173089 Ry
     estimated scf accuracy    <       0.01294404 Ry

     iteration # 14     ecut=    50.00 Ry     beta= 0.70
     Davidson diagonalization with overlap
     ethr =  1.48E-05,  avg # of iterations =  1.0

     total cpu time spent up to now is      339.9 secs

     total energy              =   -2012.30949662 Ry
     estimated scf accuracy    <       0.00935917 Ry

     iteration # 15     ecut=    50.00 Ry     beta= 0.70
     Davidson diagonalization with overlap
     ethr =  1.48E-05,  avg # of iterations =  1.8

     total cpu time spent up to now is      342.4 secs

     total energy              =   -2012.30747590 Ry
     estimated scf accuracy    <       0.00355390 Ry

     iteration # 16     ecut=    50.00 Ry     beta= 0.70
     Davidson diagonalization with overlap
     ethr =  9.11E-06,  avg # of iterations =  3.0

     total cpu time spent up to now is      345.0 secs

     total energy              =   -2012.30870435 Ry
     estimated scf accuracy    <       0.00034233 Ry

     iteration # 17     ecut=    50.00 Ry     beta= 0.70
     Davidson diagonalization with overlap
     ethr =  8.78E-07,  avg # of iterations =  2.8

     total cpu time spent up to now is      347.6 secs

     total energy              =   -2012.30880021 Ry
     estimated scf accuracy    <       0.00000512 Ry

     iteration # 18     ecut=    50.00 Ry     beta= 0.70
     Davidson diagonalization with overlap
     ethr =  1.31E-08,  avg # of iterations =  3.0

     total cpu time spent up to now is      350.2 secs

     total energy              =   -2012.30879745 Ry
     estimated scf accuracy    <       0.00001317 Ry

     iteration # 19     ecut=    50.00 Ry     beta= 0.70
     Davidson diagonalization with overlap
     ethr =  1.31E-08,  avg # of iterations =  2.0

     total cpu time spent up to now is      352.6 secs

     total energy              =   -2012.30879733 Ry
     estimated scf accuracy    <       0.00000231 Ry

     iteration # 20     ecut=    50.00 Ry     beta= 0.70
     Davidson diagonalization with overlap
     ethr =  5.93E-09,  avg # of iterations =  2.8

     total cpu time spent up to now is      355.2 secs

     End of self-consistent calculation

          k = 0.0000 0.0000 0.0000 (  1935 PWs)   bands (ev):

  -172.2149-172.1798-172.1559-172.0556-172.0417 -33.2058  -1.2063  -0.8928
    -0.7857  12.5973  17.3466  17.3654  17.3714  17.4801  17.5248  17.5307
    17.5680  21.2335  23.2911  34.6999  35.8254  36.1982  37.1505  37.5898

          k = 0.0000 0.0064-0.6898 (  1936 PWs)   bands (ev):

  -172.2101-172.1802-172.1538-172.0601-171.9992 -32.9726  -4.0320  -0.6183
    -0.5025  17.1393  17.1880  17.3831  17.4336  17.4404  17.6149  17.6936
    18.2372  19.2651  25.8189  27.7582  30.5015  34.8886  37.6346  39.8554

          k =-0.0043-0.6989-0.6849 (  1956 PWs)   bands (ev):

  -172.2351-172.1989-172.1543-172.0661-172.0265 -32.7012  -3.5213  -3.3226
    -0.2171  15.2862  17.1467  17.2523  17.4406  17.5161  17.5489  17.5676
    17.6643  24.7468  26.4338  26.9794  31.5751  32.6493  39.5715  40.2983

          k =-0.7239-0.7025-0.6846 (  1904 PWs)   bands (ev):

  -172.1903-172.1486-172.1232-172.0095-172.0050 -32.3892  -3.1340  -2.7999
    -2.7309  16.5482  17.4030  17.4551  17.4837  17.5069  17.5524  17.5965
    18.0564  18.2842  20.7915  28.1530  39.2144  40.8982  41.0218  42.0459

          k =-0.7196-0.0036 0.0003 (  1936 PWs)   bands (ev):

  -172.2214-172.1813-172.1382-172.0450-172.0311 -32.8602  -4.3190  -0.8304
    -0.4998  16.5239  17.0974  17.4313  17.4587  17.4785  17.6151  17.6698
    17.8609  21.6535  25.8486  28.8427  29.0942  31.4309  37.0281  40.8865

          k =-0.0043-0.7053 0.0049 (  1936 PWs)   bands (ev):

  -172.2169-172.1715-172.1487-172.0605-172.0175 -32.9185  -4.1540  -0.8623
    -0.4604  16.8661  17.0738  17.3937  17.4141  17.4404  17.6470  17.6857
    18.4649  21.3252  25.6183  27.3183  29.5991  31.6439  37.4327  39.5623

          k =-0.7196-0.0100 0.6901 (  1956 PWs)   bands (ev):

  -172.2331-172.1958-172.1538-172.0719-172.0293 -32.6417  -3.7607  -3.3279
    -0.2563  16.2755  17.1395  17.2980  17.4042  17.4470  17.4983  17.5815
    17.7171  24.9702  25.6338  26.7967  30.8791  31.0557  39.0313  40.5126

          k =-0.7152 0.7018-0.0047 (  1956 PWs)   bands (ev):

  -172.2329-172.1961-172.1534-172.0713-172.0314 -32.5942  -3.5948  -3.3046
    -0.5211  15.0893  17.1929  17.2977  17.3549  17.4696  17.4905  17.5823
    17.6906  24.6722  25.1333  29.2422  30.9192  31.2961  38.1749  41.4527

     the Fermi energy is    27.9546 ev

!    total energy              =   -2012.30879793 Ry

     total all-electron energy =    -30159.920444 Ry
     estimated scf accuracy    <          5.6E-09 Ry
     smearing contrib. (-TS)   =       0.00007344 Ry
     internal energy E=F+TS    =   -2012.30887137 Ry

     The total energy is F=E-TS. E is the sum of the following terms:
     one-electron contribution =   -1271.82729950 Ry
     hartree contribution      =     652.12000717 Ry
     xc contribution           =    -112.80962211 Ry
     ewald contribution        =    -783.28304130 Ry
     one-center paw contrib.   =    -496.50891564 Ry

     convergence has been achieved in  20 iterations

     Forces acting on atoms (cartesian axes, Ry/au):

     atom    1 type  1   force =    -0.00798255    0.00882989    0.00022849
     atom    2 type  2   force =     0.01726040   -0.04108873    0.02530909
     atom    3 type  2   force =     0.04269281    0.01805053    0.01945437
     atom    4 type  2   force =    -0.05197065    0.01420831   -0.04499196

     Total force =     0.101107     Total SCF correction =     0.000285


     Computing stress (Cartesian axis) and pressure

          total   stress  (Ry/bohr**3)                   (kbar)     P=      476.66
   0.00554185   0.00109947   0.00003342          815.23      161.74        4.92
   0.00109947   0.00540475  -0.00233613          161.74      795.07     -343.66
   0.00003342  -0.00233613  -0.00122588            4.92     -343.66     -180.33

     Energy error            =      2.1E-02
     Gradient error          =      5.2E-02
     Cell gradient error     =      5.5E-03


     number of scf cycles    =   7
     number of bfgs steps    =   5

     enthalpy old            =   -2012.2874647800 Ry
     enthalpy new            =   -2012.3087979345 Ry

     CASE: enthalpy_new < enthalpy_old

     new trust radius        =       0.0642999138 bohr
     new conv_thr            =       0.0000005197 Ry

     new unit-cell volume =    119.29747 a.u.^3 (    17.67806 Ang^3 )
     density =     17.05001 g/cm^3

CELL_PARAMETERS (angstrom)
   2.596730107   0.000175568  -0.004646099
   0.002420444   2.645938023  -0.004842607
  -0.003561056  -0.009953483   2.572955814

ATOMIC_POSITIONS (angstrom)
Hf            0.4886413546        1.8707477333        0.4096141270
H             1.8225883924        0.6127010348        0.5111459443
H             1.4777008474        1.2576347993        1.6749802143
H             0.8123704591        0.3709640534        1.8020826115



     Writing output data file ./tmp/01_HfH3_Top1.save/
     NEW-OLD atomic charge density approx. for the potential
     extrapolated charge   40.18926, renormalised to   39.00000

     total cpu time spent up to now is      368.8 secs

     Self-consistent Calculation

     iteration #  1     ecut=    50.00 Ry     beta= 0.70
     Davidson diagonalization with overlap
     c_bands:  1 eigenvalues not converged
     c_bands:  1 eigenvalues not converged
     ethr =  1.00E-06,  avg # of iterations = 14.9

     total cpu time spent up to now is      372.7 secs

     total energy              =   -1980.74228536 Ry
     estimated scf accuracy    <      28.69339226 Ry

     iteration #  2     ecut=    50.00 Ry     beta= 0.70
     Davidson diagonalization with overlap
     ethr =  1.00E-02,  avg # of iterations =  5.4

     total cpu time spent up to now is      375.5 secs

     total energy              =   -2011.39774835 Ry
     estimated scf accuracy    <      72.75631215 Ry

     iteration #  3     ecut=    50.00 Ry     beta= 0.70
     Davidson diagonalization with overlap
     ethr =  1.00E-02,  avg # of iterations =  3.0

     total cpu time spent up to now is      378.1 secs

     total energy              =   -2014.68619239 Ry
     estimated scf accuracy    <      12.13710571 Ry

     iteration #  4     ecut=    50.00 Ry     beta= 0.70
     Davidson diagonalization with overlap
     ethr =  1.00E-02,  avg # of iterations =  2.0

     total cpu time spent up to now is      380.6 secs

     total energy              =   -2013.19381134 Ry
     estimated scf accuracy    <       6.38285527 Ry

     iteration #  5     ecut=    50.00 Ry     beta= 0.70
     Davidson diagonalization with overlap
     ethr =  1.00E-02,  avg # of iterations =  1.6

     total cpu time spent up to now is      383.0 secs

     total energy              =   -2012.77307775 Ry
     estimated scf accuracy    <       2.74954152 Ry

     iteration #  6     ecut=    50.00 Ry     beta= 0.70
     Davidson diagonalization with overlap
     ethr =  7.05E-03,  avg # of iterations =  1.1

     total cpu time spent up to now is      385.4 secs

     total energy              =   -2012.68826519 Ry
     estimated scf accuracy    <       1.32742931 Ry

     iteration #  7     ecut=    50.00 Ry     beta= 0.70
     Davidson diagonalization with overlap
     ethr =  3.40E-03,  avg # of iterations =  1.1

     total cpu time spent up to now is      387.7 secs

     total energy              =   -2012.64384295 Ry
     estimated scf accuracy    <       0.97368166 Ry

     iteration #  8     ecut=    50.00 Ry     beta= 0.70
     Davidson diagonalization with overlap
     ethr =  2.50E-03,  avg # of iterations =  1.0

     total cpu time spent up to now is      390.2 secs

     total energy              =   -2012.39229937 Ry
     estimated scf accuracy    <       0.84032674 Ry

     iteration #  9     ecut=    50.00 Ry     beta= 0.70
     Davidson diagonalization with overlap
     ethr =  2.15E-03,  avg # of iterations =  1.0

     total cpu time spent up to now is      392.7 secs

     total energy              =   -2012.33922939 Ry
     estimated scf accuracy    <       0.29280251 Ry

     iteration # 10     ecut=    50.00 Ry     beta= 0.70
     Davidson diagonalization with overlap
     ethr =  7.51E-04,  avg # of iterations =  2.0

     total cpu time spent up to now is      395.1 secs

     total energy              =   -2012.29953372 Ry
     estimated scf accuracy    <       0.08655817 Ry

     iteration # 11     ecut=    50.00 Ry     beta= 0.70
     Davidson diagonalization with overlap
     ethr =  2.22E-04,  avg # of iterations =  3.0

     total cpu time spent up to now is      397.7 secs

     total energy              =   -2012.33381185 Ry
     estimated scf accuracy    <       0.00717054 Ry

     iteration # 12     ecut=    50.00 Ry     beta= 0.70
     Davidson diagonalization with overlap
     ethr =  1.84E-05,  avg # of iterations =  2.9

     total cpu time spent up to now is      400.2 secs

     total energy              =   -2012.33416992 Ry
     estimated scf accuracy    <       0.01019575 Ry

     iteration # 13     ecut=    50.00 Ry     beta= 0.70
     Davidson diagonalization with overlap
     ethr =  1.84E-05,  avg # of iterations =  1.0

     total cpu time spent up to now is      402.6 secs

     total energy              =   -2012.32894032 Ry
     estimated scf accuracy    <       0.01048194 Ry

     iteration # 14     ecut=    50.00 Ry     beta= 0.70
     Davidson diagonalization with overlap
     ethr =  1.84E-05,  avg # of iterations =  3.5

     total cpu time spent up to now is      405.2 secs

     total energy              =   -2012.33099718 Ry
     estimated scf accuracy    <       0.00042475 Ry

     iteration # 15     ecut=    50.00 Ry     beta= 0.70
     Davidson diagonalization with overlap
     ethr =  1.09E-06,  avg # of iterations =  3.2

     total cpu time spent up to now is      407.8 secs

     total energy              =   -2012.33100493 Ry
     estimated scf accuracy    <       0.00031659 Ry

     iteration # 16     ecut=    50.00 Ry     beta= 0.70
     Davidson diagonalization with overlap
     ethr =  8.12E-07,  avg # of iterations =  1.0

     total cpu time spent up to now is      410.2 secs

     total energy              =   -2012.33107005 Ry
     estimated scf accuracy    <       0.00013696 Ry

     iteration # 17     ecut=    50.00 Ry     beta= 0.70
     Davidson diagonalization with overlap
     ethr =  3.51E-07,  avg # of iterations =  2.0

     total cpu time spent up to now is      412.7 secs

     total energy              =   -2012.33096061 Ry
     estimated scf accuracy    <       0.00042801 Ry

     iteration # 18     ecut=    50.00 Ry     beta= 0.70
     Davidson diagonalization with overlap
     ethr =  3.51E-07,  avg # of iterations =  2.0

     total cpu time spent up to now is      415.3 secs

     total energy              =   -2012.33097323 Ry
     estimated scf accuracy    <       0.00010782 Ry

     iteration # 19     ecut=    50.00 Ry     beta= 0.70
     Davidson diagonalization with overlap
     ethr =  2.76E-07,  avg # of iterations =  1.0

     total cpu time spent up to now is      417.6 secs

     total energy              =   -2012.33095873 Ry
     estimated scf accuracy    <       0.00006484 Ry

     iteration # 20     ecut=    50.00 Ry     beta= 0.70
     Davidson diagonalization with overlap
     ethr =  1.66E-07,  avg # of iterations =  1.9

     total cpu time spent up to now is      420.2 secs

     total energy              =   -2012.33094963 Ry
     estimated scf accuracy    <       0.00002277 Ry

     iteration # 21     ecut=    50.00 Ry     beta= 0.70
     Davidson diagonalization with overlap
     ethr =  5.84E-08,  avg # of iterations =  2.2

     total cpu time spent up to now is      422.6 secs

     End of self-consistent calculation

          k = 0.0000 0.0000 0.0000 (  1935 PWs)   bands (ev):

  -173.1118-173.0763-173.0085-172.9785-172.9509 -34.0471  -1.9901  -1.8789
    -1.8073  11.9458  16.4210  16.4293  16.4549  16.5465  16.5909  16.6042
    16.6212  20.9742  22.3158  33.1769  35.1233  35.3107  35.8018  36.0716

          k =-0.0013-0.0013-0.7062 (  1936 PWs)   bands (ev):

  -173.1213-173.0480-173.0118-172.9789-172.9291 -33.7575  -4.9970  -1.6090
    -1.5434  16.1712  16.2695  16.4867  16.5003  16.5329  16.6669  16.7437
    17.7652  18.6904  25.2789  26.3601  28.9876  33.2994  36.1342  39.7389

          k =-0.0012-0.6881-0.7089 (  1956 PWs)   bands (ev):

  -173.1416-173.0629-173.0422-173.0094-172.9208 -33.5554  -4.4257  -3.9570
    -1.3182  14.7232  16.3051  16.3148  16.5182  16.5832  16.5990  16.6204
    16.7231  23.7852  25.6260  25.8872  30.6412  31.0397  38.2662  39.4485

          k =-0.7010-0.6874-0.7099 (  1904 PWs)   bands (ev):

  -173.0782-173.0309-172.9698-172.9394-172.8937 -33.3235  -3.9442  -3.6864
    -3.3916  15.7298  16.4806  16.4914  16.5769  16.5982  16.6228  16.6301
    17.4188  17.9650  19.8043  27.3230  38.4715  39.4477  39.9259  40.0600

          k =-0.6998 0.0006-0.0010 (  1936 PWs)   bands (ev):

  -173.1206-173.0490-173.0225-172.9711-172.9242 -33.7882  -4.8238  -1.6508
    -1.5295  15.7579  16.2201  16.4942  16.5073  16.5526  16.6694  16.7250
    16.9656  20.4183  24.9248  27.6023  29.2424  31.0595  36.1942  39.2458

          k = 0.0000-0.6868-0.0027 (  1936 PWs)   bands (ev):

  -173.0994-173.0779-173.0259-172.9934-172.8819 -33.8300  -4.6808  -1.6400
    -1.5561  16.0209  16.2010  16.4442  16.4812  16.5142  16.7092  16.7341
    17.4737  20.3396  24.7559  26.8211  29.2123  30.9023  36.4159  37.6654

          k =-0.6985 0.0019 0.7053 (  1956 PWs)   bands (ev):

  -173.1384-173.0606-173.0418-173.0117-172.9249 -33.5127  -4.4263  -4.1819
    -1.3220  15.6260  16.3075  16.3517  16.4789  16.4905  16.6078  16.6464
    16.7682  24.0050  24.8041  25.9125  29.3133  30.1788  37.5142  39.6689

          k =-0.6998 0.6874 0.0017 (  1956 PWs)   bands (ev):

  -173.1425-173.0617-173.0395-173.0116-172.9206 -33.5861  -4.2330  -3.9900
    -1.3097  14.5470  16.2652  16.3745  16.4498  16.5669  16.5735  16.6283
    16.7379  23.7338  24.3821  27.9901  30.7810  31.0342  37.8811  39.3319

     the Fermi energy is    27.0805 ev

!    total energy              =   -2012.33095437 Ry

     total all-electron energy =    -30159.942600 Ry
     estimated scf accuracy    <       0.00000039 Ry
     smearing contrib. (-TS)   =       0.00054178 Ry
     internal energy E=F+TS    =   -2012.33149615 Ry

     The total energy is F=E-TS. E is the sum of the following terms:
     one-electron contribution =   -1284.80354476 Ry
     hartree contribution      =     657.33387438 Ry
     xc contribution           =    -112.73714329 Ry
     ewald contribution        =    -775.59747667 Ry
     one-center paw contrib.   =    -496.52720582 Ry

     convergence has been achieved in  21 iterations

     Forces acting on atoms (cartesian axes, Ry/au):

     atom    1 type  1   force =    -0.03218199    0.00260034    0.00630309
     atom    2 type  2   force =     0.03832225   -0.02748927    0.00354946
     atom    3 type  2   force =     0.03696067    0.01243273    0.02199597
     atom    4 type  2   force =    -0.04310092    0.01245619   -0.03184852

     Total force =     0.091382     Total SCF correction =     0.001027


     Computing stress (Cartesian axis) and pressure

          total   stress  (Ry/bohr**3)                   (kbar)     P=     -157.89
  -0.00075057   0.00025556   0.00026437         -110.41       37.59       38.89
   0.00025556  -0.00257270  -0.00010873           37.59     -378.46      -15.99
   0.00026437  -0.00010873   0.00010333           38.89      -15.99       15.20

     Energy error            =      2.2E-02
     Gradient error          =      4.3E-02
     Cell gradient error     =      2.6E-03


     number of scf cycles    =   8
     number of bfgs steps    =   6

     enthalpy old            =   -2012.3087979345 Ry
     enthalpy new            =   -2012.3309543689 Ry

     CASE: enthalpy_new < enthalpy_old

     new trust radius        =       0.0456079969 bohr
     new conv_thr            =       0.0000004310 Ry

     new unit-cell volume =    118.76759 a.u.^3 (    17.59954 Ang^3 )
     density =     17.12608 g/cm^3

CELL_PARAMETERS (angstrom)
   2.626339152   0.018536847   0.000745091
   0.020429341   2.595137993  -0.014872028
   0.001924812  -0.020346989   2.582461918

ATOMIC_POSITIONS (angstrom)
Hf            0.4980718278        1.8377612166        0.4072599007
H             1.8601279118        0.6020934203        0.5167225754
H             1.5187618182        1.2411436457        1.6855179811
H             0.8143441918        0.3665023101        1.7985366599



     Writing output data file ./tmp/01_HfH3_Top1.save/
     NEW-OLD atomic charge density approx. for the potential
     extrapolated charge   38.82601, renormalised to   39.00000

     total cpu time spent up to now is      436.2 secs

     Self-consistent Calculation

     iteration #  1     ecut=    50.00 Ry     beta= 0.70
     Davidson diagonalization with overlap
     c_bands:  3 eigenvalues not converged
     ethr =  1.00E-06,  avg # of iterations = 11.5

     total cpu time spent up to now is      439.8 secs

     total energy              =   -2012.26840335 Ry
     estimated scf accuracy    <       0.04836265 Ry

     iteration #  2     ecut=    50.00 Ry     beta= 0.70
     Davidson diagonalization with overlap
     ethr =  1.24E-04,  avg # of iterations =  4.2

     total cpu time spent up to now is      442.5 secs

     total energy              =   -2012.31477116 Ry
     estimated scf accuracy    <       0.20454344 Ry

     iteration #  3     ecut=    50.00 Ry     beta= 0.70
     Davidson diagonalization with overlap
     ethr =  1.24E-04,  avg # of iterations =  3.0

     total cpu time spent up to now is      445.1 secs

     total energy              =   -2012.33212941 Ry
     estimated scf accuracy    <       0.01926772 Ry

     iteration #  4     ecut=    50.00 Ry     beta= 0.70
     Davidson diagonalization with overlap
     ethr =  4.94E-05,  avg # of iterations =  2.0

     total cpu time spent up to now is      447.6 secs

     total energy              =   -2012.33299685 Ry
     estimated scf accuracy    <       0.00394785 Ry

     iteration #  5     ecut=    50.00 Ry     beta= 0.70
     Davidson diagonalization with overlap
     ethr =  1.01E-05,  avg # of iterations =  2.0

     total cpu time spent up to now is      450.0 secs

     total energy              =   -2012.33331526 Ry
     estimated scf accuracy    <       0.00087423 Ry

     iteration #  6     ecut=    50.00 Ry     beta= 0.70
     Davidson diagonalization with overlap
     ethr =  2.24E-06,  avg # of iterations =  2.2

     total cpu time spent up to now is      452.5 secs

     total energy              =   -2012.33334112 Ry
     estimated scf accuracy    <       0.00013675 Ry

     iteration #  7     ecut=    50.00 Ry     beta= 0.70
     Davidson diagonalization with overlap
     ethr =  3.51E-07,  avg # of iterations =  3.0

     total cpu time spent up to now is      455.1 secs

     total energy              =   -2012.33338320 Ry
     estimated scf accuracy    <       0.00000124 Ry

     iteration #  8     ecut=    50.00 Ry     beta= 0.70
     Davidson diagonalization with overlap
     ethr =  3.17E-09,  avg # of iterations =  3.8

     total cpu time spent up to now is      457.7 secs

     total energy              =   -2012.33338356 Ry
     estimated scf accuracy    <       0.00000045 Ry

     iteration #  9     ecut=    50.00 Ry     beta= 0.70
     Davidson diagonalization with overlap
     ethr =  1.14E-09,  avg # of iterations =  2.0

     total cpu time spent up to now is      460.2 secs

     End of self-consistent calculation

          k = 0.0000 0.0000 0.0000 (  1935 PWs)   bands (ev):

  -172.9328-172.9194-172.8849-172.8713-172.8470 -33.9179  -1.8843  -1.7252
    -1.6446  12.0696  16.5619  16.5806  16.6002  16.6902  16.7138  16.7339
    16.7753  20.9216  22.4723  33.6377  35.1245  35.6075  35.8156  36.3699

          k = 0.0002-0.0040-0.7037 (  1936 PWs)   bands (ev):

  -172.9483-172.9063-172.8704-172.8574-172.8365 -33.6379  -4.8505  -1.5352
    -1.3121  16.3170  16.4083  16.6356  16.6425  16.6678  16.8066  16.8868
    17.8154  18.8290  25.3580  26.9770  28.8296  33.2882  36.3349  39.8178

          k = 0.0052-0.7043-0.7092 (  1956 PWs)   bands (ev):

  -172.9638-172.9281-172.9036-172.8832-172.8273 -33.3914  -4.2102  -3.9833
    -1.2526  14.8650  16.4330  16.4702  16.6518  16.7082  16.7419  16.7646
    16.8657  24.0128  25.7710  25.9202  30.3057  31.0801  38.1732  40.0140

          k =-0.6867-0.6989-0.7086 (  1904 PWs)   bands (ev):

  -172.8984-172.8775-172.8456-172.8305-172.7967 -33.1858  -3.7644  -3.4600
    -3.4257  15.8991  16.6279  16.6463  16.6985  16.7477  16.7547  16.7731
    17.5645  17.9802  19.8611  27.4109  38.7240  39.7372  40.1394  40.2628

          k =-0.6919 0.0055 0.0006 (  1936 PWs)   bands (ev):

  -172.9475-172.9057-172.8822-172.8722-172.8052 -33.6855  -4.6296  -1.4693
    -1.3729  15.9380  16.3619  16.6367  16.6535  16.6796  16.8083  16.8709
    17.0895  20.3271  25.0012  28.1126  29.3119  31.3009  36.5096  39.1165

          k = 0.0049-0.7003-0.0055 (  1936 PWs)   bands (ev):

  -172.9247-172.9177-172.8917-172.8817-172.8023 -33.6547  -4.6990  -1.5574
    -1.4303  16.1568  16.3252  16.5885  16.6375  16.6497  16.8534  16.8737
    17.7560  20.5787  24.9880  26.5503  29.1069  30.8218  36.3789  38.2539

          k =-0.6921 0.0095 0.7042 (  1956 PWs)   bands (ev):

  -172.9602-172.9297-172.9054-172.8820-172.8281 -33.4186  -4.3166  -3.9974
    -1.0677  15.7365  16.4431  16.4804  16.6255  16.6392  16.7234  16.7833
    16.9125  24.1673  24.8572  25.9683  29.8892  30.7541  37.9344  39.5756

          k =-0.6969 0.7057 0.0061 (  1956 PWs)   bands (ev):

  -172.9649-172.9295-172.9028-172.8829-172.8249 -33.4383  -4.0611  -3.9466
    -1.1999  14.6562  16.4226  16.4988  16.5895  16.6990  16.7228  16.7725
    16.8772  23.8876  24.5941  27.9580  30.7480  31.1017  37.9811  39.6928

     the Fermi energy is    27.1930 ev

!    total energy              =   -2012.33338360 Ry

     total all-electron energy =    -30159.945029 Ry
     estimated scf accuracy    <       0.00000002 Ry
     smearing contrib. (-TS)   =       0.00023349 Ry
     internal energy E=F+TS    =   -2012.33361709 Ry

     The total energy is F=E-TS. E is the sum of the following terms:
     one-electron contribution =   -1282.73964198 Ry
     hartree contribution      =     656.48105068 Ry
     xc contribution           =    -112.74380951 Ry
     ewald contribution        =    -776.80975351 Ry
     one-center paw contrib.   =    -496.52146278 Ry

     convergence has been achieved in   9 iterations

     Forces acting on atoms (cartesian axes, Ry/au):

     atom    1 type  1   force =    -0.02044153   -0.00038425    0.01533472
     atom    2 type  2   force =     0.02657765   -0.02264170   -0.00103567
     atom    3 type  2   force =     0.03237211    0.01654300    0.01330896
     atom    4 type  2   force =    -0.03850823    0.00648295   -0.02760801

     Total force =     0.075227     Total SCF correction =     0.000227


     Computing stress (Cartesian axis) and pressure

          total   stress  (Ry/bohr**3)                   (kbar)     P=      -62.74
  -0.00239538  -0.00087954  -0.00008869         -352.37     -129.38      -13.05
  -0.00087954   0.00162764   0.00064513         -129.38      239.43       94.90
  -0.00008869   0.00064513  -0.00051182          -13.05       94.90      -75.29

     Energy error            =      2.4E-03
     Gradient error          =      3.9E-02
     Cell gradient error     =      2.4E-03


     number of scf cycles    =   9
     number of bfgs steps    =   7

     enthalpy old            =   -2012.3309543689 Ry
     enthalpy new            =   -2012.3333836011 Ry

     CASE: enthalpy_new < enthalpy_old

     new trust radius        =       0.0497637991 bohr
     new conv_thr            =       0.0000002429 Ry

     new unit-cell volume =    117.75387 a.u.^3 (    17.44932 Ang^3 )
     density =     17.27351 g/cm^3

CELL_PARAMETERS (angstrom)
   2.593757610   0.009939575   0.001438006
   0.012098389   2.608452133  -0.004208516
   0.002682843  -0.009582008   2.579151840

ATOMIC_POSITIONS (angstrom)
Hf            0.4725761565        1.8485586102        0.4186996716
H             1.8518248347        0.5872570620        0.5211527414
H             1.5143284672        1.2568738643        1.6976205851
H             0.7831142779        0.3788112623        1.7827541935



     Writing output data file ./tmp/01_HfH3_Top1.save/
     NEW-OLD atomic charge density approx. for the potential
     extrapolated charge   38.66427, renormalised to   39.00000

     total cpu time spent up to now is      473.6 secs

     Self-consistent Calculation

     iteration #  1     ecut=    50.00 Ry     beta= 0.70
     Davidson diagonalization with overlap
     ethr =  1.00E-06,  avg # of iterations =  9.6

     total cpu time spent up to now is      477.1 secs

     total energy              =   -2012.12472016 Ry
     estimated scf accuracy    <       0.14867162 Ry

     iteration #  2     ecut=    50.00 Ry     beta= 0.70
     Davidson diagonalization with overlap
     ethr =  3.81E-04,  avg # of iterations =  4.4

     total cpu time spent up to now is      479.8 secs

     total energy              =   -2012.26220731 Ry
     estimated scf accuracy    <       0.83190644 Ry

     iteration #  3     ecut=    50.00 Ry     beta= 0.70
     Davidson diagonalization with overlap
     ethr =  3.81E-04,  avg # of iterations =  3.0

     total cpu time spent up to now is      482.4 secs

     total energy              =   -2012.34192388 Ry
     estimated scf accuracy    <       0.05926364 Ry

     iteration #  4     ecut=    50.00 Ry     beta= 0.70
     Davidson diagonalization with overlap
     ethr =  1.52E-04,  avg # of iterations =  1.5

     total cpu time spent up to now is      484.8 secs

     total energy              =   -2012.34020907 Ry
     estimated scf accuracy    <       0.01618864 Ry

     iteration #  5     ecut=    50.00 Ry     beta= 0.70
     Davidson diagonalization with overlap
     ethr =  4.15E-05,  avg # of iterations =  2.4

     total cpu time spent up to now is      487.3 secs

     total energy              =   -2012.34160078 Ry
     estimated scf accuracy    <       0.00306052 Ry

     iteration #  6     ecut=    50.00 Ry     beta= 0.70
     Davidson diagonalization with overlap
     ethr =  7.85E-06,  avg # of iterations =  2.0

     total cpu time spent up to now is      489.7 secs

     total energy              =   -2012.34126230 Ry
     estimated scf accuracy    <       0.00132663 Ry

     iteration #  7     ecut=    50.00 Ry     beta= 0.70
     Davidson diagonalization with overlap
     ethr =  3.40E-06,  avg # of iterations =  2.9

     total cpu time spent up to now is      492.3 secs

     total energy              =   -2012.34137555 Ry
     estimated scf accuracy    <       0.00015210 Ry

     iteration #  8     ecut=    50.00 Ry     beta= 0.70
     Davidson diagonalization with overlap
     ethr =  3.90E-07,  avg # of iterations =  2.9

     total cpu time spent up to now is      494.8 secs

     total energy              =   -2012.34141380 Ry
     estimated scf accuracy    <       0.00000227 Ry

     iteration #  9     ecut=    50.00 Ry     beta= 0.70
     Davidson diagonalization with overlap
     ethr =  5.83E-09,  avg # of iterations =  4.0

     total cpu time spent up to now is      497.5 secs

     End of self-consistent calculation

          k = 0.0000 0.0000 0.0000 (  1935 PWs)   bands (ev):

  -172.7103-172.6759-172.6460-172.6192-172.5949 -33.6820  -1.5474  -1.4699
    -1.4453  12.2802  16.8221  16.8337  16.8489  16.9474  16.9775  17.0004
    17.0252  21.1975  22.5814  34.0035  35.6315  35.8606  36.1178  36.4856

          k = 0.0004-0.0011-0.7045 (  1936 PWs)   bands (ev):

  -172.7218-172.6483-172.6406-172.6262-172.5742 -33.3985  -4.6199  -1.1966
    -1.1166  16.5689  16.6587  16.8912  16.8973  16.9224  17.0679  17.1490
    18.0368  19.1307  25.5900  27.0032  29.2895  33.4714  36.6926  40.1433

          k = 0.0031-0.6978-0.7071 (  1956 PWs)   bands (ev):

  -172.7390-172.6774-172.6592-172.6448-172.5709 -33.1633  -3.9894  -3.7305
    -0.9254  15.1025  16.6833  16.7144  16.9003  16.9766  16.9988  17.0220
    17.1253  24.3604  25.8872  26.1883  30.8354  31.3686  38.7582  40.1372

          k =-0.6975-0.6945-0.7064 (  1904 PWs)   bands (ev):

  -172.6788-172.6312-172.6120-172.5862-172.5459 -32.9280  -3.4982  -3.3154
    -3.1511  16.1841  16.8871  16.8924  16.9645  17.0019  17.0167  17.0323
    17.8798  18.1772  19.8864  27.5789  39.2797  40.1057  40.5118  40.7667

          k =-0.7006 0.0033 0.0007 (  1936 PWs)   bands (ev):

  -172.7214-172.6603-172.6459-172.6092-172.5727 -33.4180  -4.5110  -1.1863
    -1.1458  16.2588  16.6042  16.9009  16.9075  16.9453  17.0710  17.1313
    17.4553  20.4723  25.3594  27.9862  29.4671  31.4547  36.7579  39.7172

          k = 0.0027-0.6966-0.0026 (  1936 PWs)   bands (ev):

  -172.6994-172.6734-172.6607-172.6317-172.5419 -33.4305  -4.4446  -1.2306
    -1.1813  16.4273  16.5801  16.8496  16.8811  16.9100  17.1127  17.1379
    17.9726  20.7452  25.1744  26.8619  29.4274  31.3195  36.8145  38.3912

          k =-0.7010 0.0044 0.7053 (  1956 PWs)   bands (ev):

  -172.7358-172.6773-172.6564-172.6474-172.5748 -33.1489  -4.0317  -3.8714
    -0.8422  15.9306  16.6859  16.7401  16.8822  16.8890  16.9696  17.0461
    17.1738  24.4356  25.2345  26.1593  30.1509  30.7187  37.9549  40.1559

          k =-0.7033 0.6999 0.0033 (  1956 PWs)   bands (ev):

  -172.7395-172.6736-172.6588-172.6482-172.5708 -33.1831  -3.8508  -3.7444
    -0.9251  14.8628  16.6672  16.7664  16.8443  16.9628  16.9699  17.0300
    17.1423  24.2951  24.8418  28.0247  31.0822  31.2209  38.2896  40.0855

     the Fermi energy is    27.2364 ev

!    total energy              =   -2012.34141507 Ry

     total all-electron energy =    -30159.953061 Ry
     estimated scf accuracy    <       0.00000007 Ry
     smearing contrib. (-TS)   =       0.00077554 Ry
     internal energy E=F+TS    =   -2012.34219061 Ry

     The total energy is F=E-TS. E is the sum of the following terms:
     one-electron contribution =   -1278.62348339 Ry
     hartree contribution      =     654.77360452 Ry
     xc contribution           =    -112.75729637 Ry
     ewald contribution        =    -779.22214027 Ry
     one-center paw contrib.   =    -496.51287510 Ry

     convergence has been achieved in   9 iterations

     Forces acting on atoms (cartesian axes, Ry/au):

     atom    1 type  1   force =    -0.00189159   -0.00610534    0.00899432
     atom    2 type  2   force =     0.01388268   -0.01192155   -0.00050346
     atom    3 type  2   force =     0.02489245    0.01508419    0.01128351
     atom    4 type  2   force =    -0.03688355    0.00294271   -0.01977437

     Total force =     0.056493     Total SCF correction =     0.000803


     Computing stress (Cartesian axis) and pressure

          total   stress  (Ry/bohr**3)                   (kbar)     P=      118.86
   0.00082284  -0.00046558  -0.00012753          121.04      -68.49      -18.76
  -0.00046558   0.00135730   0.00011950          -68.49      199.67       17.58
  -0.00012753   0.00011950   0.00024374          -18.76       17.58       35.86

     Energy error            =      8.0E-03
     Gradient error          =      3.7E-02
     Cell gradient error     =      1.4E-03


     number of scf cycles    =  10
     number of bfgs steps    =   8

     enthalpy old            =   -2012.3333836011 Ry
     enthalpy new            =   -2012.3414150736 Ry

     CASE: enthalpy_new < enthalpy_old

     new trust radius        =       0.0937322601 bohr
     new conv_thr            =       0.0000003688 Ry

     new unit-cell volume =    117.99638 a.u.^3 (    17.48526 Ang^3 )
     density =     17.23801 g/cm^3

CELL_PARAMETERS (angstrom)
   2.599731854  -0.018263222   0.000680035
  -0.015884197   2.619411691   0.003775283
   0.001974763  -0.001565400   2.567780967

ATOMIC_POSITIONS (angstrom)
Hf            0.4357201742        1.8518284669        0.4341523001
H             1.8753994775        0.5488078008        0.5229722376
H             1.5362459173        1.2648317356        1.7066999838
H             0.7401900542        0.3868865031        1.7480116281



     Writing output data file ./tmp/01_HfH3_Top1.save/
     NEW-OLD atomic charge density approx. for the potential
     extrapolated charge   39.08015, renormalised to   39.00000

     total cpu time spent up to now is      511.1 secs

     Self-consistent Calculation

     iteration #  1     ecut=    50.00 Ry     beta= 0.70
     Davidson diagonalization with overlap
     ethr =  1.00E-06,  avg # of iterations = 11.8

     total cpu time spent up to now is      514.7 secs

     total energy              =   -2012.32949876 Ry
     estimated scf accuracy    <       0.01500088 Ry

     iteration #  2     ecut=    50.00 Ry     beta= 0.70
     Davidson diagonalization with overlap
     ethr =  3.85E-05,  avg # of iterations =  3.0

     total cpu time spent up to now is      517.4 secs

     total energy              =   -2012.34092505 Ry
     estimated scf accuracy    <       0.03608739 Ry

     iteration #  3     ecut=    50.00 Ry     beta= 0.70
     Davidson diagonalization with overlap
     ethr =  3.85E-05,  avg # of iterations =  2.4

     total cpu time spent up to now is      519.9 secs

     total energy              =   -2012.34562393 Ry
     estimated scf accuracy    <       0.00335282 Ry

     iteration #  4     ecut=    50.00 Ry     beta= 0.70
     Davidson diagonalization with overlap
     ethr =  8.60E-06,  avg # of iterations =  2.0

     total cpu time spent up to now is      522.4 secs

     total energy              =   -2012.34661560 Ry
     estimated scf accuracy    <       0.00045611 Ry

     iteration #  5     ecut=    50.00 Ry     beta= 0.70
     Davidson diagonalization with overlap
     ethr =  1.17E-06,  avg # of iterations =  4.0

     total cpu time spent up to now is      524.9 secs

     total energy              =   -2012.34662476 Ry
     estimated scf accuracy    <       0.00015966 Ry

     iteration #  6     ecut=    50.00 Ry     beta= 0.70
     Davidson diagonalization with overlap
     ethr =  4.09E-07,  avg # of iterations =  2.0

     total cpu time spent up to now is      527.4 secs

     total energy              =   -2012.34662992 Ry
     estimated scf accuracy    <       0.00002049 Ry

     iteration #  7     ecut=    50.00 Ry     beta= 0.70
     Davidson diagonalization with overlap
     ethr =  5.25E-08,  avg # of iterations =  3.0

     total cpu time spent up to now is      530.1 secs

     total energy              =   -2012.34663795 Ry
     estimated scf accuracy    <       0.00000074 Ry

     iteration #  8     ecut=    50.00 Ry     beta= 0.70
     Davidson diagonalization with overlap
     ethr =  1.90E-09,  avg # of iterations =  2.0

     total cpu time spent up to now is      532.5 secs

     total energy              =   -2012.34663764 Ry
     estimated scf accuracy    <       0.00000074 Ry

     iteration #  9     ecut=    50.00 Ry     beta= 0.70
     Davidson diagonalization with overlap
     ethr =  1.89E-09,  avg # of iterations =  2.0

     total cpu time spent up to now is      535.0 secs

     End of self-consistent calculation

          k = 0.0000 0.0000 0.0000 (  1935 PWs)   bands (ev):

  -172.7988-172.7716-172.7026-172.6975-172.6633 -33.7596  -1.6211  -1.5903
    -1.4790  12.2841  16.7349  16.7580  16.7686  16.8633  16.8894  16.9288
    16.9361  21.2316  22.3363  33.9865  35.7922  35.8447  36.0299  36.0686

          k = 0.0002 0.0010-0.7077 (  1936 PWs)   bands (ev):

  -172.8102-172.7454-172.7113-172.6899-172.6420 -33.4654  -4.6947  -1.2875
    -1.2262  16.4898  16.5706  16.8095  16.8154  16.8341  16.9895  17.0641
    18.0365  19.2537  25.5602  26.7730  29.1563  33.0524  36.5095  40.2544

          k =-0.0047-0.6927-0.7081 (  1956 PWs)   bands (ev):

  -172.8262-172.7722-172.7261-172.7134-172.6421 -33.2399  -4.0792  -3.7735
    -1.0209  15.1471  16.6077  16.6356  16.8135  16.8944  16.9100  16.9433
    17.0395  24.3906  25.6845  26.1259  30.8274  31.0327  38.8540  40.0502

          k =-0.7037-0.6970-0.7075 (  1904 PWs)   bands (ev):

  -172.7680-172.7308-172.6658-172.6589-172.6139 -33.0104  -3.5901  -3.3711
    -3.2072  16.1726  16.8038  16.8162  16.8805  16.9096  16.9411  16.9455
    17.8248  18.2431  19.7048  27.5372  39.4942  39.7573  40.3760  40.5325

          k =-0.6990-0.0042 0.0005 (  1936 PWs)   bands (ev):

  -172.8081-172.7593-172.6980-172.6878-172.6431 -33.5017  -4.5595  -1.2826
    -1.1993  16.3007  16.5218  16.8157  16.8262  16.8642  16.9961  17.0435
    17.5115  20.1385  25.3180  27.7067  29.5760  31.4084  36.7065  39.6071

          k =-0.0049-0.6937-0.0004 (  1936 PWs)   bands (ev):

  -172.7899-172.7723-172.7133-172.7063-172.6109 -33.5178  -4.4965  -1.3266
    -1.2126  16.3883  16.4999  16.7746  16.8027  16.8298  17.0266  17.0548
    17.9135  20.6546  25.0690  26.7413  29.5070  31.3834  36.8077  38.1866

          k =-0.6992-0.0053 0.7082 (  1956 PWs)   bands (ev):

  -172.8238-172.7705-172.7284-172.7116-172.6459 -33.2222  -4.1112  -3.9070
    -0.9605  15.9288  16.6039  16.6536  16.8053  16.8126  16.8985  16.9651
    17.0862  24.1940  25.3046  26.0075  30.1044  30.6008  37.7199  40.1328

          k =-0.6941 0.6895 0.0010 (  1956 PWs)   bands (ev):

  -172.8275-172.7701-172.7303-172.7093-172.6416 -33.2759  -3.9281  -3.8065
    -0.9575  14.9263  16.5879  16.6920  16.7675  16.8710  16.8929  16.9474
    17.0613  24.4077  24.7343  27.5874  31.0732  31.3153  38.4462  39.8314

     the Fermi energy is    27.3429 ev

!    total energy              =   -2012.34663774 Ry

     total all-electron energy =    -30159.958283 Ry
     estimated scf accuracy    <       0.00000002 Ry
     smearing contrib. (-TS)   =       0.00062055 Ry
     internal energy E=F+TS    =   -2012.34725829 Ry

     The total energy is F=E-TS. E is the sum of the following terms:
     one-electron contribution =   -1279.41847561 Ry
     hartree contribution      =     655.04566600 Ry
     xc contribution           =    -112.74213689 Ry
     ewald contribution        =    -778.72531913 Ry
     one-center paw contrib.   =    -496.50699266 Ry

     convergence has been achieved in   9 iterations

     Forces acting on atoms (cartesian axes, Ry/au):

     atom    1 type  1   force =     0.00967575   -0.00470756    0.00150749
     atom    2 type  2   force =    -0.00222472    0.00000186   -0.00458605
     atom    3 type  2   force =     0.01861248    0.00882398    0.00913157
     atom    4 type  2   force =    -0.02606351   -0.00411828   -0.00605300

     Total force =     0.037210     Total SCF correction =     0.000107


     Computing stress (Cartesian axis) and pressure

          total   stress  (Ry/bohr**3)                   (kbar)     P=       51.88
   0.00044086   0.00089439  -0.00007748           64.85      131.57      -11.40
   0.00089439   0.00007137  -0.00015428          131.57       10.50      -22.69
  -0.00007748  -0.00015428   0.00054573          -11.40      -22.69       80.28

     Energy error            =      5.2E-03
     Gradient error          =      2.6E-02
     Cell gradient error     =      8.9E-04


     number of scf cycles    =  11
     number of bfgs steps    =   9

     enthalpy old            =   -2012.3414150736 Ry
     enthalpy new            =   -2012.3466377430 Ry

     CASE: enthalpy_new < enthalpy_old

     new trust radius        =       0.0819251498 bohr
     new conv_thr            =       0.0000002606 Ry

     new unit-cell volume =    118.38606 a.u.^3 (    17.54300 Ang^3 )
     density =     17.18127 g/cm^3

CELL_PARAMETERS (angstrom)
   2.594681934   0.005251511  -0.005275060
   0.007648116   2.628243855   0.008780517
  -0.003979922   0.003463592   2.572527662

ATOMIC_POSITIONS (angstrom)
Hf            0.4393164439        1.8613785799        0.4473971449
H             1.8938744713        0.5519304431        0.5215178745
H             1.5701089829        1.2991333765        1.7204156711
H             0.7018089524        0.4040090557        1.7279006821



     Writing output data file ./tmp/01_HfH3_Top1.save/
     NEW-OLD atomic charge density approx. for the potential
     extrapolated charge   39.12837, renormalised to   39.00000

     total cpu time spent up to now is      548.6 secs

     Self-consistent Calculation

     iteration #  1     ecut=    50.00 Ry     beta= 0.70
     Davidson diagonalization with overlap
     ethr =  1.00E-06,  avg # of iterations = 11.8

     total cpu time spent up to now is      552.2 secs

     total energy              =   -2012.30847796 Ry
     estimated scf accuracy    <       0.03042393 Ry

     iteration #  2     ecut=    50.00 Ry     beta= 0.70
     Davidson diagonalization with overlap
     ethr =  7.80E-05,  avg # of iterations =  3.5

     total cpu time spent up to now is      554.8 secs

     total energy              =   -2012.33996019 Ry
     estimated scf accuracy    <       0.10430844 Ry

     iteration #  3     ecut=    50.00 Ry     beta= 0.70
     Davidson diagonalization with overlap
     ethr =  7.80E-05,  avg # of iterations =  2.5

     total cpu time spent up to now is      557.3 secs

     total energy              =   -2012.34572433 Ry
     estimated scf accuracy    <       0.01361479 Ry

     iteration #  4     ecut=    50.00 Ry     beta= 0.70
     Davidson diagonalization with overlap
     ethr =  3.49E-05,  avg # of iterations =  2.0

     total cpu time spent up to now is      559.8 secs

     total energy              =   -2012.34783290 Ry
     estimated scf accuracy    <       0.00119085 Ry

     iteration #  5     ecut=    50.00 Ry     beta= 0.70
     Davidson diagonalization with overlap
     ethr =  3.05E-06,  avg # of iterations =  3.9

     total cpu time spent up to now is      562.3 secs

     total energy              =   -2012.34797049 Ry
     estimated scf accuracy    <       0.00022922 Ry

     iteration #  6     ecut=    50.00 Ry     beta= 0.70
     Davidson diagonalization with overlap
     ethr =  5.88E-07,  avg # of iterations =  2.0

     total cpu time spent up to now is      564.7 secs

     total energy              =   -2012.34797953 Ry
     estimated scf accuracy    <       0.00004485 Ry

     iteration #  7     ecut=    50.00 Ry     beta= 0.70
     Davidson diagonalization with overlap
     ethr =  1.15E-07,  avg # of iterations =  2.0

     total cpu time spent up to now is      567.2 secs

     total energy              =   -2012.34798504 Ry
     estimated scf accuracy    <       0.00000453 Ry

     iteration #  8     ecut=    50.00 Ry     beta= 0.70
     Davidson diagonalization with overlap
     ethr =  1.16E-08,  avg # of iterations =  3.0

     total cpu time spent up to now is      569.8 secs

     End of self-consistent calculation

          k = 0.0000 0.0000 0.0000 (  1935 PWs)   bands (ev):

  -172.9114-172.8723-172.8233-172.8041-172.7756 -33.8695  -1.7408  -1.6946
    -1.6030  12.2927  16.6243  16.6398  16.6488  16.7499  16.7754  16.8120
    16.8181  21.1832  22.1061  34.1104  35.5760  35.7347  35.8501  35.9870

          k =-0.0014 0.0024-0.7064 (  1936 PWs)   bands (ev):

  -172.9214-172.8462-172.8230-172.8060-172.7545 -33.5816  -4.7679  -1.3900
    -1.3668  16.3862  16.4565  16.6874  16.7031  16.7163  16.8715  16.9466
    17.9622  19.3254  25.4244  26.6449  29.1210  32.6622  36.4000  40.1070

          k =-0.0000-0.6890-0.7054 (  1956 PWs)   bands (ev):

  -172.9400-172.8648-172.8487-172.8318-172.7486 -33.3633  -4.1706  -3.8670
    -1.1273  15.2343  16.4961  16.5204  16.6901  16.7798  16.7958  16.8232
    16.9225  24.2996  25.5221  25.9081  30.8286  30.9219  38.9432  39.8031

          k =-0.7004-0.6870-0.7065 (  1904 PWs)   bands (ev):

  -172.8793-172.8278-172.7872-172.7683-172.7228 -33.1290  -3.6702  -3.5121
    -3.2982  16.1757  16.6891  16.6965  16.7680  16.8001  16.8194  16.8249
    17.9683  18.1914  19.3154  27.5474  39.2781  39.6707  40.1861  40.3907

          k =-0.7003 0.0020-0.0011 (  1936 PWs)   bands (ev):

  -172.9208-172.8495-172.8330-172.7942-172.7515 -33.6070  -4.6763  -1.4095
    -1.3191  16.2797  16.4044  16.7039  16.7103  16.7503  16.8785  16.9271
    17.6504  19.8138  25.2341  27.4194  29.4527  31.3244  36.5540  39.6007

          k = 0.0014-0.6914 0.0009 (  1936 PWs)   bands (ev):

  -172.8999-172.8729-172.8389-172.8170-172.7147 -33.6356  -4.5733  -1.4269
    -1.3425  16.3258  16.3917  16.6592  16.6815  16.7162  16.9104  16.9374
    17.8774  20.5230  24.9762  26.6700  29.4137  31.3409  36.6982  37.9423

          k =-0.6989-0.0003 0.7053 (  1956 PWs)   bands (ev):

  -172.9370-172.8635-172.8464-172.8347-172.7528 -33.3338  -4.1758  -4.0356
    -1.0965  15.9534  16.4850  16.5361  16.6865  16.6957  16.7963  16.8489
    16.9690  23.8962  25.1761  26.0719  30.0889  30.3821  37.5437  40.0336

          k =-0.7017 0.6934-0.0020 (  1956 PWs)   bands (ev):

  -172.9408-172.8622-172.8459-172.8356-172.7485 -33.3887  -4.0543  -3.8921
    -1.0836  14.9948  16.4722  16.5855  16.6545  16.7633  16.7695  16.8292
    16.9442  24.3227  24.8095  27.0965  31.0243  31.0992  38.4728  39.6818

     the Fermi energy is    26.8845 ev

!    total energy              =   -2012.34798669 Ry

     total all-electron energy =    -30159.959632 Ry
     estimated scf accuracy    <       0.00000005 Ry
     smearing contrib. (-TS)   =       0.00047474 Ry
     internal energy E=F+TS    =   -2012.34846142 Ry

     The total energy is F=E-TS. E is the sum of the following terms:
     one-electron contribution =   -1280.92410657 Ry
     hartree contribution      =     655.63508806 Ry
     xc contribution           =    -112.73272236 Ry
     ewald contribution        =    -777.82938334 Ry
     one-center paw contrib.   =    -496.49733722 Ry

     convergence has been achieved in   8 iterations

     Forces acting on atoms (cartesian axes, Ry/au):

     atom    1 type  1   force =     0.02791790   -0.01346451   -0.01071714
     atom    2 type  2   force =    -0.01860423    0.01325161   -0.00655436
     atom    3 type  2   force =     0.00883899    0.00787113    0.00882429
     atom    4 type  2   force =    -0.01815267   -0.00765823    0.00844721

     Total force =     0.048143     Total SCF correction =     0.000773


     Computing stress (Cartesian axis) and pressure

          total   stress  (Ry/bohr**3)                   (kbar)     P=       -2.70
   0.00074340  -0.00073936   0.00022793          109.36     -108.76       33.53
  -0.00073936  -0.00073706  -0.00032999         -108.76     -108.43      -48.54
   0.00022793  -0.00032999  -0.00006140           33.53      -48.54       -9.03

     Energy error            =      1.3E-03
     Gradient error          =      2.8E-02
     Cell gradient error     =      7.4E-04


     number of scf cycles    =  12
     number of bfgs steps    =  10

     enthalpy old            =   -2012.3466377430 Ry
     enthalpy new            =   -2012.3479866868 Ry

     CASE: enthalpy_new < enthalpy_old

     new trust radius        =       0.0123747073 bohr
     new conv_thr            =       0.0000001349 Ry

     new unit-cell volume =    118.35138 a.u.^3 (    17.53786 Ang^3 )
     density =     17.18630 g/cm^3

CELL_PARAMETERS (angstrom)
   2.603218197  -0.005579175  -0.002574444
  -0.002936794   2.618801274   0.005058751
  -0.001132024  -0.000316339   2.572555361

ATOMIC_POSITIONS (angstrom)
Hf            0.4392667156        1.8495127417        0.4437277720
H             1.8952955586        0.5432930485        0.5210388076
H             1.5758023249        1.2879295005        1.7227291527
H             0.6982460311        0.3952963326        1.7287633919



     Writing output data file ./tmp/01_HfH3_Top1.save/
     NEW-OLD atomic charge density approx. for the potential
     extrapolated charge   38.98857, renormalised to   39.00000

     total cpu time spent up to now is      583.3 secs

     Self-consistent Calculation

     iteration #  1     ecut=    50.00 Ry     beta= 0.70
     Davidson diagonalization with overlap
     ethr =  1.00E-06,  avg # of iterations =  9.5

     total cpu time spent up to now is      586.5 secs

     total energy              =   -2012.34891561 Ry
     estimated scf accuracy    <       0.00080916 Ry

     iteration #  2     ecut=    50.00 Ry     beta= 0.70
     Davidson diagonalization with overlap
     ethr =  2.07E-06,  avg # of iterations =  3.0

     total cpu time spent up to now is      589.2 secs

     total energy              =   -2012.34935415 Ry
     estimated scf accuracy    <       0.00100762 Ry

     iteration #  3     ecut=    50.00 Ry     beta= 0.70
     Davidson diagonalization with overlap
     ethr =  2.07E-06,  avg # of iterations =  2.0

     total cpu time spent up to now is      591.7 secs

     total energy              =   -2012.34961729 Ry
     estimated scf accuracy    <       0.00008849 Ry

     iteration #  4     ecut=    50.00 Ry     beta= 0.70
     Davidson diagonalization with overlap
     ethr =  2.27E-07,  avg # of iterations =  2.0

     total cpu time spent up to now is      594.1 secs

     total energy              =   -2012.34965724 Ry
     estimated scf accuracy    <       0.00006265 Ry

     iteration #  5     ecut=    50.00 Ry     beta= 0.70
     Davidson diagonalization with overlap
     ethr =  1.61E-07,  avg # of iterations =  1.0

     total cpu time spent up to now is      596.5 secs

     total energy              =   -2012.34966979 Ry
     estimated scf accuracy    <       0.00003324 Ry

     iteration #  6     ecut=    50.00 Ry     beta= 0.70
     Davidson diagonalization with overlap
     ethr =  8.52E-08,  avg # of iterations =  2.0

     total cpu time spent up to now is      599.0 secs

     total energy              =   -2012.34967153 Ry
     estimated scf accuracy    <       0.00000328 Ry

     iteration #  7     ecut=    50.00 Ry     beta= 0.70
     Davidson diagonalization with overlap
     ethr =  8.40E-09,  avg # of iterations =  2.8

     total cpu time spent up to now is      601.5 secs

     End of self-consistent calculation

          k = 0.0000 0.0000 0.0000 (  1935 PWs)   bands (ev):

  -172.8967-172.8644-172.8139-172.8060-172.7759 -33.8637  -1.7259  -1.6905
    -1.6021  12.3075  16.6288  16.6496  16.6579  16.7560  16.7814  16.8172
    16.8264  21.1390  22.1052  34.1552  35.7236  35.8046  35.8520  35.9592

          k =-0.0007 0.0014-0.7063 (  1936 PWs)   bands (ev):

  -172.9081-172.8373-172.8220-172.7980-172.7559 -33.5754  -4.7709  -1.3983
    -1.3406  16.3973  16.4578  16.6963  16.7101  16.7257  16.8798  16.9520
    17.9741  19.3559  25.4326  26.6912  29.0509  32.6077  36.4180  40.1075

          k =-0.0022-0.6925-0.7064 (  1956 PWs)   bands (ev):

  -172.9257-172.8643-172.8360-172.8267-172.7516 -33.3492  -4.1579  -3.8862
    -1.1371  15.2304  16.5022  16.5317  16.6963  16.7811  16.8001  16.8324
    16.9310  24.3222  25.5628  25.8895  30.7433  30.8644  38.9102  39.9118

          k =-0.7002-0.6933-0.7067 (  1904 PWs)   bands (ev):

  -172.8641-172.8207-172.7778-172.7691-172.7249 -33.1229  -3.6697  -3.4647
    -3.3292  16.1810  16.6964  16.7086  16.7710  16.8039  16.8282  16.8317
    17.8914  18.1990  19.3692  27.6176  39.4113  39.6682  40.1500  40.4023

          k =-0.6980-0.0008-0.0003 (  1936 PWs)   bands (ev):

  -172.9068-172.8510-172.8129-172.7977-172.7498 -33.6095  -4.6413  -1.3825
    -1.3256  16.2950  16.4143  16.7079  16.7183  16.7523  16.8852  16.9351
    17.6082  19.8219  25.2079  27.5672  29.4798  31.2998  36.5929  39.5486

          k =-0.0015-0.6939-0.0001 (  1936 PWs)   bands (ev):

  -172.8859-172.8654-172.8265-172.8176-172.7200 -33.6214  -4.5945  -1.4355
    -1.3338  16.3282  16.3919  16.6681  16.6933  16.7218  16.9189  16.9422
    17.9041  20.5672  24.9883  26.6808  29.3886  31.1692  36.6748  38.0714

          k =-0.6973-0.0021 0.7060 (  1956 PWs)   bands (ev):

  -172.9228-172.8632-172.8386-172.8246-172.7552 -33.3357  -4.1917  -4.0003
    -1.0699  15.9749  16.4957  16.5374  16.6962  16.7052  16.8071  16.8554
    16.9753  23.9511  25.1226  25.9992  30.1356  30.5090  37.6857  39.9479

          k =-0.6965 0.6931-0.0002 (  1956 PWs)   bands (ev):

  -172.9268-172.8617-172.8400-172.8237-172.7509 -33.3828  -4.0093  -3.9252
    -1.0811  15.0316  16.4814  16.5842  16.6610  16.7668  16.7818  16.8371
    16.9491  24.3116  24.7768  27.1101  30.9849  31.1318  38.5062  39.7080

     the Fermi energy is    26.9041 ev

!    total energy              =   -2012.34967249 Ry

     total all-electron energy =    -30159.961318 Ry
     estimated scf accuracy    <       0.00000002 Ry
     smearing contrib. (-TS)   =       0.00029856 Ry
     internal energy E=F+TS    =   -2012.34997105 Ry

     The total energy is F=E-TS. E is the sum of the following terms:
     one-electron contribution =   -1280.84233184 Ry
     hartree contribution      =     655.60069879 Ry
     xc contribution           =    -112.73394275 Ry
     ewald contribution        =    -777.87903660 Ry
     one-center paw contrib.   =    -496.49535865 Ry

     convergence has been achieved in   7 iterations

     Forces acting on atoms (cartesian axes, Ry/au):

     atom    1 type  1   force =     0.01923408   -0.01000325   -0.00714034
     atom    2 type  2   force =    -0.01377438    0.00697165   -0.00661956
     atom    3 type  2   force =     0.00976472    0.00925582    0.00537774
     atom    4 type  2   force =    -0.01522443   -0.00622422    0.00838216

     Total force =     0.036795     Total SCF correction =     0.000937


     Computing stress (Cartesian axis) and pressure

          total   stress  (Ry/bohr**3)                   (kbar)     P=       11.33
   0.00019868  -0.00004375   0.00007570           29.23       -6.44       11.14
  -0.00004375  -0.00003136  -0.00006192           -6.44       -4.61       -9.11
   0.00007570  -0.00006192   0.00006370           11.14       -9.11        9.37

     Energy error            =      1.7E-03
     Gradient error          =      1.9E-02
     Cell gradient error     =      2.0E-04


     number of scf cycles    =  13
     number of bfgs steps    =  11

     enthalpy old            =   -2012.3479866868 Ry
     enthalpy new            =   -2012.3496724910 Ry

     CASE: enthalpy_new < enthalpy_old

     new trust radius        =       0.0273163302 bohr
     new conv_thr            =       0.0000001686 Ry

     new unit-cell volume =    118.49744 a.u.^3 (    17.55951 Ang^3 )
     density =     17.16512 g/cm^3

CELL_PARAMETERS (angstrom)
   2.608081571  -0.008720227   0.000830073
  -0.005882528   2.615169170   0.004383500
   0.002405501  -0.001020477   2.574509637

ATOMIC_POSITIONS (angstrom)
Hf            0.4468439092        1.8409838885        0.4426008959
H             1.8950360451        0.5412112705        0.5205377950
H             1.5896132909        1.2903794844        1.7306026755
H             0.6872110587        0.3910128183        1.7308521378



     Writing output data file ./tmp/01_HfH3_Top1.save/
     NEW-OLD atomic charge density approx. for the potential
     extrapolated charge   39.04807, renormalised to   39.00000

     total cpu time spent up to now is      615.1 secs

     Self-consistent Calculation

     iteration #  1     ecut=    50.00 Ry     beta= 0.70
     Davidson diagonalization with overlap
     ethr =  1.00E-06,  avg # of iterations =  8.4

     total cpu time spent up to now is      618.5 secs

     total energy              =   -2012.34509715 Ry
     estimated scf accuracy    <       0.00444840 Ry

     iteration #  2     ecut=    50.00 Ry     beta= 0.70
     Davidson diagonalization with overlap
     ethr =  1.14E-05,  avg # of iterations =  3.4

     total cpu time spent up to now is      621.1 secs

     total energy              =   -2012.34942422 Ry
     estimated scf accuracy    <       0.01466184 Ry

     iteration #  3     ecut=    50.00 Ry     beta= 0.70
     Davidson diagonalization with overlap
     ethr =  1.14E-05,  avg # of iterations =  2.9

     total cpu time spent up to now is      623.6 secs

     total energy              =   -2012.35057306 Ry
     estimated scf accuracy    <       0.00160380 Ry

     iteration #  4     ecut=    50.00 Ry     beta= 0.70
     Davidson diagonalization with overlap
     ethr =  4.11E-06,  avg # of iterations =  2.0

     total cpu time spent up to now is      626.1 secs

     total energy              =   -2012.35081993 Ry
     estimated scf accuracy    <       0.00015681 Ry

     iteration #  5     ecut=    50.00 Ry     beta= 0.70
     Davidson diagonalization with overlap
     ethr =  4.02E-07,  avg # of iterations =  2.0

     total cpu time spent up to now is      628.6 secs

     total energy              =   -2012.35086572 Ry
     estimated scf accuracy    <       0.00003732 Ry

     iteration #  6     ecut=    50.00 Ry     beta= 0.70
     Davidson diagonalization with overlap
     ethr =  9.57E-08,  avg # of iterations =  2.0

     total cpu time spent up to now is      631.0 secs

     total energy              =   -2012.35085847 Ry
     estimated scf accuracy    <       0.00002811 Ry

     iteration #  7     ecut=    50.00 Ry     beta= 0.70
     Davidson diagonalization with overlap
     ethr =  7.21E-08,  avg # of iterations =  2.0

     total cpu time spent up to now is      633.5 secs

     total energy              =   -2012.35085857 Ry
     estimated scf accuracy    <       0.00000549 Ry

     iteration #  8     ecut=    50.00 Ry     beta= 0.70
     Davidson diagonalization with overlap
     ethr =  1.41E-08,  avg # of iterations =  2.0

     total cpu time spent up to now is      636.0 secs

     total energy              =   -2012.35085912 Ry
     estimated scf accuracy    <       0.00000056 Ry

     iteration #  9     ecut=    50.00 Ry     beta= 0.70
     Davidson diagonalization with overlap
     ethr =  1.44E-09,  avg # of iterations =  3.0

     total cpu time spent up to now is      638.5 secs

     End of self-consistent calculation

          k = 0.0000 0.0000 0.0000 (  1935 PWs)   bands (ev):

  -172.9314-172.9032-172.8548-172.8500-172.8208 -33.9080  -1.7840  -1.7272
    -1.6484  12.3044  16.5857  16.6066  16.6160  16.7121  16.7376  16.7728
    16.7824  21.0526  22.0271  34.1852  35.7013  35.7849  35.8418  36.0321

          k = 0.0002 0.0012-0.7058 (  1936 PWs)   bands (ev):

  -172.9438-172.8756-172.8662-172.8381-172.8007 -33.6219  -4.8022  -1.4609
    -1.3798  16.3653  16.4106  16.6526  16.6667  16.6816  16.8381  16.9067
    17.9219  19.3881  25.3766  26.6716  28.9907  32.4348  36.3634  40.0338

          k =-0.0021-0.6937-0.7061 (  1956 PWs)   bands (ev):

  -172.9608-172.9061-172.8816-172.8623-172.7976 -33.3925  -4.1832  -3.9469
    -1.1959  15.2379  16.4549  16.4949  16.6508  16.7349  16.7554  16.7905
    16.8863  24.2479  25.5400  25.7961  30.6481  30.7992  38.9112  39.8928

          k =-0.6988-0.6952-0.7054 (  1904 PWs)   bands (ev):

  -172.8983-172.8596-172.8201-172.8099-172.7701 -33.1706  -3.7011  -3.4925
    -3.3962  16.1642  16.6557  16.6689  16.7234  16.7587  16.7833  16.7877
    17.8350  18.1453  19.3160  27.7167  39.4287  39.6124  40.0443  40.3355

          k =-0.6967-0.0016 0.0007 (  1936 PWs)   bands (ev):

  -172.9420-172.8932-172.8498-172.8433-172.7925 -33.6584  -4.6689  -1.4252
    -1.3755  16.2753  16.3721  16.6630  16.6750  16.7058  16.8435  16.8892
    17.5758  19.7610  25.1611  27.6092  29.4419  31.1670  36.5499  39.5026

          k =-0.0023-0.6948-0.0003 (  1936 PWs)   bands (ev):

  -172.9213-172.9044-172.8651-172.8619-172.7669 -33.6624  -4.6514  -1.4911
    -1.3766  16.2894  16.3446  16.6278  16.6537  16.6774  16.8735  16.8973
    17.8919  20.5507  24.9619  26.7155  29.3217  30.8894  36.6078  38.1029

          k =-0.6970-0.0028 0.7065 (  1956 PWs)   bands (ev):

  -172.9579-172.9052-172.8843-172.8601-172.8008 -33.3866  -4.2308  -4.0328
    -1.1152  15.9992  16.4524  16.4897  16.6560  16.6650  16.7779  16.8100
    16.9295  23.9389  24.9882  25.8637  30.1280  30.5175  37.8080  39.8381

          k =-0.6944 0.6933 0.0009 (  1956 PWs)   bands (ev):

  -172.9621-172.9032-172.8857-172.8596-172.7967 -33.4283  -4.0379  -3.9883
    -1.1270  15.0621  16.4416  16.5341  16.6171  16.7187  16.7367  16.7949
    16.9048  24.2506  24.7241  27.0275  30.8975  31.0979  38.5364  39.6488

     the Fermi energy is    26.8778 ev

!    total energy              =   -2012.35085933 Ry

     total all-electron energy =    -30159.962505 Ry
     estimated scf accuracy    <       0.00000003 Ry
     smearing contrib. (-TS)   =      -0.00028133 Ry
     internal energy E=F+TS    =   -2012.35057800 Ry

     The total energy is F=E-TS. E is the sum of the following terms:
     one-electron contribution =   -1281.46881177 Ry
     hartree contribution      =     655.83907175 Ry
     xc contribution           =    -112.73000084 Ry
     ewald contribution        =    -777.50479974 Ry
     one-center paw contrib.   =    -496.48603739 Ry

     convergence has been achieved in   9 iterations

     Forces acting on atoms (cartesian axes, Ry/au):

     atom    1 type  1   force =     0.01175421   -0.00614997   -0.00217693
     atom    2 type  2   force =    -0.01344190    0.00047624   -0.00607655
     atom    3 type  2   force =     0.01422030    0.01202327    0.00090467
     atom    4 type  2   force =    -0.01253261   -0.00634953    0.00734881

     Total force =     0.031584     Total SCF correction =     0.000168


     Computing stress (Cartesian axis) and pressure

          total   stress  (Ry/bohr**3)                   (kbar)     P=       -2.39
  -0.00032753   0.00020285  -0.00013498          -48.18       29.84      -19.86
   0.00020285   0.00030280   0.00000312           29.84       44.54        0.46
  -0.00013498   0.00000312  -0.00002404          -19.86        0.46       -3.54

     Energy error            =      1.2E-03
     Gradient error          =      1.4E-02
     Cell gradient error     =      3.3E-04


     number of scf cycles    =  14
     number of bfgs steps    =  12

     enthalpy old            =   -2012.3496724910 Ry
     enthalpy new            =   -2012.3508593340 Ry

     CASE: enthalpy_new < enthalpy_old

     new trust radius        =       0.0410315418 bohr
     new conv_thr            =       0.0000001187 Ry

     new unit-cell volume =    118.63751 a.u.^3 (    17.58027 Ang^3 )
     density =     17.14485 g/cm^3

CELL_PARAMETERS (angstrom)
   2.609935841  -0.011170211  -0.000170255
  -0.008168264   2.613563679   0.002545590
   0.001508189  -0.002950246   2.577316916

ATOMIC_POSITIONS (angstrom)
Hf            0.4538492964        1.8325830516        0.4410394032
H             1.8922701523        0.5375108774        0.5160345644
H             1.6054737638        1.2970675612        1.7376751945
H             0.6652924722        0.3862669345        1.7300185380



     Writing output data file ./tmp/01_HfH3_Top1.save/
     NEW-OLD atomic charge density approx. for the potential
     extrapolated charge   39.04604, renormalised to   39.00000

     total cpu time spent up to now is      652.1 secs

     Self-consistent Calculation

     iteration #  1     ecut=    50.00 Ry     beta= 0.70
     Davidson diagonalization with overlap
     ethr =  1.00E-06,  avg # of iterations =  8.6

     total cpu time spent up to now is      655.4 secs

     total energy              =   -2012.34627781 Ry
     estimated scf accuracy    <       0.00656983 Ry

     iteration #  2     ecut=    50.00 Ry     beta= 0.70
     Davidson diagonalization with overlap
     ethr =  1.68E-05,  avg # of iterations =  3.0

     total cpu time spent up to now is      658.0 secs

     total energy              =   -2012.35052981 Ry
     estimated scf accuracy    <       0.01500425 Ry

     iteration #  3     ecut=    50.00 Ry     beta= 0.70
     Davidson diagonalization with overlap
     ethr =  1.68E-05,  avg # of iterations =  2.0

     total cpu time spent up to now is      660.5 secs

     total energy              =   -2012.35214064 Ry
     estimated scf accuracy    <       0.00116954 Ry

     iteration #  4     ecut=    50.00 Ry     beta= 0.70
     Davidson diagonalization with overlap
     ethr =  3.00E-06,  avg # of iterations =  2.6

     total cpu time spent up to now is      663.1 secs

     total energy              =   -2012.35246618 Ry
     estimated scf accuracy    <       0.00002285 Ry

     iteration #  5     ecut=    50.00 Ry     beta= 0.70
     Davidson diagonalization with overlap
     ethr =  5.86E-08,  avg # of iterations =  2.9

     total cpu time spent up to now is      665.6 secs

     total energy              =   -2012.35248615 Ry
     estimated scf accuracy    <       0.00000711 Ry

     iteration #  6     ecut=    50.00 Ry     beta= 0.70
     Davidson diagonalization with overlap
     ethr =  1.82E-08,  avg # of iterations =  3.0

     total cpu time spent up to now is      668.3 secs

     total energy              =   -2012.35248651 Ry
     estimated scf accuracy    <       0.00003371 Ry

     iteration #  7     ecut=    50.00 Ry     beta= 0.70
     Davidson diagonalization with overlap
     ethr =  1.82E-08,  avg # of iterations =  2.0

     total cpu time spent up to now is      670.9 secs

     total energy              =   -2012.35247990 Ry
     estimated scf accuracy    <       0.00001327 Ry

     iteration #  8     ecut=    50.00 Ry     beta= 0.70
     Davidson diagonalization with overlap
     ethr =  1.82E-08,  avg # of iterations =  3.0

     total cpu time spent up to now is      673.5 secs

     End of self-consistent calculation

          k = 0.0000 0.0000 0.0000 (  1935 PWs)   bands (ev):

  -172.9665-172.9426-172.9012-172.8960-172.8696 -33.9559  -1.8375  -1.7863
    -1.6858  12.3069  16.5425  16.5582  16.5721  16.6657  16.6911  16.7282
    16.7315  20.9594  21.9195  34.2586  35.6551  35.7247  35.7931  36.2333

          k =-0.0000 0.0007-0.7050 (  1936 PWs)   bands (ev):

  -172.9795-172.9164-172.9124-172.8832-172.8479 -33.6736  -4.8147  -1.5209
    -1.4438  16.3374  16.3600  16.6036  16.6204  16.6292  16.7976  16.8569
    17.8285  19.4591  25.2945  26.6408  28.9810  32.2330  36.2947  39.9535

          k =-0.0030-0.6946-0.7058 (  1956 PWs)   bands (ev):

  -172.9963-172.9515-172.9285-172.9019-172.8466 -33.4422  -4.1918  -4.0265
    -1.2527  15.2675  16.3991  16.4608  16.5996  16.6862  16.7071  16.7472
    16.8375  24.1263  25.4941  25.7220  30.5591  30.7661  38.9473  39.8388

          k =-0.6993-0.6968-0.7054 (  1904 PWs)   bands (ev):

  -172.9331-172.8996-172.8660-172.8543-172.8188 -33.2219  -3.7107  -3.5392
    -3.4767  16.1592  16.6179  16.6282  16.6696  16.7113  16.7340  16.7379
    17.8073  18.0390  19.2508  27.8542  39.3899  39.5893  39.9563  40.2602

          k =-0.6962-0.0022 0.0004 (  1936 PWs)   bands (ev):

  -172.9774-172.9377-172.8924-172.8894-172.8392 -33.7079  -4.7110  -1.4885
    -1.4142  16.2639  16.3221  16.6155  16.6281  16.6563  16.8042  16.8360
    17.5746  19.6784  25.1189  27.6055  29.3999  30.9968  36.4937  39.4926

          k =-0.0030-0.6953-0.0008 (  1936 PWs)   bands (ev):

  -172.9572-172.9450-172.9105-172.9064-172.8161 -33.7083  -4.7238  -1.5432
    -1.4109  16.2484  16.2958  16.5897  16.6141  16.6298  16.8217  16.8499
    17.8954  20.5166  24.9372  26.7798  29.2388  30.5627  36.5647  38.1286

          k =-0.6962-0.0029 0.7054 (  1956 PWs)   bands (ev):

  -172.9934-172.9509-172.9312-172.8994-172.8497 -33.4397  -4.2464  -4.0834
    -1.1833  16.0519  16.3990  16.4391  16.6179  16.6274  16.7565  16.7604
    16.8780  23.8692  24.8319  25.7064  30.1329  30.4746  37.9749  39.7547

          k =-0.6933 0.6931 0.0012 (  1956 PWs)   bands (ev):

  -172.9975-172.9480-172.9326-172.8997-172.8456 -33.4759  -4.0900  -4.0550
    -1.1623  15.0920  16.4032  16.4799  16.5699  16.6632  16.6825  16.7527
    16.8594  24.1881  24.7112  26.9164  30.8062  31.0541  38.5926  39.5810

     the Fermi energy is    26.8512 ev

!    total energy              =   -2012.35248352 Ry

     total all-electron energy =    -30159.964129 Ry
     estimated scf accuracy    <       0.00000012 Ry
     smearing contrib. (-TS)   =      -0.00107690 Ry
     internal energy E=F+TS    =   -2012.35140663 Ry

     The total energy is F=E-TS. E is the sum of the following terms:
     one-electron contribution =   -1282.07097145 Ry
     hartree contribution      =     656.04716756 Ry
     xc contribution           =    -112.72328763 Ry
     ewald contribution        =    -777.13781811 Ry
     one-center paw contrib.   =    -496.46649700 Ry

     convergence has been achieved in   8 iterations

     Forces acting on atoms (cartesian axes, Ry/au):

     atom    1 type  1   force =     0.00921579   -0.00439810    0.00224009
     atom    2 type  2   force =    -0.02172669   -0.00727663   -0.00549635
     atom    3 type  2   force =     0.02512700    0.01916555   -0.00350091
     atom    4 type  2   force =    -0.01261609   -0.00749082    0.00675717

     Total force =     0.044004     Total SCF correction =     0.001472


     Computing stress (Cartesian axis) and pressure

          total   stress  (Ry/bohr**3)                   (kbar)     P=       -4.38
  -0.00073875   0.00040973  -0.00013412         -108.67       60.27      -19.73
   0.00040973   0.00080825   0.00014461           60.27      118.90       21.27
  -0.00013412   0.00014461  -0.00015880          -19.73       21.27      -23.36

     Energy error            =      1.6E-03
     Gradient error          =      2.5E-02
     Cell gradient error     =      8.1E-04


     number of scf cycles    =  15
     number of bfgs steps    =  13

     enthalpy old            =   -2012.3508593340 Ry
     enthalpy new            =   -2012.3524835246 Ry

     CASE: enthalpy_new < enthalpy_old


     WARNING: bfgs curvature condition failed, Theta= 0.475
     new trust radius        =       0.0615713200 bohr
     new conv_thr            =       0.0000001624 Ry

     new unit-cell volume =    118.84079 a.u.^3 (    17.61039 Ang^3 )
     density =     17.11553 g/cm^3

CELL_PARAMETERS (angstrom)
   2.614126598  -0.017152506  -0.009930019
  -0.013686984   2.604487152  -0.006369520
  -0.008175454  -0.012034928   2.586695410

ATOMIC_POSITIONS (angstrom)
Hf            0.4673387197        1.8116937095        0.4307117811
H             1.8848304694        0.5327145951        0.5009368902
H             1.6199535357        1.2972008252        1.7442959248
H             0.6269697758        0.3714664708        1.7336967482



     Writing output data file ./tmp/01_HfH3_Top1.save/
     NEW-OLD atomic charge density approx. for the potential
     extrapolated charge   39.06671, renormalised to   39.00000

     total cpu time spent up to now is      687.0 secs

     Self-consistent Calculation

     iteration #  1     ecut=    50.00 Ry     beta= 0.70
     Davidson diagonalization with overlap
     ethr =  1.00E-06,  avg # of iterations = 12.1

     total cpu time spent up to now is      690.7 secs

     total energy              =   -2012.33894166 Ry
     estimated scf accuracy    <       0.01601607 Ry

     iteration #  2     ecut=    50.00 Ry     beta= 0.70
     Davidson diagonalization with overlap
     ethr =  4.11E-05,  avg # of iterations =  3.0

     total cpu time spent up to now is      693.3 secs

     total energy              =   -2012.34857774 Ry
     estimated scf accuracy    <       0.02934123 Ry

     iteration #  3     ecut=    50.00 Ry     beta= 0.70
     Davidson diagonalization with overlap
     ethr =  4.11E-05,  avg # of iterations =  2.0

     total cpu time spent up to now is      695.8 secs

     total energy              =   -2012.35337506 Ry
     estimated scf accuracy    <       0.00185367 Ry

     iteration #  4     ecut=    50.00 Ry     beta= 0.70
     Davidson diagonalization with overlap
     ethr =  4.75E-06,  avg # of iterations =  2.0

     total cpu time spent up to now is      698.3 secs

     total energy              =   -2012.35402242 Ry
     estimated scf accuracy    <       0.00037685 Ry

     iteration #  5     ecut=    50.00 Ry     beta= 0.70
     Davidson diagonalization with overlap
     ethr =  9.66E-07,  avg # of iterations =  1.2

     total cpu time spent up to now is      700.7 secs

     total energy              =   -2012.35419253 Ry
     estimated scf accuracy    <       0.00032528 Ry

     iteration #  6     ecut=    50.00 Ry     beta= 0.70
     Davidson diagonalization with overlap
     ethr =  8.34E-07,  avg # of iterations =  2.0

     total cpu time spent up to now is      703.1 secs

     total energy              =   -2012.35415442 Ry
     estimated scf accuracy    <       0.00015798 Ry

     iteration #  7     ecut=    50.00 Ry     beta= 0.70
     Davidson diagonalization with overlap
     ethr =  4.05E-07,  avg # of iterations =  2.1

     total cpu time spent up to now is      705.6 secs

     total energy              =   -2012.35416905 Ry
     estimated scf accuracy    <       0.00001088 Ry

     iteration #  8     ecut=    50.00 Ry     beta= 0.70
     Davidson diagonalization with overlap
     ethr =  2.79E-08,  avg # of iterations =  3.0

     total cpu time spent up to now is      708.3 secs

     total energy              =   -2012.35417431 Ry
     estimated scf accuracy    <       0.00000225 Ry

     iteration #  9     ecut=    50.00 Ry     beta= 0.70
     Davidson diagonalization with overlap
     ethr =  5.76E-09,  avg # of iterations =  2.0

     total cpu time spent up to now is      710.8 secs

     total energy              =   -2012.35417432 Ry
     estimated scf accuracy    <       0.00000040 Ry

     iteration # 10     ecut=    50.00 Ry     beta= 0.70
     Davidson diagonalization with overlap
     ethr =  1.03E-09,  avg # of iterations =  2.2

     total cpu time spent up to now is      713.3 secs

     End of self-consistent calculation

          k = 0.0000 0.0000 0.0000 (  1935 PWs)   bands (ev):

  -173.0198-173.0070-172.9802-172.9561-172.9456 -34.0250  -1.9211  -1.8496
    -1.7566  12.3064  16.4760  16.4850  16.5032  16.5940  16.6219  16.6543
    16.6617  20.7744  21.8019  34.3652  35.5560  35.6389  35.7312  36.6526

          k =-0.0027-0.0017-0.7025 (  1936 PWs)   bands (ev):

  -173.0336-172.9883-172.9835-172.9491-172.9170 -33.7535  -4.8181  -1.6172
    -1.5196  16.2814  16.2995  16.5280  16.5480  16.5505  16.7371  16.7803
    17.6683  19.5397  25.1509  26.6689  28.9747  31.9861  36.2074  39.7824

          k =-0.0073-0.6995-0.7058 (  1956 PWs)   bands (ev):

  -173.0495-173.0264-173.0025-172.9540-172.9268 -33.5128  -4.1846  -4.1648
    -1.3367  15.2972  16.3096  16.4128  16.5205  16.6082  16.6339  16.6797
    16.7660  23.9324  25.3702  25.7052  30.3726  30.7568  38.9779  39.7836

          k =-0.7024-0.7031-0.7080 (  1904 PWs)   bands (ev):

  -172.9865-172.9664-172.9412-172.9114-172.8961 -33.2961  -3.7040  -3.6234
    -3.5972  16.1433  16.5615  16.5662  16.5846  16.6389  16.6579  16.6647
    17.7029  17.8625  19.2324  28.0824  39.3473  39.4567  39.9012  40.1739

          k =-0.6951-0.0037-0.0022 (  1936 PWs)   bands (ev):

  -173.0314-173.0104-172.9643-172.9535-172.9086 -33.7807  -4.7676  -1.5632
    -1.4876  16.2367  16.2488  16.5437  16.5566  16.5775  16.7443  16.7558
    17.5275  19.6018  25.0512  27.6958  29.3039  30.7120  36.4057  39.4592

          k =-0.0046-0.6977-0.0033 (  1936 PWs)   bands (ev):

  -173.0220-173.0069-172.9794-172.9635-172.8978 -33.7680  -4.8504  -1.6166
    -1.4720  16.1721  16.2231  16.5332  16.5548  16.5562  16.7437  16.7771
    17.9132  20.4964  24.9262  26.8988  29.0387  29.9835  36.4664  38.2598

          k =-0.6925-0.0019 0.7003 (  1956 PWs)   bands (ev):

  -173.0470-173.0262-173.0046-172.9518-172.9291 -33.5228  -4.2596  -4.1574
    -1.2684  16.1178  16.3178  16.3620  16.5611  16.5721  16.6825  16.7423
    16.7996  23.7871  24.5955  25.4208  30.1847  30.4762  38.3262  39.5721

          k =-0.6906 0.6941 0.0010 (  1956 PWs)   bands (ev):

  -173.0503-173.0233-173.0059-172.9531-172.9257 -33.5395  -4.2126  -4.1121
    -1.2267  15.1305  16.3416  16.3971  16.4962  16.5772  16.6008  16.6881
    16.7903  24.0835  24.6587  26.8298  30.5913  30.9753  38.6153  39.5334

     the Fermi energy is    26.8690 ev

!    total energy              =   -2012.35417440 Ry

     total all-electron energy =    -30159.965820 Ry
     estimated scf accuracy    <       0.00000001 Ry
     smearing contrib. (-TS)   =      -0.00130729 Ry
     internal energy E=F+TS    =   -2012.35286711 Ry

     The total energy is F=E-TS. E is the sum of the following terms:
     one-electron contribution =   -1282.99064480 Ry
     hartree contribution      =     656.37916688 Ry
     xc contribution           =    -112.71592105 Ry
     ewald contribution        =    -776.58782801 Ry
     one-center paw contrib.   =    -496.43764012 Ry

     convergence has been achieved in  10 iterations

     Forces acting on atoms (cartesian axes, Ry/au):

     atom    1 type  1   force =     0.00515258   -0.00292713    0.01241054
     atom    2 type  2   force =    -0.03191813   -0.02165163   -0.00410989
     atom    3 type  2   force =     0.04246557    0.03058908   -0.01139419
     atom    4 type  2   force =    -0.01570001   -0.00601031    0.00309354

     Total force =     0.069675     Total SCF correction =     0.000260


     Computing stress (Cartesian axis) and pressure

          total   stress  (Ry/bohr**3)                   (kbar)     P=       -4.64
  -0.00139030   0.00093143   0.00030442         -204.52      137.02       44.78
   0.00093143   0.00202280   0.00071457          137.02      297.56      105.12
   0.00030442   0.00071457  -0.00072704           44.78      105.12     -106.95

     Energy error            =      1.7E-03
     Gradient error          =      4.2E-02
     Cell gradient error     =      2.0E-03


     number of scf cycles    =  16
     number of bfgs steps    =  14

     enthalpy old            =   -2012.3524835246 Ry
     enthalpy new            =   -2012.3541743986 Ry

     CASE: enthalpy_new < enthalpy_old

     new trust radius        =       0.1848878551 bohr
     new conv_thr            =       0.0000001691 Ry

     new unit-cell volume =    119.41728 a.u.^3 (    17.69582 Ang^3 )
     density =     17.03290 g/cm^3

CELL_PARAMETERS (angstrom)
   2.630202062  -0.028785648  -0.013191594
  -0.024220351   2.586115332  -0.018155466
  -0.011082285  -0.023901377   2.602050466

ATOMIC_POSITIONS (angstrom)
Hf            0.5112300797        1.7608257021        0.4161199507
H             1.8780767788        0.5239190803        0.4769830179
H             1.6868734752        1.3139958512        1.7786646302
H             0.5299887162        0.3446874983        1.7400401230



     Writing output data file ./tmp/01_HfH3_Top1.save/
     NEW-OLD atomic charge density approx. for the potential
     extrapolated charge   39.18826, renormalised to   39.00000

     total cpu time spent up to now is      726.9 secs

     Self-consistent Calculation

     iteration #  1     ecut=    50.00 Ry     beta= 0.70
     Davidson diagonalization with overlap
     ethr =  1.00E-06,  avg # of iterations = 13.9

     total cpu time spent up to now is      730.9 secs

     total energy              =   -2012.17144264 Ry
     estimated scf accuracy    <       0.16857493 Ry

     iteration #  2     ecut=    50.00 Ry     beta= 0.70
     Davidson diagonalization with overlap
     ethr =  4.32E-04,  avg # of iterations =  3.0

     total cpu time spent up to now is      733.6 secs

     total energy              =   -2012.29316916 Ry
     estimated scf accuracy    <       0.17373751 Ry

     iteration #  3     ecut=    50.00 Ry     beta= 0.70
     Davidson diagonalization with overlap
     ethr =  4.32E-04,  avg # of iterations =  2.0

     total cpu time spent up to now is      736.1 secs

     total energy              =   -2012.34368382 Ry
     estimated scf accuracy    <       0.01784901 Ry

     iteration #  4     ecut=    50.00 Ry     beta= 0.70
     Davidson diagonalization with overlap
     ethr =  4.58E-05,  avg # of iterations =  2.1

     total cpu time spent up to now is      738.5 secs

     total energy              =   -2012.35513878 Ry
     estimated scf accuracy    <       0.01192505 Ry

     iteration #  5     ecut=    50.00 Ry     beta= 0.70
     Davidson diagonalization with overlap
     ethr =  3.06E-05,  avg # of iterations =  1.8

     total cpu time spent up to now is      741.0 secs

     total energy              =   -2012.35869955 Ry
     estimated scf accuracy    <       0.00592378 Ry

     iteration #  6     ecut=    50.00 Ry     beta= 0.70
     Davidson diagonalization with overlap
     ethr =  1.52E-05,  avg # of iterations =  2.1

     total cpu time spent up to now is      743.5 secs

     total energy              =   -2012.35919127 Ry
     estimated scf accuracy    <       0.00066835 Ry

     iteration #  7     ecut=    50.00 Ry     beta= 0.70
     Davidson diagonalization with overlap
     ethr =  1.71E-06,  avg # of iterations =  2.8

     total cpu time spent up to now is      746.0 secs

     total energy              =   -2012.35936932 Ry
     estimated scf accuracy    <       0.00000514 Ry

     iteration #  8     ecut=    50.00 Ry     beta= 0.70
     Davidson diagonalization with overlap
     ethr =  1.32E-08,  avg # of iterations =  3.8

     total cpu time spent up to now is      748.7 secs

     total energy              =   -2012.35937229 Ry
     estimated scf accuracy    <       0.00000454 Ry

     iteration #  9     ecut=    50.00 Ry     beta= 0.70
     Davidson diagonalization with overlap
     ethr =  1.16E-08,  avg # of iterations =  2.0

     total cpu time spent up to now is      751.2 secs

     total energy              =   -2012.35937258 Ry
     estimated scf accuracy    <       0.00000046 Ry

     iteration # 10     ecut=    50.00 Ry     beta= 0.70
     Davidson diagonalization with overlap
     ethr =  1.17E-09,  avg # of iterations =  2.9

     total cpu time spent up to now is      753.7 secs

     End of self-consistent calculation

          k = 0.0000 0.0000 0.0000 (  1935 PWs)   bands (ev):

  -173.1993-173.1866-173.1533-173.1101-173.1051 -34.1974  -2.1492  -2.0009
    -1.9241  12.2963  16.2920  16.3029  16.3199  16.4096  16.4441  16.4718
    16.4875  20.4026  21.5072  34.5771  35.3154  35.4274  35.5404  37.6165

          k =-0.0036-0.0049-0.6984 (  1936 PWs)   bands (ev):

  -173.2073-173.1733-173.1500-173.1189-173.0656 -33.9425  -4.8896  -1.8656
    -1.6767  16.0860  16.1653  16.3380  16.3471  16.3707  16.5702  16.5902
    17.3685  19.7258  24.8139  26.6900  28.8444  31.3950  35.9717  39.4456

          k =-0.0113-0.7077-0.7049 (  1956 PWs)   bands (ev):

  -173.2266-173.2086-173.1632-173.1185-173.0921 -33.6833  -4.4613  -4.2191
    -1.5602  15.4064  16.0974  16.2726  16.3120  16.4127  16.4479  16.4992
    16.5873  23.4860  24.9434  25.7487  29.9485  30.5473  39.0047  39.6513

          k =-0.7022-0.7142-0.7079 (  1904 PWs)   bands (ev):

  -173.1652-173.1483-173.1074-173.0650-173.0516 -33.4795  -3.9296  -3.7754
    -3.7181  16.0708  16.3776  16.3928  16.4022  16.4509  16.4750  16.4837
    17.4634  17.6344  19.0431  28.5592  39.0167  39.1641  39.7273  39.9667

          k =-0.6910-0.0065-0.0030 (  1936 PWs)   bands (ev):

  -173.2101-173.1817-173.1427-173.1197-173.0570 -33.9663  -4.9055  -1.7377
    -1.6679  16.0568  16.1496  16.3610  16.3754  16.3820  16.5600  16.5789
    17.4599  19.3896  24.8329  27.8365  29.1473  30.1127  36.2173  39.1647

          k =-0.0077-0.7028-0.0065 (  1936 PWs)   bands (ev):

  -173.2098-173.1909-173.1230-173.1071-173.0868 -33.9215  -5.1052  -1.8236
    -1.6375  15.9707  16.0565  16.3694  16.3708  16.3917  16.5513  16.5932
    17.8710  20.4061  24.8742  27.3505  28.5092  28.8244  36.1826  38.5642

          k =-0.6874-0.0016 0.6954 (  1956 PWs)   bands (ev):

  -173.2269-173.2106-173.1622-173.1187-173.0893 -33.7245  -4.3707  -4.3042
    -1.4487  16.0835  16.1522  16.1674  16.4004  16.4106  16.4898  16.6065
    16.7042  23.6238  24.1539  24.9023  30.2746  30.5192  39.1167  39.1649

          k =-0.6832 0.6963 0.0035 (  1956 PWs)   bands (ev):

  -173.2257-173.2093-173.1645-173.1185-173.0904 -33.7065  -4.4953  -4.2310
    -1.4015  15.2397  16.1355  16.2183  16.3110  16.3698  16.4052  16.5117
    16.6134  23.9198  24.5450  26.3962  30.1829  30.8044  38.6869  39.3316

     the Fermi energy is    26.9593 ev

!    total energy              =   -2012.35937268 Ry

     total all-electron energy =    -30159.971018 Ry
     estimated scf accuracy    <          9.5E-09 Ry
     smearing contrib. (-TS)   =       0.00060760 Ry
     internal energy E=F+TS    =   -2012.35998028 Ry

     The total energy is F=E-TS. E is the sum of the following terms:
     one-electron contribution =   -1285.65559433 Ry
     hartree contribution      =     657.41592175 Ry
     xc contribution           =    -112.70256873 Ry
     ewald contribution        =    -775.01531207 Ry
     one-center paw contrib.   =    -496.40242689 Ry

     convergence has been achieved in  10 iterations

     Forces acting on atoms (cartesian axes, Ry/au):

     atom    1 type  1   force =     0.01151104    0.01145600    0.04709954
     atom    2 type  2   force =    -0.03231957   -0.04191267   -0.00419984
     atom    3 type  2   force =     0.04423115    0.03526897   -0.03553154
     atom    4 type  2   force =    -0.02342262   -0.00481231   -0.00736816

     Total force =     0.101931     Total SCF correction =     0.000238


     Computing stress (Cartesian axis) and pressure

          total   stress  (Ry/bohr**3)                   (kbar)     P=      -82.34
  -0.00290840   0.00189506   0.00045751         -427.84      278.77       67.30
   0.00189506   0.00347851   0.00150939          278.77      511.71      222.04
   0.00045751   0.00150939  -0.00224924           67.30      222.04     -330.88

     Energy error            =      5.2E-03
     Gradient error          =      4.7E-02
     Cell gradient error     =      3.5E-03


     number of scf cycles    =  17
     number of bfgs steps    =  15

     enthalpy old            =   -2012.3541743986 Ry
     enthalpy new            =   -2012.3593726819 Ry

     CASE: enthalpy_new < enthalpy_old

     new trust radius        =       0.1369957722 bohr
     new conv_thr            =       0.0000004710 Ry

     new unit-cell volume =    119.57157 a.u.^3 (    17.71868 Ang^3 )
     density =     17.01092 g/cm^3

CELL_PARAMETERS (angstrom)
   2.638782507  -0.028024367  -0.006168361
  -0.023013373   2.583456780  -0.020553638
  -0.003730733  -0.025747949   2.599581570

ATOMIC_POSITIONS (angstrom)
Hf            0.5544204898        1.7363775323        0.4155326839
H             1.8778241545        0.5279300685        0.4641568979
H             1.7389009345        1.3391026141        1.7995001570
H             0.4647295480        0.3340514796        1.7370918756



     Writing output data file ./tmp/01_HfH3_Top1.save/
     NEW-OLD atomic charge density approx. for the potential
     extrapolated charge   39.05032, renormalised to   39.00000

     total cpu time spent up to now is      767.2 secs

     Self-consistent Calculation

     iteration #  1     ecut=    50.00 Ry     beta= 0.70
     Davidson diagonalization with overlap
     ethr =  1.00E-06,  avg # of iterations = 11.5

     total cpu time spent up to now is      771.1 secs

     total energy              =   -2012.31390758 Ry
     estimated scf accuracy    <       0.03972606 Ry

     iteration #  2     ecut=    50.00 Ry     beta= 0.70
     Davidson diagonalization with overlap
     ethr =  1.02E-04,  avg # of iterations =  2.0

     total cpu time spent up to now is      773.6 secs

     total energy              =   -2012.35278046 Ry
     estimated scf accuracy    <       0.01117679 Ry

     iteration #  3     ecut=    50.00 Ry     beta= 0.70
     Davidson diagonalization with overlap
     ethr =  2.87E-05,  avg # of iterations =  2.0

     total cpu time spent up to now is      776.1 secs

     total energy              =   -2012.35790382 Ry
     estimated scf accuracy    <       0.00469522 Ry

     iteration #  4     ecut=    50.00 Ry     beta= 0.70
     Davidson diagonalization with overlap
     ethr =  1.20E-05,  avg # of iterations =  1.5

     total cpu time spent up to now is      778.5 secs

     total energy              =   -2012.36262704 Ry
     estimated scf accuracy    <       0.00337360 Ry

     iteration #  5     ecut=    50.00 Ry     beta= 0.70
     Davidson diagonalization with overlap
     ethr =  8.65E-06,  avg # of iterations =  2.0

     total cpu time spent up to now is      780.9 secs

     total energy              =   -2012.36344841 Ry
     estimated scf accuracy    <       0.00034779 Ry

     iteration #  6     ecut=    50.00 Ry     beta= 0.70
     Davidson diagonalization with overlap
     ethr =  8.92E-07,  avg # of iterations =  2.9

     total cpu time spent up to now is      783.5 secs

     total energy              =   -2012.36354123 Ry
     estimated scf accuracy    <       0.00000519 Ry

     iteration #  7     ecut=    50.00 Ry     beta= 0.70
     Davidson diagonalization with overlap
     ethr =  1.33E-08,  avg # of iterations =  3.0

     total cpu time spent up to now is      786.1 secs

     total energy              =   -2012.36354379 Ry
     estimated scf accuracy    <       0.00000054 Ry

     iteration #  8     ecut=    50.00 Ry     beta= 0.70
     Davidson diagonalization with overlap
     ethr =  1.40E-09,  avg # of iterations =  2.0

     total cpu time spent up to now is      788.5 secs

     End of self-consistent calculation

          k = 0.0000 0.0000 0.0000 (  1935 PWs)   bands (ev):

  -173.2553-173.2494-173.2018-173.1589-173.1518 -34.2555  -2.2285  -2.0627
    -1.9663  12.3161  16.2313  16.2491  16.2622  16.3517  16.3867  16.4173
    16.4321  20.3658  21.3590  34.6562  35.2779  35.3669  35.4384  37.6889

          k =-0.0017-0.0056-0.6991 (  1936 PWs)   bands (ev):

  -173.2676-173.2313-173.1955-173.1691-173.1145 -33.9983  -4.9545  -1.9406
    -1.7295  16.0222  16.1121  16.2803  16.2886  16.3144  16.5167  16.5298
    17.3559  19.8312  24.7235  26.5067  28.8318  31.2234  35.9098  39.4218

          k =-0.0092-0.7091-0.7060 (  1956 PWs)   bands (ev):

  -173.2820-173.2701-173.2043-173.1801-173.1355 -33.7372  -4.5170  -4.2879
    -1.6353  15.5248  16.0410  16.2245  16.2462  16.3486  16.3864  16.4449
    16.5345  23.2923  24.7623  25.8247  29.8339  30.3551  39.1367  39.6258

          k =-0.6979-0.7152-0.7071 (  1904 PWs)   bands (ev):

  -173.2217-173.2098-173.1552-173.1148-173.0963 -33.5397  -3.9988  -3.8373
    -3.7620  16.0394  16.3185  16.3405  16.3473  16.3898  16.4173  16.4287
    17.5305  17.6163  18.8427  28.7305  38.7831  39.1656  39.6263  39.9321

          k =-0.6887-0.0061-0.0010 (  1936 PWs)   bands (ev):

  -173.2627-173.2435-173.1998-173.1681-173.0976 -34.0311  -4.9488  -1.8002
    -1.7183  16.0025  16.1106  16.3032  16.3174  16.3231  16.5015  16.5265
    17.5235  19.3240  24.7089  27.9459  29.1322  29.8691  36.1895  38.9063

          k =-0.0075-0.7035-0.0070 (  1936 PWs)   bands (ev):

  -173.2629-173.2550-173.1695-173.1511-173.1418 -33.9776  -5.1564  -1.9045
    -1.6878  15.9142  16.0090  16.3123  16.3156  16.3389  16.4958  16.5326
    17.7951  20.3487  24.8348  27.4303  28.3934  28.7954  36.0753  38.7556

          k =-0.6870-0.0006 0.6980 (  1956 PWs)   bands (ev):

  -173.2832-173.2720-173.2034-173.1799-173.1323 -33.7869  -4.4285  -4.3507
    -1.5049  16.0127  16.0801  16.1432  16.3422  16.3594  16.4337  16.5448
    16.6263  23.6106  24.1529  24.8227  30.2942  30.5571  39.0095  39.6297

          k =-0.6812 0.6973 0.0059 (  1956 PWs)   bands (ev):

  -173.2838-173.2686-173.2058-173.1800-173.1332 -33.7689  -4.5640  -4.2764
    -1.4573  15.3254  16.0725  16.1583  16.2551  16.3138  16.3479  16.4543
    16.5564  23.9914  24.4379  26.1313  30.1563  30.7754  38.7864  39.2134

     the Fermi energy is    27.2005 ev

!    total energy              =   -2012.36354377 Ry

     total all-electron energy =    -30159.975189 Ry
     estimated scf accuracy    <       0.00000009 Ry
     smearing contrib. (-TS)   =       0.00016544 Ry
     internal energy E=F+TS    =   -2012.36370921 Ry

     The total energy is F=E-TS. E is the sum of the following terms:
     one-electron contribution =   -1286.49224893 Ry
     hartree contribution      =     657.74798160 Ry
     xc contribution           =    -112.70238914 Ry
     ewald contribution        =    -774.51799613 Ry
     one-center paw contrib.   =    -496.39905661 Ry

     convergence has been achieved in   8 iterations

     Forces acting on atoms (cartesian axes, Ry/au):

     atom    1 type  1   force =    -0.00137540    0.01316091    0.05587258
     atom    2 type  2   force =    -0.00770580   -0.04680551   -0.00336117
     atom    3 type  2   force =     0.02670228    0.02756567   -0.04835451
     atom    4 type  2   force =    -0.01762108    0.00607893   -0.00415690

     Total force =     0.098661     Total SCF correction =     0.000437


     Computing stress (Cartesian axis) and pressure

          total   stress  (Ry/bohr**3)                   (kbar)     P=     -109.23
  -0.00297714   0.00169978   0.00003278         -437.95      250.05        4.82
   0.00169978   0.00274680   0.00165353          250.05      404.07      243.24
   0.00003278   0.00165353  -0.00199718            4.82      243.24     -293.80

     Energy error            =      4.2E-03
     Gradient error          =      5.6E-02
     Cell gradient error     =      3.0E-03


     number of scf cycles    =  18
     number of bfgs steps    =  16

     enthalpy old            =   -2012.3593726819 Ry
     enthalpy new            =   -2012.3635437691 Ry

     CASE: enthalpy_new < enthalpy_old

     new trust radius        =       0.0810062397 bohr
     new conv_thr            =       0.0000004171 Ry

     new unit-cell volume =    119.13412 a.u.^3 (    17.65386 Ang^3 )
     density =     17.07339 g/cm^3

CELL_PARAMETERS (angstrom)
   2.634095848  -0.014501061   0.007830574
  -0.009343077   2.598012251  -0.004870030
   0.010345146  -0.009042342   2.579784298

ATOMIC_POSITIONS (angstrom)
Hf            0.5801621910        1.7451154509        0.4408739287
H             1.8932319891        0.5371544519        0.4664704041
H             1.7664518778        1.3785195659        1.8038254181
H             0.4331974658        0.3520165565        1.7204432146



     Writing output data file ./tmp/01_HfH3_Top1.save/
     NEW-OLD atomic charge density approx. for the potential
     extrapolated charge   38.85680, renormalised to   39.00000

     total cpu time spent up to now is      802.1 secs

     Self-consistent Calculation

     iteration #  1     ecut=    50.00 Ry     beta= 0.70
     Davidson diagonalization with overlap
     ethr =  1.00E-06,  avg # of iterations = 11.4

     total cpu time spent up to now is      805.7 secs

     total energy              =   -2012.32168447 Ry
     estimated scf accuracy    <       0.03461830 Ry

     iteration #  2     ecut=    50.00 Ry     beta= 0.70
     Davidson diagonalization with overlap
     ethr =  8.88E-05,  avg # of iterations =  4.0

     total cpu time spent up to now is      808.4 secs

     total energy              =   -2012.35815517 Ry
     estimated scf accuracy    <       0.14986651 Ry

     iteration #  3     ecut=    50.00 Ry     beta= 0.70
     Davidson diagonalization with overlap
     ethr =  8.88E-05,  avg # of iterations =  2.9

     total cpu time spent up to now is      810.9 secs

     total energy              =   -2012.37148745 Ry
     estimated scf accuracy    <       0.01422027 Ry

     iteration #  4     ecut=    50.00 Ry     beta= 0.70
     Davidson diagonalization with overlap
     ethr =  3.65E-05,  avg # of iterations =  2.0

     total cpu time spent up to now is      813.3 secs

     total energy              =   -2012.37267567 Ry
     estimated scf accuracy    <       0.00279803 Ry

     iteration #  5     ecut=    50.00 Ry     beta= 0.70
     Davidson diagonalization with overlap
     ethr =  7.17E-06,  avg # of iterations =  2.2

     total cpu time spent up to now is      815.8 secs

     total energy              =   -2012.37284035 Ry
     estimated scf accuracy    <       0.00084100 Ry

     iteration #  6     ecut=    50.00 Ry     beta= 0.70
     Davidson diagonalization with overlap
     ethr =  2.16E-06,  avg # of iterations =  2.0

     total cpu time spent up to now is      818.3 secs

     total energy              =   -2012.37294709 Ry
     estimated scf accuracy    <       0.00007760 Ry

     iteration #  7     ecut=    50.00 Ry     beta= 0.70
     Davidson diagonalization with overlap
     ethr =  1.99E-07,  avg # of iterations =  2.9

     total cpu time spent up to now is      820.9 secs

     total energy              =   -2012.37296739 Ry
     estimated scf accuracy    <       0.00000375 Ry

     iteration #  8     ecut=    50.00 Ry     beta= 0.70
     Davidson diagonalization with overlap
     ethr =  9.62E-09,  avg # of iterations =  2.6

     total cpu time spent up to now is      823.4 secs

     End of self-consistent calculation

          k = 0.0000 0.0000 0.0000 (  1935 PWs)   bands (ev):

  -173.1428-173.1246-173.0839-173.0825-173.0610 -34.1505  -2.1052  -1.9935
    -1.8129  12.3893  16.3447  16.3603  16.3811  16.4668  16.4995  16.5260
    16.5487  20.5948  21.3286  34.7747  35.3677  35.5992  35.6522  37.5955

          k = 0.0021-0.0013-0.7044 (  1936 PWs)   bands (ev):

  -173.1544-173.1130-173.0868-173.0692-173.0343 -33.8729  -4.9195  -1.7936
    -1.6623  16.1296  16.2099  16.3966  16.4114  16.4250  16.6318  16.6443
    17.5131  19.9933  24.9439  26.2862  28.9208  31.2762  36.0234  39.7424

          k =-0.0018-0.7008-0.7068 (  1956 PWs)   bands (ev):

  -173.1694-173.1470-173.1143-173.0757-173.0399 -33.6261  -4.3423  -4.2793
    -1.5076  15.6477  16.1672  16.3148  16.3711  16.4696  16.4915  16.5594
    16.6516  23.3978  24.9716  25.7668  30.0514  30.3524  39.3762  39.7574

          k =-0.6916-0.7032-0.7041 (  1904 PWs)   bands (ev):

  -173.1094-173.0850-173.0432-173.0387-173.0068 -33.4248  -3.8214  -3.8065
    -3.6706  16.1406  16.4409  16.4525  16.4554  16.5090  16.5275  16.5425
    17.7302  17.7688  18.7239  28.7928  39.0536  39.6136  39.6869  39.8892

          k =-0.6899-0.0025 0.0028 (  1936 PWs)   bands (ev):

  -173.1382-173.1339-173.0907-173.0865-173.0009 -33.9217  -4.8652  -1.7208
    -1.5623  16.1120  16.2096  16.4152  16.4310  16.4402  16.6150  16.6437
    17.6870  19.4123  24.7934  28.1557  29.1947  29.8156  36.3781  38.9847

          k =-0.0038-0.6994-0.0024 (  1936 PWs)   bands (ev):

  -173.1510-173.1294-173.0744-173.0740-173.0272 -33.8871  -5.0103  -1.8000
    -1.5258  16.0361  16.1266  16.4217  16.4295  16.4515  16.6119  16.6470
    17.8154  20.3342  24.8950  27.4767  28.8589  29.0513  36.2726  38.8777

          k =-0.6920-0.0012 0.7071 (  1956 PWs)   bands (ev):

  -173.1713-173.1474-173.1128-173.0777-173.0363 -33.6581  -4.3718  -4.2367
    -1.4265  16.0612  16.1908  16.2559  16.4468  16.4768  16.5505  16.6547
    16.6652  23.7435  24.3684  24.9903  30.2381  30.5581  39.3242  39.8196

          k =-0.6860 0.6970 0.0052 (  1956 PWs)   bands (ev):

  -173.1725-173.1440-173.1158-173.0769-173.0357 -33.6736  -4.4096  -4.2162
    -1.2953  15.3921  16.1943  16.2589  16.3723  16.4379  16.4587  16.5675
    16.6724  24.2200  24.4971  26.1280  30.4997  30.9472  39.0309  39.2616

     the Fermi energy is    27.2477 ev

!    total energy              =   -2012.37296790 Ry

     total all-electron energy =    -30159.984614 Ry
     estimated scf accuracy    <       0.00000017 Ry
     smearing contrib. (-TS)   =       0.00014519 Ry
     internal energy E=F+TS    =   -2012.37311309 Ry

     The total energy is F=E-TS. E is the sum of the following terms:
     one-electron contribution =   -1284.83770516 Ry
     hartree contribution      =     657.07795941 Ry
     xc contribution           =    -112.70991643 Ry
     ewald contribution        =    -775.50538174 Ry
     one-center paw contrib.   =    -496.39806917 Ry

     convergence has been achieved in   8 iterations

     Forces acting on atoms (cartesian axes, Ry/au):

     atom    1 type  1   force =    -0.01031347    0.01780660    0.03241743
     atom    2 type  2   force =    -0.00481774   -0.04686698   -0.00080757
     atom    3 type  2   force =     0.02518580    0.02268298   -0.04207602
     atom    4 type  2   force =    -0.01005459    0.00637740    0.01046616

     Total force =     0.082857     Total SCF correction =     0.005148


     Computing stress (Cartesian axis) and pressure

          total   stress  (Ry/bohr**3)                   (kbar)     P=      -23.08
  -0.00205193   0.00072144  -0.00077930         -301.85      106.13     -114.64
   0.00072144   0.00179645   0.00065655          106.13      264.27       96.58
  -0.00077930   0.00065655  -0.00021519         -114.64       96.58      -31.65

     Energy error            =      9.4E-03
     Gradient error          =      4.7E-02
     Cell gradient error     =      2.1E-03


     number of scf cycles    =  19
     number of bfgs steps    =  17

     enthalpy old            =   -2012.3635437691 Ry
     enthalpy new            =   -2012.3729679010 Ry

     CASE: enthalpy_new < enthalpy_old

     new trust radius        =       0.1026507155 bohr
     new conv_thr            =       0.0000004687 Ry

     new unit-cell volume =    118.97160 a.u.^3 (    17.62977 Ang^3 )
     density =     17.09671 g/cm^3

CELL_PARAMETERS (angstrom)
   2.620223642  -0.008852862  -0.002652596
  -0.003549057   2.617078121   0.006316710
  -0.000405248   0.003181128   2.570958067

ATOMIC_POSITIONS (angstrom)
Hf            0.5865499836        1.7606209954        0.4660311512
H             1.9060440516        0.5255263978        0.4548185637
H             1.7737321970        1.4151880656        1.7921271715
H             0.3727239364        0.3722030306        1.7023666709



     Writing output data file ./tmp/01_HfH3_Top1.save/
     NEW-OLD atomic charge density approx. for the potential
     extrapolated charge   38.94672, renormalised to   39.00000

     total cpu time spent up to now is      836.9 secs

     Self-consistent Calculation

     iteration #  1     ecut=    50.00 Ry     beta= 0.70
     Davidson diagonalization with overlap
     ethr =  1.00E-06,  avg # of iterations = 11.0

     total cpu time spent up to now is      840.5 secs

     total energy              =   -2012.36625305 Ry
     estimated scf accuracy    <       0.00830107 Ry

     iteration #  2     ecut=    50.00 Ry     beta= 0.70
     Davidson diagonalization with overlap
     ethr =  2.13E-05,  avg # of iterations =  3.1

     total cpu time spent up to now is      843.1 secs

     total energy              =   -2012.37500621 Ry
     estimated scf accuracy    <       0.02415500 Ry

     iteration #  3     ecut=    50.00 Ry     beta= 0.70
     Davidson diagonalization with overlap
     ethr =  2.13E-05,  avg # of iterations =  2.9

     total cpu time spent up to now is      845.6 secs

     total energy              =   -2012.37854272 Ry
     estimated scf accuracy    <       0.00205628 Ry

     iteration #  4     ecut=    50.00 Ry     beta= 0.70
     Davidson diagonalization with overlap
     ethr =  5.27E-06,  avg # of iterations =  2.0

     total cpu time spent up to now is      848.0 secs

     total energy              =   -2012.37914895 Ry
     estimated scf accuracy    <       0.00035487 Ry

     iteration #  5     ecut=    50.00 Ry     beta= 0.70
     Davidson diagonalization with overlap
     ethr =  9.10E-07,  avg # of iterations =  2.0

     total cpu time spent up to now is      850.6 secs

     total energy              =   -2012.37925930 Ry
     estimated scf accuracy    <       0.00006917 Ry

     iteration #  6     ecut=    50.00 Ry     beta= 0.70
     Davidson diagonalization with overlap
     ethr =  1.77E-07,  avg # of iterations =  2.0

     total cpu time spent up to now is      853.2 secs

     total energy              =   -2012.37927394 Ry
     estimated scf accuracy    <       0.00000366 Ry

     iteration #  7     ecut=    50.00 Ry     beta= 0.70
     Davidson diagonalization with overlap
     ethr =  9.39E-09,  avg # of iterations =  3.0

     total cpu time spent up to now is      855.7 secs

     End of self-consistent calculation

          k = 0.0000 0.0000 0.0000 (  1935 PWs)   bands (ev):

  -173.0891-173.0669-173.0546-173.0379-173.0231 -34.1018  -2.0242  -1.9895
    -1.7325  12.3958  16.3923  16.4099  16.4318  16.5158  16.5467  16.5707
    16.6005  20.8521  21.2265  34.9389  35.3210  35.6089  35.7308  37.3954

          k =-0.0007 0.0017-0.7068 (  1936 PWs)   bands (ev):

  -173.1021-173.0679-173.0452-173.0141-173.0057 -33.8153  -4.8897  -1.7111
    -1.6471  16.1811  16.2477  16.4471  16.4677  16.4724  16.6804  16.6939
    17.5603  20.0066  25.0414  26.2560  28.9643  31.3344  36.0637  39.8823

          k =-0.0031-0.6926-0.7059 (  1956 PWs)   bands (ev):

  -173.1174-173.0917-173.0841-173.0314-172.9971 -33.5861  -4.2932  -4.2184
    -1.4233  15.7447  16.2276  16.3445  16.4389  16.5247  16.5423  16.6059
    16.7016  23.5301  25.0584  25.5487  30.2628  30.3901  39.6496  39.6896

          k =-0.6966-0.6936-0.7060 (  1904 PWs)   bands (ev):

  -173.0550-173.0268-173.0178-172.9946-172.9681 -33.3733  -3.7901  -3.6955
    -3.6571  16.1693  16.4960  16.4986  16.4997  16.5635  16.5742  16.5925
    17.7272  18.0559  18.5665  28.7200  39.2681  39.4928  39.9226  39.9878

          k =-0.6935-0.0009-0.0001 (  1936 PWs)   bands (ev):

  -173.0927-173.0762-173.0508-173.0407-172.9692 -33.8608  -4.8597  -1.7194
    -1.4674  16.1479  16.2321  16.4650  16.4791  16.4948  16.6621  16.6943
    17.8154  19.5382  24.8960  28.0042  29.3032  29.5892  36.4136  39.1070

          k =-0.0023-0.6943 0.0009 (  1936 PWs)   bands (ev):

  -173.0926-173.0769-173.0502-173.0413-172.9691 -33.8567  -4.9017  -1.7214
    -1.4607  16.1019  16.1903  16.4662  16.4796  16.4963  16.6607  16.6966
    17.7935  20.1694  24.9145  27.5466  29.0956  29.4355  36.4462  38.7907

          k =-0.6928-0.0026 0.7067 (  1956 PWs)   bands (ev):

  -173.1174-173.0917-173.0841-173.0312-172.9972 -33.5892  -4.3173  -4.2070
    -1.4192  16.0161  16.2358  16.3119  16.4908  16.5220  16.6026  16.6400
    16.7059  23.7776  24.4764  25.2438  30.1764  30.3896  39.6147  39.8444

          k =-0.6912 0.6934-0.0010 (  1956 PWs)   bands (ev):

  -173.1203-173.0895-173.0843-173.0319-172.9939 -33.6308  -4.2781  -4.2364
    -1.2166  15.3581  16.2608  16.2991  16.4219  16.4935  16.5021  16.6154
    16.7226  24.4165  24.5752  26.0244  30.7542  30.9501  39.1511  39.2584

     the Fermi energy is    27.3188 ev

!    total energy              =   -2012.37927548 Ry

     total all-electron energy =    -30159.990921 Ry
     estimated scf accuracy    <       0.00000016 Ry
     smearing contrib. (-TS)   =       0.00015497 Ry
     internal energy E=F+TS    =   -2012.37943045 Ry

     The total energy is F=E-TS. E is the sum of the following terms:
     one-electron contribution =   -1283.98561098 Ry
     hartree contribution      =     656.73098228 Ry
     xc contribution           =    -112.70994484 Ry
     ewald contribution        =    -776.01694622 Ry
     one-center paw contrib.   =    -496.39791070 Ry

     convergence has been achieved in   7 iterations

     Forces acting on atoms (cartesian axes, Ry/au):

     atom    1 type  1   force =    -0.00598682    0.01694684   -0.00332736
     atom    2 type  2   force =    -0.01056789   -0.03656071    0.00093142
     atom    3 type  2   force =     0.01600814    0.01999020   -0.02590748
     atom    4 type  2   force =     0.00054657   -0.00037634    0.02830342

     Total force =     0.062545     Total SCF correction =     0.001760


     Computing stress (Cartesian axis) and pressure

          total   stress  (Ry/bohr**3)                   (kbar)     P=       -1.77
  -0.00076651   0.00031334  -0.00010086         -112.76       46.09      -14.84
   0.00031334   0.00030088  -0.00010913           46.09       44.26      -16.05
  -0.00010086  -0.00010913   0.00042953          -14.84      -16.05       63.19

     Energy error            =      6.3E-03
     Gradient error          =      3.7E-02
     Cell gradient error     =      7.7E-04


     number of scf cycles    =  20
     number of bfgs steps    =  18

     enthalpy old            =   -2012.3729679010 Ry
     enthalpy new            =   -2012.3792754771 Ry

     CASE: enthalpy_new < enthalpy_old

     new trust radius        =       0.0270063319 bohr
     new conv_thr            =       0.0000003656 Ry

     new unit-cell volume =    118.81607 a.u.^3 (    17.60673 Ang^3 )
     density =     17.11909 g/cm^3

CELL_PARAMETERS (angstrom)
   2.609062823  -0.002550495  -0.003895450
   0.002684330   2.622536465   0.007956625
  -0.001763796   0.005235634   2.573209848

ATOMIC_POSITIONS (angstrom)
Hf            0.5911993554        1.7725049928        0.4710520481
H             1.9022559744        0.5176878098        0.4539784810
H             1.7687234238        1.4289368762        1.7813671072
H             0.3644812214        0.3776236666        1.7131641732



     Writing output data file ./tmp/01_HfH3_Top1.save/
     NEW-OLD atomic charge density approx. for the potential
     extrapolated charge   38.94895, renormalised to   39.00000

     total cpu time spent up to now is      869.3 secs

     Self-consistent Calculation

     iteration #  1     ecut=    50.00 Ry     beta= 0.70
     Davidson diagonalization with overlap
     ethr =  1.00E-06,  avg # of iterations =  8.8

     total cpu time spent up to now is      872.6 secs

     total energy              =   -2012.37530906 Ry
     estimated scf accuracy    <       0.00445281 Ry

     iteration #  2     ecut=    50.00 Ry     beta= 0.70
     Davidson diagonalization with overlap
     ethr =  1.14E-05,  avg # of iterations =  3.6

     total cpu time spent up to now is      875.3 secs

     total energy              =   -2012.37987532 Ry
     estimated scf accuracy    <       0.01730761 Ry

     iteration #  3     ecut=    50.00 Ry     beta= 0.70
     Davidson diagonalization with overlap
     ethr =  1.14E-05,  avg # of iterations =  2.9

     total cpu time spent up to now is      877.8 secs

     total energy              =   -2012.38124852 Ry
     estimated scf accuracy    <       0.00188035 Ry

     iteration #  4     ecut=    50.00 Ry     beta= 0.70
     Davidson diagonalization with overlap
     ethr =  4.82E-06,  avg # of iterations =  2.0

     total cpu time spent up to now is      880.2 secs

     total energy              =   -2012.38143595 Ry
     estimated scf accuracy    <       0.00028866 Ry

     iteration #  5     ecut=    50.00 Ry     beta= 0.70
     Davidson diagonalization with overlap
     ethr =  7.40E-07,  avg # of iterations =  2.0

     total cpu time spent up to now is      882.7 secs

     total energy              =   -2012.38146480 Ry
     estimated scf accuracy    <       0.00007723 Ry

     iteration #  6     ecut=    50.00 Ry     beta= 0.70
     Davidson diagonalization with overlap
     ethr =  1.98E-07,  avg # of iterations =  2.0

     total cpu time spent up to now is      885.2 secs

     total energy              =   -2012.38146805 Ry
     estimated scf accuracy    <       0.00001325 Ry

     iteration #  7     ecut=    50.00 Ry     beta= 0.70
     Davidson diagonalization with overlap
     ethr =  3.40E-08,  avg # of iterations =  2.2

     total cpu time spent up to now is      887.7 secs

     total energy              =   -2012.38147040 Ry
     estimated scf accuracy    <       0.00000077 Ry

     iteration #  8     ecut=    50.00 Ry     beta= 0.70
     Davidson diagonalization with overlap
     ethr =  1.96E-09,  avg # of iterations =  3.0

     total cpu time spent up to now is      890.2 secs

     End of self-consistent calculation

          k = 0.0000 0.0000 0.0000 (  1935 PWs)   bands (ev):

  -173.0449-173.0236-173.0123-173.0086-172.9814 -34.0649  -1.9865  -1.9306
    -1.7059  12.4239  16.4361  16.4498  16.4730  16.5585  16.5915  16.6106
    16.6406  20.9359  21.2295  34.9779  35.3614  35.5984  35.8108  37.3488

          k =-0.0011 0.0021-0.7062 (  1936 PWs)   bands (ev):

  -173.0567-173.0309-173.0033-172.9816-172.9619 -33.7806  -4.8498  -1.6639
    -1.6026  16.2261  16.2899  16.4913  16.5116  16.5147  16.7225  16.7361
    17.5808  20.0255  25.0729  26.2428  29.0568  31.4830  36.1384  39.9072

          k =-0.0017-0.6907-0.7048 (  1956 PWs)   bands (ev):

  -173.0743-173.0527-173.0433-172.9947-172.9551 -33.5560  -4.2607  -4.1713
    -1.3575  15.7860  16.2700  16.3836  16.4847  16.5686  16.5870  16.6459
    16.7444  23.6753  25.1079  25.4301  30.3953  30.5057  39.6265  39.8296

          k =-0.6982-0.6900-0.7052 (  1904 PWs)   bands (ev):

  -173.0108-172.9866-172.9749-172.9642-172.9274 -33.3335  -3.7431  -3.6756
    -3.6142  16.2060  16.5357  16.5411  16.5433  16.6091  16.6168  16.6318
    17.7533  18.1475  18.5535  28.6983  39.3662  39.6115  39.9811  40.0287

          k =-0.6965 0.0007-0.0005 (  1936 PWs)   bands (ev):

  -173.0535-173.0345-173.0071-172.9982-172.9373 -33.8137  -4.8551  -1.6878
    -1.4303  16.1832  16.2631  16.5088  16.5203  16.5402  16.7049  16.7354
    17.8925  19.6356  24.9455  27.8369  29.3379  29.6165  36.4241  39.2622

          k =-0.0007-0.6929 0.0014 (  1936 PWs)   bands (ev):

  -173.0420-173.0367-173.0177-173.0089-172.9232 -33.8248  -4.8478  -1.6526
    -1.4387  16.1523  16.2364  16.5066  16.5224  16.5345  16.7040  16.7383
    17.8456  20.1229  24.9324  27.6343  29.1915  29.5163  36.5202  38.7564

          k =-0.6954-0.0014 0.7057 (  1956 PWs)   bands (ev):

  -173.0724-173.0530-173.0445-172.9930-172.9575 -33.5446  -4.2606  -4.2030
    -1.3897  16.0290  16.2720  16.3580  16.5330  16.5609  16.6456  16.6680
    16.7485  23.8472  24.5747  25.2791  30.2044  30.3099  39.7547  39.8262

          k =-0.6958 0.6936-0.0019 (  1956 PWs)   bands (ev):

  -173.0760-173.0513-173.0432-172.9950-172.9533 -33.5889  -4.2378  -4.2056
    -1.1847  15.3598  16.3040  16.3427  16.4629  16.5392  16.5416  16.6583
    16.7640  24.4824  24.5957  26.0866  30.8020  30.9249  39.2063  39.3266

     the Fermi energy is    27.4344 ev

!    total energy              =   -2012.38147065 Ry

     total all-electron energy =    -30159.993116 Ry
     estimated scf accuracy    <          6.5E-09 Ry
     smearing contrib. (-TS)   =       0.00029980 Ry
     internal energy E=F+TS    =   -2012.38177044 Ry

     The total energy is F=E-TS. E is the sum of the following terms:
     one-electron contribution =   -1283.27891977 Ry
     hartree contribution      =     656.42369157 Ry
     xc contribution           =    -112.71046375 Ry
     ewald contribution        =    -776.42004495 Ry
     one-center paw contrib.   =    -496.39603354 Ry

     convergence has been achieved in   8 iterations

     Forces acting on atoms (cartesian axes, Ry/au):

     atom    1 type  1   force =    -0.00896780    0.00847318   -0.00964777
     atom    2 type  2   force =    -0.01283902   -0.02683107    0.00109235
     atom    3 type  2   force =     0.01786889    0.01971150   -0.01565183
     atom    4 type  2   force =     0.00393793   -0.00135362    0.02420725

     Total force =     0.051840     Total SCF correction =     0.000410


     Computing stress (Cartesian axis) and pressure

          total   stress  (Ry/bohr**3)                   (kbar)     P=       21.82
   0.00021004  -0.00005949   0.00002183           30.90       -8.75        3.21
  -0.00005949  -0.00010526  -0.00027164           -8.75      -15.48      -39.96
   0.00002183  -0.00027164   0.00034021            3.21      -39.96       50.05

     Energy error            =      2.2E-03
     Gradient error          =      2.7E-02
     Cell gradient error     =      3.4E-04


     number of scf cycles    =  21
     number of bfgs steps    =  19

     enthalpy old            =   -2012.3792754771 Ry
     enthalpy new            =   -2012.3814706461 Ry

     CASE: enthalpy_new < enthalpy_old

     new trust radius        =       0.0594569096 bohr
     new conv_thr            =       0.0000002195 Ry

     new unit-cell volume =    118.74536 a.u.^3 (    17.59625 Ang^3 )
     density =     17.12928 g/cm^3

CELL_PARAMETERS (angstrom)
   2.605532160  -0.000030192  -0.005255544
   0.005482748   2.619778156   0.004638026
  -0.003108061   0.002454636   2.577869100

ATOMIC_POSITIONS (angstrom)
Hf            0.6000184908        1.7746304589        0.4719262427
H             1.9007809367        0.4928010693        0.4486062367
H             1.7853651542        1.4479372772        1.7680559858
H             0.3362968422        0.3767780306        1.7313760585



     Writing output data file ./tmp/01_HfH3_Top1.save/
     NEW-OLD atomic charge density approx. for the potential
     extrapolated charge   38.97678, renormalised to   39.00000

     total cpu time spent up to now is      903.7 secs

     Self-consistent Calculation

     iteration #  1     ecut=    50.00 Ry     beta= 0.70
     Davidson diagonalization with overlap
     ethr =  1.00E-06,  avg # of iterations =  8.8

     total cpu time spent up to now is      907.0 secs

     total energy              =   -2012.38215100 Ry
     estimated scf accuracy    <       0.00168272 Ry

     iteration #  2     ecut=    50.00 Ry     beta= 0.70
     Davidson diagonalization with overlap
     ethr =  4.31E-06,  avg # of iterations =  3.0

     total cpu time spent up to now is      909.6 secs

     total energy              =   -2012.38346236 Ry
     estimated scf accuracy    <       0.00388273 Ry

     iteration #  3     ecut=    50.00 Ry     beta= 0.70
     Davidson diagonalization with overlap
     ethr =  4.31E-06,  avg # of iterations =  2.5

     total cpu time spent up to now is      912.1 secs

     total energy              =   -2012.38390412 Ry
     estimated scf accuracy    <       0.00028951 Ry

     iteration #  4     ecut=    50.00 Ry     beta= 0.70
     Davidson diagonalization with overlap
     ethr =  7.42E-07,  avg # of iterations =  2.8

     total cpu time spent up to now is      914.6 secs

     total energy              =   -2012.38400608 Ry
     estimated scf accuracy    <       0.00001119 Ry

     iteration #  5     ecut=    50.00 Ry     beta= 0.70
     Davidson diagonalization with overlap
     ethr =  2.87E-08,  avg # of iterations =  3.0

     total cpu time spent up to now is      917.1 secs

     total energy              =   -2012.38401299 Ry
     estimated scf accuracy    <       0.00000283 Ry

     iteration #  6     ecut=    50.00 Ry     beta= 0.70
     Davidson diagonalization with overlap
     ethr =  7.26E-09,  avg # of iterations =  2.0

     total cpu time spent up to now is      919.7 secs

     total energy              =   -2012.38401338 Ry
     estimated scf accuracy    <       0.00000158 Ry

     iteration #  7     ecut=    50.00 Ry     beta= 0.70
     Davidson diagonalization with overlap
     ethr =  4.05E-09,  avg # of iterations =  1.8

     total cpu time spent up to now is      922.1 secs

     total energy              =   -2012.38401333 Ry
     estimated scf accuracy    <       0.00000027 Ry

     iteration #  8     ecut=    50.00 Ry     beta= 0.70
     Davidson diagonalization with overlap
     ethr =  6.86E-10,  avg # of iterations =  3.0

     total cpu time spent up to now is      924.8 secs

     End of self-consistent calculation

          k = 0.0000 0.0000 0.0000 (  1935 PWs)   bands (ev):

  -173.0256-173.0090-173.0000-172.9939-172.9702 -34.0489  -1.9567  -1.9022
    -1.7061  12.4375  16.4532  16.4657  16.4884  16.5748  16.6103  16.6259
    16.6548  20.9697  21.2515  35.0626  35.3559  35.6060  35.8168  37.1675

          k =-0.0014 0.0013-0.7049 (  1936 PWs)   bands (ev):

  -173.0374-173.0163-172.9937-172.9687-172.9460 -33.7696  -4.8152  -1.6379
    -1.5818  16.2469  16.3084  16.5127  16.5267  16.5313  16.7386  16.7526
    17.5752  20.0085  25.0852  26.2847  29.1169  31.5757  36.1885  39.8916

          k =-0.0014-0.6924-0.7042 (  1956 PWs)   bands (ev):

  -173.0554-173.0420-173.0286-172.9771-172.9445 -33.5427  -4.2245  -4.1704
    -1.3311  15.8543  16.2845  16.3952  16.5157  16.5835  16.6100  16.6610
    16.7621  23.8308  25.0607  25.2832  30.4237  30.5179  39.6349  40.0000

          k =-0.6988-0.6909-0.7051 (  1904 PWs)   bands (ev):

  -172.9913-172.9731-172.9636-172.9479-172.9171 -33.3171  -3.7001  -3.6694
    -3.6065  16.2170  16.5512  16.5581  16.5595  16.6267  16.6352  16.6467
    17.7603  18.2405  18.5130  28.6538  39.4727  39.6875  39.9703  40.0912

          k =-0.6974 0.0015-0.0008 (  1936 PWs)   bands (ev):

  -173.0348-173.0245-172.9913-172.9815-172.9271 -33.7942  -4.8527  -1.6573
    -1.4261  16.1922  16.2703  16.5280  16.5362  16.5562  16.7213  16.7519
    17.9501  19.7581  24.9624  27.6404  29.2847  29.7117  36.4484  39.2180

          k =-0.0000-0.6936 0.0007 (  1936 PWs)   bands (ev):

  -173.0259-173.0218-173.0039-172.9922-172.9128 -33.8066  -4.8311  -1.6210
    -1.4368  16.1790  16.2585  16.5255  16.5381  16.5504  16.7211  16.7534
    17.9026  20.0156  24.9538  27.5688  29.2366  29.6845  36.5279  38.8495

          k =-0.6960 0.0002 0.7041 (  1956 PWs)   bands (ev):

  -173.0532-173.0420-173.0305-172.9750-172.9471 -33.5303  -4.2204  -4.1994
    -1.3654  15.9902  16.2831  16.3829  16.5454  16.5775  16.6536  16.6620
    16.7638  23.9082  24.7493  25.2461  30.2646  30.3335  39.7780  39.9923

          k =-0.6974 0.6951-0.0015 (  1956 PWs)   bands (ev):

  -173.0568-173.0383-173.0310-172.9775-172.9429 -33.5674  -4.2283  -4.1828
    -1.1789  15.3391  16.3232  16.3669  16.4777  16.5551  16.5582  16.6755
    16.7797  24.5653  24.6763  26.0016  30.7862  30.8918  39.2366  39.4026

     the Fermi energy is    27.3665 ev

!    total energy              =   -2012.38401343 Ry

     total all-electron energy =    -30159.995659 Ry
     estimated scf accuracy    <       0.00000001 Ry
     smearing contrib. (-TS)   =       0.00030588 Ry
     internal energy E=F+TS    =   -2012.38431931 Ry

     The total energy is F=E-TS. E is the sum of the following terms:
     one-electron contribution =   -1282.83418809 Ry
     hartree contribution      =     656.22724677 Ry
     xc contribution           =    -112.70975539 Ry
     ewald contribution        =    -776.67396655 Ry
     one-center paw contrib.   =    -496.39365605 Ry

     convergence has been achieved in   8 iterations

     Forces acting on atoms (cartesian axes, Ry/au):

     atom    1 type  1   force =    -0.01027079   -0.00031217   -0.01181952
     atom    2 type  2   force =    -0.00925923   -0.01495739    0.00130805
     atom    3 type  2   force =     0.00981899    0.01820690   -0.00551894
     atom    4 type  2   force =     0.00971103   -0.00293734    0.01603041

     Total force =     0.037077     Total SCF correction =     0.000580


     Computing stress (Cartesian axis) and pressure

          total   stress  (Ry/bohr**3)                   (kbar)     P=       34.65
   0.00068812  -0.00017743   0.00016737          101.23      -26.10       24.62
  -0.00017743  -0.00000215  -0.00014809          -26.10       -0.32      -21.78
   0.00016737  -0.00014809   0.00002074           24.62      -21.78        3.05

     Energy error            =      2.5E-03
     Gradient error          =      1.8E-02
     Cell gradient error     =      6.9E-04


     number of scf cycles    =  22
     number of bfgs steps    =  20

     enthalpy old            =   -2012.3814706461 Ry
     enthalpy new            =   -2012.3840134285 Ry

     CASE: enthalpy_new < enthalpy_old

     new trust radius        =       0.0505073201 bohr
     new conv_thr            =       0.0000001821 Ry

     new unit-cell volume =    118.81941 a.u.^3 (    17.60722 Ang^3 )
     density =     17.11861 g/cm^3

CELL_PARAMETERS (angstrom)
   2.609037574   0.000604576  -0.002574729
   0.006221400   2.617553667   0.000502944
  -0.000358665  -0.001388161   2.578191064

ATOMIC_POSITIONS (angstrom)
Hf            0.5982437973        1.7811274276        0.4666199958
H             1.8993666133        0.4668296384        0.4494531588
H             1.7955517984        1.4610823735        1.7475606103
H             0.3413827098        0.3741696969        1.7551832344



     Writing output data file ./tmp/01_HfH3_Top1.save/
     NEW-OLD atomic charge density approx. for the potential
     extrapolated charge   39.02430, renormalised to   39.00000

     total cpu time spent up to now is      938.3 secs

     Self-consistent Calculation

     iteration #  1     ecut=    50.00 Ry     beta= 0.70
     Davidson diagonalization with overlap
     ethr =  1.00E-06,  avg # of iterations =  8.2

     total cpu time spent up to now is      941.5 secs

     total energy              =   -2012.38409211 Ry
     estimated scf accuracy    <       0.00176910 Ry

     iteration #  2     ecut=    50.00 Ry     beta= 0.70
     Davidson diagonalization with overlap
     ethr =  4.54E-06,  avg # of iterations =  3.0

     total cpu time spent up to now is      944.1 secs

     total energy              =   -2012.38523251 Ry
     estimated scf accuracy    <       0.00354781 Ry

     iteration #  3     ecut=    50.00 Ry     beta= 0.70
     Davidson diagonalization with overlap
     ethr =  4.54E-06,  avg # of iterations =  2.1

     total cpu time spent up to now is      946.7 secs

     total energy              =   -2012.38580851 Ry
     estimated scf accuracy    <       0.00024226 Ry

     iteration #  4     ecut=    50.00 Ry     beta= 0.70
     Davidson diagonalization with overlap
     ethr =  6.21E-07,  avg # of iterations =  2.9

     total cpu time spent up to now is      949.3 secs

     total energy              =   -2012.38591529 Ry
     estimated scf accuracy    <       0.00001157 Ry

     iteration #  5     ecut=    50.00 Ry     beta= 0.70
     Davidson diagonalization with overlap
     ethr =  2.97E-08,  avg # of iterations =  3.0

     total cpu time spent up to now is      951.8 secs

     total energy              =   -2012.38591663 Ry
     estimated scf accuracy    <       0.00001298 Ry

     iteration #  6     ecut=    50.00 Ry     beta= 0.70
     Davidson diagonalization with overlap
     ethr =  2.97E-08,  avg # of iterations =  2.0

     total cpu time spent up to now is      954.3 secs

     total energy              =   -2012.38591692 Ry
     estimated scf accuracy    <       0.00000170 Ry

     iteration #  7     ecut=    50.00 Ry     beta= 0.70
     Davidson diagonalization with overlap
     ethr =  4.37E-09,  avg # of iterations =  3.0

     total cpu time spent up to now is      956.9 secs

     End of self-consistent calculation

          k = 0.0000 0.0000 0.0000 (  1935 PWs)   bands (ev):

  -173.0432-173.0267-173.0247-173.0150-172.9919 -34.0732  -1.9716  -1.9358
    -1.7340  12.4437  16.4313  16.4420  16.4659  16.5529  16.5897  16.6021
    16.6308  20.9348  21.2145  35.1186  35.3141  35.5919  35.7746  37.0428

          k =-0.0007 0.0001-0.7048 (  1936 PWs)   bands (ev):

  -173.0555-173.0390-173.0139-172.9872-172.9692 -33.7942  -4.8415  -1.6520
    -1.6172  16.2231  16.2868  16.4955  16.5041  16.5092  16.7156  16.7294
    17.5739  20.0156  25.0667  26.2689  29.0847  31.4879  36.1656  39.8749

          k =-0.0005-0.6941-0.7052 (  1956 PWs)   bands (ev):

  -173.0735-173.0607-173.0532-172.9971-172.9665 -33.5655  -4.2459  -4.1985
    -1.3638  15.8513  16.2637  16.3726  16.4952  16.5604  16.5891  16.6388
    16.7391  23.9200  25.0064  25.1748  30.3820  30.4585  39.6356  39.9676

          k =-0.6970-0.6924-0.7053 (  1904 PWs)   bands (ev):

  -173.0085-172.9914-172.9882-172.9683-172.9386 -33.3431  -3.7266  -3.6790
    -3.6389  16.2027  16.5302  16.5355  16.5359  16.6058  16.6122  16.6223
    17.7813  18.1936  18.4856  28.6859  39.4979  39.6318  39.9019  40.0637

          k =-0.6965 0.0017-0.0001 (  1936 PWs)   bands (ev):

  -173.0525-173.0438-173.0154-173.0046-172.9452 -33.8220  -4.8617  -1.6765
    -1.4572  16.1732  16.2511  16.5038  16.5148  16.5325  16.6997  16.7281
    17.9182  19.7907  24.9322  27.3928  29.2719  29.9223  36.4285  39.1727

          k = 0.0002-0.6942-0.0004 (  1936 PWs)   bands (ev):

  -173.0451-173.0422-173.0251-173.0118-172.9359 -33.8290  -4.8564  -1.6532
    -1.4631  16.1657  16.2399  16.5034  16.5160  16.5284  16.6991  16.7300
    17.9520  19.9269  24.8963  27.5831  29.2356  29.5986  36.4890  38.8498

          k =-0.6958 0.0015 0.7047 (  1956 PWs)   bands (ev):

  -173.0716-173.0605-173.0552-172.9956-172.9683 -33.5582  -4.2448  -4.2168
    -1.3844  15.9891  16.2636  16.3605  16.5220  16.5554  16.6256  16.6391
    16.7414  23.9301  24.7600  25.1578  30.2713  30.3152  39.7137  40.0911

          k =-0.6966 0.6959 0.0003 (  1956 PWs)   bands (ev):

  -173.0752-173.0576-173.0549-172.9979-172.9643 -33.5933  -4.2358  -4.2158
    -1.2083  15.3643  16.2986  16.3509  16.4561  16.5340  16.5375  16.6527
    16.7560  24.4811  24.6835  25.9213  30.7637  30.8625  39.3650  39.3690

     the Fermi energy is    26.4911 ev

!    total energy              =   -2012.38591753 Ry

     total all-electron energy =    -30159.997563 Ry
     estimated scf accuracy    <       0.00000010 Ry
     smearing contrib. (-TS)   =       0.00018942 Ry
     internal energy E=F+TS    =   -2012.38610695 Ry

     The total energy is F=E-TS. E is the sum of the following terms:
     one-electron contribution =   -1283.10644036 Ry
     hartree contribution      =     656.31720433 Ry
     xc contribution           =    -112.70716651 Ry
     ewald contribution        =    -776.49913335 Ry
     one-center paw contrib.   =    -496.39057105 Ry

     convergence has been achieved in   7 iterations

     Forces acting on atoms (cartesian axes, Ry/au):

     atom    1 type  1   force =    -0.00906327   -0.01118610   -0.00553929
     atom    2 type  2   force =    -0.00740895   -0.00293954    0.00095663
     atom    3 type  2   force =     0.00704656    0.01687388    0.00438905
     atom    4 type  2   force =     0.00942565   -0.00274824    0.00019360

     Total force =     0.027431     Total SCF correction =     0.000735


     Computing stress (Cartesian axis) and pressure

          total   stress  (Ry/bohr**3)                   (kbar)     P=       22.06
   0.00029232  -0.00010883   0.00010318           43.00      -16.01       15.18
  -0.00010883   0.00017120   0.00000609          -16.01       25.18        0.90
   0.00010318   0.00000609  -0.00001366           15.18        0.90       -2.01

     Energy error            =      1.9E-03
     Gradient error          =      1.7E-02
     Cell gradient error     =      2.9E-04


     number of scf cycles    =  23
     number of bfgs steps    =  21

     enthalpy old            =   -2012.3840134285 Ry
     enthalpy new            =   -2012.3859175285 Ry

     CASE: enthalpy_new < enthalpy_old

     new trust radius        =       0.0262985093 bohr
     new conv_thr            =       0.0000001687 Ry

     new unit-cell volume =    118.91858 a.u.^3 (    17.62191 Ang^3 )
     density =     17.10433 g/cm^3

CELL_PARAMETERS (angstrom)
   2.613123584  -0.001587402  -0.001016382
   0.004203849   2.615429559  -0.000860617
   0.001266354  -0.002664729   2.578396836

ATOMIC_POSITIONS (angstrom)
Hf            0.5963825931        1.7766209615        0.4635698876
H             1.8992502893        0.4561562662        0.4494188514
H             1.8044430015        1.4695360286        1.7445799709
H             0.3413522336        0.3715054764        1.7622362504



     Writing output data file ./tmp/01_HfH3_Top1.save/
     NEW-OLD atomic charge density approx. for the potential
     extrapolated charge   39.03252, renormalised to   39.00000

     total cpu time spent up to now is      970.5 secs

     Self-consistent Calculation

     iteration #  1     ecut=    50.00 Ry     beta= 0.70
     Davidson diagonalization with overlap
     ethr =  1.00E-06,  avg # of iterations =  8.4

     total cpu time spent up to now is      973.6 secs

     total energy              =   -2012.38395091 Ry
     estimated scf accuracy    <       0.00174864 Ry

     iteration #  2     ecut=    50.00 Ry     beta= 0.70
     Davidson diagonalization with overlap
     ethr =  4.48E-06,  avg # of iterations =  4.4

     total cpu time spent up to now is      976.4 secs

     total energy              =   -2012.38586894 Ry
     estimated scf accuracy    <       0.00665824 Ry

     iteration #  3     ecut=    50.00 Ry     beta= 0.70
     Davidson diagonalization with overlap
     ethr =  4.48E-06,  avg # of iterations =  2.9

     total cpu time spent up to now is      978.9 secs

     total energy              =   -2012.38619273 Ry
     estimated scf accuracy    <       0.00080742 Ry

     iteration #  4     ecut=    50.00 Ry     beta= 0.70
     Davidson diagonalization with overlap
     ethr =  2.07E-06,  avg # of iterations =  2.1

     total cpu time spent up to now is      981.4 secs

     total energy              =   -2012.38633435 Ry
     estimated scf accuracy    <       0.00003462 Ry

     iteration #  5     ecut=    50.00 Ry     beta= 0.70
     Davidson diagonalization with overlap
     ethr =  8.88E-08,  avg # of iterations =  3.5

     total cpu time spent up to now is      984.0 secs

     total energy              =   -2012.38634817 Ry
     estimated scf accuracy    <       0.00000110 Ry

     iteration #  6     ecut=    50.00 Ry     beta= 0.70
     Davidson diagonalization with overlap
     ethr =  2.83E-09,  avg # of iterations =  3.0

     total cpu time spent up to now is      986.6 secs

     total energy              =   -2012.38634809 Ry
     estimated scf accuracy    <       0.00000268 Ry

     iteration #  7     ecut=    50.00 Ry     beta= 0.70
     Davidson diagonalization with overlap
     ethr =  2.83E-09,  avg # of iterations =  2.0

     total cpu time spent up to now is      989.2 secs

     total energy              =   -2012.38634813 Ry
     estimated scf accuracy    <       0.00000036 Ry

     iteration #  8     ecut=    50.00 Ry     beta= 0.70
     Davidson diagonalization with overlap
     ethr =  9.19E-10,  avg # of iterations =  3.0

     total cpu time spent up to now is      991.7 secs

     End of self-consistent calculation

          k = 0.0000 0.0000 0.0000 (  1935 PWs)   bands (ev):

  -173.0721-173.0547-173.0526-173.0426-173.0212 -34.1004  -1.9903  -1.9756
    -1.7617  12.4355  16.4009  16.4135  16.4364  16.5232  16.5601  16.5727
    16.6016  20.9092  21.1612  35.1845  35.2789  35.5806  35.7262  36.9910

          k =-0.0003-0.0002-0.7047 (  1936 PWs)   bands (ev):

  -173.0849-173.0665-173.0416-173.0138-172.9995 -33.8217  -4.8665  -1.6798
    -1.6496  16.1921  16.2584  16.4668  16.4741  16.4800  16.6858  16.6998
    17.5594  20.0082  25.0380  26.3052  29.0343  31.3529  36.1322  39.8467

          k =-0.0007-0.6950-0.7055 (  1956 PWs)   bands (ev):

  -173.1019-173.0887-173.0819-173.0243-172.9961 -33.5911  -4.2691  -4.2302
    -1.4008  15.8543  16.2348  16.3426  16.4686  16.5293  16.5613  16.6097
    16.7095  23.9118  24.9348  25.1460  30.3189  30.3967  39.6299  39.9588

          k =-0.6961-0.6939-0.7051 (  1904 PWs)   bands (ev):

  -173.0370-173.0190-173.0158-172.9958-172.9675 -33.3725  -3.7534  -3.6975
    -3.6699  16.1793  16.5016  16.5051  16.5064  16.5749  16.5827  16.5937
    17.7729  18.1614  18.4467  28.7318  39.4825  39.5448  39.8825  40.0214

          k =-0.6954 0.0011 0.0003 (  1936 PWs)   bands (ev):

  -173.0792-173.0715-173.0461-173.0351-172.9704 -33.8530  -4.8748  -1.7008
    -1.4886  16.1455  16.2253  16.4737  16.4858  16.5014  16.6697  16.6988
    17.8802  19.7936  24.9019  27.3630  29.2569  29.8975  36.4084  39.0952

          k =-0.0004-0.6948-0.0007 (  1936 PWs)   bands (ev):

  -173.0763-173.0718-173.0489-173.0380-172.9670 -33.8544  -4.8867  -1.6901
    -1.4890  16.1388  16.2139  16.4752  16.4862  16.5004  16.6691  16.6999
    17.9411  19.8854  24.8753  27.5258  29.2160  29.5661  36.4436  38.8902

          k =-0.6951 0.0013 0.7051 (  1956 PWs)   bands (ev):

  -173.1013-173.0887-173.0825-173.0237-172.9968 -33.5895  -4.2750  -4.2294
    -1.4095  15.9699  16.2359  16.3324  16.4905  16.5273  16.5910  16.6089
    16.7112  23.9096  24.7244  25.1312  30.2821  30.3091  39.6444  40.1921

          k =-0.6950 0.6959 0.0011 (  1956 PWs)   bands (ev):

  -173.1042-173.0855-173.0830-173.0257-172.9933 -33.6224  -4.2550  -4.2467
    -1.2377  15.3804  16.2702  16.3227  16.4271  16.5045  16.5075  16.6228
    16.7263  24.4630  24.6462  25.8275  30.7321  30.8398  39.3226  39.4325

     the Fermi energy is    27.1679 ev

!    total energy              =   -2012.38634825 Ry

     total all-electron energy =    -30159.997994 Ry
     estimated scf accuracy    <       0.00000005 Ry
     smearing contrib. (-TS)   =       0.00032011 Ry
     internal energy E=F+TS    =   -2012.38666836 Ry

     The total energy is F=E-TS. E is the sum of the following terms:
     one-electron contribution =   -1283.51267427 Ry
     hartree contribution      =     656.48134470 Ry
     xc contribution           =    -112.70577682 Ry
     ewald contribution        =    -776.25947909 Ry
     one-center paw contrib.   =    -496.39008287 Ry

     convergence has been achieved in   8 iterations

     Forces acting on atoms (cartesian axes, Ry/au):

     atom    1 type  1   force =    -0.00883996   -0.00700958   -0.00008318
     atom    2 type  2   force =    -0.00298452   -0.00275670    0.00071557
     atom    3 type  2   force =     0.00249948    0.01456679    0.00463643
     atom    4 type  2   force =     0.00932500   -0.00480051   -0.00526882

     Total force =     0.022847     Total SCF correction =     0.000151


     Computing stress (Cartesian axis) and pressure

          total   stress  (Ry/bohr**3)                   (kbar)     P=        6.38
  -0.00012647   0.00006141   0.00002331          -18.60        9.03        3.43
   0.00006141   0.00033668   0.00006471            9.03       49.53        9.52
   0.00002331   0.00006471  -0.00008004            3.43        9.52      -11.77

     Energy error            =      4.3E-04
     Gradient error          =      1.5E-02
     Cell gradient error     =      3.4E-04


     number of scf cycles    =  24
     number of bfgs steps    =  22

     enthalpy old            =   -2012.3859175285 Ry
     enthalpy new            =   -2012.3863482487 Ry

     CASE: enthalpy_new < enthalpy_old

     new trust radius        =       0.0355565079 bohr
     new conv_thr            =       0.0000000431 Ry

     new unit-cell volume =    118.99598 a.u.^3 (    17.63338 Ang^3 )
     density =     17.09321 g/cm^3

CELL_PARAMETERS (angstrom)
   2.616026549  -0.003625984   0.001009615
   0.002331844   2.616115710  -0.001899993
   0.003371069  -0.003652271   2.576538969

ATOMIC_POSITIONS (angstrom)
Hf            0.5833818657        1.7763611875        0.4593805381
H             1.8988983276        0.4423397211        0.4527829978
H             1.8051057190        1.4818273130        1.7373239938
H             0.3598780105        0.3690530721        1.7691003945



     Writing output data file ./tmp/01_HfH3_Top1.save/
     NEW-OLD atomic charge density approx. for the potential
     extrapolated charge   39.02537, renormalised to   39.00000

     total cpu time spent up to now is     1005.3 secs

     Self-consistent Calculation

     iteration #  1     ecut=    50.00 Ry     beta= 0.70
     Davidson diagonalization with overlap
     ethr =  1.00E-06,  avg # of iterations =  9.1

     total cpu time spent up to now is     1008.6 secs

     total energy              =   -2012.38432962 Ry
     estimated scf accuracy    <       0.00159298 Ry

     iteration #  2     ecut=    50.00 Ry     beta= 0.70
     Davidson diagonalization with overlap
     ethr =  4.08E-06,  avg # of iterations =  3.0

     total cpu time spent up to now is     1011.3 secs

     total energy              =   -2012.38584638 Ry
     estimated scf accuracy    <       0.00361422 Ry

     iteration #  3     ecut=    50.00 Ry     beta= 0.70
     Davidson diagonalization with overlap
     ethr =  4.08E-06,  avg # of iterations =  2.4

     total cpu time spent up to now is     1013.8 secs

     total energy              =   -2012.38652455 Ry
     estimated scf accuracy    <       0.00031341 Ry

     iteration #  4     ecut=    50.00 Ry     beta= 0.70
     Davidson diagonalization with overlap
     ethr =  8.04E-07,  avg # of iterations =  2.0

     total cpu time spent up to now is     1016.3 secs

     total energy              =   -2012.38666840 Ry
     estimated scf accuracy    <       0.00006254 Ry

     iteration #  5     ecut=    50.00 Ry     beta= 0.70
     Davidson diagonalization with overlap
     ethr =  1.60E-07,  avg # of iterations =  2.0

     total cpu time spent up to now is     1018.8 secs

     total energy              =   -2012.38668910 Ry
     estimated scf accuracy    <       0.00002888 Ry

     iteration #  6     ecut=    50.00 Ry     beta= 0.70
     Davidson diagonalization with overlap
     ethr =  7.41E-08,  avg # of iterations =  2.0

     total cpu time spent up to now is     1021.3 secs

     total energy              =   -2012.38669068 Ry
     estimated scf accuracy    <       0.00000445 Ry

     iteration #  7     ecut=    50.00 Ry     beta= 0.70
     Davidson diagonalization with overlap
     ethr =  1.14E-08,  avg # of iterations =  2.0

     total cpu time spent up to now is     1023.8 secs

     total energy              =   -2012.38669158 Ry
     estimated scf accuracy    <       0.00000010 Ry

     iteration #  8     ecut=    50.00 Ry     beta= 0.70
     Davidson diagonalization with overlap
     ethr =  2.66E-10,  avg # of iterations =  3.2

     total cpu time spent up to now is     1026.4 secs

     End of self-consistent calculation

          k = 0.0000 0.0000 0.0000 (  1935 PWs)   bands (ev):

  -173.1034-173.0845-173.0780-173.0701-173.0478 -34.1300  -2.0233  -2.0106
    -1.7856  12.4458  16.3700  16.3841  16.4063  16.4936  16.5304  16.5432
    16.5728  20.8658  21.0675  35.2177  35.3554  35.5742  35.6943  37.0436

          k = 0.0003-0.0005-0.7053 (  1936 PWs)   bands (ev):

  -173.1163-173.0939-173.0675-173.0401-173.0293 -33.8492  -4.9058  -1.7155
    -1.6793  16.1560  16.2297  16.4380  16.4442  16.4507  16.6554  16.6703
    17.5638  20.0461  25.0032  26.3641  28.9584  31.0991  36.0942  39.8418

          k =-0.0007-0.6951-0.7062 (  1956 PWs)   bands (ev):

  -173.1330-173.1159-173.1087-173.0541-173.0224 -33.6195  -4.3089  -4.2472
    -1.4420  15.8545  16.2074  16.3146  16.4353  16.5014  16.5318  16.5800
    16.6777  23.9114  24.8431  25.1165  30.2926  30.3404  39.6123  39.9296

          k =-0.6953-0.6945-0.7053 (  1904 PWs)   bands (ev):

  -173.0684-173.0479-173.0404-173.0244-172.9936 -33.4032  -3.7947  -3.7211
    -3.6934  16.1645  16.4720  16.4754  16.4762  16.5442  16.5518  16.5647
    17.7834  18.1028  18.3859  28.8818  39.4103  39.4797  39.8763  39.9580

          k =-0.6946 0.0006 0.0009 (  1936 PWs)   bands (ev):

  -173.1102-173.0984-173.0733-173.0644-172.9962 -33.8852  -4.8973  -1.7310
    -1.5152  16.1188  16.2023  16.4432  16.4568  16.4723  16.6402  16.6676
    17.8342  19.7988  24.8882  27.2607  29.2605  29.9095  36.3819  39.1239

          k =-0.0010-0.6946-0.0010 (  1936 PWs)   bands (ev):

  -173.1064-173.0987-173.0768-173.0670-172.9936 -33.8847  -4.9085  -1.7327
    -1.5137  16.1111  16.1930  16.4440  16.4566  16.4697  16.6385  16.6716
    17.9227  19.8658  24.8176  27.6423  29.2038  29.3744  36.4079  38.8851

          k =-0.6949 0.0011 0.7062 (  1956 PWs)   bands (ev):

  -173.1323-173.1160-173.1092-173.0535-173.0230 -33.6195  -4.3187  -4.2495
    -1.4371  15.9839  16.2095  16.3000  16.4603  16.4962  16.5572  16.5792
    16.6828  23.8868  24.6210  25.1476  30.2496  30.2865  39.5930  40.2640

          k =-0.6936 0.6952 0.0019 (  1956 PWs)   bands (ev):

  -173.1354-173.1142-173.1083-173.0553-173.0195 -33.6551  -4.2847  -4.2749
    -1.2647  15.4534  16.2395  16.2917  16.3987  16.4738  16.4783  16.5921
    16.6966  24.3772  24.6019  25.7242  30.7159  30.8231  39.2519  39.6235

     the Fermi energy is    27.0342 ev

!    total energy              =   -2012.38669163 Ry

     total all-electron energy =    -30159.998337 Ry
     estimated scf accuracy    <       0.00000002 Ry
     smearing contrib. (-TS)   =       0.00019729 Ry
     internal energy E=F+TS    =   -2012.38688892 Ry

     The total energy is F=E-TS. E is the sum of the following terms:
     one-electron contribution =   -1283.96508406 Ry
     hartree contribution      =     656.66655518 Ry
     xc contribution           =    -112.70599318 Ry
     ewald contribution        =    -775.99448840 Ry
     one-center paw contrib.   =    -496.38787845 Ry

     convergence has been achieved in   8 iterations

     Forces acting on atoms (cartesian axes, Ry/au):

     atom    1 type  1   force =     0.00451562   -0.01159877    0.00551487
     atom    2 type  2   force =    -0.00918370    0.00584716    0.00039610
     atom    3 type  2   force =    -0.00010450    0.01164970    0.00654085
     atom    4 type  2   force =     0.00477257   -0.00589809   -0.01245182

     Total force =     0.026366     Total SCF correction =     0.000103


     Computing stress (Cartesian axis) and pressure

          total   stress  (Ry/bohr**3)                   (kbar)     P=       -2.77
  -0.00033847   0.00020185  -0.00007625          -49.79       29.69      -11.22
   0.00020185   0.00020419   0.00009353           29.69       30.04       13.76
  -0.00007625   0.00009353   0.00007780          -11.22       13.76       11.44

     Energy error            =      3.4E-04
     Gradient error          =      1.2E-02
     Cell gradient error     =      3.4E-04


     number of scf cycles    =  25
     number of bfgs steps    =  23

     enthalpy old            =   -2012.3863482487 Ry
     enthalpy new            =   -2012.3866916309 Ry

     CASE: enthalpy_new < enthalpy_old

     new trust radius        =       0.0197531049 bohr
     new conv_thr            =       0.0000000343 Ry

     new unit-cell volume =    119.09302 a.u.^3 (    17.64777 Ang^3 )
     density =     17.07928 g/cm^3

CELL_PARAMETERS (angstrom)
   2.616654403  -0.003639050   0.000610171
   0.002552942   2.616597944  -0.001578698
   0.003040983  -0.003323539   2.577544805

ATOMIC_POSITIONS (angstrom)
Hf            0.5843698248        1.7688823709        0.4583843751
H             1.8949070421        0.4447558259        0.4519099102
H             1.8057987900        1.4919422598        1.7419718823
H             0.3630801461        0.3652940686        1.7678403580



     Writing output data file ./tmp/01_HfH3_Top1.save/
     NEW-OLD atomic charge density approx. for the potential
     extrapolated charge   39.03178, renormalised to   39.00000

     total cpu time spent up to now is     1039.9 secs

     Self-consistent Calculation

     iteration #  1     ecut=    50.00 Ry     beta= 0.70
     Davidson diagonalization with overlap
     ethr =  1.00E-06,  avg # of iterations =  8.4

     total cpu time spent up to now is     1043.0 secs

     total energy              =   -2012.38473839 Ry
     estimated scf accuracy    <       0.00164470 Ry

     iteration #  2     ecut=    50.00 Ry     beta= 0.70
     Davidson diagonalization with overlap
     ethr =  4.22E-06,  avg # of iterations =  3.5

     total cpu time spent up to now is     1045.7 secs

     total energy              =   -2012.38662178 Ry
     estimated scf accuracy    <       0.00621784 Ry

     iteration #  3     ecut=    50.00 Ry     beta= 0.70
     Davidson diagonalization with overlap
     ethr =  4.22E-06,  avg # of iterations =  2.9

     total cpu time spent up to now is     1048.2 secs

     total energy              =   -2012.38706777 Ry
     estimated scf accuracy    <       0.00072806 Ry

     iteration #  4     ecut=    50.00 Ry     beta= 0.70
     Davidson diagonalization with overlap
     ethr =  1.87E-06,  avg # of iterations =  2.0

     total cpu time spent up to now is     1050.7 secs

     total energy              =   -2012.38718395 Ry
     estimated scf accuracy    <       0.00006823 Ry

     iteration #  5     ecut=    50.00 Ry     beta= 0.70
     Davidson diagonalization with overlap
     ethr =  1.75E-07,  avg # of iterations =  2.0

     total cpu time spent up to now is     1053.2 secs

     total energy              =   -2012.38720085 Ry
     estimated scf accuracy    <       0.00000947 Ry

     iteration #  6     ecut=    50.00 Ry     beta= 0.70
     Davidson diagonalization with overlap
     ethr =  2.43E-08,  avg # of iterations =  2.0

     total cpu time spent up to now is     1055.7 secs

     total energy              =   -2012.38720167 Ry
     estimated scf accuracy    <       0.00000159 Ry

     iteration #  7     ecut=    50.00 Ry     beta= 0.70
     Davidson diagonalization with overlap
     ethr =  4.08E-09,  avg # of iterations =  2.4

     total cpu time spent up to now is     1058.3 secs

     total energy              =   -2012.38720198 Ry
     estimated scf accuracy    <       0.00000005 Ry

     iteration #  8     ecut=    50.00 Ry     beta= 0.70
     Davidson diagonalization with overlap
     ethr =  1.16E-10,  avg # of iterations =  3.9

     total cpu time spent up to now is     1061.0 secs

     End of self-consistent calculation

          k = 0.0000 0.0000 0.0000 (  1935 PWs)   bands (ev):

  -173.1293-173.1105-173.1047-173.0964-173.0743 -34.1559  -2.0512  -2.0355
    -1.8164  12.4373  16.3425  16.3570  16.3784  16.4659  16.5037  16.5156
    16.5448  20.8402  21.0058  35.1966  35.4422  35.5504  35.6589  37.0375

          k = 0.0002-0.0004-0.7050 (  1936 PWs)   bands (ev):

  -173.1423-173.1202-173.0937-173.0663-173.0557 -33.8761  -4.9302  -1.7439
    -1.7063  16.1264  16.2038  16.4103  16.4174  16.4235  16.6277  16.6419
    17.5463  20.0434  24.9721  26.3808  28.9240  30.9751  36.0665  39.8035

          k =-0.0008-0.6949-0.7059 (  1956 PWs)   bands (ev):

  -173.1590-173.1421-173.1354-173.0803-173.0489 -33.6468  -4.3345  -4.2735
    -1.4684  15.8606  16.1810  16.2870  16.4099  16.4724  16.5032  16.5522
    16.6508  23.8937  24.7803  25.0777  30.2677  30.3054  39.5699  39.9646

          k =-0.6952-0.6942-0.7051 (  1904 PWs)   bands (ev):

  -173.0941-173.0735-173.0668-173.0505-173.0199 -33.4312  -3.8194  -3.7471
    -3.7174  16.1439  16.4448  16.4479  16.4484  16.5161  16.5239  16.5372
    17.7747  18.0713  18.3376  28.9438  39.3811  39.4430  39.8264  39.9204

          k =-0.6944 0.0007 0.0008 (  1936 PWs)   bands (ev):

  -173.1355-173.1247-173.1003-173.0912-173.0220 -33.9118  -4.9180  -1.7601
    -1.5464  16.0917  16.1781  16.4153  16.4291  16.4437  16.6123  16.6403
    17.8126  19.7859  24.8509  27.3497  29.2294  29.7338  36.3479  39.0909

          k =-0.0010-0.6945-0.0009 (  1936 PWs)   bands (ev):

  -173.1333-173.1249-173.1022-173.0930-173.0203 -33.9112  -4.9312  -1.7586
    -1.5449  16.0848  16.1692  16.4167  16.4291  16.4426  16.6111  16.6426
    17.8817  19.8523  24.8128  27.5715  29.1790  29.3696  36.3707  38.9181

          k =-0.6946 0.0011 0.7058 (  1956 PWs)   bands (ev):

  -173.1586-173.1422-173.1357-173.0799-173.0493 -33.6471  -4.3427  -4.2706
    -1.4676  15.9629  16.1825  16.2748  16.4315  16.4695  16.5268  16.5514
    16.6539  23.8784  24.5796  25.1059  30.2325  30.2680  39.5560  40.2200

          k =-0.6935 0.6951 0.0017 (  1956 PWs)   bands (ev):

  -173.1616-173.1404-173.1349-173.0816-173.0459 -33.6821  -4.3106  -4.2979
    -1.2961  15.4762  16.2122  16.2618  16.3714  16.4465  16.4498  16.5642
    16.6683  24.3480  24.5387  25.6708  30.6842  30.7827  39.2138  39.6666

     the Fermi energy is    27.1462 ev

!    total energy              =   -2012.38720200 Ry

     total all-electron energy =    -30159.998848 Ry
     estimated scf accuracy    <       0.00000002 Ry
     smearing contrib. (-TS)   =       0.00028980 Ry
     internal energy E=F+TS    =   -2012.38749180 Ry

     The total energy is F=E-TS. E is the sum of the following terms:
     one-electron contribution =   -1284.38373835 Ry
     hartree contribution      =     656.83632343 Ry
     xc contribution           =    -112.70468043 Ry
     ewald contribution        =    -775.74807449 Ry
     one-center paw contrib.   =    -496.38732196 Ry

     convergence has been achieved in   8 iterations

     Forces acting on atoms (cartesian axes, Ry/au):

     atom    1 type  1   force =     0.00154858   -0.00208040    0.00858981
     atom    2 type  2   force =    -0.00508350   -0.00062939    0.00018366
     atom    3 type  2   force =    -0.00077594    0.00889330    0.00332530
     atom    4 type  2   force =     0.00431087   -0.00618351   -0.01209877

     Total force =     0.020018     Total SCF correction =     0.000020


     Computing stress (Cartesian axis) and pressure

          total   stress  (Ry/bohr**3)                   (kbar)     P=      -17.97
  -0.00047152   0.00020918  -0.00006748          -69.36       30.77       -9.93
   0.00020918   0.00013585   0.00008983           30.77       19.98       13.21
  -0.00006748   0.00008983  -0.00003084           -9.93       13.21       -4.54

     Energy error            =      5.1E-04
     Gradient error          =      1.2E-02
     Cell gradient error     =      4.7E-04


     number of scf cycles    =  26
     number of bfgs steps    =  24

     enthalpy old            =   -2012.3866916309 Ry
     enthalpy new            =   -2012.3872019987 Ry

     CASE: enthalpy_new < enthalpy_old

     new trust radius        =       0.0217350249 bohr
     new conv_thr            =       0.0000000510 Ry

     new unit-cell volume =    119.10043 a.u.^3 (    17.64886 Ang^3 )
     density =     17.07822 g/cm^3

CELL_PARAMETERS (angstrom)
   2.615726362  -0.002837519   0.000199468
   0.003603492   2.616938921  -0.000873085
   0.002709536  -0.002562140   2.578281742

ATOMIC_POSITIONS (angstrom)
Hf            0.5838250971        1.7634388544        0.4594866768
H             1.8911629630        0.4445911874        0.4516326560
H             1.8054572675        1.5042997924        1.7456308548
H             0.3671359443        0.3618038577        1.7649934147



     Writing output data file ./tmp/01_HfH3_Top1.save/
     NEW-OLD atomic charge density approx. for the potential
     extrapolated charge   39.00243, renormalised to   39.00000

     total cpu time spent up to now is     1074.5 secs

     Self-consistent Calculation

     iteration #  1     ecut=    50.00 Ry     beta= 0.70
     Davidson diagonalization with overlap
     ethr =  1.00E-06,  avg # of iterations =  7.8

     total cpu time spent up to now is     1077.5 secs

     total energy              =   -2012.38738027 Ry
     estimated scf accuracy    <       0.00008815 Ry

     iteration #  2     ecut=    50.00 Ry     beta= 0.70
     Davidson diagonalization with overlap
     ethr =  2.26E-07,  avg # of iterations =  2.4

     total cpu time spent up to now is     1080.0 secs

     total energy              =   -2012.38753478 Ry
     estimated scf accuracy    <       0.00004186 Ry

     iteration #  3     ecut=    50.00 Ry     beta= 0.70
     Davidson diagonalization with overlap
     ethr =  1.07E-07,  avg # of iterations =  2.0

     total cpu time spent up to now is     1082.6 secs

     total energy              =   -2012.38757280 Ry
     estimated scf accuracy    <       0.00000584 Ry

     iteration #  4     ecut=    50.00 Ry     beta= 0.70
     Davidson diagonalization with overlap
     ethr =  1.50E-08,  avg # of iterations =  2.0

     total cpu time spent up to now is     1085.1 secs

     total energy              =   -2012.38758740 Ry
     estimated scf accuracy    <       0.00000297 Ry

     iteration #  5     ecut=    50.00 Ry     beta= 0.70
     Davidson diagonalization with overlap
     ethr =  7.63E-09,  avg # of iterations =  2.0

     total cpu time spent up to now is     1087.6 secs

     total energy              =   -2012.38758958 Ry
     estimated scf accuracy    <       0.00000050 Ry

     iteration #  6     ecut=    50.00 Ry     beta= 0.70
     Davidson diagonalization with overlap
     ethr =  1.28E-09,  avg # of iterations =  2.0

     total cpu time spent up to now is     1090.0 secs

     End of self-consistent calculation

          k = 0.0000 0.0000 0.0000 (  1935 PWs)   bands (ev):

  -173.1366-173.1180-173.1139-173.1056-173.0830 -34.1638  -2.0571  -2.0405
    -1.8281  12.4469  16.3342  16.3488  16.3695  16.4578  16.4967  16.5072
    16.5361  20.8273  20.9610  35.2042  35.5214  35.5753  35.6537  37.0699

          k = 0.0001-0.0002-0.7048 (  1936 PWs)   bands (ev):

  -173.1496-173.1289-173.1025-173.0752-173.0638 -33.8845  -4.9390  -1.7498
    -1.7135  16.1155  16.1970  16.4018  16.4096  16.4157  16.6194  16.6334
    17.5475  20.0635  24.9586  26.4168  28.9137  30.8736  36.0662  39.7916

          k =-0.0007-0.6946-0.7055 (  1956 PWs)   bands (ev):

  -173.1665-173.1506-173.1444-173.0886-173.0577 -33.6556  -4.3440  -4.2808
    -1.4729  15.8818  16.1732  16.2786  16.4034  16.4636  16.4944  16.5438
    16.6429  23.8984  24.7281  25.0660  30.2748  30.2989  39.5490  40.0288

          k =-0.6954-0.6936-0.7047 (  1904 PWs)   bands (ev):

  -173.1012-173.0815-173.0760-173.0592-173.0287 -33.4391  -3.8256  -3.7567
    -3.7251  16.1427  16.4367  16.4396  16.4400  16.5077  16.5155  16.5286
    17.7808  18.0600  18.3007  29.0274  39.3882  39.4364  39.8024  39.9157

          k =-0.6947 0.0010 0.0007 (  1936 PWs)   bands (ev):

  -173.1431-173.1333-173.1088-173.0994-173.0312 -33.9187  -4.9283  -1.7677
    -1.5569  16.0827  16.1720  16.4071  16.4209  16.4351  16.6041  16.6320
    17.8116  19.8048  24.8379  27.4120  29.2106  29.6128  36.3370  39.1069

          k =-0.0008-0.6944-0.0007 (  1936 PWs)   bands (ev):

  -173.1408-173.1334-173.1111-173.1016-173.0287 -33.9193  -4.9360  -1.7627
    -1.5568  16.0772  16.1657  16.4083  16.4210  16.4340  16.6033  16.6336
    17.8628  19.8529  24.8105  27.5675  29.1770  29.3585  36.3610  38.9656

          k =-0.6947 0.0012 0.7055 (  1956 PWs)   bands (ev):

  -173.1660-173.1506-173.1448-173.0881-173.0582 -33.6547  -4.3486  -4.2808
    -1.4761  15.9601  16.1742  16.2686  16.4213  16.4612  16.5130  16.5431
    16.6452  23.8911  24.5716  25.0829  30.2349  30.2626  39.5527  40.2030

          k =-0.6939 0.6953 0.0014 (  1956 PWs)   bands (ev):

  -173.1690-173.1487-173.1441-173.0899-173.0547 -33.6893  -4.3172  -4.3088
    -1.3070  15.5155  16.2038  16.2510  16.3634  16.4384  16.4408  16.5558
    16.6597  24.3256  24.5092  25.6410  30.6742  30.7559  39.2078  39.7414

     the Fermi energy is    27.2172 ev

!    total energy              =   -2012.38758972 Ry

     total all-electron energy =    -30159.999235 Ry
     estimated scf accuracy    <          8.4E-09 Ry
     smearing contrib. (-TS)   =       0.00032353 Ry
     internal energy E=F+TS    =   -2012.38791325 Ry

     The total energy is F=E-TS. E is the sum of the following terms:
     one-electron contribution =   -1284.48425571 Ry
     hartree contribution      =     656.88018535 Ry
     xc contribution           =    -112.70572773 Ry
     ewald contribution        =    -775.69207623 Ry
     one-center paw contrib.   =    -496.38603893 Ry

     convergence has been achieved in   6 iterations

     Forces acting on atoms (cartesian axes, Ry/au):

     atom    1 type  1   force =     0.00123070    0.00356189    0.00762696
     atom    2 type  2   force =    -0.00338060   -0.00372971    0.00020447
     atom    3 type  2   force =    -0.00144142    0.00616150    0.00187068
     atom    4 type  2   force =     0.00359131   -0.00599368   -0.00970211

     Total force =     0.016860     Total SCF correction =     0.000143


     Computing stress (Cartesian axis) and pressure

          total   stress  (Ry/bohr**3)                   (kbar)     P=      -14.69
  -0.00038336   0.00015856  -0.00005785          -56.39       23.33       -8.51
   0.00015856   0.00012965   0.00006123           23.33       19.07        9.01
  -0.00005785   0.00006123  -0.00004584           -8.51        9.01       -6.74

     Energy error            =      3.9E-04
     Gradient error          =      9.7E-03
     Cell gradient error     =      3.8E-04


     number of scf cycles    =  27
     number of bfgs steps    =  25

     enthalpy old            =   -2012.3872019987 Ry
     enthalpy new            =   -2012.3875897178 Ry

     CASE: enthalpy_new < enthalpy_old

     new trust radius        =       0.0326116875 bohr
     new conv_thr            =       0.0000000388 Ry

     new unit-cell volume =    119.11379 a.u.^3 (    17.65084 Ang^3 )
     density =     17.07630 g/cm^3

CELL_PARAMETERS (angstrom)
   2.613625397  -0.001254228  -0.000673152
   0.005550780   2.618174954   0.000123031
   0.001943118  -0.001462215   2.579424926

ATOMIC_POSITIONS (angstrom)
Hf            0.5822110609        1.7586321591        0.4617793256
H             1.8846109942        0.4422815474        0.4516869963
H             1.8024736622        1.5237373387        1.7492457640
H             0.3762847518        0.3561051422        1.7609998614



     Writing output data file ./tmp/01_HfH3_Top1.save/
     NEW-OLD atomic charge density approx. for the potential
     extrapolated charge   39.00437, renormalised to   39.00000

     total cpu time spent up to now is     1103.5 secs

     Self-consistent Calculation

     iteration #  1     ecut=    50.00 Ry     beta= 0.70
     Davidson diagonalization with overlap
     ethr =  1.00E-06,  avg # of iterations =  7.6

     total cpu time spent up to now is     1106.6 secs

     total energy              =   -2012.38776323 Ry
     estimated scf accuracy    <       0.00021739 Ry

     iteration #  2     ecut=    50.00 Ry     beta= 0.70
     Davidson diagonalization with overlap
     ethr =  5.57E-07,  avg # of iterations =  3.0

     total cpu time spent up to now is     1109.2 secs

     total energy              =   -2012.38797417 Ry
     estimated scf accuracy    <       0.00013827 Ry

     iteration #  3     ecut=    50.00 Ry     beta= 0.70
     Davidson diagonalization with overlap
     ethr =  3.55E-07,  avg # of iterations =  2.0

     total cpu time spent up to now is     1111.9 secs

     total energy              =   -2012.38804972 Ry
     estimated scf accuracy    <       0.00001209 Ry

     iteration #  4     ecut=    50.00 Ry     beta= 0.70
     Davidson diagonalization with overlap
     ethr =  3.10E-08,  avg # of iterations =  2.0

     total cpu time spent up to now is     1114.3 secs

     total energy              =   -2012.38806806 Ry
     estimated scf accuracy    <       0.00000536 Ry

     iteration #  5     ecut=    50.00 Ry     beta= 0.70
     Davidson diagonalization with overlap
     ethr =  1.38E-08,  avg # of iterations =  2.0

     total cpu time spent up to now is     1116.8 secs

     total energy              =   -2012.38807055 Ry
     estimated scf accuracy    <       0.00000125 Ry

     iteration #  6     ecut=    50.00 Ry     beta= 0.70
     Davidson diagonalization with overlap
     ethr =  3.19E-09,  avg # of iterations =  2.0

     total cpu time spent up to now is     1119.2 secs

     total energy              =   -2012.38807076 Ry
     estimated scf accuracy    <       0.00000006 Ry

     iteration #  7     ecut=    50.00 Ry     beta= 0.70
     Davidson diagonalization with overlap
     ethr =  1.46E-10,  avg # of iterations =  3.0

     total cpu time spent up to now is     1121.9 secs

     End of self-consistent calculation

          k = 0.0000 0.0000 0.0000 (  1935 PWs)   bands (ev):

  -173.1449-173.1264-173.1247-173.1170-173.0929 -34.1764  -2.0669  -2.0499
    -1.8475  12.4636  16.3239  16.3379  16.3582  16.4478  16.4882  16.4964
    16.5247  20.8025  20.8988  35.2123  35.5183  35.6255  35.7280  37.1221

          k =-0.0002 0.0000-0.7045 (  1936 PWs)   bands (ev):

  -173.1577-173.1393-173.1127-173.0863-173.0727 -33.8981  -4.9545  -1.7590
    -1.7264  16.1010  16.1888  16.3912  16.3998  16.4060  16.6086  16.6228
    17.5510  20.0965  24.9379  26.4531  28.8993  30.7403  36.0638  39.7726

          k =-0.0005-0.6940-0.7049 (  1956 PWs)   bands (ev):

  -173.1754-173.1604-173.1545-173.0988-173.0673 -33.6703  -4.3624  -4.2866
    -1.4826  15.9146  16.1637  16.2694  16.3952  16.4539  16.4854  16.5326
    16.6322  23.9095  24.6417  25.0386  30.2861  30.3006  39.5102  40.1145

          k =-0.6958-0.6925-0.7043 (  1904 PWs)   bands (ev):

  -173.1093-173.0908-173.0867-173.0698-173.0386 -33.4519  -3.8379  -3.7753
    -3.7347  16.1434  16.4259  16.4291  16.4300  16.4974  16.5047  16.5173
    17.7902  18.0426  18.2512  29.1479  39.3821  39.4363  39.7542  39.9073

          k =-0.6952 0.0015 0.0005 (  1936 PWs)   bands (ev):

  -173.1531-173.1433-173.1171-173.1083-173.0430 -33.9292  -4.9504  -1.7790
    -1.5739  16.0705  16.1641  16.3971  16.4107  16.4254  16.5942  16.6205
    17.8231  19.8291  24.8200  27.4540  29.1749  29.4730  36.3177  39.1507

          k =-0.0003-0.6940-0.0004 (  1936 PWs)   bands (ev):

  -173.1473-173.1432-173.1234-173.1128-173.0374 -33.9333  -4.9384  -1.7716
    -1.5776  16.0678  16.1640  16.3962  16.4108  16.4219  16.5933  16.6231
    17.8303  19.8549  24.7878  27.5959  29.1746  29.3383  36.3438  39.0084

          k =-0.6951 0.0014 0.7050 (  1956 PWs)   bands (ev):

  -173.1741-173.1603-173.1558-173.0979-173.0684 -33.6663  -4.3588  -4.3030
    -1.4884  15.9575  16.1637  16.2607  16.4068  16.4491  16.4923  16.5331
    16.6351  23.9115  24.5622  25.0614  30.2330  30.2442  39.5502  40.1840

          k =-0.6949 0.6955 0.0009 (  1956 PWs)   bands (ev):

  -173.1775-173.1583-173.1547-173.0999-173.0647 -33.7011  -4.3383  -4.3159
    -1.3253  15.5756  16.1924  16.2373  16.3535  16.4277  16.4304  16.5452
    16.6486  24.2637  24.4705  25.6173  30.6554  30.7172  39.1966  39.8605

     the Fermi energy is    26.6825 ev

!    total energy              =   -2012.38807078 Ry

     total all-electron energy =    -30159.999717 Ry
     estimated scf accuracy    <       0.00000001 Ry
     smearing contrib. (-TS)   =       0.00014959 Ry
     internal energy E=F+TS    =   -2012.38822037 Ry

     The total energy is F=E-TS. E is the sum of the following terms:
     one-electron contribution =   -1284.63622621 Ry
     hartree contribution      =     656.93468799 Ry
     xc contribution           =    -112.70638869 Ry
     ewald contribution        =    -775.59631345 Ry
     one-center paw contrib.   =    -496.38398000 Ry

     convergence has been achieved in   7 iterations

     Forces acting on atoms (cartesian axes, Ry/au):

     atom    1 type  1   force =     0.00569509    0.00408056    0.00412028
     atom    2 type  2   force =    -0.00522181   -0.00252417    0.00041568
     atom    3 type  2   force =    -0.00185058    0.00282964    0.00126398
     atom    4 type  2   force =     0.00137730   -0.00438604   -0.00579993

     Total force =     0.012949     Total SCF correction =     0.000533


     Computing stress (Cartesian axis) and pressure

          total   stress  (Ry/bohr**3)                   (kbar)     P=      -12.89
  -0.00007474   0.00006276  -0.00002113          -10.99        9.23       -3.11
   0.00006276  -0.00010792   0.00001428            9.23      -15.87        2.10
  -0.00002113   0.00001428  -0.00008023           -3.11        2.10      -11.80

     Energy error            =      4.8E-04
     Gradient error          =      5.8E-03
     Cell gradient error     =      1.1E-04


     number of scf cycles    =  28
     number of bfgs steps    =  26

     enthalpy old            =   -2012.3875897178 Ry
     enthalpy new            =   -2012.3880707759 Ry

     CASE: enthalpy_new < enthalpy_old

     new trust radius        =       0.0385742335 bohr
     new conv_thr            =       0.0000000481 Ry

     new unit-cell volume =    119.07730 a.u.^3 (    17.64544 Ang^3 )
     density =     17.08153 g/cm^3

CELL_PARAMETERS (angstrom)
   2.612389213   0.001235822  -0.001510621
   0.008476879   2.617601963   0.000857700
   0.001194240  -0.000587965   2.580426042

ATOMIC_POSITIONS (angstrom)
Hf            0.5859328970        1.7527680639        0.4646882830
H             1.8754923520        0.4396901144        0.4508368443
H             1.8011569070        1.5456991998        1.7535328448
H             0.3840881026        0.3476188750        1.7560329685



     Writing output data file ./tmp/01_HfH3_Top1.save/
     NEW-OLD atomic charge density approx. for the potential
     extrapolated charge   38.98805, renormalised to   39.00000

     total cpu time spent up to now is     1135.5 secs

     Self-consistent Calculation

     iteration #  1     ecut=    50.00 Ry     beta= 0.70
     Davidson diagonalization with overlap
     ethr =  1.00E-06,  avg # of iterations =  7.4

     total cpu time spent up to now is     1138.7 secs

     total energy              =   -2012.38762578 Ry
     estimated scf accuracy    <       0.00045939 Ry

     iteration #  2     ecut=    50.00 Ry     beta= 0.70
     Davidson diagonalization with overlap
     ethr =  1.18E-06,  avg # of iterations =  3.0

     total cpu time spent up to now is     1141.4 secs

     total energy              =   -2012.38803116 Ry
     estimated scf accuracy    <       0.00103235 Ry

     iteration #  3     ecut=    50.00 Ry     beta= 0.70
     Davidson diagonalization with overlap
     ethr =  1.18E-06,  avg # of iterations =  2.5

     total cpu time spent up to now is     1143.9 secs

     total energy              =   -2012.38821359 Ry
     estimated scf accuracy    <       0.00007696 Ry

     iteration #  4     ecut=    50.00 Ry     beta= 0.70
     Davidson diagonalization with overlap
     ethr =  1.97E-07,  avg # of iterations =  2.8

     total cpu time spent up to now is     1146.4 secs

     total energy              =   -2012.38824946 Ry
     estimated scf accuracy    <       0.00000222 Ry

     iteration #  5     ecut=    50.00 Ry     beta= 0.70
     Davidson diagonalization with overlap
     ethr =  5.68E-09,  avg # of iterations =  2.5

     total cpu time spent up to now is     1148.9 secs

     total energy              =   -2012.38825144 Ry
     estimated scf accuracy    <       0.00000048 Ry

     iteration #  6     ecut=    50.00 Ry     beta= 0.70
     Davidson diagonalization with overlap
     ethr =  1.22E-09,  avg # of iterations =  2.0

     total cpu time spent up to now is     1151.5 secs

     total energy              =   -2012.38825146 Ry
     estimated scf accuracy    <       0.00000028 Ry

     iteration #  7     ecut=    50.00 Ry     beta= 0.70
     Davidson diagonalization with overlap
     ethr =  7.06E-10,  avg # of iterations =  2.0

     total cpu time spent up to now is     1153.9 secs

     End of self-consistent calculation

          k = 0.0000 0.0000 0.0000 (  1935 PWs)   bands (ev):

  -173.1437-173.1296-173.1275-173.1186-173.0949 -34.1798  -2.0647  -2.0489
    -1.8583  12.4905  16.3229  16.3353  16.3561  16.4472  16.4891  16.4943
    16.5217  20.7770  20.8643  35.2327  35.5117  35.6276  35.8555  37.1681

          k =-0.0004 0.0002-0.7042 (  1936 PWs)   bands (ev):

  -173.1563-173.1433-173.1150-173.0883-173.0742 -33.9020  -4.9635  -1.7546
    -1.7296  16.0959  16.1891  16.3902  16.3991  16.4055  16.6071  16.6210
    17.5660  20.1409  24.9284  26.4719  28.9001  30.6645  36.0752  39.7674

          k =-0.0001-0.6940-0.7044 (  1956 PWs)   bands (ev):

  -173.1745-173.1624-173.1579-173.1003-173.0696 -33.6738  -4.3719  -4.2911
    -1.4801  15.9523  16.1634  16.2690  16.3970  16.4512  16.4847  16.5311
    16.6317  23.9388  24.5763  25.0332  30.2898  30.3103  39.4980  40.2066

          k =-0.6957-0.6917-0.7040 (  1904 PWs)   bands (ev):

  -173.1079-173.0947-173.0895-173.0712-173.0409 -33.4543  -3.8432  -3.7812
    -3.7381  16.1525  16.4251  16.4271  16.4285  16.4968  16.5026  16.5141
    17.8067  18.0321  18.2259  29.2613  39.3752  39.4726  39.7079  39.9183

          k =-0.6956 0.0023 0.0003 (  1936 PWs)   bands (ev):

  -173.1530-173.1452-173.1198-173.1102-173.0453 -33.9313  -4.9570  -1.7787
    -1.5832  16.0673  16.1666  16.3944  16.4098  16.4233  16.5936  16.6187
    17.8431  19.8635  24.7880  27.5462  29.1533  29.3547  36.3131  39.1745

          k = 0.0003-0.6942-0.0002 (  1936 PWs)   bands (ev):

  -173.1471-173.1451-173.1263-173.1144-173.0398 -33.9362  -4.9399  -1.7689
    -1.5879  16.0669  16.1697  16.3936  16.4099  16.4202  16.5932  16.6202
    17.8214  19.8695  24.7757  27.5563  29.1680  29.4068  36.3358  39.0878

          k =-0.6952 0.0020 0.7045 (  1956 PWs)   bands (ev):

  -173.1730-173.1623-173.1595-173.0995-173.0706 -33.6691  -4.3643  -4.3090
    -1.4890  15.9609  16.1627  16.2643  16.3996  16.4476  16.4836  16.5319
    16.6333  23.9488  24.5611  25.0448  30.2488  30.2591  39.5503  40.1787

          k =-0.6959 0.6964 0.0005 (  1956 PWs)   bands (ev):

  -173.1765-173.1617-173.1569-173.1016-173.0670 -33.7028  -4.3465  -4.3175
    -1.3342  15.6378  16.1881  16.2351  16.3527  16.4257  16.4309  16.5439
    16.6461  24.1762  24.4620  25.6366  30.6422  30.6951  39.2040  39.9895

     the Fermi energy is    26.7011 ev

!    total energy              =   -2012.38825152 Ry

     total all-electron energy =    -30159.999897 Ry
     estimated scf accuracy    <          1.8E-09 Ry
     smearing contrib. (-TS)   =       0.00014685 Ry
     internal energy E=F+TS    =   -2012.38839837 Ry

     The total energy is F=E-TS. E is the sum of the following terms:
     one-electron contribution =   -1284.61128419 Ry
     hartree contribution      =     656.92078247 Ry
     xc contribution           =    -112.70878513 Ry
     ewald contribution        =    -775.60755229 Ry
     one-center paw contrib.   =    -496.38155924 Ry

     convergence has been achieved in   7 iterations

     Forces acting on atoms (cartesian axes, Ry/au):

     atom    1 type  1   force =     0.00271698    0.00687774   -0.00032816
     atom    2 type  2   force =    -0.00121724   -0.00477789    0.00063483
     atom    3 type  2   force =    -0.00149590   -0.00084576    0.00053571
     atom    4 type  2   force =    -0.00000385   -0.00125408   -0.00084237

     Total force =     0.009221     Total SCF correction =     0.000268


     Computing stress (Cartesian axis) and pressure

          total   stress  (Ry/bohr**3)                   (kbar)     P=        0.11
   0.00014217  -0.00007445   0.00001269           20.91      -10.95        1.87
  -0.00007445  -0.00008495  -0.00001295          -10.95      -12.50       -1.90
   0.00001269  -0.00001295  -0.00005497            1.87       -1.90       -8.09

     Energy error            =      1.8E-04
     Gradient error          =      6.9E-03
     Cell gradient error     =      1.4E-04


     number of scf cycles    =  29
     number of bfgs steps    =  27

     enthalpy old            =   -2012.3880707759 Ry
     enthalpy new            =   -2012.3882515174 Ry

     CASE: enthalpy_new < enthalpy_old

     new trust radius        =       0.0041067459 bohr
     new conv_thr            =       0.0000000181 Ry

     new unit-cell volume =    119.07717 a.u.^3 (    17.64542 Ang^3 )
     density =     17.08155 g/cm^3

CELL_PARAMETERS (angstrom)
   2.613259655   0.000685646  -0.001376701
   0.007893651   2.617009146   0.000768754
   0.001312969  -0.000667067   2.580145973

ATOMIC_POSITIONS (angstrom)
Hf            0.5863994936        1.7543063063        0.4647339583
H             1.8757572607        0.4374050587        0.4510261027
H             1.8016262688        1.5446399097        1.7529370238
H             0.3837239821        0.3473888534        1.7560120544



     Writing output data file ./tmp/01_HfH3_Top1.save/
     NEW-OLD atomic charge density approx. for the potential
     extrapolated charge   38.99995, renormalised to   39.00000

     total cpu time spent up to now is     1167.5 secs

     Self-consistent Calculation

     iteration #  1     ecut=    50.00 Ry     beta= 0.70
     Davidson diagonalization with overlap
     ethr =  1.00E-06,  avg # of iterations =  6.2

     Threshold (ethr) on eigenvalues was too large:
     Diagonalizing with lowered threshold

     Davidson diagonalization with overlap
     ethr =  2.26E-08,  avg # of iterations =  3.1

     total cpu time spent up to now is     1171.6 secs

     total energy              =   -2012.38827559 Ry
     estimated scf accuracy    <       0.00000884 Ry

     iteration #  2     ecut=    50.00 Ry     beta= 0.70
     Davidson diagonalization with overlap
     ethr =  2.27E-08,  avg # of iterations =  2.1

     total cpu time spent up to now is     1174.2 secs

     total energy              =   -2012.38829525 Ry
     estimated scf accuracy    <       0.00000133 Ry

     iteration #  3     ecut=    50.00 Ry     beta= 0.70
     Davidson diagonalization with overlap
     ethr =  3.40E-09,  avg # of iterations =  2.0

     total cpu time spent up to now is     1176.8 secs

     total energy              =   -2012.38829822 Ry
     estimated scf accuracy    <       0.00000042 Ry

     iteration #  4     ecut=    50.00 Ry     beta= 0.70
     Davidson diagonalization with overlap
     ethr =  1.07E-09,  avg # of iterations =  2.0

     total cpu time spent up to now is     1179.3 secs

     total energy              =   -2012.38829943 Ry
     estimated scf accuracy    <       0.00000020 Ry

     iteration #  5     ecut=    50.00 Ry     beta= 0.70
     Davidson diagonalization with overlap
     ethr =  5.11E-10,  avg # of iterations =  2.0

     total cpu time spent up to now is     1181.8 secs

     End of self-consistent calculation

          k = 0.0000 0.0000 0.0000 (  1935 PWs)   bands (ev):

  -173.1447-173.1306-173.1279-173.1197-173.0957 -34.1804  -2.0632  -2.0524
    -1.8581  12.4911  16.3220  16.3342  16.3554  16.4464  16.4879  16.4935
    16.5208  20.7790  20.8686  35.2301  35.5124  35.6272  35.8268  37.1504

          k =-0.0004 0.0002-0.7043 (  1936 PWs)   bands (ev):

  -173.1574-173.1442-173.1155-173.0886-173.0757 -33.9023  -4.9652  -1.7543
    -1.7310  16.0955  16.1880  16.3899  16.3982  16.4046  16.6062  16.6201
    17.5682  20.1412  24.9305  26.4532  28.8990  30.6878  36.0741  39.7698

          k =-0.0002-0.6941-0.7044 (  1956 PWs)   bands (ev):

  -173.1754-173.1629-173.1591-173.1013-173.0705 -33.6736  -4.3728  -4.2923
    -1.4826  15.9489  16.1628  16.2684  16.3960  16.4503  16.4849  16.5304
    16.6308  23.9436  24.5807  25.0332  30.2832  30.3014  39.5069  40.1915

          k =-0.6955-0.6920-0.7041 (  1904 PWs)   bands (ev):

  -173.1089-173.0957-173.0899-173.0724-173.0417 -33.4549  -3.8457  -3.7785
    -3.7399  16.1512  16.4245  16.4260  16.4277  16.4960  16.5016  16.5132
    17.8093  18.0281  18.2351  29.2493  39.3825  39.4617  39.7041  39.9169

          k =-0.6953 0.0021 0.0004 (  1936 PWs)   bands (ev):

  -173.1536-173.1457-173.1213-173.1117-173.0454 -33.9328  -4.9545  -1.7780
    -1.5839  16.0670  16.1660  16.3931  16.4091  16.4222  16.5929  16.6177
    17.8429  19.8600  24.7842  27.5216  29.1593  29.3979  36.3157  39.1609

          k = 0.0002-0.6944-0.0002 (  1936 PWs)   bands (ev):

  -173.1488-173.1456-173.1266-173.1150-173.0411 -33.9363  -4.9417  -1.7717
    -1.5873  16.0662  16.1684  16.3926  16.4092  16.4195  16.5924  16.6194
    17.8290  19.8677  24.7691  27.5485  29.1692  29.4137  36.3332  39.0861

          k =-0.6950 0.0019 0.7046 (  1956 PWs)   bands (ev):

  -173.1742-173.1628-173.1603-173.1006-173.0713 -33.6702  -4.3677  -4.3063
    -1.4878  15.9609  16.1624  16.2634  16.3990  16.4469  16.4837  16.5310
    16.6325  23.9495  24.5633  25.0444  30.2556  30.2608  39.5428  40.1845

          k =-0.6955 0.6964 0.0005 (  1956 PWs)   bands (ev):

  -173.1775-173.1627-173.1575-173.1026-173.0677 -33.7037  -4.3429  -4.3207
    -1.3344  15.6338  16.1869  16.2359  16.3519  16.4254  16.4303  16.5430
    16.6452  24.1715  24.4597  25.6491  30.6450  30.6987  39.2019  39.9891

     the Fermi energy is    26.6824 ev

!    total energy              =   -2012.38829953 Ry

     total all-electron energy =    -30159.999945 Ry
     estimated scf accuracy    <       0.00000001 Ry
     smearing contrib. (-TS)   =       0.00014682 Ry
     internal energy E=F+TS    =   -2012.38844635 Ry

     The total energy is F=E-TS. E is the sum of the following terms:
     one-electron contribution =   -1284.61174108 Ry
     hartree contribution      =     656.92281558 Ry
     xc contribution           =    -112.70911950 Ry
     ewald contribution        =    -775.60895679 Ry
     one-center paw contrib.   =    -496.38144457 Ry

     convergence has been achieved in   5 iterations

     Forces acting on atoms (cartesian axes, Ry/au):

     atom    1 type  1   force =     0.00163466    0.00375533   -0.00075958
     atom    2 type  2   force =    -0.00074126   -0.00300928    0.00067862
     atom    3 type  2   force =    -0.00112264   -0.00028086    0.00090577
     atom    4 type  2   force =     0.00022924   -0.00046519   -0.00082480

     Total force =     0.005525     Total SCF correction =     0.001202
     SCF correction compared to forces is large: reduce conv_thr to get better values


     Computing stress (Cartesian axis) and pressure

          total   stress  (Ry/bohr**3)                   (kbar)     P=        0.97
   0.00008094  -0.00002559   0.00000652           11.91       -3.76        0.96
  -0.00002559  -0.00003453  -0.00000891           -3.76       -5.08       -1.31
   0.00000652  -0.00000891  -0.00002653            0.96       -1.31       -3.90

     Energy error            =      4.8E-05
     Gradient error          =      3.8E-03
     Cell gradient error     =      8.1E-05


     number of scf cycles    =  30
     number of bfgs steps    =  28

     enthalpy old            =   -2012.3882515174 Ry
     enthalpy new            =   -2012.3882995311 Ry

     CASE: enthalpy_new < enthalpy_old

     new trust radius        =       0.0061582653 bohr
     new conv_thr            =       0.0000000100 Ry

     new unit-cell volume =    119.08639 a.u.^3 (    17.64678 Ang^3 )
     density =     17.08023 g/cm^3

CELL_PARAMETERS (angstrom)
   2.614440507   0.000425883  -0.001291566
   0.007641050   2.616268866   0.000670800
   0.001389972  -0.000751438   2.579909339

ATOMIC_POSITIONS (angstrom)
Hf            0.5869969360        1.7558286310        0.4644961209
H             1.8751117027        0.4342266398        0.4516032208
H             1.8015363880        1.5455945803        1.7528489265
H             0.3856933849        0.3463298671        1.7553530324



     Writing output data file ./tmp/01_HfH3_Top1.save/
     NEW-OLD atomic charge density approx. for the potential
     extrapolated charge   39.00302, renormalised to   39.00000

     total cpu time spent up to now is     1195.3 secs

     Self-consistent Calculation

     iteration #  1     ecut=    50.00 Ry     beta= 0.70
     Davidson diagonalization with overlap
     ethr =  1.00E-06,  avg # of iterations =  6.2

     Threshold (ethr) on eigenvalues was too large:
     Diagonalizing with lowered threshold

     Davidson diagonalization with overlap
     ethr =  8.40E-08,  avg # of iterations =  1.8

     total cpu time spent up to now is     1199.2 secs

     total energy              =   -2012.38828545 Ry
     estimated scf accuracy    <       0.00003283 Ry

     iteration #  2     ecut=    50.00 Ry     beta= 0.70
     Davidson diagonalization with overlap
     ethr =  8.42E-08,  avg # of iterations =  3.0

     total cpu time spent up to now is     1201.8 secs

     total energy              =   -2012.38831318 Ry
     estimated scf accuracy    <       0.00005938 Ry

     iteration #  3     ecut=    50.00 Ry     beta= 0.70
     Davidson diagonalization with overlap
     ethr =  8.42E-08,  avg # of iterations =  2.0

     total cpu time spent up to now is     1204.3 secs

     total energy              =   -2012.38832776 Ry
     estimated scf accuracy    <       0.00000340 Ry

     iteration #  4     ecut=    50.00 Ry     beta= 0.70
     Davidson diagonalization with overlap
     ethr =  8.71E-09,  avg # of iterations =  3.0

     total cpu time spent up to now is     1206.8 secs

     total energy              =   -2012.38833030 Ry
     estimated scf accuracy    <       0.00000021 Ry

     iteration #  5     ecut=    50.00 Ry     beta= 0.70
     Davidson diagonalization with overlap
     ethr =  5.47E-10,  avg # of iterations =  3.0

     total cpu time spent up to now is     1209.5 secs

     total energy              =   -2012.38833036 Ry
     estimated scf accuracy    <       0.00000023 Ry

     iteration #  6     ecut=    50.00 Ry     beta= 0.70
     Davidson diagonalization with overlap
     ethr =  5.47E-10,  avg # of iterations =  2.0

     total cpu time spent up to now is     1212.0 secs

     total energy              =   -2012.38833038 Ry
     estimated scf accuracy    <       0.00000003 Ry

     iteration #  7     ecut=    50.00 Ry     beta= 0.70
     Davidson diagonalization with overlap
     ethr =  6.71E-11,  avg # of iterations =  3.0

     total cpu time spent up to now is     1214.6 secs

     End of self-consistent calculation

          k = 0.0000 0.0000 0.0000 (  1935 PWs)   bands (ev):

  -173.1470-173.1335-173.1297-173.1225-173.0979 -34.1841  -2.0642  -2.0601
    -1.8621  12.4932  16.3192  16.3310  16.3527  16.4437  16.4850  16.4907
    16.5176  20.7742  20.8665  35.2243  35.5080  35.6233  35.8073  37.1336

          k =-0.0003 0.0002-0.7043 (  1936 PWs)   bands (ev):

  -173.1598-173.1470-173.1172-173.0902-173.0790 -33.9058  -4.9714  -1.7571
    -1.7360  16.0925  16.1849  16.3876  16.3955  16.4018  16.6033  16.6170
    17.5708  20.1452  24.9290  26.4296  28.8931  30.7003  36.0693  39.7689

          k =-0.0002-0.6944-0.7045 (  1956 PWs)   bands (ev):

  -173.1776-173.1647-173.1621-173.1039-173.0727 -33.6764  -4.3780  -4.2968
    -1.4890  15.9455  16.1604  16.2663  16.3925  16.4471  16.4826  16.5278
    16.6279  23.9485  24.5771  25.0316  30.2718  30.2882  39.5131  40.1734

          k =-0.6953-0.6923-0.7042 (  1904 PWs)   bands (ev):

  -173.1112-173.0986-173.0916-173.0751-173.0438 -33.4587  -3.8531  -3.7787
    -3.7447  16.1493  16.4222  16.4227  16.4250  16.4933  16.4984  16.5100
    17.8132  18.0189  18.2396  29.2490  39.3808  39.4496  39.6884  39.9111

          k =-0.6950 0.0020 0.0004 (  1936 PWs)   bands (ev):

  -173.1554-173.1475-173.1248-173.1151-173.0466 -33.9377  -4.9538  -1.7803
    -1.5891  16.0649  16.1645  16.3893  16.4066  16.4190  16.5904  16.6145
    17.8395  19.8553  24.7722  27.4969  29.1640  29.4400  36.3140  39.1456

          k = 0.0001-0.6945-0.0002 (  1936 PWs)   bands (ev):

  -173.1521-173.1475-173.1283-173.1172-173.0440 -33.9394  -4.9468  -1.7786
    -1.5907  16.0633  16.1656  16.3894  16.4066  16.4170  16.5898  16.6163
    17.8354  19.8668  24.7546  27.5387  29.1669  29.4141  36.3248  39.0868

          k =-0.6947 0.0018 0.7047 (  1956 PWs)   bands (ev):

  -173.1767-173.1647-173.1630-173.1035-173.0732 -33.6747  -4.3761  -4.3055
    -1.4896  15.9621  16.1605  16.2608  16.3961  16.4442  16.4816  16.5281
    16.6298  23.9504  24.5565  25.0401  30.2598  30.2634  39.5276  40.1943

          k =-0.6951 0.6966 0.0006 (  1956 PWs)   bands (ev):

  -173.1799-173.1656-173.1592-173.1054-173.0698 -33.7079  -4.3417  -4.3277
    -1.3389  15.6362  16.1832  16.2347  16.3493  16.4231  16.4281  16.5402
    16.6420  24.1474  24.4531  25.6637  30.6435  30.6982  39.1941  40.0045

     the Fermi energy is    26.6588 ev

!    total energy              =   -2012.38833038 Ry

     total all-electron energy =    -30159.999976 Ry
     estimated scf accuracy    <          5.8E-09 Ry
     smearing contrib. (-TS)   =       0.00014669 Ry
     internal energy E=F+TS    =   -2012.38847707 Ry

     The total energy is F=E-TS. E is the sum of the following terms:
     one-electron contribution =   -1284.65750650 Ry
     hartree contribution      =     656.93769374 Ry
     xc contribution           =    -112.70900289 Ry
     ewald contribution        =    -775.57849307 Ry
     one-center paw contrib.   =    -496.38116834 Ry

     convergence has been achieved in   7 iterations

     Forces acting on atoms (cartesian axes, Ry/au):

     atom    1 type  1   force =     0.00108065    0.00120235   -0.00072942
     atom    2 type  2   force =    -0.00024311   -0.00127719    0.00062522
     atom    3 type  2   force =    -0.00063793   -0.00033840    0.00072151
     atom    4 type  2   force =    -0.00019962    0.00041323   -0.00061731

     Total force =     0.002619     Total SCF correction =     0.000169


     Computing stress (Cartesian axis) and pressure

          total   stress  (Ry/bohr**3)                   (kbar)     P=       -0.66
  -0.00002021   0.00001162   0.00000061           -2.97        1.71        0.09
   0.00001162   0.00001167  -0.00000183            1.71        1.72       -0.27
   0.00000061  -0.00000183  -0.00000502            0.09       -0.27       -0.74

     Energy error            =      3.1E-05
     Gradient error          =      1.3E-03
     Cell gradient error     =      2.0E-05


     number of scf cycles    =  31
     number of bfgs steps    =  29

     enthalpy old            =   -2012.3882995311 Ry
     enthalpy new            =   -2012.3883303843 Ry

     CASE: enthalpy_new < enthalpy_old

     new trust radius        =       0.0034398020 bohr
     new conv_thr            =       0.0000000100 Ry

     new unit-cell volume =    119.07637 a.u.^3 (    17.64530 Ang^3 )
     density =     17.08167 g/cm^3

CELL_PARAMETERS (angstrom)
   2.614462455   0.000545418  -0.001305398
   0.007745893   2.616114241   0.000672462
   0.001366600  -0.000751827   2.579823581

ATOMIC_POSITIONS (angstrom)
Hf            0.5880555483        1.7572741157        0.4643396565
H             1.8750041307        0.4333354436        0.4519600205
H             1.8010938905        1.5447500858        1.7531038731
H             0.3853472610        0.3465900435        1.7547287149



     Writing output data file ./tmp/01_HfH3_Top1.save/
     NEW-OLD atomic charge density approx. for the potential
     extrapolated charge   38.99672, renormalised to   39.00000

     total cpu time spent up to now is     1228.1 secs

     Self-consistent Calculation

     iteration #  1     ecut=    50.00 Ry     beta= 0.70
     Davidson diagonalization with overlap
     ethr =  1.00E-06,  avg # of iterations =  6.1

     Threshold (ethr) on eigenvalues was too large:
     Diagonalizing with lowered threshold

     Davidson diagonalization with overlap
     ethr =  5.71E-08,  avg # of iterations =  1.6

     total cpu time spent up to now is     1232.0 secs

     total energy              =   -2012.38829536 Ry
     estimated scf accuracy    <       0.00002233 Ry

     iteration #  2     ecut=    50.00 Ry     beta= 0.70
     Davidson diagonalization with overlap
     ethr =  5.73E-08,  avg # of iterations =  3.4

     total cpu time spent up to now is     1234.7 secs

     total energy              =   -2012.38832377 Ry
     estimated scf accuracy    <       0.00007372 Ry

     iteration #  3     ecut=    50.00 Ry     beta= 0.70
     Davidson diagonalization with overlap
     ethr =  5.73E-08,  avg # of iterations =  2.9

     total cpu time spent up to now is     1237.3 secs

     total energy              =   -2012.38833368 Ry
     estimated scf accuracy    <       0.00000750 Ry

     iteration #  4     ecut=    50.00 Ry     beta= 0.70
     Davidson diagonalization with overlap
     ethr =  1.92E-08,  avg # of iterations =  2.0

     total cpu time spent up to now is     1239.7 secs

     total energy              =   -2012.38833618 Ry
     estimated scf accuracy    <       0.00000047 Ry

     iteration #  5     ecut=    50.00 Ry     beta= 0.70
     Davidson diagonalization with overlap
     ethr =  1.20E-09,  avg # of iterations =  2.5

     total cpu time spent up to now is     1242.2 secs

     total energy              =   -2012.38833646 Ry
     estimated scf accuracy    <       0.00000004 Ry

     iteration #  6     ecut=    50.00 Ry     beta= 0.70
     Davidson diagonalization with overlap
     ethr =  9.77E-11,  avg # of iterations =  2.0

     total cpu time spent up to now is     1244.8 secs

     End of self-consistent calculation

          k = 0.0000 0.0000 0.0000 (  1935 PWs)   bands (ev):

  -173.1447-173.1317-173.1276-173.1203-173.0957 -34.1821  -2.0619  -2.0580
    -1.8601  12.4953  16.3215  16.3329  16.3550  16.4461  16.4872  16.4928
    16.5197  20.7760  20.8748  35.2260  35.5083  35.6275  35.7819  37.1247

          k =-0.0004 0.0002-0.7044 (  1936 PWs)   bands (ev):

  -173.1575-173.1452-173.1150-173.0880-173.0771 -33.9036  -4.9703  -1.7540
    -1.7342  16.0951  16.1869  16.3900  16.3977  16.4040  16.6055  16.6192
    17.5739  20.1470  24.9325  26.4128  28.8979  30.7295  36.0718  39.7724

          k =-0.0002-0.6944-0.7046 (  1956 PWs)   bands (ev):

  -173.1753-173.1625-173.1603-173.1020-173.0706 -33.6741  -4.3767  -4.2950
    -1.4867  15.9447  16.1627  16.2687  16.3946  16.4492  16.4854  16.5301
    16.6301  23.9522  24.5846  25.0351  30.2746  30.2892  39.5174  40.1702

          k =-0.6952-0.6923-0.7042 (  1904 PWs)   bands (ev):

  -173.1089-173.0969-173.0895-173.0731-173.0416 -33.4565  -3.8522  -3.7761
    -3.7429  16.1508  16.4244  16.4247  16.4273  16.4957  16.5004  16.5119
    17.8155  18.0209  18.2481  29.2386  39.3824  39.4548  39.6855  39.9153

          k =-0.6950 0.0021 0.0004 (  1936 PWs)   bands (ev):

  -173.1532-173.1453-173.1229-173.1131-173.0443 -33.9357  -4.9515  -1.7778
    -1.5872  16.0673  16.1665  16.3913  16.4090  16.4212  16.5928  16.6166
    17.8439  19.8558  24.7701  27.4819  29.1680  29.4707  36.3166  39.1437

          k = 0.0001-0.6946-0.0002 (  1936 PWs)   bands (ev):

  -173.1500-173.1453-173.1263-173.1152-173.0419 -33.9372  -4.9452  -1.7765
    -1.5886  16.0656  16.1674  16.3913  16.4089  16.4192  16.5921  16.6184
    17.8427  19.8674  24.7508  27.5348  29.1691  29.4299  36.3270  39.0835

          k =-0.6947 0.0019 0.7047 (  1956 PWs)   bands (ev):

  -173.1744-173.1624-173.1612-173.1016-173.0710 -33.6726  -4.3753  -4.3032
    -1.4869  15.9632  16.1628  16.2631  16.3987  16.4464  16.4849  16.5303
    16.6321  23.9538  24.5611  25.0430  30.2623  30.2659  39.5297  40.1974

          k =-0.6952 0.6966 0.0006 (  1956 PWs)   bands (ev):

  -173.1776-173.1637-173.1570-173.1034-173.0676 -33.7058  -4.3388  -4.3262
    -1.3370  15.6330  16.1849  16.2381  16.3515  16.4256  16.4309  16.5425
    16.6441  24.1427  24.4580  25.6792  30.6459  30.7025  39.1978  40.0008

     the Fermi energy is    26.6420 ev

!    total energy              =   -2012.38833647 Ry

     total all-electron energy =    -30159.999982 Ry
     estimated scf accuracy    <          5.1E-09 Ry
     smearing contrib. (-TS)   =       0.00014654 Ry
     internal energy E=F+TS    =   -2012.38848301 Ry

     The total energy is F=E-TS. E is the sum of the following terms:
     one-electron contribution =   -1284.61746044 Ry
     hartree contribution      =     656.92082779 Ry
     xc contribution           =    -112.70926583 Ry
     ewald contribution        =    -775.60146508 Ry
     one-center paw contrib.   =    -496.38111946 Ry

     convergence has been achieved in   6 iterations

     Forces acting on atoms (cartesian axes, Ry/au):

     atom    1 type  1   force =     0.00007661   -0.00034341   -0.00068422
     atom    2 type  2   force =     0.00000983   -0.00037743    0.00060370
     atom    3 type  2   force =    -0.00002183   -0.00005896    0.00042791
     atom    4 type  2   force =    -0.00006461    0.00077979   -0.00034739

     Total force =     0.001421     Total SCF correction =     0.000080


     Computing stress (Cartesian axis) and pressure

          total   stress  (Ry/bohr**3)                   (kbar)     P=        1.29
  -0.00001537   0.00001473   0.00000006           -2.26        2.17        0.01
   0.00001473   0.00003111  -0.00000007            2.17        4.58       -0.01
   0.00000006  -0.00000007   0.00001054            0.01       -0.01        1.55

     Energy error            =      6.1E-06
     Gradient error          =      7.8E-04
     Cell gradient error     =      3.1E-05


     number of scf cycles    =  32
     number of bfgs steps    =  30

     enthalpy old            =   -2012.3883303843 Ry
     enthalpy new            =   -2012.3883364672 Ry

     CASE: enthalpy_new < enthalpy_old

     new trust radius        =       0.0011872974 bohr
     new conv_thr            =       0.0000000100 Ry

     new unit-cell volume =    119.07871 a.u.^3 (    17.64564 Ang^3 )
     density =     17.08133 g/cm^3

CELL_PARAMETERS (angstrom)
   2.614348906   0.000664425  -0.001342135
   0.007866604   2.616248297   0.000693044
   0.001330386  -0.000735339   2.579854456

ATOMIC_POSITIONS (angstrom)
Hf            0.5882977892        1.7576159894        0.4641729883
H             1.8751543740        0.4332760490        0.4521953541
H             1.8009973473        1.5444541538        1.7533571075
H             0.3849762538        0.3470519462        1.7544267660



     Writing output data file ./tmp/01_HfH3_Top1.save/
     NEW-OLD atomic charge density approx. for the potential
     extrapolated charge   39.00077, renormalised to   39.00000

     total cpu time spent up to now is     1258.3 secs

     Self-consistent Calculation

     iteration #  1     ecut=    50.00 Ry     beta= 0.70
     Davidson diagonalization with overlap
     ethr =  1.00E-06,  avg # of iterations =  4.6

     Threshold (ethr) on eigenvalues was too large:
     Diagonalizing with lowered threshold

     Davidson diagonalization with overlap
     ethr =  2.33E-09,  avg # of iterations =  3.6

     total cpu time spent up to now is     1262.3 secs

     total energy              =   -2012.38833634 Ry
     estimated scf accuracy    <       0.00000094 Ry

     iteration #  2     ecut=    50.00 Ry     beta= 0.70
     Davidson diagonalization with overlap
     ethr =  2.42E-09,  avg # of iterations =  3.1

     total cpu time spent up to now is     1265.0 secs

     total energy              =   -2012.38833751 Ry
     estimated scf accuracy    <       0.00000320 Ry

     iteration #  3     ecut=    50.00 Ry     beta= 0.70
     Davidson diagonalization with overlap
     ethr =  2.42E-09,  avg # of iterations =  2.9

     total cpu time spent up to now is     1267.5 secs

     total energy              =   -2012.38833787 Ry
     estimated scf accuracy    <       0.00000038 Ry

     iteration #  4     ecut=    50.00 Ry     beta= 0.70
     Davidson diagonalization with overlap
     ethr =  9.86E-10,  avg # of iterations =  2.0

     total cpu time spent up to now is     1270.0 secs

     total energy              =   -2012.38833798 Ry
     estimated scf accuracy    <       0.00000003 Ry

     iteration #  5     ecut=    50.00 Ry     beta= 0.70
     Davidson diagonalization with overlap
     ethr =  7.53E-11,  avg # of iterations =  2.5

     total cpu time spent up to now is     1272.6 secs

     End of self-consistent calculation

          k = 0.0000 0.0000 0.0000 (  1935 PWs)   bands (ev):

  -173.1458-173.1328-173.1288-173.1214-173.0969 -34.1828  -2.0631  -2.0582
    -1.8608  12.4944  16.3204  16.3318  16.3539  16.4450  16.4861  16.4917
    16.5186  20.7762  20.8761  35.2251  35.5070  35.6272  35.7757  37.1209

          k =-0.0004 0.0002-0.7043 (  1936 PWs)   bands (ev):

  -173.1586-173.1464-173.1162-173.0892-173.0782 -33.9043  -4.9705  -1.7545
    -1.7351  16.0943  16.1859  16.3889  16.3967  16.4029  16.6044  16.6181
    17.5731  20.1452  24.9323  26.4101  28.8984  30.7340  36.0709  39.7716

          k =-0.0002-0.6944-0.7045 (  1956 PWs)   bands (ev):

  -173.1764-173.1637-173.1614-173.1031-173.0717 -33.6750  -4.3772  -4.2952
    -1.4871  15.9435  16.1617  16.2677  16.3937  16.4482  16.4845  16.5290
    16.6291  23.9511  24.5859  25.0345  30.2753  30.2898  39.5153  40.1698

          k =-0.6952-0.6923-0.7042 (  1904 PWs)   bands (ev):

  -173.1100-173.0980-173.0907-173.0742-173.0428 -33.4572  -3.8525  -3.7768
    -3.7433  16.1495  16.4233  16.4237  16.4263  16.4946  16.4994  16.5108
    17.8147  18.0221  18.2483  29.2341  39.3799  39.4556  39.6850  39.9146

          k =-0.6951 0.0021 0.0004 (  1936 PWs)   bands (ev):

  -173.1544-173.1465-173.1240-173.1142-173.0456 -33.9362  -4.9523  -1.7787
    -1.5878  16.0663  16.1653  16.3903  16.4079  16.4202  16.5917  16.6155
    17.8442  19.8552  24.7699  27.4766  29.1675  29.4744  36.3155  39.1431

          k = 0.0002-0.6946-0.0002 (  1936 PWs)   bands (ev):

  -173.1510-173.1464-173.1276-173.1164-173.0430 -33.9380  -4.9453  -1.7768
    -1.5894  16.0647  16.1662  16.3903  16.4078  16.4181  16.5911  16.6173
    17.8428  19.8658  24.7499  27.5344  29.1688  29.4322  36.3268  39.0795

          k =-0.6947 0.0019 0.7047 (  1956 PWs)   bands (ev):

  -173.1755-173.1636-173.1624-173.1027-173.0722 -33.6732  -4.3754  -4.3041
    -1.4879  15.9620  16.1617  16.2622  16.3979  16.4453  16.4843  16.5293
    16.6310  23.9530  24.5616  25.0429  30.2610  30.2635  39.5303  40.1949

          k =-0.6952 0.6966 0.0006 (  1956 PWs)   bands (ev):

  -173.1787-173.1649-173.1582-173.1046-173.0688 -33.7065  -4.3396  -4.3262
    -1.3377  15.6306  16.1839  16.2374  16.3505  16.4244  16.4298  16.5414
    16.6430  24.1433  24.4590  25.6791  30.6456  30.7020  39.1973  39.9963

     the Fermi energy is    26.6393 ev

!    total energy              =   -2012.38833799 Ry

     total all-electron energy =    -30159.999984 Ry
     estimated scf accuracy    <          2.3E-09 Ry
     smearing contrib. (-TS)   =       0.00014659 Ry
     internal energy E=F+TS    =   -2012.38848458 Ry

     The total energy is F=E-TS. E is the sum of the following terms:
     one-electron contribution =   -1284.62558272 Ry
     hartree contribution      =     656.92609681 Ry
     xc contribution           =    -112.70941674 Ry
     ewald contribution        =    -775.59843468 Ry
     one-center paw contrib.   =    -496.38114726 Ry

     convergence has been achieved in   5 iterations

     Forces acting on atoms (cartesian axes, Ry/au):

     atom    1 type  1   force =    -0.00026360   -0.00086530   -0.00034288
     atom    2 type  2   force =     0.00002307   -0.00006932    0.00053246
     atom    3 type  2   force =     0.00014324    0.00016574    0.00011742
     atom    4 type  2   force =     0.00009729    0.00076887   -0.00030701

     Total force =     0.001408     Total SCF correction =     0.000471
     SCF correction compared to forces is large: reduce conv_thr to get better values


     Computing stress (Cartesian axis) and pressure

          total   stress  (Ry/bohr**3)                   (kbar)     P=        1.32
  -0.00000476   0.00000783   0.00000100           -0.70        1.15        0.15
   0.00000783   0.00002250  -0.00000017            1.15        3.31       -0.03
   0.00000100  -0.00000017   0.00000926            0.15       -0.03        1.36

     Energy error            =      1.5E-06
     Gradient error          =      8.7E-04
     Cell gradient error     =      2.3E-05


     number of scf cycles    =  33
     number of bfgs steps    =  31

     enthalpy old            =   -2012.3883364672 Ry
     enthalpy new            =   -2012.3883379921 Ry

     CASE: enthalpy_new < enthalpy_old

     new trust radius        =       0.0020315647 bohr
     new conv_thr            =       0.0000000100 Ry

     new unit-cell volume =    119.09003 a.u.^3 (    17.64732 Ang^3 )
     density =     17.07971 g/cm^3

CELL_PARAMETERS (angstrom)
   2.614129555   0.000880723  -0.001418929
   0.008108592   2.616599799   0.000745912
   0.001263862  -0.000688301   2.579970330

ATOMIC_POSITIONS (angstrom)
Hf            0.5882674890        1.7574857592        0.4638721068
H             1.8753531231        0.4331350070        0.4527460679
H             1.8009673059        1.5448988372        1.7539372880
H             0.3847124608        0.3478911851        1.7537418726



     Writing output data file ./tmp/01_HfH3_Top1.save/
     NEW-OLD atomic charge density approx. for the potential
     extrapolated charge   39.00371, renormalised to   39.00000

     total cpu time spent up to now is     1286.1 secs

     Self-consistent Calculation

     iteration #  1     ecut=    50.00 Ry     beta= 0.70
     Davidson diagonalization with overlap
     ethr =  1.00E-06,  avg # of iterations =  4.9

     Threshold (ethr) on eigenvalues was too large:
     Diagonalizing with lowered threshold

     Davidson diagonalization with overlap
     ethr =  5.63E-08,  avg # of iterations =  1.8

     total cpu time spent up to now is     1290.0 secs

     total energy              =   -2012.38830776 Ry
     estimated scf accuracy    <       0.00002249 Ry

     iteration #  2     ecut=    50.00 Ry     beta= 0.70
     Davidson diagonalization with overlap
     ethr =  5.77E-08,  avg # of iterations =  3.5

     total cpu time spent up to now is     1292.6 secs

     total energy              =   -2012.38833291 Ry
     estimated scf accuracy    <       0.00008856 Ry

     iteration #  3     ecut=    50.00 Ry     beta= 0.70
     Davidson diagonalization with overlap
     ethr =  5.77E-08,  avg # of iterations =  2.9

     total cpu time spent up to now is     1295.2 secs

     total energy              =   -2012.38833804 Ry
     estimated scf accuracy    <       0.00001029 Ry

     iteration #  4     ecut=    50.00 Ry     beta= 0.70
     Davidson diagonalization with overlap
     ethr =  2.64E-08,  avg # of iterations =  2.0

     total cpu time spent up to now is     1297.7 secs

     total energy              =   -2012.38833951 Ry
     estimated scf accuracy    <       0.00000073 Ry

     iteration #  5     ecut=    50.00 Ry     beta= 0.70
     Davidson diagonalization with overlap
     ethr =  1.88E-09,  avg # of iterations =  3.0

     total cpu time spent up to now is     1300.4 secs

     total energy              =   -2012.38833975 Ry
     estimated scf accuracy    <       0.00000002 Ry

     iteration #  6     ecut=    50.00 Ry     beta= 0.70
     Davidson diagonalization with overlap
     ethr =  4.46E-11,  avg # of iterations =  2.0

     total cpu time spent up to now is     1302.9 secs

     total energy              =   -2012.38833974 Ry
     estimated scf accuracy    <       0.00000002 Ry

     iteration #  7     ecut=    50.00 Ry     beta= 0.70
     Davidson diagonalization with overlap
     ethr =  4.46E-11,  avg # of iterations =  2.0

     total cpu time spent up to now is     1305.3 secs

     End of self-consistent calculation

          k = 0.0000 0.0000 0.0000 (  1935 PWs)   bands (ev):

  -173.1485-173.1357-173.1318-173.1241-173.0997 -34.1852  -2.0666  -2.0599
    -1.8634  12.4920  16.3176  16.3290  16.3510  16.4420  16.4834  16.4887
    16.5157  20.7748  20.8728  35.2221  35.5039  35.6242  35.7804  37.1169

          k =-0.0004 0.0002-0.7043 (  1936 PWs)   bands (ev):

  -173.1612-173.1493-173.1191-173.0922-173.0808 -33.9069  -4.9719  -1.7573
    -1.7379  16.0914  16.1831  16.3859  16.3938  16.4000  16.6014  16.6152
    17.5703  20.1414  24.9296  26.4145  28.8962  30.7235  36.0674  39.7680

          k =-0.0001-0.6943-0.7045 (  1956 PWs)   bands (ev):

  -173.1792-173.1666-173.1643-173.1059-173.0745 -33.6779  -4.3791  -4.2968
    -1.4893  15.9423  16.1588  16.2646  16.3911  16.4453  16.4815  16.5260
    16.6261  23.9471  24.5825  25.0311  30.2747  30.2903  39.5083  40.1714

          k =-0.6953-0.6921-0.7042 (  1904 PWs)   bands (ev):

  -173.1127-173.1009-173.0936-173.0769-173.0456 -33.4599  -3.8541  -3.7800
    -3.7451  16.1467  16.4204  16.4208  16.4233  16.4917  16.4966  16.5079
    17.8122  18.0229  18.2428  29.2333  39.3724  39.4543  39.6846  39.9107

          k =-0.6951 0.0022 0.0003 (  1936 PWs)   bands (ev):

  -173.1574-173.1494-173.1266-173.1168-173.0487 -33.9385  -4.9553  -1.7821
    -1.5902  16.0633  16.1623  16.3876  16.4049  16.4174  16.5886  16.6127
    17.8419  19.8545  24.7693  27.4725  29.1642  29.4657  36.3114  39.1428

          k = 0.0002-0.6945-0.0002 (  1936 PWs)   bands (ev):

  -173.1535-173.1493-173.1307-173.1193-173.0456 -33.9408  -4.9466  -1.7788
    -1.5923  16.0621  16.1636  16.3874  16.4049  16.4151  16.5881  16.6143
    17.8389  19.8620  24.7490  27.5351  29.1668  29.4284  36.3246  39.0743

          k =-0.6947 0.0020 0.7047 (  1956 PWs)   bands (ev):

  -173.1782-173.1665-173.1653-173.1054-173.0751 -33.6756  -4.3764  -4.3072
    -1.4915  15.9593  16.1587  16.2595  16.3951  16.4424  16.4814  16.5263
    16.6280  23.9499  24.5593  25.0404  30.2565  30.2578  39.5298  40.1878

          k =-0.6953 0.6966 0.0005 (  1956 PWs)   bands (ev):

  -173.1814-173.1678-173.1611-173.1073-173.0716 -33.7091  -4.3432  -4.3272
    -1.3404  15.6289  16.1813  16.2345  16.3475  16.4214  16.4269  16.5385
    16.6401  24.1449  24.4575  25.6697  30.6434  30.6980  39.1938  39.9933

     the Fermi energy is    26.6437 ev

!    total energy              =   -2012.38833975 Ry

     total all-electron energy =    -30159.999985 Ry
     estimated scf accuracy    <          2.1E-09 Ry
     smearing contrib. (-TS)   =       0.00014684 Ry
     internal energy E=F+TS    =   -2012.38848659 Ry

     The total energy is F=E-TS. E is the sum of the following terms:
     one-electron contribution =   -1284.66535318 Ry
     hartree contribution      =     656.94269735 Ry
     xc contribution           =    -112.70919940 Ry
     ewald contribution        =    -775.57544512 Ry
     one-center paw contrib.   =    -496.38118623 Ry

     convergence has been achieved in   7 iterations

     Forces acting on atoms (cartesian axes, Ry/au):

     atom    1 type  1   force =     0.00024248   -0.00014360   -0.00014322
     atom    2 type  2   force =    -0.00024834   -0.00007210    0.00052579
     atom    3 type  2   force =    -0.00006392    0.00005492   -0.00037832
     atom    4 type  2   force =     0.00006978    0.00016078   -0.00000425

     Total force =     0.000790     Total SCF correction =     0.000023


     Computing stress (Cartesian axis) and pressure

          total   stress  (Ry/bohr**3)                   (kbar)     P=       -0.63
   0.00000876  -0.00000864   0.00000256            1.29       -1.27        0.38
  -0.00000864  -0.00001445  -0.00000082           -1.27       -2.13       -0.12
   0.00000256  -0.00000082  -0.00000717            0.38       -0.12       -1.05

     Energy error            =      1.8E-06
     Gradient error          =      5.3E-04
     Cell gradient error     =      1.4E-05


     number of scf cycles    =  34
     number of bfgs steps    =  32

     enthalpy old            =   -2012.3883379921 Ry
     enthalpy new            =   -2012.3883397451 Ry

     CASE: enthalpy_new < enthalpy_old

     new trust radius        =       0.0009000742 bohr
     new conv_thr            =       0.0000000100 Ry

     new unit-cell volume =    119.09046 a.u.^3 (    17.64738 Ang^3 )
     density =     17.07965 g/cm^3

CELL_PARAMETERS (angstrom)
   2.614149657   0.000865655  -0.001384153
   0.008095826   2.616583411   0.000730484
   0.001299832  -0.000704075   2.579975728

ATOMIC_POSITIONS (angstrom)
Hf            0.5882354164        1.7574635039        0.4636931552
H             1.8751444525        0.4328259788        0.4530685525
H             1.8008031903        1.5450864603        1.7538241345
H             0.3851947371        0.3479555018        1.7537583325



     Writing output data file ./tmp/01_HfH3_Top1.save/
     NEW-OLD atomic charge density approx. for the potential
     extrapolated charge   39.00014, renormalised to   39.00000

     total cpu time spent up to now is     1318.9 secs

     Self-consistent Calculation

     iteration #  1     ecut=    50.00 Ry     beta= 0.70
     Davidson diagonalization with overlap
     ethr =  1.00E-06,  avg # of iterations =  4.0

     Threshold (ethr) on eigenvalues was too large:
     Diagonalizing with lowered threshold

     Davidson diagonalization with overlap
     ethr =  6.63E-10,  avg # of iterations =  3.9

     total cpu time spent up to now is     1322.8 secs

     total energy              =   -2012.38834007 Ry
     estimated scf accuracy    <       0.00000026 Ry

     iteration #  2     ecut=    50.00 Ry     beta= 0.70
     Davidson diagonalization with overlap
     ethr =  6.55E-10,  avg # of iterations =  3.0

     total cpu time spent up to now is     1325.5 secs

     total energy              =   -2012.38834024 Ry
     estimated scf accuracy    <       0.00000024 Ry

     iteration #  3     ecut=    50.00 Ry     beta= 0.70
     Davidson diagonalization with overlap
     ethr =  6.14E-10,  avg # of iterations =  2.0

     total cpu time spent up to now is     1328.0 secs

     End of self-consistent calculation

          k = 0.0000 0.0000 0.0000 (  1935 PWs)   bands (ev):

  -173.1483-173.1355-173.1316-173.1238-173.0994 -34.1854  -2.0668  -2.0601
    -1.8637  12.4924  16.3177  16.3291  16.3512  16.4422  16.4835  16.4888
    16.5158  20.7741  20.8718  35.2221  35.5037  35.6238  35.7828  37.1168

          k =-0.0004 0.0002-0.7043 (  1936 PWs)   bands (ev):

  -173.1610-173.1491-173.1188-173.0919-173.0805 -33.9071  -4.9723  -1.7576
    -1.7381  16.0915  16.1833  16.3861  16.3939  16.4002  16.6016  16.6153
    17.5705  20.1421  24.9292  26.4152  28.8956  30.7210  36.0672  39.7678

          k =-0.0001-0.6943-0.7045 (  1956 PWs)   bands (ev):

  -173.1790-173.1663-173.1640-173.1057-173.0742 -33.6781  -4.3795  -4.2971
    -1.4895  15.9426  16.1590  16.2648  16.3910  16.4455  16.4814  16.5261
    16.6263  23.9474  24.5819  25.0310  30.2746  30.2900  39.5081  40.1710

          k =-0.6953-0.6921-0.7042 (  1904 PWs)   bands (ev):

  -173.1124-173.1006-173.0933-173.0767-173.0453 -33.4602  -3.8545  -3.7802
    -3.7454  16.1470  16.4205  16.4209  16.4235  16.4919  16.4967  16.5080
    17.8125  18.0221  18.2424  29.2356  39.3719  39.4539  39.6837  39.9104

          k =-0.6951 0.0022 0.0004 (  1936 PWs)   bands (ev):

  -173.1571-173.1491-173.1263-173.1166-173.0484 -33.9387  -4.9554  -1.7823
    -1.5905  16.0634  16.1626  16.3877  16.4051  16.4175  16.5888  16.6128
    17.8414  19.8546  24.7683  27.4716  29.1643  29.4669  36.3111  39.1433

          k = 0.0002-0.6945-0.0002 (  1936 PWs)   bands (ev):

  -173.1533-173.1490-173.1304-173.1191-173.0453 -33.9410  -4.9469  -1.7791
    -1.5926  16.0622  16.1638  16.3875  16.4051  16.4153  16.5882  16.6145
    17.8390  19.8625  24.7482  27.5349  29.1666  29.4269  36.3242  39.0748

          k =-0.6947 0.0020 0.7047 (  1956 PWs)   bands (ev):

  -173.1779-173.1662-173.1651-173.1052-173.0748 -33.6758  -4.3768  -4.3073
    -1.4917  15.9600  16.1589  16.2597  16.3953  16.4425  16.4815  16.5265
    16.6281  23.9502  24.5578  25.0400  30.2563  30.2577  39.5291  40.1890

          k =-0.6953 0.6966 0.0005 (  1956 PWs)   bands (ev):

  -173.1811-173.1675-173.1608-173.1071-173.0714 -33.7093  -4.3433  -4.3276
    -1.3407  15.6301  16.1814  16.2346  16.3477  16.4215  16.4271  16.5386
    16.6402  24.1432  24.4567  25.6694  30.6431  30.6976  39.1934  39.9964

     the Fermi energy is    26.6444 ev

!    total energy              =   -2012.38834034 Ry

     total all-electron energy =    -30159.999986 Ry
     estimated scf accuracy    <          6.6E-09 Ry
     smearing contrib. (-TS)   =       0.00014689 Ry
     internal energy E=F+TS    =   -2012.38848723 Ry

     The total energy is F=E-TS. E is the sum of the following terms:
     one-electron contribution =   -1284.66858940 Ry
     hartree contribution      =     656.94342957 Ry
     xc contribution           =    -112.70918107 Ry
     ewald contribution        =    -775.57300110 Ry
     one-center paw contrib.   =    -496.38114522 Ry

     convergence has been achieved in   3 iterations

     Forces acting on atoms (cartesian axes, Ry/au):

     atom    1 type  1   force =     0.00068531    0.00001228    0.00071525
     atom    2 type  2   force =    -0.00034560   -0.00001372    0.00027323
     atom    3 type  2   force =    -0.00016775   -0.00004031   -0.00064117
     atom    4 type  2   force =    -0.00017196    0.00004175   -0.00034731

     Total force =     0.001330     Total SCF correction =     0.001231
     SCF correction compared to forces is large: reduce conv_thr to get better values


     Computing stress (Cartesian axis) and pressure

          total   stress  (Ry/bohr**3)                   (kbar)     P=       -0.86
   0.00000544  -0.00000616   0.00000061            0.80       -0.91        0.09
  -0.00000616  -0.00001489  -0.00000032           -0.91       -2.19       -0.05
   0.00000061  -0.00000032  -0.00000802            0.09       -0.05       -1.18

     Energy error            =      5.9E-07
     Gradient error          =      7.2E-04
     Cell gradient error     =      1.5E-05


     number of scf cycles    =  35
     number of bfgs steps    =  33

     enthalpy old            =   -2012.3883397451 Ry
     enthalpy new            =   -2012.3883403361 Ry

     CASE: enthalpy_new < enthalpy_old

     new trust radius        =       0.0019801505 bohr
     new conv_thr            =       0.0000000100 Ry

     new unit-cell volume =    119.08875 a.u.^3 (    17.64713 Ang^3 )
     density =     17.07989 g/cm^3

CELL_PARAMETERS (angstrom)
   2.614259614   0.000815601  -0.001316198
   0.008049569   2.616473880   0.000705793
   0.001368113  -0.000722684   2.579937999

ATOMIC_POSITIONS (angstrom)
Hf            0.5885447939        1.7574111114        0.4636575455
H             1.8746692857        0.4320566744        0.4536348771
H             1.8006619804        1.5456098100        1.7534204307
H             0.3857416227        0.3479622731        1.7536485467



     Writing output data file ./tmp/01_HfH3_Top1.save/
     NEW-OLD atomic charge density approx. for the potential
     extrapolated charge   38.99944, renormalised to   39.00000

     total cpu time spent up to now is     1341.6 secs

     Self-consistent Calculation

     iteration #  1     ecut=    50.00 Ry     beta= 0.70
     Davidson diagonalization with overlap
     ethr =  1.00E-06,  avg # of iterations =  4.6

     Threshold (ethr) on eigenvalues was too large:
     Diagonalizing with lowered threshold

     Davidson diagonalization with overlap
     ethr =  3.31E-09,  avg # of iterations =  3.9

     total cpu time spent up to now is     1345.5 secs

     total energy              =   -2012.38833971 Ry
     estimated scf accuracy    <       0.00000131 Ry

     iteration #  2     ecut=    50.00 Ry     beta= 0.70
     Davidson diagonalization with overlap
     ethr =  3.35E-09,  avg # of iterations =  3.0

     total cpu time spent up to now is     1348.1 secs

     total energy              =   -2012.38834037 Ry
     estimated scf accuracy    <       0.00000182 Ry

     iteration #  3     ecut=    50.00 Ry     beta= 0.70
     Davidson diagonalization with overlap
     ethr =  3.35E-09,  avg # of iterations =  2.0

     total cpu time spent up to now is     1350.7 secs

     total energy              =   -2012.38834081 Ry
     estimated scf accuracy    <       0.00000006 Ry

     iteration #  4     ecut=    50.00 Ry     beta= 0.70
     Davidson diagonalization with overlap
     ethr =  1.55E-10,  avg # of iterations =  3.0

     total cpu time spent up to now is     1353.3 secs

     End of self-consistent calculation

          k = 0.0000 0.0000 0.0000 (  1935 PWs)   bands (ev):

  -173.1492-173.1365-173.1325-173.1248-173.1004 -34.1858  -2.0669  -2.0607
    -1.8641  12.4937  16.3169  16.3282  16.3504  16.4414  16.4828  16.4880
    16.5150  20.7735  20.8710  35.2221  35.5037  35.6238  35.7840  37.1142

          k =-0.0004 0.0002-0.7043 (  1936 PWs)   bands (ev):

  -173.1619-173.1501-173.1197-173.0928-173.0816 -33.9075  -4.9731  -1.7577
    -1.7384  16.0906  16.1825  16.3853  16.3931  16.3994  16.6008  16.6145
    17.5717  20.1439  24.9291  26.4141  28.8950  30.7205  36.0673  39.7685

          k =-0.0001-0.6943-0.7045 (  1956 PWs)   bands (ev):

  -173.1799-173.1672-173.1650-173.1067-173.0752 -33.6783  -4.3801  -4.2977
    -1.4899  15.9433  16.1583  16.2640  16.3902  16.4446  16.4806  16.5254
    16.6255  23.9488  24.5811  25.0316  30.2739  30.2889  39.5090  40.1712

          k =-0.6952-0.6922-0.7042 (  1904 PWs)   bands (ev):

  -173.1133-173.1016-173.0942-173.0776-173.0462 -33.4605  -3.8553  -3.7800
    -3.7459  16.1467  16.4198  16.4201  16.4227  16.4911  16.4959  16.5072
    17.8139  18.0208  18.2430  29.2384  39.3717  39.4535  39.6822  39.9102

          k =-0.6951 0.0021 0.0004 (  1936 PWs)   bands (ev):

  -173.1579-173.1500-173.1274-173.1176-173.0492 -33.9392  -4.9551  -1.7825
    -1.5911  16.0627  16.1622  16.3869  16.4043  16.4166  16.5880  16.6120
    17.8418  19.8553  24.7653  27.4710  29.1651  29.4715  36.3114  39.1417

          k = 0.0002-0.6945-0.0002 (  1936 PWs)   bands (ev):

  -173.1543-173.1499-173.1313-173.1200-173.0463 -33.9413  -4.9476  -1.7795
    -1.5930  16.0614  16.1632  16.3866  16.4043  16.4145  16.5875  16.6136
    17.8403  19.8635  24.7469  27.5299  29.1669  29.4316  36.3235  39.0773

          k =-0.6947 0.0019 0.7047 (  1956 PWs)   bands (ev):

  -173.1789-173.1671-173.1660-173.1062-173.0757 -33.6763  -4.3778  -4.3070
    -1.4918  15.9603  16.1582  16.2592  16.3944  16.4418  16.4810  16.5257
    16.6273  23.9514  24.5573  25.0397  30.2566  30.2593  39.5280  40.1904

          k =-0.6953 0.6966 0.0006 (  1956 PWs)   bands (ev):

  -173.1821-173.1685-173.1617-173.1081-173.0723 -33.7097  -4.3430  -4.3285
    -1.3411  15.6320  16.1805  16.2343  16.3469  16.4208  16.4264  16.5378
    16.6394  24.1398  24.4557  25.6713  30.6430  30.6978  39.1930  40.0026

     the Fermi energy is    26.6433 ev

!    total energy              =   -2012.38834086 Ry

     total all-electron energy =    -30159.999987 Ry
     estimated scf accuracy    <          9.3E-09 Ry
     smearing contrib. (-TS)   =       0.00014692 Ry
     internal energy E=F+TS    =   -2012.38848777 Ry

     The total energy is F=E-TS. E is the sum of the following terms:
     one-electron contribution =   -1284.66744212 Ry
     hartree contribution      =     656.94323699 Ry
     xc contribution           =    -112.70937039 Ry
     ewald contribution        =    -775.57392065 Ry
     one-center paw contrib.   =    -496.38099160 Ry

     convergence has been achieved in   4 iterations

     Forces acting on atoms (cartesian axes, Ry/au):

     atom    1 type  1   force =    -0.00001982   -0.00063726   -0.00038589
     atom    2 type  2   force =     0.00010709    0.00040309    0.00053727
     atom    3 type  2   force =     0.00006046    0.00004476   -0.00012967
     atom    4 type  2   force =    -0.00014773    0.00018941   -0.00002171

     Total force =     0.001048     Total SCF correction =     0.000539
     SCF correction compared to forces is large: reduce conv_thr to get better values


     Computing stress (Cartesian axis) and pressure

          total   stress  (Ry/bohr**3)                   (kbar)     P=        0.17
   0.00000700   0.00000208  -0.00000255            1.03        0.31       -0.37
   0.00000208  -0.00000598   0.00000056            0.31       -0.88        0.08
  -0.00000255   0.00000056   0.00000243           -0.37        0.08        0.36

     Energy error            =      5.2E-07
     Gradient error          =      6.4E-04
     Cell gradient error     =      7.0E-06


     number of scf cycles    =  36
     number of bfgs steps    =  34

     enthalpy old            =   -2012.3883403361 Ry
     enthalpy new            =   -2012.3883408583 Ry

     CASE: enthalpy_new < enthalpy_old

     new trust radius        =       0.0010146257 bohr
     new conv_thr            =       0.0000000100 Ry

     new unit-cell volume =    119.08799 a.u.^3 (    17.64702 Ang^3 )
     density =     17.08000 g/cm^3

CELL_PARAMETERS (angstrom)
   2.614288995   0.000828722  -0.001326985
   0.008062375   2.616436266   0.000702698
   0.001356918  -0.000725466   2.579929700

ATOMIC_POSITIONS (angstrom)
Hf            0.5887426291        1.7572104823        0.4635253144
H             1.8746452033        0.4318995766        0.4541357554
H             1.8006790898        1.5456076856        1.7532371485
H             0.3856036283        0.3482819200        1.7534249931



     Writing output data file ./tmp/01_HfH3_Top1.save/
     NEW-OLD atomic charge density approx. for the potential
     extrapolated charge   38.99975, renormalised to   39.00000

     total cpu time spent up to now is     1366.9 secs

     Self-consistent Calculation

     iteration #  1     ecut=    50.00 Ry     beta= 0.70
     Davidson diagonalization with overlap
     ethr =  1.00E-06,  avg # of iterations =  4.5

     Threshold (ethr) on eigenvalues was too large:
     Diagonalizing with lowered threshold

     Davidson diagonalization with overlap
     ethr =  6.16E-10,  avg # of iterations =  4.4

     total cpu time spent up to now is     1370.8 secs

     total energy              =   -2012.38834099 Ry
     estimated scf accuracy    <       0.00000025 Ry

     iteration #  2     ecut=    50.00 Ry     beta= 0.70
     Davidson diagonalization with overlap
     ethr =  6.52E-10,  avg # of iterations =  3.0

     total cpu time spent up to now is     1373.4 secs

     total energy              =   -2012.38834130 Ry
     estimated scf accuracy    <       0.00000027 Ry

     iteration #  3     ecut=    50.00 Ry     beta= 0.70
     Davidson diagonalization with overlap
     ethr =  6.52E-10,  avg # of iterations =  2.0

     total cpu time spent up to now is     1375.9 secs

     total energy              =   -2012.38834145 Ry
     estimated scf accuracy    <       0.00000001 Ry

     iteration #  4     ecut=    50.00 Ry     beta= 0.70
     Davidson diagonalization with overlap
     ethr =  3.03E-11,  avg # of iterations =  2.0

     total cpu time spent up to now is     1378.3 secs

     End of self-consistent calculation

          k = 0.0000 0.0000 0.0000 (  1935 PWs)   bands (ev):

  -173.1482-173.1356-173.1315-173.1239-173.0995 -34.1854  -2.0665  -2.0603
    -1.8637  12.4938  16.3177  16.3290  16.3512  16.4423  16.4836  16.4888
    16.5158  20.7739  20.8711  35.2224  35.5043  35.6241  35.7852  37.1127

          k =-0.0004 0.0002-0.7043 (  1936 PWs)   bands (ev):

  -173.1610-173.1492-173.1188-173.0918-173.0807 -33.9071  -4.9727  -1.7574
    -1.7381  16.0914  16.1833  16.3861  16.3939  16.4002  16.6016  16.6153
    17.5718  20.1437  24.9293  26.4158  28.8952  30.7195  36.0676  39.7690

          k =-0.0001-0.6943-0.7045 (  1956 PWs)   bands (ev):

  -173.1789-173.1662-173.1642-173.1057-173.0743 -33.6779  -4.3797  -4.2977
    -1.4894  15.9440  16.1591  16.2646  16.3910  16.4452  16.4811  16.5262
    16.6264  23.9489  24.5815  25.0321  30.2741  30.2885  39.5096  40.1717

          k =-0.6952-0.6922-0.7042 (  1904 PWs)   bands (ev):

  -173.1124-173.1008-173.0933-173.0767-173.0453 -33.4601  -3.8548  -3.7797
    -3.7457  16.1474  16.4206  16.4209  16.4235  16.4919  16.4967  16.5080
    17.8139  18.0214  18.2428  29.2383  39.3715  39.4540  39.6838  39.9106

          k =-0.6951 0.0021 0.0004 (  1936 PWs)   bands (ev):

  -173.1569-173.1491-173.1267-173.1168-173.0482 -33.9389  -4.9546  -1.7822
    -1.5906  16.0634  16.1630  16.3877  16.4051  16.4173  16.5888  16.6129
    17.8418  19.8555  24.7648  27.4726  29.1656  29.4711  36.3120  39.1405

          k = 0.0002-0.6945-0.0002 (  1936 PWs)   bands (ev):

  -173.1536-173.1490-173.1302-173.1190-173.0455 -33.9408  -4.9475  -1.7791
    -1.5925  16.0622  16.1639  16.3875  16.4051  16.4154  16.5883  16.6143
    17.8406  19.8638  24.7482  27.5267  29.1672  29.4340  36.3238  39.0788

          k =-0.6947 0.0020 0.7047 (  1956 PWs)   bands (ev):

  -173.1780-173.1662-173.1651-173.1053-173.0748 -33.6759  -4.3774  -4.3065
    -1.4915  15.9603  16.1590  16.2600  16.3952  16.4427  16.4818  16.5265
    16.6280  23.9514  24.5581  25.0395  30.2568  30.2600  39.5283  40.1901

          k =-0.6953 0.6966 0.0006 (  1956 PWs)   bands (ev):

  -173.1811-173.1677-173.1608-173.1072-173.0714 -33.7093  -4.3425  -4.3284
    -1.3407  15.6319  16.1813  16.2351  16.3477  16.4216  16.4272  16.5386
    16.6402  24.1417  24.4560  25.6700  30.6435  30.6980  39.1934  40.0028

     the Fermi energy is    26.6450 ev

!    total energy              =   -2012.38834148 Ry

     total all-electron energy =    -30159.999987 Ry
     estimated scf accuracy    <          2.1E-09 Ry
     smearing contrib. (-TS)   =       0.00014697 Ry
     internal energy E=F+TS    =   -2012.38848844 Ry

     The total energy is F=E-TS. E is the sum of the following terms:
     one-electron contribution =   -1284.66130270 Ry
     hartree contribution      =     656.93926932 Ry
     xc contribution           =    -112.70920531 Ry
     ewald contribution        =    -775.57625028 Ry
     one-center paw contrib.   =    -496.38099947 Ry

     convergence has been achieved in   4 iterations

     Forces acting on atoms (cartesian axes, Ry/au):

     atom    1 type  1   force =    -0.00009821   -0.00044650   -0.00035598
     atom    2 type  2   force =     0.00021807    0.00039841    0.00048299
     atom    3 type  2   force =     0.00002693    0.00005404   -0.00013228
     atom    4 type  2   force =    -0.00014680   -0.00000595    0.00000527

     Total force =     0.000904     Total SCF correction =     0.000472
     SCF correction compared to forces is large: reduce conv_thr to get better values


     Computing stress (Cartesian axis) and pressure

          total   stress  (Ry/bohr**3)                   (kbar)     P=       -0.22
   0.00000587   0.00000206  -0.00000213            0.86        0.30       -0.31
   0.00000206  -0.00001011   0.00000098            0.30       -1.49        0.14
  -0.00000213   0.00000098  -0.00000032           -0.31        0.14       -0.05

     Energy error            =      6.2E-07
     Gradient error          =      4.8E-04
     Cell gradient error     =      1.0E-05


     number of scf cycles    =  37
     number of bfgs steps    =  35

     enthalpy old            =   -2012.3883408583 Ry
     enthalpy new            =   -2012.3883414773 Ry

     CASE: enthalpy_new < enthalpy_old

     new trust radius        =       0.0011160855 bohr
     new conv_thr            =       0.0000000100 Ry

     new unit-cell volume =    119.08330 a.u.^3 (    17.64632 Ang^3 )
     density =     17.08067 g/cm^3

CELL_PARAMETERS (angstrom)
   2.614343915   0.000837577  -0.001339066
   0.008064899   2.616316405   0.000706822
   0.001342521  -0.000722279   2.579892228

ATOMIC_POSITIONS (angstrom)
Hf            0.5889026279        1.7569253218        0.4633824361
H             1.8747855877        0.4319338778        0.4547007744
H             1.8007659759        1.5453553744        1.7529974618
H             0.3852929661        0.3486192191        1.7531632753



     Writing output data file ./tmp/01_HfH3_Top1.save/
     NEW-OLD atomic charge density approx. for the potential
     extrapolated charge   38.99847, renormalised to   39.00000

     total cpu time spent up to now is     1391.8 secs

     Self-consistent Calculation

     iteration #  1     ecut=    50.00 Ry     beta= 0.70
     Davidson diagonalization with overlap
     ethr =  1.00E-06,  avg # of iterations =  4.6

     Threshold (ethr) on eigenvalues was too large:
     Diagonalizing with lowered threshold

     Davidson diagonalization with overlap
     ethr =  9.75E-09,  avg # of iterations =  2.4

     total cpu time spent up to now is     1395.7 secs

     total energy              =   -2012.38833646 Ry
     estimated scf accuracy    <       0.00000397 Ry

     iteration #  2     ecut=    50.00 Ry     beta= 0.70
     Davidson diagonalization with overlap
     ethr =  1.02E-08,  avg # of iterations =  3.5

     total cpu time spent up to now is     1398.3 secs

     total energy              =   -2012.38834080 Ry
     estimated scf accuracy    <       0.00001522 Ry

     iteration #  3     ecut=    50.00 Ry     beta= 0.70
     Davidson diagonalization with overlap
     ethr =  1.02E-08,  avg # of iterations =  2.9

     total cpu time spent up to now is     1400.9 secs

     total energy              =   -2012.38834167 Ry
     estimated scf accuracy    <       0.00000173 Ry

     iteration #  4     ecut=    50.00 Ry     beta= 0.70
     Davidson diagonalization with overlap
     ethr =  4.43E-09,  avg # of iterations =  2.0

     total cpu time spent up to now is     1403.4 secs

     total energy              =   -2012.38834203 Ry
     estimated scf accuracy    <       0.00000004 Ry

     iteration #  5     ecut=    50.00 Ry     beta= 0.70
     Davidson diagonalization with overlap
     ethr =  1.08E-10,  avg # of iterations =  3.5

     total cpu time spent up to now is     1406.0 secs

     End of self-consistent calculation

          k = 0.0000 0.0000 0.0000 (  1935 PWs)   bands (ev):

  -173.1477-173.1352-173.1311-173.1234-173.0990 -34.1844  -2.0651  -2.0593
    -1.8623  12.4942  16.3183  16.3297  16.3519  16.4429  16.4842  16.4894
    16.5165  20.7753  20.8724  35.2237  35.5062  35.6255  35.7869  37.1130

          k =-0.0004 0.0002-0.7043 (  1936 PWs)   bands (ev):

  -173.1604-173.1488-173.1184-173.0914-173.0803 -33.9060  -4.9715  -1.7562
    -1.7368  16.0921  16.1839  16.3868  16.3946  16.4008  16.6023  16.6160
    17.5725  20.1440  24.9304  26.4187  28.8964  30.7200  36.0690  39.7708

          k =-0.0001-0.6943-0.7045 (  1956 PWs)   bands (ev):

  -173.1783-173.1658-173.1638-173.1052-173.0739 -33.6767  -4.3783  -4.2972
    -1.4882  15.9448  16.1597  16.2651  16.3917  16.4458  16.4816  16.5269
    16.6272  23.9498  24.5834  25.0336  30.2751  30.2884  39.5122  40.1723

          k =-0.6952-0.6922-0.7042 (  1904 PWs)   bands (ev):

  -173.1119-173.1004-173.0929-173.0762-173.0449 -33.4590  -3.8535  -3.7785
    -3.7448  16.1479  16.4213  16.4216  16.4241  16.4925  16.4974  16.5087
    17.8143  18.0230  18.2433  29.2380  39.3734  39.4557  39.6875  39.9123

          k =-0.6951 0.0021 0.0004 (  1936 PWs)   bands (ev):

  -173.1563-173.1486-173.1264-173.1164-173.0477 -33.9379  -4.9534  -1.7808
    -1.5893  16.0640  16.1637  16.3884  16.4058  16.4179  16.5894  16.6137
    17.8424  19.8562  24.7656  27.4763  29.1673  29.4710  36.3142  39.1397

          k = 0.0002-0.6945-0.0002 (  1936 PWs)   bands (ev):

  -173.1532-173.1486-173.1296-173.1184-173.0452 -33.9397  -4.9470  -1.7780
    -1.5910  16.0629  16.1643  16.3882  16.4058  16.4162  16.5890  16.6150
    17.8418  19.8651  24.7510  27.5243  29.1683  29.4360  36.3251  39.0819

          k =-0.6947 0.0020 0.7047 (  1956 PWs)   bands (ev):

  -173.1775-173.1658-173.1646-173.1048-173.0744 -33.6749  -4.3763  -4.3051
    -1.4903  15.9606  16.1596  16.2607  16.3959  16.4435  16.4827  16.5271
    16.6286  23.9520  24.5603  25.0400  30.2582  30.2622  39.5293  40.1915

          k =-0.6953 0.6967 0.0006 (  1956 PWs)   bands (ev):

  -173.1806-173.1672-173.1603-173.1066-173.0710 -33.7082  -4.3412  -4.3277
    -1.3392  15.6317  16.1821  16.2357  16.3483  16.4222  16.4278  16.5393
    16.6409  24.1459  24.4576  25.6692  30.6452  30.6992  39.1952  40.0023

     the Fermi energy is    26.6479 ev

!    total energy              =   -2012.38834206 Ry

     total all-electron energy =    -30159.999988 Ry
     estimated scf accuracy    <          8.0E-09 Ry
     smearing contrib. (-TS)   =       0.00014700 Ry
     internal energy E=F+TS    =   -2012.38848905 Ry

     The total energy is F=E-TS. E is the sum of the following terms:
     one-electron contribution =   -1284.64410765 Ry
     hartree contribution      =     656.93411062 Ry
     xc contribution           =    -112.70945715 Ry
     ewald contribution        =    -775.58802657 Ry
     one-center paw contrib.   =    -496.38100830 Ry

     convergence has been achieved in   5 iterations

     Forces acting on atoms (cartesian axes, Ry/au):

     atom    1 type  1   force =    -0.00020480   -0.00022505   -0.00022344
     atom    2 type  2   force =     0.00030594    0.00031255    0.00038309
     atom    3 type  2   force =    -0.00000515    0.00010729   -0.00015616
     atom    4 type  2   force =    -0.00009599   -0.00019479   -0.00000348

     Total force =     0.000751     Total SCF correction =     0.000143
     SCF correction compared to forces is large: reduce conv_thr to get better values


     Computing stress (Cartesian axis) and pressure

          total   stress  (Ry/bohr**3)                   (kbar)     P=        1.10
   0.00001302   0.00000107  -0.00000127            1.91        0.16       -0.19
   0.00000107   0.00000172   0.00000088            0.16        0.25        0.13
  -0.00000127   0.00000088   0.00000764           -0.19        0.13        1.12

     Energy error            =      5.8E-07
     Gradient error          =      3.8E-04
     Cell gradient error     =      1.3E-05


     number of scf cycles    =  38
     number of bfgs steps    =  36

     enthalpy old            =   -2012.3883414773 Ry
     enthalpy new            =   -2012.3883420570 Ry

     CASE: enthalpy_new < enthalpy_old

     new trust radius        =       0.0016741029 bohr
     new conv_thr            =       0.0000000100 Ry

     new unit-cell volume =    119.08876 a.u.^3 (    17.64713 Ang^3 )
     density =     17.07989 g/cm^3

CELL_PARAMETERS (angstrom)
   2.614547310   0.000837236  -0.001372183
   0.008055630   2.616201632   0.000744900
   0.001306696  -0.000684423   2.579922896

ATOMIC_POSITIONS (angstrom)
Hf            0.5890237686        1.7565396641        0.4632660137
H             1.8751874795        0.4321497969        0.4555029667
H             1.8009880943        1.5450603838        1.7526710819
H             0.3848324890        0.3489691875        1.7528572003



     Writing output data file ./tmp/01_HfH3_Top1.save/
     NEW-OLD atomic charge density approx. for the potential
     extrapolated charge   39.00179, renormalised to   39.00000

     total cpu time spent up to now is     1419.5 secs

     Self-consistent Calculation

     iteration #  1     ecut=    50.00 Ry     beta= 0.70
     Davidson diagonalization with overlap
     ethr =  1.00E-06,  avg # of iterations =  4.9

     Threshold (ethr) on eigenvalues was too large:
     Diagonalizing with lowered threshold

     Davidson diagonalization with overlap
     ethr =  1.54E-08,  avg # of iterations =  2.0

     total cpu time spent up to now is     1423.3 secs

     total energy              =   -2012.38833469 Ry
     estimated scf accuracy    <       0.00000619 Ry

     iteration #  2     ecut=    50.00 Ry     beta= 0.70
     Davidson diagonalization with overlap
     ethr =  1.59E-08,  avg # of iterations =  3.4

     total cpu time spent up to now is     1425.9 secs

     total energy              =   -2012.38834093 Ry
     estimated scf accuracy    <       0.00002187 Ry

     iteration #  3     ecut=    50.00 Ry     beta= 0.70
     Davidson diagonalization with overlap
     ethr =  1.59E-08,  avg # of iterations =  2.9

     total cpu time spent up to now is     1428.5 secs

     total energy              =   -2012.38834240 Ry
     estimated scf accuracy    <       0.00000228 Ry

     iteration #  4     ecut=    50.00 Ry     beta= 0.70
     Davidson diagonalization with overlap
     ethr =  5.83E-09,  avg # of iterations =  2.0

     total cpu time spent up to now is     1431.0 secs

     total energy              =   -2012.38834293 Ry
     estimated scf accuracy    <       0.00000004 Ry

     iteration #  5     ecut=    50.00 Ry     beta= 0.70
     Davidson diagonalization with overlap
     ethr =  1.06E-10,  avg # of iterations =  3.2

     total cpu time spent up to now is     1433.5 secs

     End of self-consistent calculation

          k = 0.0000 0.0000 0.0000 (  1935 PWs)   bands (ev):

  -173.1472-173.1347-173.1306-173.1229-173.0986 -34.1850  -2.0655  -2.0606
    -1.8629  12.4926  16.3185  16.3300  16.3520  16.4430  16.4844  16.4896
    16.5167  20.7751  20.8718  35.2222  35.5056  35.6240  35.7864  37.1115

          k =-0.0004 0.0002-0.7043 (  1936 PWs)   bands (ev):

  -173.1599-173.1483-173.1179-173.0908-173.0798 -33.9066  -4.9717  -1.7571
    -1.7377  16.0923  16.1841  16.3869  16.3947  16.4010  16.6025  16.6162
    17.5709  20.1416  24.9295  26.4203  28.8953  30.7173  36.0675  39.7694

          k =-0.0001-0.6944-0.7045 (  1956 PWs)   bands (ev):

  -173.1778-173.1654-173.1634-173.1046-173.0735 -33.6772  -4.3783  -4.2985
    -1.4894  15.9444  16.1597  16.2649  16.3919  16.4458  16.4814  16.5270
    16.6274  23.9479  24.5828  25.0331  30.2732  30.2850  39.5124  40.1695

          k =-0.6952-0.6922-0.7042 (  1904 PWs)   bands (ev):

  -173.1113-173.0999-173.0924-173.0757-173.0445 -33.4597  -3.8538  -3.7790
    -3.7457  16.1478  16.4215  16.4218  16.4241  16.4927  16.4976  16.5089
    17.8128  18.0232  18.2418  29.2356  39.3721  39.4533  39.6883  39.9107

          k =-0.6950 0.0021 0.0004 (  1936 PWs)   bands (ev):

  -173.1556-173.1482-173.1261-173.1160-173.0470 -33.9386  -4.9533  -1.7815
    -1.5901  16.0642  16.1639  16.3886  16.4059  16.4180  16.5895  16.6139
    17.8405  19.8543  24.7648  27.4800  29.1669  29.4668  36.3138  39.1347

          k = 0.0002-0.6946-0.0002 (  1936 PWs)   bands (ev):

  -173.1530-173.1481-173.1289-173.1178-173.0449 -33.9401  -4.9483  -1.7791
    -1.5915  16.0630  16.1641  16.3885  16.4059  16.4165  16.5891  16.6151
    17.8408  19.8642  24.7529  27.5198  29.1669  29.4338  36.3234  39.0830

          k =-0.6946 0.0019 0.7047 (  1956 PWs)   bands (ev):

  -173.1771-173.1653-173.1641-173.1043-173.0739 -33.6757  -4.3768  -4.3051
    -1.4910  15.9596  16.1597  16.2608  16.3960  16.4438  16.4828  16.5273
    16.6287  23.9497  24.5602  25.0381  30.2578  30.2629  39.5265  40.1907

          k =-0.6952 0.6967 0.0005 (  1956 PWs)   bands (ev):

  -173.1801-173.1668-173.1599-173.1061-173.0705 -33.7088  -4.3413  -4.3289
    -1.3399  15.6299  16.1823  16.2357  16.3484  16.4223  16.4279  16.5394
    16.6411  24.1489  24.4566  25.6652  30.6446  30.6980  39.1938  39.9979

     the Fermi energy is    26.6495 ev

!    total energy              =   -2012.38834296 Ry

     total all-electron energy =    -30159.999989 Ry
     estimated scf accuracy    <          8.4E-09 Ry
     smearing contrib. (-TS)   =       0.00014701 Ry
     internal energy E=F+TS    =   -2012.38848997 Ry

     The total energy is F=E-TS. E is the sum of the following terms:
     one-electron contribution =   -1284.65609627 Ry
     hartree contribution      =     656.93594492 Ry
     xc contribution           =    -112.70891259 Ry
     ewald contribution        =    -775.57833115 Ry
     one-center paw contrib.   =    -496.38109488 Ry

     convergence has been achieved in   5 iterations

     Forces acting on atoms (cartesian axes, Ry/au):

     atom    1 type  1   force =    -0.00009422    0.00010157   -0.00032350
     atom    2 type  2   force =     0.00029173    0.00011026    0.00031129
     atom    3 type  2   force =    -0.00012568    0.00018224   -0.00005734
     atom    4 type  2   force =    -0.00007182   -0.00039407    0.00006956

     Total force =     0.000732     Total SCF correction =     0.000280
     SCF correction compared to forces is large: reduce conv_thr to get better values


     Computing stress (Cartesian axis) and pressure

          total   stress  (Ry/bohr**3)                   (kbar)     P=       -1.25
  -0.00000937  -0.00000093   0.00000105           -1.38       -0.14        0.15
  -0.00000093  -0.00000745  -0.00000131           -0.14       -1.10       -0.19
   0.00000105  -0.00000131  -0.00000876            0.15       -0.19       -1.29

     Energy error            =      9.0E-07
     Gradient error          =      3.9E-04
     Cell gradient error     =      9.4E-06


     number of scf cycles    =  39
     number of bfgs steps    =  37

     enthalpy old            =   -2012.3883420570 Ry
     enthalpy new            =   -2012.3883429613 Ry

     CASE: enthalpy_new < enthalpy_old

     new trust radius        =       0.0015565392 bohr
     new conv_thr            =       0.0000000100 Ry

     new unit-cell volume =    119.08200 a.u.^3 (    17.64613 Ang^3 )
     density =     17.08086 g/cm^3

CELL_PARAMETERS (angstrom)
   2.614624172   0.000820544  -0.001359045
   0.008035779   2.616034277   0.000737877
   0.001318555  -0.000690742   2.579865599

ATOMIC_POSITIONS (angstrom)
Hf            0.5891649635        1.7561185692        0.4630545570
H             1.8753413225        0.4321072332        0.4563186681
H             1.8010935159        1.5451986690        1.7522889886
H             0.3845576622        0.3489929822        1.7525490954



     Writing output data file ./tmp/01_HfH3_Top1.save/
     NEW-OLD atomic charge density approx. for the potential
     extrapolated charge   38.99779, renormalised to   39.00000

     total cpu time spent up to now is     1447.1 secs

     Self-consistent Calculation

     iteration #  1     ecut=    50.00 Ry     beta= 0.70
     Davidson diagonalization with overlap
     ethr =  1.00E-06,  avg # of iterations =  4.9

     Threshold (ethr) on eigenvalues was too large:
     Diagonalizing with lowered threshold

     Davidson diagonalization with overlap
     ethr =  2.15E-08,  avg # of iterations =  1.5

     total cpu time spent up to now is     1450.9 secs

     total energy              =   -2012.38833141 Ry
     estimated scf accuracy    <       0.00000868 Ry

     iteration #  2     ecut=    50.00 Ry     beta= 0.70
     Davidson diagonalization with overlap
     ethr =  2.23E-08,  avg # of iterations =  3.4

     total cpu time spent up to now is     1453.5 secs

     total energy              =   -2012.38834078 Ry
     estimated scf accuracy    <       0.00003325 Ry

     iteration #  3     ecut=    50.00 Ry     beta= 0.70
     Davidson diagonalization with overlap
     ethr =  2.23E-08,  avg # of iterations =  2.9

     total cpu time spent up to now is     1456.0 secs

     total energy              =   -2012.38834285 Ry
     estimated scf accuracy    <       0.00000370 Ry

     iteration #  4     ecut=    50.00 Ry     beta= 0.70
     Davidson diagonalization with overlap
     ethr =  9.48E-09,  avg # of iterations =  2.0

     total cpu time spent up to now is     1458.6 secs

     total energy              =   -2012.38834345 Ry
     estimated scf accuracy    <       0.00000020 Ry

     iteration #  5     ecut=    50.00 Ry     beta= 0.70
     Davidson diagonalization with overlap
     ethr =  5.01E-10,  avg # of iterations =  3.0

     total cpu time spent up to now is     1461.2 secs

     End of self-consistent calculation

          k = 0.0000 0.0000 0.0000 (  1935 PWs)   bands (ev):

  -173.1470-173.1345-173.1304-173.1227-173.0984 -34.1836  -2.0636  -2.0594
    -1.8612  12.4937  16.3190  16.3306  16.3526  16.4436  16.4849  16.4902
    16.5173  20.7765  20.8726  35.2242  35.5081  35.6259  35.7904  37.1141

          k =-0.0004 0.0002-0.7043 (  1936 PWs)   bands (ev):

  -173.1597-173.1481-173.1177-173.0906-173.0797 -33.9052  -4.9704  -1.7555
    -1.7361  16.0929  16.1847  16.3874  16.3953  16.4015  16.6030  16.6167
    17.5721  20.1430  24.9309  26.4235  28.8966  30.7170  36.0695  39.7719

          k =-0.0001-0.6944-0.7045 (  1956 PWs)   bands (ev):

  -173.1775-173.1652-173.1632-173.1044-173.0733 -33.6756  -4.3767  -4.2977
    -1.4878  15.9460  16.1602  16.2653  16.3927  16.4463  16.4819  16.5276
    16.6281  23.9495  24.5836  25.0351  30.2740  30.2851  39.5159  40.1719

          k =-0.6951-0.6923-0.7042 (  1904 PWs)   bands (ev):

  -173.1111-173.0998-173.0922-173.0755-173.0443 -33.4582  -3.8523  -3.7775
    -3.7445  16.1484  16.4221  16.4224  16.4246  16.4932  16.4982  16.5095
    17.8138  18.0244  18.2425  29.2376  39.3751  39.4553  39.6919  39.9129

          k =-0.6950 0.0021 0.0004 (  1936 PWs)   bands (ev):

  -173.1552-173.1480-173.1261-173.1159-173.0467 -33.9373  -4.9517  -1.7797
    -1.5885  16.0647  16.1645  16.3892  16.4064  16.4184  16.5900  16.6146
    17.8415  19.8559  24.7657  27.4860  29.1689  29.4646  36.3166  39.1342

          k = 0.0002-0.6946-0.0002 (  1936 PWs)   bands (ev):

  -173.1529-173.1480-173.1285-173.1174-173.0449 -33.9386  -4.9475  -1.7776
    -1.5896  16.0636  16.1646  16.3891  16.4065  16.4171  16.5897  16.6156
    17.8420  19.8659  24.7558  27.5182  29.1686  29.4360  36.3250  39.0884

          k =-0.6946 0.0019 0.7047 (  1956 PWs)   bands (ev):

  -173.1769-173.1651-173.1639-173.1041-173.0737 -33.6744  -4.3756  -4.3033
    -1.4892  15.9599  16.1602  16.2616  16.3964  16.4445  16.4834  16.5278
    16.6292  23.9510  24.5628  25.0391  30.2602  30.2662  39.5278  40.1924

          k =-0.6952 0.6967 0.0005 (  1956 PWs)   bands (ev):

  -173.1799-173.1666-173.1597-173.1059-173.0703 -33.7074  -4.3397  -4.3280
    -1.3381  15.6310  16.1829  16.2362  16.3490  16.4229  16.4284  16.5400
    16.6417  24.1519  24.4580  25.6656  30.6465  30.6996  39.1960  39.9999

     the Fermi energy is    26.6527 ev

!    total energy              =   -2012.38834354 Ry

     total all-electron energy =    -30159.999989 Ry
     estimated scf accuracy    <          8.5E-09 Ry
     smearing contrib. (-TS)   =       0.00014700 Ry
     internal energy E=F+TS    =   -2012.38849054 Ry

     The total energy is F=E-TS. E is the sum of the following terms:
     one-electron contribution =   -1284.63542141 Ry
     hartree contribution      =     656.93060708 Ry
     xc contribution           =    -112.70938796 Ry
     ewald contribution        =    -775.59320894 Ry
     one-center paw contrib.   =    -496.38107930 Ry

     convergence has been achieved in   5 iterations

     Forces acting on atoms (cartesian axes, Ry/au):

     atom    1 type  1   force =    -0.00000931    0.00033683   -0.00041928
     atom    2 type  2   force =     0.00032306   -0.00002927    0.00027099
     atom    3 type  2   force =    -0.00021473    0.00015071    0.00003328
     atom    4 type  2   force =    -0.00009902   -0.00045827    0.00011501

     Total force =     0.000878     Total SCF correction =     0.000171
     SCF correction compared to forces is large: reduce conv_thr to get better values


     Computing stress (Cartesian axis) and pressure

          total   stress  (Ry/bohr**3)                   (kbar)     P=        1.07
   0.00000322  -0.00000049   0.00000059            0.47       -0.07        0.09
  -0.00000049   0.00001175  -0.00000097           -0.07        1.73       -0.14
   0.00000059  -0.00000097   0.00000686            0.09       -0.14        1.01

     Energy error            =      5.8E-07
     Gradient error          =      4.6E-04
     Cell gradient error     =      1.2E-05


     number of scf cycles    =  40
     number of bfgs steps    =  38

     enthalpy old            =   -2012.3883429613 Ry
     enthalpy new            =   -2012.3883435384 Ry

     CASE: enthalpy_new < enthalpy_old

     new trust radius        =       0.0034150990 bohr
     new conv_thr            =       0.0000000100 Ry

     new unit-cell volume =    119.08301 a.u.^3 (    17.64628 Ang^3 )
     density =     17.08071 g/cm^3

CELL_PARAMETERS (angstrom)
   2.614813943   0.000809492  -0.001343190
   0.008025210   2.615861518   0.000741682
   0.001334107  -0.000683293   2.579870600

ATOMIC_POSITIONS (angstrom)
Hf            0.5895926661        1.7555327616        0.4625221489
H             1.8756515153        0.4318121891        0.4581115438
H             1.8012384637        1.5458536005        1.7516009284
H             0.3840214415        0.3489425073        1.7520193113



     Writing output data file ./tmp/01_HfH3_Top1.save/
     NEW-OLD atomic charge density approx. for the potential
     extrapolated charge   39.00033, renormalised to   39.00000

     total cpu time spent up to now is     1474.7 secs

     Self-consistent Calculation

     iteration #  1     ecut=    50.00 Ry     beta= 0.70
     Davidson diagonalization with overlap
     ethr =  1.00E-06,  avg # of iterations =  5.0

     Threshold (ethr) on eigenvalues was too large:
     Diagonalizing with lowered threshold

     Davidson diagonalization with overlap
     ethr =  4.85E-09,  avg # of iterations =  3.1

     total cpu time spent up to now is     1478.6 secs

     total energy              =   -2012.38834083 Ry
     estimated scf accuracy    <       0.00000194 Ry

     iteration #  2     ecut=    50.00 Ry     beta= 0.70
     Davidson diagonalization with overlap
     ethr =  4.97E-09,  avg # of iterations =  2.5

     total cpu time spent up to now is     1481.2 secs

     total energy              =   -2012.38834352 Ry
     estimated scf accuracy    <       0.00000121 Ry

     iteration #  3     ecut=    50.00 Ry     beta= 0.70
     Davidson diagonalization with overlap
     ethr =  3.11E-09,  avg # of iterations =  2.0

     total cpu time spent up to now is     1483.7 secs

     total energy              =   -2012.38834440 Ry
     estimated scf accuracy    <       0.00000008 Ry

     iteration #  4     ecut=    50.00 Ry     beta= 0.70
     Davidson diagonalization with overlap
     ethr =  2.11E-10,  avg # of iterations =  2.0

     total cpu time spent up to now is     1486.2 secs

     total energy              =   -2012.38834461 Ry
     estimated scf accuracy    <       0.00000002 Ry

     iteration #  5     ecut=    50.00 Ry     beta= 0.70
     Davidson diagonalization with overlap
     ethr =  6.33E-11,  avg # of iterations =  2.0

     total cpu time spent up to now is     1488.7 secs

     End of self-consistent calculation

          k = 0.0000 0.0000 0.0000 (  1935 PWs)   bands (ev):

  -173.1466-173.1342-173.1301-173.1223-173.0981 -34.1838  -2.0634  -2.0601
    -1.8615  12.4937  16.3192  16.3308  16.3528  16.4438  16.4852  16.4904
    16.5175  20.7762  20.8719  35.2239  35.5080  35.6254  35.7919  37.1142

          k =-0.0004 0.0002-0.7043 (  1936 PWs)   bands (ev):

  -173.1593-173.1478-173.1174-173.0902-173.0794 -33.9054  -4.9707  -1.7558
    -1.7364  16.0930  16.1849  16.3876  16.3955  16.4018  16.6033  16.6169
    17.5719  20.1430  24.9305  26.4241  28.8961  30.7153  36.0692  39.7717

          k =-0.0001-0.6945-0.7045 (  1956 PWs)   bands (ev):

  -173.1770-173.1648-173.1630-173.1040-173.0730 -33.6757  -4.3768  -4.2987
    -1.4883  15.9477  16.1604  16.2651  16.3932  16.4463  16.4821  16.5279
    16.6284  23.9494  24.5809  25.0353  30.2721  30.2824  39.5170  40.1739

          k =-0.6951-0.6923-0.7042 (  1904 PWs)   bands (ev):

  -173.1107-173.0995-173.0918-173.0751-173.0440 -33.4584  -3.8526  -3.7776
    -3.7449  16.1487  16.4224  16.4226  16.4248  16.4934  16.4984  16.5097
    17.8137  18.0239  18.2420  29.2386  39.3750  39.4544  39.6916  39.9125

          k =-0.6949 0.0021 0.0004 (  1936 PWs)   bands (ev):

  -173.1546-173.1476-173.1260-173.1158-173.0461 -33.9377  -4.9514  -1.7798
    -1.5889  16.0648  16.1648  16.3894  16.4067  16.4185  16.5902  16.6149
    17.8413  19.8565  24.7637  27.4922  29.1690  29.4585  36.3172  39.1287

          k = 0.0002-0.6947-0.0002 (  1936 PWs)   bands (ev):

  -173.1529-173.1476-173.1278-173.1169-173.0447 -33.9387  -4.9484  -1.7782
    -1.5898  16.0639  16.1648  16.3893  16.4067  16.4175  16.5900  16.6157
    17.8416  19.8654  24.7572  27.5120  29.1686  29.4394  36.3236  39.0939

          k =-0.6946 0.0019 0.7047 (  1956 PWs)   bands (ev):

  -173.1766-173.1648-173.1635-173.1038-173.0733 -33.6748  -4.3760  -4.3028
    -1.4894  15.9586  16.1604  16.2621  16.3962  16.4450  16.4834  16.5280
    16.6292  23.9504  24.5645  25.0381  30.2614  30.2684  39.5259  40.1906

          k =-0.6951 0.6968 0.0005 (  1956 PWs)   bands (ev):

  -173.1795-173.1663-173.1593-173.1055-173.0700 -33.7076  -4.3395  -4.3287
    -1.3384  15.6313  16.1831  16.2364  16.3492  16.4231  16.4286  16.5402
    16.6419  24.1518  24.4571  25.6650  30.6462  30.6992  39.1955  40.0007

     the Fermi energy is    26.6533 ev

!    total energy              =   -2012.38834463 Ry

     total all-electron energy =    -30159.999990 Ry
     estimated scf accuracy    <          3.3E-09 Ry
     smearing contrib. (-TS)   =       0.00014696 Ry
     internal energy E=F+TS    =   -2012.38849159 Ry

     The total energy is F=E-TS. E is the sum of the following terms:
     one-electron contribution =   -1284.63816369 Ry
     hartree contribution      =     656.93043931 Ry
     xc contribution           =    -112.70922529 Ry
     ewald contribution        =    -775.59049015 Ry
     one-center paw contrib.   =    -496.38105177 Ry

     convergence has been achieved in   5 iterations

     Forces acting on atoms (cartesian axes, Ry/au):

     atom    1 type  1   force =    -0.00008214    0.00054657   -0.00017434
     atom    2 type  2   force =     0.00043672   -0.00015467    0.00009089
     atom    3 type  2   force =    -0.00026124    0.00007770    0.00005381
     atom    4 type  2   force =    -0.00009333   -0.00046959    0.00002963

     Total force =     0.000931     Total SCF correction =     0.000616
     SCF correction compared to forces is large: reduce conv_thr to get better values


     Computing stress (Cartesian axis) and pressure

          total   stress  (Ry/bohr**3)                   (kbar)     P=        0.44
  -0.00000200   0.00000037   0.00000010           -0.29        0.05        0.01
   0.00000037   0.00000812  -0.00000155            0.05        1.19       -0.23
   0.00000010  -0.00000155   0.00000285            0.01       -0.23        0.42

     Energy error            =      1.1E-06
     Gradient error          =      5.5E-04
     Cell gradient error     =      8.1E-06


     number of scf cycles    =  41
     number of bfgs steps    =  39

     enthalpy old            =   -2012.3883435384 Ry
     enthalpy new            =   -2012.3883446308 Ry

     CASE: enthalpy_new < enthalpy_old

     new trust radius        =       0.0011662701 bohr
     new conv_thr            =       0.0000000100 Ry

     new unit-cell volume =    119.08197 a.u.^3 (    17.64613 Ang^3 )
     density =     17.08086 g/cm^3

CELL_PARAMETERS (angstrom)
   2.614826395   0.000803900  -0.001339462
   0.008020017   2.615840212   0.000725140
   0.001338082  -0.000700409   2.579856890

ATOMIC_POSITIONS (angstrom)
Hf            0.5896415882        1.7555345503        0.4622975641
H             1.8759298161        0.4317053702        0.4586558411
H             1.8012318503        1.5461307900        1.7514563711
H             0.3837216219        0.3486978276        1.7518014342



     Writing output data file ./tmp/01_HfH3_Top1.save/
     NEW-OLD atomic charge density approx. for the potential
     extrapolated charge   38.99966, renormalised to   39.00000

     total cpu time spent up to now is     1502.2 secs

     Self-consistent Calculation

     iteration #  1     ecut=    50.00 Ry     beta= 0.70
     Davidson diagonalization with overlap
     ethr =  1.00E-06,  avg # of iterations =  4.0

     Threshold (ethr) on eigenvalues was too large:
     Diagonalizing with lowered threshold

     Davidson diagonalization with overlap
     ethr =  9.36E-10,  avg # of iterations =  3.9

     total cpu time spent up to now is     1506.1 secs

     total energy              =   -2012.38834487 Ry
     estimated scf accuracy    <       0.00000037 Ry

     iteration #  2     ecut=    50.00 Ry     beta= 0.70
     Davidson diagonalization with overlap
     ethr =  9.37E-10,  avg # of iterations =  3.0

     total cpu time spent up to now is     1508.7 secs

     total energy              =   -2012.38834519 Ry
     estimated scf accuracy    <       0.00000073 Ry

     iteration #  3     ecut=    50.00 Ry     beta= 0.70
     Davidson diagonalization with overlap
     ethr =  9.37E-10,  avg # of iterations =  2.2

     total cpu time spent up to now is     1511.3 secs

     total energy              =   -2012.38834534 Ry
     estimated scf accuracy    <       0.00000005 Ry

     iteration #  4     ecut=    50.00 Ry     beta= 0.70
     Davidson diagonalization with overlap
     ethr =  1.29E-10,  avg # of iterations =  2.5

     total cpu time spent up to now is     1513.8 secs

     End of self-consistent calculation

          k = 0.0000 0.0000 0.0000 (  1935 PWs)   bands (ev):

  -173.1463-173.1340-173.1298-173.1221-173.0978 -34.1835  -2.0631  -2.0599
    -1.8612  12.4939  16.3195  16.3310  16.3531  16.4441  16.4854  16.4907
    16.5178  20.7762  20.8722  35.2242  35.5081  35.6258  35.7906  37.1155

          k =-0.0004 0.0002-0.7043 (  1936 PWs)   bands (ev):

  -173.1591-173.1475-173.1171-173.0899-173.0791 -33.9051  -4.9706  -1.7555
    -1.7361  16.0933  16.1852  16.3880  16.3958  16.4020  16.6036  16.6172
    17.5722  20.1435  24.9308  26.4226  28.8964  30.7172  36.0695  39.7721

          k =-0.0001-0.6945-0.7045 (  1956 PWs)   bands (ev):

  -173.1768-173.1645-173.1628-173.1037-173.0728 -33.6754  -4.3768  -4.2984
    -1.4880  15.9483  16.1607  16.2653  16.3937  16.4466  16.4826  16.5282
    16.6287  23.9497  24.5801  25.0355  30.2717  30.2825  39.5175  40.1754

          k =-0.6951-0.6923-0.7042 (  1904 PWs)   bands (ev):

  -173.1104-173.0992-173.0916-173.0749-173.0437 -33.4581  -3.8525  -3.7772
    -3.7447  16.1490  16.4227  16.4229  16.4251  16.4937  16.4987  16.5100
    17.8139  18.0238  18.2427  29.2386  39.3758  39.4547  39.6911  39.9129

          k =-0.6949 0.0021 0.0004 (  1936 PWs)   bands (ev):

  -173.1543-173.1473-173.1258-173.1155-173.0458 -33.9375  -4.9512  -1.7794
    -1.5886  16.0650  16.1650  16.3896  16.4070  16.4188  16.5905  16.6152
    17.8418  19.8574  24.7640  27.4922  29.1692  29.4580  36.3177  39.1280

          k = 0.0002-0.6947-0.0002 (  1936 PWs)   bands (ev):

  -173.1526-173.1473-173.1275-173.1166-173.0445 -33.9384  -4.9481  -1.7780
    -1.5895  16.0642  16.1652  16.3896  16.4070  16.4178  16.5903  16.6160
    17.8417  19.8648  24.7569  27.5135  29.1692  29.4397  36.3237  39.0951

          k =-0.6946 0.0019 0.7047 (  1956 PWs)   bands (ev):

  -173.1763-173.1645-173.1632-173.1035-173.0730 -33.6745  -4.3759  -4.3025
    -1.4890  15.9583  16.1607  16.2625  16.3963  16.4453  16.4835  16.5283
    16.6295  23.9507  24.5656  25.0386  30.2622  30.2688  39.5261  40.1898

          k =-0.6951 0.6968 0.0005 (  1956 PWs)   bands (ev):

  -173.1792-173.1660-173.1591-173.1053-173.0697 -33.7073  -4.3392  -4.3284
    -1.3381  15.6315  16.1834  16.2366  16.3495  16.4234  16.4289  16.5405
    16.6422  24.1510  24.4571  25.6668  30.6464  30.6997  39.1958  40.0006

     the Fermi energy is    26.6518 ev

!    total energy              =   -2012.38834536 Ry

     total all-electron energy =    -30159.999991 Ry
     estimated scf accuracy    <          1.2E-09 Ry
     smearing contrib. (-TS)   =       0.00014687 Ry
     internal energy E=F+TS    =   -2012.38849224 Ry

     The total energy is F=E-TS. E is the sum of the following terms:
     one-electron contribution =   -1284.63423861 Ry
     hartree contribution      =     656.92828052 Ry
     xc contribution           =    -112.70918798 Ry
     ewald contribution        =    -775.59229024 Ry
     one-center paw contrib.   =    -496.38105592 Ry

     convergence has been achieved in   4 iterations

     Forces acting on atoms (cartesian axes, Ry/au):

     atom    1 type  1   force =     0.00009261    0.00028352   -0.00056583
     atom    2 type  2   force =     0.00028131   -0.00008283    0.00021962
     atom    3 type  2   force =    -0.00026607    0.00008233    0.00015797
     atom    4 type  2   force =    -0.00010786   -0.00028302    0.00018825

     Total force =     0.000879     Total SCF correction =     0.000524
     SCF correction compared to forces is large: reduce conv_thr to get better values


     Computing stress (Cartesian axis) and pressure

          total   stress  (Ry/bohr**3)                   (kbar)     P=        0.51
  -0.00000083   0.00000035  -0.00000047           -0.12        0.05       -0.07
   0.00000035   0.00000723  -0.00000041            0.05        1.06       -0.06
  -0.00000047  -0.00000041   0.00000398           -0.07       -0.06        0.59

     Energy error            =      7.3E-07
     Gradient error          =      5.7E-04
     Cell gradient error     =      7.2E-06


     number of scf cycles    =  42
     number of bfgs steps    =  40

     enthalpy old            =   -2012.3883446308 Ry
     enthalpy new            =   -2012.3883453641 Ry

     CASE: enthalpy_new < enthalpy_old


     WARNING: bfgs curvature condition failed, Theta= 0.751
     new trust radius        =       0.0012828968 bohr
     new conv_thr            =       0.0000000100 Ry

     new unit-cell volume =    119.08065 a.u.^3 (    17.64593 Ang^3 )
     density =     17.08105 g/cm^3

CELL_PARAMETERS (angstrom)
   2.614830225   0.000795716  -0.001334850
   0.008012532   2.615825737   0.000702395
   0.001343138  -0.000724148   2.579838587

ATOMIC_POSITIONS (angstrom)
Hf            0.5896653436        1.7555825350        0.4620482215
H             1.8762754208        0.4315881087        0.4592284342
H             1.8012166858        1.5464576803        1.7513200756
H             0.3833712113        0.3483623965        1.7515557690



     Writing output data file ./tmp/01_HfH3_Top1.save/
     NEW-OLD atomic charge density approx. for the potential
     extrapolated charge   38.99957, renormalised to   39.00000

     total cpu time spent up to now is     1527.4 secs

     Self-consistent Calculation

     iteration #  1     ecut=    50.00 Ry     beta= 0.70
     Davidson diagonalization with overlap
     ethr =  1.00E-06,  avg # of iterations =  4.0

     Threshold (ethr) on eigenvalues was too large:
     Diagonalizing with lowered threshold

     Davidson diagonalization with overlap
     ethr =  1.50E-09,  avg # of iterations =  3.6

     total cpu time spent up to now is     1531.3 secs

     total energy              =   -2012.38834448 Ry
     estimated scf accuracy    <       0.00000060 Ry

     iteration #  2     ecut=    50.00 Ry     beta= 0.70
     Davidson diagonalization with overlap
     ethr =  1.53E-09,  avg # of iterations =  3.0

     total cpu time spent up to now is     1533.9 secs

     total energy              =   -2012.38834497 Ry
     estimated scf accuracy    <       0.00000135 Ry

     iteration #  3     ecut=    50.00 Ry     beta= 0.70
     Davidson diagonalization with overlap
     ethr =  1.53E-09,  avg # of iterations =  2.6

     total cpu time spent up to now is     1536.4 secs

     total energy              =   -2012.38834520 Ry
     estimated scf accuracy    <       0.00000010 Ry

     iteration #  4     ecut=    50.00 Ry     beta= 0.70
     Davidson diagonalization with overlap
     ethr =  2.44E-10,  avg # of iterations =  2.9

     total cpu time spent up to now is     1539.0 secs

     End of self-consistent calculation

          k = 0.0000 0.0000 0.0000 (  1935 PWs)   bands (ev):

  -173.1461-173.1338-173.1296-173.1219-173.0976 -34.1833  -2.0628  -2.0597
    -1.8610  12.4943  16.3197  16.3312  16.3533  16.4443  16.4856  16.4909
    16.5180  20.7763  20.8727  35.2245  35.5083  35.6262  35.7890  37.1173

          k =-0.0004 0.0002-0.7044 (  1936 PWs)   bands (ev):

  -173.1589-173.1474-173.1169-173.0897-173.0790 -33.9049  -4.9705  -1.7551
    -1.7358  16.0935  16.1854  16.3882  16.3960  16.4023  16.6038  16.6174
    17.5726  20.1441  24.9312  26.4205  28.8967  30.7199  36.0699  39.7726

          k =-0.0001-0.6945-0.7045 (  1956 PWs)   bands (ev):

  -173.1766-173.1643-173.1626-173.1035-173.0726 -33.6751  -4.3768  -4.2981
    -1.4878  15.9490  16.1610  16.2654  16.3941  16.4468  16.4832  16.5284
    16.6289  23.9501  24.5792  25.0356  30.2714  30.2827  39.5180  40.1773

          k =-0.6951-0.6923-0.7042 (  1904 PWs)   bands (ev):

  -173.1103-173.0990-173.0914-173.0747-173.0435 -33.4578  -3.8525  -3.7769
    -3.7444  16.1492  16.4230  16.4231  16.4253  16.4940  16.4988  16.5102
    17.8142  18.0235  18.2436  29.2386  39.3767  39.4550  39.6903  39.9133

          k =-0.6949 0.0021 0.0004 (  1936 PWs)   bands (ev):

  -173.1541-173.1471-173.1256-173.1153-173.0456 -33.9372  -4.9511  -1.7791
    -1.5884  16.0652  16.1651  16.3898  16.4072  16.4190  16.5908  16.6154
    17.8424  19.8585  24.7645  27.4917  29.1694  29.4577  36.3181  39.1275

          k = 0.0002-0.6947-0.0002 (  1936 PWs)   bands (ev):

  -173.1525-173.1471-173.1274-173.1164-173.0443 -33.9381  -4.9477  -1.7778
    -1.5892  16.0645  16.1655  16.3898  16.4072  16.4180  16.5905  16.6162
    17.8418  19.8641  24.7563  27.5160  29.1699  29.4398  36.3239  39.0963

          k =-0.6946 0.0019 0.7047 (  1956 PWs)   bands (ev):

  -173.1761-173.1643-173.1630-173.1033-173.0728 -33.6742  -4.3758  -4.3023
    -1.4886  15.9579  16.1610  16.2629  16.3963  16.4455  16.4835  16.5285
    16.6298  23.9511  24.5669  25.0392  30.2631  30.2693  39.5264  40.1889

          k =-0.6951 0.6968 0.0006 (  1956 PWs)   bands (ev):

  -173.1790-173.1658-173.1588-173.1051-173.0695 -33.7071  -4.3389  -4.3282
    -1.3379  15.6317  16.1835  16.2368  16.3497  16.4236  16.4292  16.5407
    16.6424  24.1498  24.4572  25.6692  30.6466  30.7003  39.1962  40.0006

     the Fermi energy is    26.6497 ev

!    total energy              =   -2012.38834524 Ry

     total all-electron energy =    -30159.999991 Ry
     estimated scf accuracy    <          1.3E-09 Ry
     smearing contrib. (-TS)   =       0.00014677 Ry
     internal energy E=F+TS    =   -2012.38849202 Ry

     The total energy is F=E-TS. E is the sum of the following terms:
     one-electron contribution =   -1284.63062567 Ry
     hartree contribution      =     656.92700936 Ry
     xc contribution           =    -112.70924437 Ry
     ewald contribution        =    -775.59457372 Ry
     one-center paw contrib.   =    -496.38105761 Ry

     convergence has been achieved in   4 iterations

     Forces acting on atoms (cartesian axes, Ry/au):

     atom    1 type  1   force =     0.00017070    0.00009333   -0.00052315
     atom    2 type  2   force =     0.00011860   -0.00003789    0.00020602
     atom    3 type  2   force =    -0.00021684    0.00003160    0.00010304
     atom    4 type  2   force =    -0.00007246   -0.00008703    0.00021409

     Total force =     0.000698     Total SCF correction =     0.000688
     SCF correction compared to forces is large: reduce conv_thr to get better values


     Computing stress (Cartesian axis) and pressure

          total   stress  (Ry/bohr**3)                   (kbar)     P=        0.83
   0.00000262   0.00000038  -0.00000107            0.39        0.06       -0.16
   0.00000038   0.00000721   0.00000120            0.06        1.06        0.18
  -0.00000107   0.00000120   0.00000702           -0.16        0.18        1.03

     Energy error            =      1.2E-07
     Gradient error          =      5.2E-04
     Cell gradient error     =      7.2E-06


     number of scf cycles    =  43
     number of bfgs steps    =  41

     enthalpy old            =   -2012.3883453641 Ry
     enthalpy new            =   -2012.3883452438 Ry

     CASE: enthalpy_new > enthalpy_old

     new trust radius        =       0.0005662758 bohr
     new conv_thr            =       0.0000000100 Ry

     new unit-cell volume =    119.08139 a.u.^3 (    17.64604 Ang^3 )
     density =     17.08095 g/cm^3

CELL_PARAMETERS (angstrom)
   2.614828086   0.000800288  -0.001337426
   0.008016713   2.615833823   0.000715100
   0.001340314  -0.000710887   2.579848811

ATOMIC_POSITIONS (angstrom)
Hf            0.5896520741        1.7555557305        0.4621875030
H             1.8760823670        0.4316536119        0.4589085867
H             1.8012251569        1.5462750810        1.7513962103
H             0.3835669492        0.3485497657        1.7516929956



     Writing output data file ./tmp/01_HfH3_Top1.save/
     NEW-OLD atomic charge density approx. for the potential
     extrapolated charge   39.00024, renormalised to   39.00000

     total cpu time spent up to now is     1552.5 secs

     Self-consistent Calculation

     iteration #  1     ecut=    50.00 Ry     beta= 0.70
     Davidson diagonalization with overlap
     ethr =  1.00E-06,  avg # of iterations =  3.2

     Threshold (ethr) on eigenvalues was too large:
     Diagonalizing with lowered threshold

     Davidson diagonalization with overlap
     ethr =  3.93E-10,  avg # of iterations =  4.8

     total cpu time spent up to now is     1556.3 secs

     total energy              =   -2012.38834544 Ry
     estimated scf accuracy    <       0.00000017 Ry

     iteration #  2     ecut=    50.00 Ry     beta= 0.70
     Davidson diagonalization with overlap
     ethr =  4.25E-10,  avg # of iterations =  3.0

     total cpu time spent up to now is     1558.9 secs

     total energy              =   -2012.38834559 Ry
     estimated scf accuracy    <       0.00000036 Ry

     iteration #  3     ecut=    50.00 Ry     beta= 0.70
     Davidson diagonalization with overlap
     ethr =  4.25E-10,  avg # of iterations =  2.2

     total cpu time spent up to now is     1561.4 secs

     total energy              =   -2012.38834565 Ry
     estimated scf accuracy    <       0.00000003 Ry

     iteration #  4     ecut=    50.00 Ry     beta= 0.70
     Davidson diagonalization with overlap
     ethr =  6.77E-11,  avg # of iterations =  2.9

     total cpu time spent up to now is     1564.0 secs

     End of self-consistent calculation

          k = 0.0000 0.0000 0.0000 (  1935 PWs)   bands (ev):

  -173.1461-173.1337-173.1295-173.1218-173.0976 -34.1835  -2.0630  -2.0598
    -1.8611  12.4941  16.3197  16.3312  16.3533  16.4443  16.4856  16.4909
    16.5180  20.7763  20.8724  35.2243  35.5082  35.6259  35.7899  37.1163

          k =-0.0004 0.0002-0.7044 (  1936 PWs)   bands (ev):

  -173.1588-173.1473-173.1168-173.0896-173.0789 -33.9050  -4.9706  -1.7554
    -1.7360  16.0935  16.1854  16.3882  16.3960  16.4023  16.6038  16.6174
    17.5724  20.1438  24.9310  26.4217  28.8965  30.7184  36.0697  39.7723

          k =-0.0001-0.6945-0.7045 (  1956 PWs)   bands (ev):

  -173.1765-173.1643-173.1625-173.1035-173.0725 -33.6753  -4.3768  -4.2983
    -1.4880  15.9487  16.1609  16.2655  16.3940  16.4468  16.4830  16.5284
    16.6289  23.9499  24.5797  25.0355  30.2716  30.2826  39.5177  40.1763

          k =-0.6951-0.6923-0.7042 (  1904 PWs)   bands (ev):

  -173.1102-173.0990-173.0913-173.0746-173.0435 -33.4580  -3.8525  -3.7771
    -3.7446  16.1492  16.4229  16.4231  16.4253  16.4940  16.4989  16.5102
    17.8140  18.0237  18.2431  29.2386  39.3762  39.4548  39.6907  39.9131

          k =-0.6949 0.0021 0.0004 (  1936 PWs)   bands (ev):

  -173.1541-173.1471-173.1255-173.1153-173.0456 -33.9374  -4.9511  -1.7793
    -1.5886  16.0652  16.1652  16.3898  16.4072  16.4190  16.5908  16.6154
    17.8421  19.8579  24.7642  27.4920  29.1693  29.4579  36.3178  39.1277

          k = 0.0002-0.6947-0.0002 (  1936 PWs)   bands (ev):

  -173.1524-173.1471-173.1273-173.1164-173.0442 -33.9383  -4.9479  -1.7779
    -1.5894  16.0644  16.1654  16.3898  16.4072  16.4180  16.5905  16.6162
    17.8417  19.8645  24.7566  27.5146  29.1695  29.4398  36.3238  39.0956

          k =-0.6946 0.0019 0.7047 (  1956 PWs)   bands (ev):

  -173.1761-173.1642-173.1630-173.1033-173.0728 -33.6744  -4.3759  -4.3025
    -1.4888  15.9582  16.1609  16.2628  16.3964  16.4455  16.4836  16.5285
    16.6297  23.9509  24.5662  25.0388  30.2626  30.2690  39.5262  40.1894

          k =-0.6951 0.6968 0.0006 (  1956 PWs)   bands (ev):

  -173.1790-173.1658-173.1588-173.1050-173.0695 -33.7073  -4.3391  -4.3284
    -1.3381  15.6316  16.1835  16.2368  16.3497  16.4236  16.4291  16.5407
    16.6424  24.1504  24.4572  25.6679  30.6464  30.6999  39.1960  40.0006

     the Fermi energy is    26.6509 ev

!    total energy              =   -2012.38834566 Ry

     total all-electron energy =    -30159.999991 Ry
     estimated scf accuracy    <          4.0E-10 Ry
     smearing contrib. (-TS)   =       0.00014683 Ry
     internal energy E=F+TS    =   -2012.38849249 Ry

     The total energy is F=E-TS. E is the sum of the following terms:
     one-electron contribution =   -1284.63326256 Ry
     hartree contribution      =     656.92839548 Ry
     xc contribution           =    -112.70925943 Ry
     ewald contribution        =    -775.59329794 Ry
     one-center paw contrib.   =    -496.38106804 Ry

     convergence has been achieved in   4 iterations

     Forces acting on atoms (cartesian axes, Ry/au):

     atom    1 type  1   force =    -0.00002858    0.00022317   -0.00010527
     atom    2 type  2   force =     0.00026051   -0.00007079    0.00006317
     atom    3 type  2   force =    -0.00019255    0.00005184   -0.00001204
     atom    4 type  2   force =    -0.00003938   -0.00020422    0.00005413

     Total force =     0.000474     Total SCF correction =     0.000379
     SCF correction compared to forces is large: reduce conv_thr to get better values


     Computing stress (Cartesian axis) and pressure

          total   stress  (Ry/bohr**3)                   (kbar)     P=        0.67
   0.00000075   0.00000040  -0.00000073            0.11        0.06       -0.11
   0.00000040   0.00000745   0.00000038            0.06        1.10        0.06
  -0.00000073   0.00000038   0.00000537           -0.11        0.06        0.79

     Energy error            =      3.0E-07
     Gradient error          =      2.6E-04
     Cell gradient error     =      7.5E-06


     number of scf cycles    =  44
     number of bfgs steps    =  41

     enthalpy old            =   -2012.3883453641 Ry
     enthalpy new            =   -2012.3883456639 Ry

     CASE: enthalpy_new < enthalpy_old

     new trust radius        =       0.0008143990 bohr
     new conv_thr            =       0.0000000100 Ry

     new unit-cell volume =    119.08379 a.u.^3 (    17.64640 Ang^3 )
     density =     17.08060 g/cm^3

CELL_PARAMETERS (angstrom)
   2.614814216   0.000806249  -0.001344623
   0.008020293   2.615866970   0.000729173
   0.001332629  -0.000696651   2.579881922

ATOMIC_POSITIONS (angstrom)
Hf            0.5896374887        1.7556208474        0.4620771844
H             1.8762891881        0.4316581358        0.4592835955
H             1.8010975133        1.5464470743        1.7512544759
H             0.3834701716        0.3483948455        1.7516360401



     Writing output data file ./tmp/01_HfH3_Top1.save/
     NEW-OLD atomic charge density approx. for the potential
     extrapolated charge   39.00079, renormalised to   39.00000

     total cpu time spent up to now is     1577.6 secs

     Self-consistent Calculation

     iteration #  1     ecut=    50.00 Ry     beta= 0.70
     Davidson diagonalization with overlap
     ethr =  1.00E-06,  avg # of iterations =  3.1

     Threshold (ethr) on eigenvalues was too large:
     Diagonalizing with lowered threshold

     Davidson diagonalization with overlap
     ethr =  2.43E-09,  avg # of iterations =  4.0

     total cpu time spent up to now is     1581.5 secs

     total energy              =   -2012.38834452 Ry
     estimated scf accuracy    <       0.00000103 Ry

     iteration #  2     ecut=    50.00 Ry     beta= 0.70
     Davidson diagonalization with overlap
     ethr =  2.65E-09,  avg # of iterations =  3.8

     total cpu time spent up to now is     1584.1 secs

     total energy              =   -2012.38834565 Ry
     estimated scf accuracy    <       0.00000398 Ry

     iteration #  3     ecut=    50.00 Ry     beta= 0.70
     Davidson diagonalization with overlap
     ethr =  2.65E-09,  avg # of iterations =  2.9

     total cpu time spent up to now is     1586.8 secs

     total energy              =   -2012.38834587 Ry
     estimated scf accuracy    <       0.00000045 Ry

     iteration #  4     ecut=    50.00 Ry     beta= 0.70
     Davidson diagonalization with overlap
     ethr =  1.15E-09,  avg # of iterations =  2.0

     total cpu time spent up to now is     1589.3 secs

     End of self-consistent calculation

          k = 0.0000 0.0000 0.0000 (  1935 PWs)   bands (ev):

  -173.1471-173.1348-173.1306-173.1229-173.0986 -34.1842  -2.0638  -2.0605
    -1.8620  12.4937  16.3187  16.3302  16.3523  16.4433  16.4846  16.4899
    16.5170  20.7755  20.8721  35.2236  35.5071  35.6251  35.7880  37.1171

          k =-0.0004 0.0002-0.7043 (  1936 PWs)   bands (ev):

  -173.1599-173.1483-173.1179-173.0907-173.0800 -33.9058  -4.9712  -1.7561
    -1.7368  16.0925  16.1844  16.3872  16.3950  16.4013  16.6028  16.6164
    17.5719  20.1434  24.9305  26.4196  28.8961  30.7193  36.0689  39.7712

          k =-0.0001-0.6945-0.7045 (  1956 PWs)   bands (ev):

  -173.1776-173.1653-173.1636-173.1045-173.0735 -33.6761  -4.3775  -4.2988
    -1.4887  15.9483  16.1600  16.2646  16.3931  16.4458  16.4822  16.5274
    16.6279  23.9492  24.5785  25.0348  30.2710  30.2823  39.5164  40.1766

          k =-0.6951-0.6923-0.7042 (  1904 PWs)   bands (ev):

  -173.1112-173.1000-173.0923-173.0757-173.0445 -33.4588  -3.8533  -3.7778
    -3.7452  16.1483  16.4219  16.4221  16.4243  16.4929  16.4978  16.5092
    17.8135  18.0230  18.2431  29.2382  39.3755  39.4540  39.6886  39.9123

          k =-0.6949 0.0021 0.0004 (  1936 PWs)   bands (ev):

  -173.1551-173.1481-173.1266-173.1163-173.0466 -33.9381  -4.9519  -1.7800
    -1.5894  16.0642  16.1642  16.3888  16.4062  16.4180  16.5898  16.6144
    17.8418  19.8577  24.7639  27.4910  29.1684  29.4567  36.3168  39.1272

          k = 0.0002-0.6947-0.0002 (  1936 PWs)   bands (ev):

  -173.1534-173.1481-173.1284-173.1174-173.0453 -33.9391  -4.9484  -1.7786
    -1.5903  16.0635  16.1645  16.3887  16.4062  16.4170  16.5895  16.6151
    17.8411  19.8634  24.7555  27.5161  29.1689  29.4382  36.3229  39.0948

          k =-0.6946 0.0019 0.7047 (  1956 PWs)   bands (ev):

  -173.1771-173.1653-173.1640-173.1043-173.0738 -33.6751  -4.3765  -4.3032
    -1.4896  15.9574  16.1600  16.2619  16.3954  16.4444  16.4827  16.5275
    16.6287  23.9504  24.5656  25.0384  30.2622  30.2681  39.5254  40.1883

          k =-0.6951 0.6968 0.0005 (  1956 PWs)   bands (ev):

  -173.1800-173.1668-173.1598-173.1061-173.0705 -33.7080  -4.3398  -4.3289
    -1.3390  15.6313  16.1825  16.2358  16.3487  16.4226  16.4281  16.5397
    16.6414  24.1485  24.4563  25.6688  30.6455  30.6992  39.1952  39.9995

     the Fermi energy is    26.6488 ev

!    total energy              =   -2012.38834596 Ry

     total all-electron energy =    -30159.999992 Ry
     estimated scf accuracy    <          9.4E-09 Ry
     smearing contrib. (-TS)   =       0.00014675 Ry
     internal energy E=F+TS    =   -2012.38849272 Ry

     The total energy is F=E-TS. E is the sum of the following terms:
     one-electron contribution =   -1284.64648947 Ry
     hartree contribution      =     656.93615737 Ry
     xc contribution           =    -112.70950013 Ry
     ewald contribution        =    -775.58758625 Ry
     one-center paw contrib.   =    -496.38107423 Ry

     convergence has been achieved in   4 iterations

     Forces acting on atoms (cartesian axes, Ry/au):

     atom    1 type  1   force =     0.00005024    0.00011290   -0.00038609
     atom    2 type  2   force =     0.00012131   -0.00005833    0.00014563
     atom    3 type  2   force =    -0.00012522    0.00003420    0.00011740
     atom    4 type  2   force =    -0.00004632   -0.00008876    0.00012305

     Total force =     0.000509     Total SCF correction =     0.000309
     SCF correction compared to forces is large: reduce conv_thr to get better values


     Computing stress (Cartesian axis) and pressure

          total   stress  (Ry/bohr**3)                   (kbar)     P=        0.90
   0.00000514  -0.00000047  -0.00000011            0.76       -0.07       -0.02
  -0.00000047   0.00000707  -0.00000071           -0.07        1.04       -0.10
  -0.00000011  -0.00000071   0.00000605           -0.02       -0.10        0.89

     Energy error            =      3.0E-07
     Gradient error          =      3.9E-04
     Cell gradient error     =      7.1E-06


     number of scf cycles    =  45
     number of bfgs steps    =  42

     enthalpy old            =   -2012.3883456639 Ry
     enthalpy new            =   -2012.3883459631 Ry

     CASE: enthalpy_new < enthalpy_old


     WARNING: bfgs curvature condition failed, Theta= 0.955
     new trust radius        =       0.0008958438 bohr
     new conv_thr            =       0.0000000100 Ry

     new unit-cell volume =    119.08679 a.u.^3 (    17.64684 Ang^3 )
     density =     17.08017 g/cm^3

CELL_PARAMETERS (angstrom)
   2.614827630   0.000803257  -0.001349252
   0.008015526   2.615891148   0.000730759
   0.001327839  -0.000695371   2.579909708

ATOMIC_POSITIONS (angstrom)
Hf            0.5896244381        1.7556881146        0.4619427874
H             1.8765247462        0.4316077309        0.4596980346
H             1.8010088476        1.5466205733        1.7511194252
H             0.3833444565        0.3482391048        1.7515329812



     Writing output data file ./tmp/01_HfH3_Top1.save/
     NEW-OLD atomic charge density approx. for the potential
     extrapolated charge   39.00098, renormalised to   39.00000

     total cpu time spent up to now is     1602.9 secs

     Self-consistent Calculation

     iteration #  1     ecut=    50.00 Ry     beta= 0.70
     Davidson diagonalization with overlap
     ethr =  1.00E-06,  avg # of iterations =  3.6

     Threshold (ethr) on eigenvalues was too large:
     Diagonalizing with lowered threshold

     Davidson diagonalization with overlap
     ethr =  5.10E-09,  avg # of iterations =  3.5

     total cpu time spent up to now is     1606.7 secs

     total energy              =   -2012.38834338 Ry
     estimated scf accuracy    <       0.00000216 Ry

     iteration #  2     ecut=    50.00 Ry     beta= 0.70
     Davidson diagonalization with overlap
     ethr =  5.54E-09,  avg # of iterations =  3.5

     total cpu time spent up to now is     1609.4 secs

     total energy              =   -2012.38834545 Ry
     estimated scf accuracy    <       0.00000737 Ry

     iteration #  3     ecut=    50.00 Ry     beta= 0.70
     Davidson diagonalization with overlap
     ethr =  5.54E-09,  avg # of iterations =  2.9

     total cpu time spent up to now is     1612.0 secs

     total energy              =   -2012.38834595 Ry
     estimated scf accuracy    <       0.00000072 Ry

     iteration #  4     ecut=    50.00 Ry     beta= 0.70
     Davidson diagonalization with overlap
     ethr =  1.84E-09,  avg # of iterations =  2.1

     total cpu time spent up to now is     1614.5 secs

     End of self-consistent calculation

          k = 0.0000 0.0000 0.0000 (  1935 PWs)   bands (ev):

  -173.1476-173.1352-173.1310-173.1233-173.0990 -34.1848  -2.0645  -2.0612
    -1.8628  12.4933  16.3182  16.3297  16.3517  16.4428  16.4841  16.4894
    16.5164  20.7748  20.8717  35.2227  35.5060  35.6242  35.7859  37.1175

          k =-0.0004 0.0002-0.7043 (  1936 PWs)   bands (ev):

  -173.1603-173.1488-173.1183-173.0911-173.0804 -33.9065  -4.9718  -1.7568
    -1.7375  16.0920  16.1839  16.3867  16.3944  16.4007  16.6022  16.6158
    17.5713  20.1429  24.9299  26.4175  28.8955  30.7200  36.0680  39.7700

          k =-0.0002-0.6944-0.7045 (  1956 PWs)   bands (ev):

  -173.1780-173.1658-173.1640-173.1050-173.0740 -33.6768  -4.3782  -4.2993
    -1.4895  15.9480  16.1595  16.2640  16.3926  16.4452  16.4818  16.5268
    16.6273  23.9485  24.5772  25.0340  30.2701  30.2817  39.5153  40.1765

          k =-0.6951-0.6923-0.7042 (  1904 PWs)   bands (ev):

  -173.1117-173.1005-173.0928-173.0761-173.0449 -33.4595  -3.8540  -3.7784
    -3.7458  16.1478  16.4214  16.4215  16.4238  16.4924  16.4973  16.5086
    17.8130  18.0222  18.2430  29.2376  39.3748  39.4528  39.6864  39.9113

          k =-0.6949 0.0021 0.0004 (  1936 PWs)   bands (ev):

  -173.1556-173.1486-173.1270-173.1168-173.0471 -33.9387  -4.9525  -1.7808
    -1.5902  16.0636  16.1636  16.3882  16.4056  16.4175  16.5892  16.6138
    17.8413  19.8574  24.7634  27.4896  29.1675  29.4559  36.3158  39.1261

          k = 0.0002-0.6946-0.0002 (  1936 PWs)   bands (ev):

  -173.1539-173.1486-173.1289-173.1179-173.0457 -33.9397  -4.9488  -1.7794
    -1.5912  16.0630  16.1640  16.3882  16.4056  16.4164  16.5889  16.6146
    17.8405  19.8622  24.7544  27.5174  29.1683  29.4365  36.3218  39.0940

          k =-0.6946 0.0019 0.7047 (  1956 PWs)   bands (ev):

  -173.1776-173.1657-173.1645-173.1048-173.0743 -33.6758  -4.3772  -4.3039
    -1.4903  15.9567  16.1594  16.2615  16.3948  16.4439  16.4821  16.5270
    16.6282  23.9496  24.5650  25.0379  30.2617  30.2673  39.5244  40.1870

          k =-0.6951 0.6968 0.0005 (  1956 PWs)   bands (ev):

  -173.1805-173.1673-173.1603-173.1066-173.0710 -33.7087  -4.3403  -4.3295
    -1.3398  15.6309  16.1819  16.2353  16.3481  16.4221  16.4276  16.5392
    16.6408  24.1467  24.4554  25.6695  30.6446  30.6985  39.1942  39.9983

     the Fermi energy is    26.6467 ev

!    total energy              =   -2012.38834612 Ry

     total all-electron energy =    -30159.999992 Ry
     estimated scf accuracy    <          7.4E-09 Ry
     smearing contrib. (-TS)   =       0.00014669 Ry
     internal energy E=F+TS    =   -2012.38849282 Ry

     The total energy is F=E-TS. E is the sum of the following terms:
     one-electron contribution =   -1284.65823133 Ry
     hartree contribution      =     656.94092591 Ry
     xc contribution           =    -112.70945335 Ry
     ewald contribution        =    -775.58063123 Ry
     one-center paw contrib.   =    -496.38110282 Ry

     convergence has been achieved in   4 iterations

     Forces acting on atoms (cartesian axes, Ry/au):

     atom    1 type  1   force =     0.00009389   -0.00001350   -0.00035685
     atom    2 type  2   force =    -0.00000373   -0.00002345    0.00012152
     atom    3 type  2   force =    -0.00005617    0.00001626    0.00012530
     atom    4 type  2   force =    -0.00003399    0.00002069    0.00011003

     Total force =     0.000430     Total SCF correction =     0.000352
     SCF correction compared to forces is large: reduce conv_thr to get better values


     Computing stress (Cartesian axis) and pressure

          total   stress  (Ry/bohr**3)                   (kbar)     P=        0.29
   0.00000242  -0.00000070   0.00000024            0.36       -0.10        0.04
  -0.00000070   0.00000167  -0.00000087           -0.10        0.25       -0.13
   0.00000024  -0.00000087   0.00000188            0.04       -0.13        0.28

     Energy error            =      1.6E-07
     Gradient error          =      3.6E-04
     Cell gradient error     =      2.4E-06


     bfgs converged in  46 scf cycles and  43 bfgs steps
     (criteria: energy <  1.0E-04 Ry, force <  1.0E-03Ry/Bohr, cell <  5.0E-01kbar)

     End of BFGS Geometry Optimization

     Final enthalpy =   -2012.3883461249 Ry

     File ./tmp/01_HfH3_Top1.bfgs deleted, as requested
Begin final coordinates
     new unit-cell volume =    119.08679 a.u.^3 (    17.64684 Ang^3 )
     density =     17.08017 g/cm^3

CELL_PARAMETERS (angstrom)
   2.614827630   0.000803257  -0.001349252
   0.008015526   2.615891148   0.000730759
   0.001327839  -0.000695371   2.579909708

ATOMIC_POSITIONS (angstrom)
Hf            0.5896244381        1.7556881146        0.4619427874
H             1.8765247462        0.4316077309        0.4596980346
H             1.8010088476        1.5466205733        1.7511194252
H             0.3833444565        0.3482391048        1.7515329812
End final coordinates



     Writing output data file ./tmp/01_HfH3_Top1.save/

     Final scf calculation at the relaxed structure.
     The G-vectors are recalculated for the final unit cell
     Results may differ from those at the preceding step.

     Parallelization info
     --------------------
     sticks:   dense  smooth     PW     G-vecs:    dense   smooth      PW
     Min         388     192     68                 8040     2840     547
     Max         389     193     69                 8043     2841     548
     Sum         777     385    137                16083     5681    1095



     bravais-lattice index     =            0
     lattice parameter (alat)  =       6.8677  a.u.
     unit-cell volume          =     119.0868 (a.u.)^3
     number of atoms/cell      =            4
     number of atomic types    =            2
     number of electrons       =        39.00
     number of Kohn-Sham states=           24
     kinetic-energy cutoff     =      50.0000  Ry
     charge density cutoff     =     400.0000  Ry
     scf convergence threshold =      1.0E-08
     mixing beta               =       0.7000
     number of iterations used =            8  plain     mixing
     press convergence thresh. =      5.0E-01
     Exchange-correlation= SLA  PW   PBX  PBC
                           (   1   4   3   4   0   0   0)

     celldm(1)=   6.867718  celldm(2)=   0.000000  celldm(3)=   0.000000
     celldm(4)=   0.000000  celldm(5)=   0.000000  celldm(6)=   0.000000

     crystal axes: (cart. coord. in units of alat)
               a(1) = (   0.719498   0.000221  -0.000371 )  
               a(2) = (   0.002206   0.719790   0.000201 )  
               a(3) = (   0.000365  -0.000191   0.709890 )  

     reciprocal axes: (cart. coord. in units 2 pi/alat)
               b(1) = (  1.389859 -0.004259 -0.000716 )  
               b(2) = ( -0.000427  1.389294  0.000375 )  
               b(3) = (  0.000727 -0.000396  1.408669 )  


     PseudoPot. # 1 for Hf read from file:
     /home/marco/ZOS_Cloud_Compute/pseudo/Hf.UPF
     MD5 check sum: 054ab3954715fe03e42536d2af1a941a
     Pseudo is Projector augmented-wave + core cor, Zval = 36.0
     Generated using "atomic" code by A. Dal Corso  v.5.1.2
     Shape of augmentation charge: PSQ
     Using radial grid of 1271 points,  8 beta functions with: 
                l(1) =   0
                l(2) =   0
                l(3) =   1
                l(4) =   1
                l(5) =   2
                l(6) =   2
                l(7) =   3
                l(8) =   3
     Q(r) pseudized with 0 coefficients 


     PseudoPot. # 2 for H  read from file:
     /home/marco/ZOS_Cloud_Compute/pseudo/H.UPF
     MD5 check sum: 850d63dcbcc06c5de8b44e0ab9f952da
     Pseudo is Projector augmented-wave, Zval =  1.0
     Generated using "atomic" code by A. Dal Corso  v.5.1.2
     Shape of augmentation charge: PSQ
     Using radial grid of  929 points,  2 beta functions with: 
                l(1) =   0
                l(2) =   0
     Q(r) pseudized with 0 coefficients 


     atomic species   valence    mass     pseudopotential
        Hf            36.00   178.49000     Hf( 1.00)
        H              1.00     1.00800     H ( 1.00)

     No symmetry found



   Cartesian axes

     site n.     atom                  positions (alat units)
         1           Hf  tau(   1) = (   0.1622415   0.4830964   0.1271085  )
         2           H   tau(   2) = (   0.5163459   0.1187615   0.1264908  )
         3           H   tau(   3) = (   0.4955668   0.4255692   0.4818392  )
         4           H   tau(   4) = (   0.1054813   0.0958217   0.4819530  )

     number of k points=     8  Methfessel-Paxton smearing, width (Ry)=  0.0200
                       cart. coord. in units 2pi/alat
        k(    1) = (   0.0000000   0.0000000   0.0000000), wk =   0.2500000
        k(    2) = (  -0.0003635   0.0001979  -0.7043345), wk =   0.2500000
        k(    3) = (  -0.0001502  -0.6944494  -0.7045218), wk =   0.2500000
        k(    4) = (  -0.6950798  -0.6923201  -0.7041636), wk =   0.2500000
        k(    5) = (  -0.6949296   0.0021293   0.0003582), wk =   0.2500000
        k(    6) = (   0.0002133  -0.6946472  -0.0001873), wk =   0.2500000
        k(    7) = (  -0.6945661   0.0019314   0.7046927), wk =   0.2500000
        k(    8) = (  -0.6951429   0.6967765   0.0005456), wk =   0.2500000

     Dense  grid:    16083 G-vectors     FFT dimensions: (  32,  32,  32)

     Smooth grid:     5681 G-vectors     FFT dimensions: (  24,  24,  24)

     Estimated max dynamical RAM per process >      93.22 MB

     Estimated total dynamical RAM >     186.45 MB

     Check: negative core charge=   -0.000006

     Initial potential from superposition of free atoms

     starting charge   38.99803, renormalised to   39.00000
     Starting wfcs are   25 randomized atomic wfcs
     Checking if some PAW data can be deallocated... 

     total cpu time spent up to now is     1626.4 secs

     Self-consistent Calculation

     iteration #  1     ecut=    50.00 Ry     beta= 0.70
     Davidson diagonalization with overlap
     ethr =  1.00E-06,  avg # of iterations =  9.9

     total cpu time spent up to now is     1628.4 secs

     total energy              =   -1987.24613494 Ry
     estimated scf accuracy    <       1.51535650 Ry

     iteration #  2     ecut=    50.00 Ry     beta= 0.70
     Davidson diagonalization with overlap
     ethr =  3.89E-03,  avg # of iterations =  2.0

     total cpu time spent up to now is     1630.0 secs

     total energy              =   -1987.68272629 Ry
     estimated scf accuracy    <       0.47716305 Ry

     iteration #  3     ecut=    50.00 Ry     beta= 0.70
     Davidson diagonalization with overlap
     ethr =  1.22E-03,  avg # of iterations =  2.0

     total cpu time spent up to now is     1631.6 secs

     total energy              =   -1987.79008895 Ry
     estimated scf accuracy    <       0.00640871 Ry

     iteration #  4     ecut=    50.00 Ry     beta= 0.70
     Davidson diagonalization with overlap
     ethr =  1.64E-05,  avg # of iterations =  2.0

     total cpu time spent up to now is     1633.2 secs

     total energy              =   -1987.79053604 Ry
     estimated scf accuracy    <       0.00117129 Ry

     iteration #  5     ecut=    50.00 Ry     beta= 0.70
     Davidson diagonalization with overlap
     ethr =  3.00E-06,  avg # of iterations =  2.0

     total cpu time spent up to now is     1634.7 secs

     total energy              =   -1987.79079334 Ry
     estimated scf accuracy    <       0.00001236 Ry

     iteration #  6     ecut=    50.00 Ry     beta= 0.70
     Davidson diagonalization with overlap
     ethr =  3.17E-08,  avg # of iterations =  2.0

     total cpu time spent up to now is     1636.2 secs

     total energy              =   -1987.79079355 Ry
     estimated scf accuracy    <       0.00000476 Ry

     iteration #  7     ecut=    50.00 Ry     beta= 0.70
     Davidson diagonalization with overlap
     ethr =  1.22E-08,  avg # of iterations =  2.0

     total cpu time spent up to now is     1637.8 secs

     total energy              =   -1987.79079485 Ry
     estimated scf accuracy    <       0.00000002 Ry

     iteration #  8     ecut=    50.00 Ry     beta= 0.70
     Davidson diagonalization with overlap
     ethr =  5.39E-11,  avg # of iterations =  2.0

     total cpu time spent up to now is     1639.4 secs

     total energy              =   -1987.79079484 Ry
     estimated scf accuracy    <       0.00000002 Ry

     iteration #  9     ecut=    50.00 Ry     beta= 0.70
     Davidson diagonalization with overlap
     ethr =  5.39E-11,  avg # of iterations =  2.0

     total cpu time spent up to now is     1641.0 secs

     End of self-consistent calculation

          k = 0.0000 0.0000 0.0000 (   739 PWs)   bands (ev):

  -153.8288-152.7486-150.5816-150.3517-149.4372 -34.2411  -2.0150  -1.9995
    -1.8155  11.3352  11.3391  11.3424  11.3476  11.3675  11.3692  11.3737
    12.4762  20.8806  20.9915  35.8400  35.8747  36.1228  36.2690  37.2651

          k =-0.0004 0.0002-0.7043 (   706 PWs)   bands (ev):

  -148.5505-148.2767-148.0250-145.4887-144.0225 -33.9632  -4.9261  -1.6939
    -1.6885  11.3505  11.4435  11.4451  11.5544  11.5639  11.5672  11.6528
    17.5723  20.0818  25.2143  26.4225  29.2537  30.7930  36.9758  40.6028

          k =-0.0002-0.6944-0.7045 (   708 PWs)   bands (ev):

  -149.4384-149.3270-147.1741-146.7774-143.0804 -33.7344  -4.3328  -4.2453
    -1.4337  11.3724  11.3876  11.3885  11.4972  11.5816  11.6113  11.6511
    16.2332  23.8063  24.4704  25.1953  30.6622  30.6861  40.2762  40.6200

          k =-0.6951-0.6923-0.7042 (   692 PWs)   bands (ev):

  -146.8767-145.8368-145.0067-144.8325-143.7504 -33.5178  -3.8090  -3.7185
    -3.6977  11.4813  11.5252  11.5595  11.5701  11.5723  11.5759  11.6984
    17.9394  18.1529  18.3264  29.1293  39.2136  39.2975  39.5411  40.9246

          k =-0.6949 0.0021 0.0004 (   708 PWs)   bands (ev):

  -149.1143-148.6237-147.5496-145.2195-145.1527 -33.9956  -4.8989  -1.7245
    -1.5427  11.3177  11.4477  11.4576  11.5417  11.5474  11.5507  11.6453
    17.8093  19.8040  25.0102  27.4359  29.5228  29.6207  37.1895  39.9013

          k = 0.0002-0.6946-0.0002 (   708 PWs)   bands (ev):

  -149.1400-148.5955-147.5555-145.1896-145.1807 -33.9966  -4.8950  -1.7238
    -1.5436  11.3171  11.4484  11.4598  11.5390  11.5467  11.5485  11.6485
    17.8113  19.8081  25.0001  27.4562  29.5224  29.6054  37.1953  39.8674

          k =-0.6946 0.0019 0.7047 (   708 PWs)   bands (ev):

  -149.4070-149.3268-147.2086-146.7627-143.1043 -33.7334  -4.3319  -4.2503
    -1.4338  11.3721  11.3893  11.3895  11.4964  11.5843  11.6096  11.6471
    16.2460  23.8071  24.4520  25.1979  30.6521  30.6717  40.2827  40.6279

          k =-0.6951 0.6968 0.0005 (   712 PWs)   bands (ev):

  -150.0834-148.5148-147.5748-147.2874-144.3569 -33.7664  -4.2841  -4.2778
    -1.2921  11.3709  11.3742  11.4319  11.5312  11.5434  11.5755  11.5936
    15.7866  24.1332  24.3315  25.7175  31.0889  31.1025  40.1143  40.2479

     the Fermi energy is    27.2162 ev

!    total energy              =   -1987.79079485 Ry

     total all-electron energy =    -30135.402441 Ry
     estimated scf accuracy    <          2.0E-10 Ry
     smearing contrib. (-TS)   =       0.00029430 Ry
     internal energy E=F+TS    =   -1987.79108915 Ry

     The total energy is F=E-TS. E is the sum of the following terms:
     one-electron contribution =   -1251.27522562 Ry
     hartree contribution      =     644.38937659 Ry
     xc contribution           =    -111.55680323 Ry
     ewald contribution        =    -775.58063123 Ry
     one-center paw contrib.   =    -493.76780567 Ry

     convergence has been achieved in   9 iterations

     Forces acting on atoms (cartesian axes, Ry/au):

     atom    1 type  1   force =     0.00414262    0.00571472   -0.00027959
     atom    2 type  2   force =    -0.00326081   -0.00452676    0.00011084
     atom    3 type  2   force =    -0.00162953    0.00057298    0.00009105
     atom    4 type  2   force =     0.00074772   -0.00176094    0.00007770

     Total force =     0.009364     Total SCF correction =     0.000017


     Computing stress (Cartesian axis) and pressure

          total   stress  (Ry/bohr**3)                   (kbar)     P=   -85441.95
  -0.58056036  -0.00039311   0.00000129       -85403.38      -57.83        0.19
  -0.00039311  -0.58118361  -0.00000970          -57.83   -85495.06       -1.43
   0.00000129  -0.00000970  -0.58072380            0.19       -1.43   -85427.42


     Writing output data file ./tmp/01_HfH3_Top1.save/

     init_run     :      6.63s CPU      7.00s WALL (       2 calls)
     electrons    :    822.93s CPU   1017.13s WALL (      47 calls)
     update_pot   :    150.50s CPU    152.21s WALL (      45 calls)
     forces       :     80.23s CPU     86.90s WALL (      47 calls)
     stress       :    295.69s CPU    319.86s WALL (      47 calls)

     Called by init_run:
     wfcinit      :      0.21s CPU      0.33s WALL (       2 calls)
     potinit      :      2.58s CPU      2.61s WALL (       2 calls)
     hinit0       :      3.45s CPU      3.53s WALL (       2 calls)

     Called by electrons:
     c_bands      :    162.05s CPU    263.10s WALL (     399 calls)
     sum_band     :    191.95s CPU    250.66s WALL (     399 calls)
     v_of_rho     :     11.31s CPU     14.57s WALL (     429 calls)
     newd         :    174.62s CPU    202.29s WALL (     429 calls)
     PAW_pot      :    372.93s CPU    379.94s WALL (     474 calls)
     mix_rho      :      1.60s CPU      2.44s WALL (     399 calls)

     Called by c_bands:
     init_us_2    :      4.42s CPU      4.83s WALL (    7512 calls)
     cegterg      :    143.68s CPU    241.95s WALL (    3192 calls)

     Called by *egterg:
     cdiaghg      :     13.03s CPU     21.84s WALL (   13460 calls)
     h_psi        :    102.38s CPU    186.62s WALL (   13972 calls)
     s_psi        :      3.90s CPU      4.78s WALL (   13972 calls)
     g_psi        :      1.57s CPU      1.71s WALL (   10764 calls)

     Called by h_psi:
     h_psi:calbec :      3.93s CPU      6.20s WALL (   13972 calls)
     vloc_psi     :     94.35s CPU    175.05s WALL (   13972 calls)
     add_vuspsi   :      3.33s CPU      4.44s WALL (   13972 calls)

     General routines
     calbec       :      6.45s CPU     12.60s WALL (   19404 calls)
     fft          :     10.61s CPU     21.36s WALL (    6720 calls)
     ffts         :      0.25s CPU      0.47s WALL (     828 calls)
     fftw         :     96.72s CPU    184.36s WALL (  540956 calls)
     interpolate  :      0.73s CPU      0.76s WALL (     429 calls)

     Parallel routines
     fft_scatt_xy :     10.77s CPU     16.10s WALL (  548504 calls)
     fft_scatt_yz :     61.46s CPU    139.34s WALL (  548504 calls)

     PWSCF        :  23m32.05s CPU  27m24.26s WALL


   This run was terminated on:   7:41:17   8Jan2026            

=------------------------------------------------------------------------------=
   JOB DONE.
=------------------------------------------------------------------------------=
