
     Program PWSCF v.6.1 starts on 23Nov2025 at 20:49: 1 

     This program is part of the open-source Quantum ESPRESSO suite
     for quantum simulation of materials; please cite
         "P. Giannozzi et al., J. Phys.:Condens. Matter 21 395502 (2009);
          URL http://www.quantum-espresso.org", 
     in publications or presentations arising from this work. More details at
     http://www.quantum-espresso.org/quote

     Parallel version (MPI & OpenMP), running on      12 processor cores
     Number of MPI processes:                 1
     Threads/MPI process:                    12
     Waiting for input...
     Reading input from standard input

     Current dimensions of program PWSCF are:
     Max number of different atomic species (ntypx) = 10
     Max number of k-points (npk) =  40000
     Max angular momentum in pseudopotentials (lmaxx) =  3
               file H.UPF: wavefunction(s)  1S renormalized

     Subspace diagonalization in iterative solution of the eigenvalue problem:
     a serial algorithm will be used


     G-vector sticks info
     --------------------
     sticks:   dense  smooth     PW     G-vecs:    dense   smooth      PW
     Sum        6531    3263    907               565721   199997   29431



     bravais-lattice index     =            0
     lattice parameter (alat)  =      11.6718  a.u.
     unit-cell volume          =    4187.7797 (a.u.)^3
     number of atoms/cell      =           56
     number of atomic types    =            3
     number of electrons       =        96.00
     number of Kohn-Sham states=           58
     kinetic-energy cutoff     =      50.0000  Ry
     charge density cutoff     =     400.0000  Ry
     convergence threshold     =      1.0E-08
     mixing beta               =       0.7000
     number of iterations used =            8  plain     mixing
     Exchange-correlation      =  SLA  PW   PBE  PBE ( 1  4  3  4 0 0)

     celldm(1)=  11.671755  celldm(2)=   0.000000  celldm(3)=   0.000000
     celldm(4)=   0.000000  celldm(5)=   0.000000  celldm(6)=   0.000000

     crystal axes: (cart. coord. in units of alat)
               a(1) = (   0.999876   0.014840   0.005296 )  
               a(2) = (  -0.389236   1.499571  -0.015141 )  
               a(3) = (   0.009355  -0.015415   1.750001 )  

     reciprocal axes: (cart. coord. in units 2 pi/alat)
               b(1) = (  0.996303  0.258575 -0.003048 )  
               b(2) = ( -0.009892  0.664350  0.005905 )  
               b(3) = ( -0.003101  0.004966  0.571489 )  


     PseudoPot. # 1 for  B read from file:
     C:/Users/Acer/Desktop/Quantum_Espresso/pseudo/B.UPF
     MD5 check sum: d9c678ba5d3b2fd7b74e61139c9288d8
     Pseudo is Projector augmented-wave + core cor, Zval =  3.0
     Generated using "atomic" code by A. Dal Corso  v.5.1.2
     Shape of augmentation charge: PSQ
     Using radial grid of 1059 points,  4 beta functions with: 
                l(1) =   0
                l(2) =   0
                l(3) =   1
                l(4) =   1
     Q(r) pseudized with 0 coefficients 


     PseudoPot. # 2 for  H read from file:
     C:/Users/Acer/Desktop/Quantum_Espresso/pseudo/H.UPF
     MD5 check sum: 850d63dcbcc06c5de8b44e0ab9f952da
     Pseudo is Projector augmented-wave, Zval =  1.0
     Generated using "atomic" code by A. Dal Corso  v.5.1.2
     Shape of augmentation charge: PSQ
     Using radial grid of  929 points,  2 beta functions with: 
                l(1) =   0
                l(2) =   0
     Q(r) pseudized with 0 coefficients 


     PseudoPot. # 3 for Y  read from file:
     C:/Users/Acer/Desktop/Quantum_Espresso/pseudo/Y.UPF
     MD5 check sum: e11e343c2e9fd2e6ee9cb5aa0e490caa
     Pseudo is Ultrasoft + core correction, Zval = 11.0
     Generated by new atomic code, or converted to UPF format
     Using radial grid of  885 points,  6 beta functions with: 
                l(1) =   0
                l(2) =   0
                l(3) =   1
                l(4) =   1
                l(5) =   2
                l(6) =   2
     Q(r) pseudized with  6 coefficients,  rinner =    1.200   1.200   1.200
                                                       1.200   1.200

     atomic species   valence    mass     pseudopotential
        B              3.00     1.00000      B( 1.00)
        H              1.00     1.00000      H( 1.00)
        Y             11.00     1.00000     Y ( 1.00)

     No symmetry found



   Cartesian axes

     site n.     atom                  positions (alat units)
         1           B   tau(   1) = (   0.0551435   0.4077989   0.7070965  )
         2           B   tau(   2) = (   0.2616480   0.3333837   1.5799961  )
         3           B   tau(   3) = (   0.5686330   1.0689951   1.0194600  )
         4           B   tau(   4) = (   0.3569491   1.1647090   0.1462949  )
         5           B   tau(   5) = (   0.1263012   0.1898752   0.5177233  )
         6           B   tau(   6) = (   0.2076670   0.5719666   1.4102863  )
         7           Y   tau(   7) = (   0.4464620   1.3943855   1.2816035  )
         8           B   tau(   8) = (   0.4316314   0.9452990   0.3333821  )
         9           B   tau(   9) = (  -0.0836584   0.3946214   0.4672847  )
        10           B   tau(  10) = (   0.4063822   0.3614987   1.3455191  )
        11           B   tau(  11) = (   0.7167688   1.0583417   1.2639509  )
        12           B   tau(  12) = (   0.2254362   1.1518537   0.3903632  )
        13           B   tau(  13) = (   0.7641344   0.3707564   0.7261529  )
        14           B   tau(  14) = (   0.5569191   0.3667655   1.5995268  )
        15           B   tau(  15) = (  -0.1427557   1.1216404   1.0109437  )
        16           B   tau(  16) = (   0.0619792   1.1235088   0.1439165  )
        17           H   tau(  17) = (   0.1501111   0.5722160   0.7410838  )
        18           H   tau(  18) = (   0.1600618   0.1692241   1.5965024  )
        19           H   tau(  19) = (   0.4780369   0.9016459   0.9800375  )
        20           H   tau(  20) = (   0.4551758   1.3285254   0.1142959  )
        21           H   tau(  21) = (   0.1789125   0.2453198   0.7323765  )
        22           H   tau(  22) = (   0.1443197   0.4969637   1.6189862  )
        23           H   tau(  23) = (   0.4536927   1.2242872   0.9672550  )
        24           H   tau(  24) = (   0.4754966   0.9997528   0.1143687  )
        25           H   tau(  25) = (   0.2916168   0.2121647   0.4185057  )
        26           H   tau(  26) = (   0.0442295   0.5679708   1.3071830  )
        27           H   tau(  27) = (   0.1656735   1.3172276   1.4128055  )
        28           H   tau(  28) = (   0.6011583   0.9688514   0.4243165  )
        29           H   tau(  29) = (  -0.3190809   1.5081730   0.5465264  )
        30           H   tau(  30) = (   0.2730883   0.7435189   1.4746471  )
        31           H   tau(  31) = (   0.8830445   0.1926535   1.1913765  )
        32           H   tau(  32) = (   0.3749336   0.7634948   0.2928344  )
        33           H   tau(  33) = (  -0.0393529   0.2233120   0.3624345  )
        34           H   tau(  34) = (   0.3736869   0.5421662   1.2540325  )
        35           H   tau(  35) = (   0.7183393   1.2063609   1.3986485  )
        36           H   tau(  36) = (   0.2731353   0.9804747   0.4939830  )
        37           H   tau(  37) = (  -0.0708759   0.5507748   0.3549447  )
        38           H   tau(  38) = (   0.3886600   0.2147374   1.2215331  )
        39           H   tau(  39) = (   0.7026344   0.8865984   1.3533925  )
        40           H   tau(  40) = (   0.2414843   1.3069498   0.5032764  )
        41           H   tau(  41) = (   0.7203291   0.3550143   0.5004576  )
        42           H   tau(  42) = (   0.6057807   0.4023281   1.3793153  )
        43           H   tau(  43) = (  -0.0803361   1.0436844   1.2120989  )
        44           H   tau(  44) = (   0.0283772   1.0965062   0.3681627  )
        45           H   tau(  45) = (   0.6537243   0.5187660   0.7849069  )
        46           H   tau(  46) = (   0.6574950   0.2059654   1.6452004  )
        47           H   tau(  47) = (  -0.0001943   1.0221444   0.9215118  )
        48           H   tau(  48) = (  -0.0435009   1.2788624   0.0968149  )
        49           H   tau(  49) = (   0.7051148   0.1895206   0.7668107  )
        50           H   tau(  50) = (   0.6270535   0.5369091   1.6626571  )
        51           H   tau(  51) = (  -0.1232039   1.3162789   1.0067164  )
        52           H   tau(  52) = (  -0.0050531   0.9474410   0.0947166  )
        53           H   tau(  53) = (  -0.0608572   0.3529856   0.8687450  )
        54           H   tau(  54) = (   0.3702141   0.3783142  -0.0038032  )
        55           H   tau(  55) = (   0.7059567   1.0713962   0.8623724  )
        56           H   tau(  56) = (   0.2411006   1.1069993   1.7387934  )

     number of k points=    36  Methfessel-Paxton smearing, width (Ry)=  0.0100
                       cart. coord. in units 2pi/alat
        k(    1) = (   0.0000000   0.0000000   0.0000000), wk =   0.0312500
        k(    2) = (  -0.0007752   0.0012414   0.1428722), wk =   0.0625000
        k(    3) = (   0.0015503  -0.0024828  -0.2857444), wk =   0.0312500
        k(    4) = (  -0.0024729   0.1660874   0.0014762), wk =   0.0625000
        k(    5) = (  -0.0032481   0.1673288   0.1443484), wk =   0.0625000
        k(    6) = (  -0.0009226   0.1636046  -0.2842681), wk =   0.0625000
        k(    7) = (  -0.0016977   0.1648460  -0.1413960), wk =   0.0625000
        k(    8) = (   0.0049458  -0.3321748  -0.0029524), wk =   0.0312500
        k(    9) = (   0.0041707  -0.3309334   0.1399197), wk =   0.0625000
        k(   10) = (   0.0064961  -0.3346576  -0.2886968), wk =   0.0312500
        k(   11) = (   0.2490756   0.0646437  -0.0007621), wk =   0.0625000
        k(   12) = (   0.2483005   0.0658851   0.1421101), wk =   0.0625000
        k(   13) = (   0.2506260   0.0621609  -0.2865064), wk =   0.0625000
        k(   14) = (   0.2498508   0.0634023  -0.1436342), wk =   0.0625000
        k(   15) = (   0.2466027   0.2307310   0.0007142), wk =   0.0625000
        k(   16) = (   0.2458276   0.2319724   0.1435863), wk =   0.0625000
        k(   17) = (   0.2481530   0.2282482  -0.2850302), wk =   0.0625000
        k(   18) = (   0.2473779   0.2294896  -0.1421580), wk =   0.0625000
        k(   19) = (   0.2540214  -0.2675311  -0.0037145), wk =   0.0625000
        k(   20) = (   0.2532463  -0.2662897   0.1391577), wk =   0.0625000
        k(   21) = (   0.2555718  -0.2700139  -0.2894589), wk =   0.0625000
        k(   22) = (   0.2547966  -0.2687725  -0.1465867), wk =   0.0625000
        k(   23) = (   0.2515485  -0.1014437  -0.0022383), wk =   0.0625000
        k(   24) = (   0.2507734  -0.1002023   0.1406339), wk =   0.0625000
        k(   25) = (   0.2530989  -0.1039265  -0.2879826), wk =   0.0625000
        k(   26) = (   0.2523237  -0.1026851  -0.1451105), wk =   0.0625000
        k(   27) = (  -0.4981513  -0.1292873   0.0015241), wk =   0.0312500
        k(   28) = (  -0.4989264  -0.1280459   0.1443963), wk =   0.0625000
        k(   29) = (  -0.4966009  -0.1317701  -0.2842203), wk =   0.0312500
        k(   30) = (  -0.5006242   0.0368001   0.0030003), wk =   0.0625000
        k(   31) = (  -0.5013993   0.0380415   0.1458725), wk =   0.0625000
        k(   32) = (  -0.4990738   0.0343173  -0.2827440), wk =   0.0625000
        k(   33) = (  -0.4998490   0.0355587  -0.1398719), wk =   0.0625000
        k(   34) = (  -0.4932054  -0.4614621  -0.0014283), wk =   0.0312500
        k(   35) = (  -0.4939806  -0.4602207   0.1414439), wk =   0.0625000
        k(   36) = (  -0.4916551  -0.4639449  -0.2871727), wk =   0.0312500

     Dense  grid:   565721 G-vectors     FFT dimensions: (  75, 120, 135)

     Smooth grid:   199997 G-vectors     FFT dimensions: (  54,  81,  96)

     Estimated max dynamical RAM per process >    1405.26MB

     Initial potential from superposition of free atoms
     Check: negative starting charge=   -0.043410

     starting charge   95.99091, renormalised to   96.00000

     negative rho (up, down):  4.341E-02 0.000E+00
     Starting wfc are  113 randomized atomic wfcs
     Checking if some PAW data can be deallocated... 

     total cpu time spent up to now is      156.0 secs

     Self-consistent Calculation

     iteration #  1     ecut=    50.00 Ry     beta=0.70
     Davidson diagonalization with overlap
     ethr =  1.00E-02,  avg # of iterations =  2.0

     negative rho (up, down):  4.403E-02 0.000E+00

     total cpu time spent up to now is      291.6 secs

     total energy              =    -305.21303048 Ry
     Harris-Foulkes estimate   =    -307.90339763 Ry
     estimated scf accuracy    <       4.68025651 Ry

     iteration #  2     ecut=    50.00 Ry     beta=0.70
     Davidson diagonalization with overlap
     ethr =  4.88E-03,  avg # of iterations =  3.4

     negative rho (up, down):  4.363E-02 0.000E+00

     total cpu time spent up to now is      446.0 secs

     total energy              =    -305.85117152 Ry
     Harris-Foulkes estimate   =    -306.62360421 Ry
     estimated scf accuracy    <       1.27828020 Ry

     iteration #  3     ecut=    50.00 Ry     beta=0.70
     Davidson diagonalization with overlap
     ethr =  1.33E-03,  avg # of iterations =  2.5

     negative rho (up, down):  4.351E-02 0.000E+00

     total cpu time spent up to now is      580.2 secs

     total energy              =    -306.20586862 Ry
     Harris-Foulkes estimate   =    -306.28943172 Ry
     estimated scf accuracy    <       0.15710414 Ry

     iteration #  4     ecut=    50.00 Ry     beta=0.70
     Davidson diagonalization with overlap
     ethr =  1.64E-04,  avg # of iterations =  3.2

     negative rho (up, down):  4.359E-02 0.000E+00

     total cpu time spent up to now is      731.0 secs

     total energy              =    -306.23755678 Ry
     Harris-Foulkes estimate   =    -306.24407465 Ry
     estimated scf accuracy    <       0.01209714 Ry

     iteration #  5     ecut=    50.00 Ry     beta=0.70
     Davidson diagonalization with overlap
     ethr =  1.26E-05,  avg # of iterations =  7.5

     negative rho (up, down):  4.366E-02 0.000E+00

     total cpu time spent up to now is      953.3 secs

     total energy              =    -306.24090260 Ry
     Harris-Foulkes estimate   =    -306.24114111 Ry
     estimated scf accuracy    <       0.00064815 Ry

     iteration #  6     ecut=    50.00 Ry     beta=0.70
     Davidson diagonalization with overlap
     ethr =  6.75E-07,  avg # of iterations =  4.1

     negative rho (up, down):  4.368E-02 0.000E+00

     total cpu time spent up to now is     1167.8 secs

     total energy              =    -306.24106017 Ry
     Harris-Foulkes estimate   =    -306.24107076 Ry
     estimated scf accuracy    <       0.00004370 Ry

     iteration #  7     ecut=    50.00 Ry     beta=0.70
     Davidson diagonalization with overlap
     ethr =  4.55E-08,  avg # of iterations =  2.5

     negative rho (up, down):  4.368E-02 0.000E+00

     total cpu time spent up to now is     1366.2 secs

     total energy              =    -306.24106966 Ry
     Harris-Foulkes estimate   =    -306.24107384 Ry
     estimated scf accuracy    <       0.00000886 Ry

     iteration #  8     ecut=    50.00 Ry     beta=0.70
     Davidson diagonalization with overlap
     ethr =  9.23E-09,  avg # of iterations =  2.2

     negative rho (up, down):  4.368E-02 0.000E+00

     total cpu time spent up to now is     1551.7 secs

     total energy              =    -306.24107183 Ry
     Harris-Foulkes estimate   =    -306.24107203 Ry
     estimated scf accuracy    <       0.00000057 Ry

     iteration #  9     ecut=    50.00 Ry     beta=0.70
     Davidson diagonalization with overlap
     ethr =  5.93E-10,  avg # of iterations =  2.2

     negative rho (up, down):  4.367E-02 0.000E+00

     total cpu time spent up to now is     1720.2 secs

     total energy              =    -306.24107199 Ry
     Harris-Foulkes estimate   =    -306.24107200 Ry
     estimated scf accuracy    <       0.00000005 Ry

     iteration # 10     ecut=    50.00 Ry     beta=0.70
     Davidson diagonalization with overlap
     ethr =  4.87E-11,  avg # of iterations =  2.2

     negative rho (up, down):  4.368E-02 0.000E+00

     total cpu time spent up to now is     1872.3 secs

     End of self-consistent calculation

          k = 0.0000 0.0000 0.0000 ( 24997 PWs)   bands (ev):

   -43.3009 -23.5551 -23.2673 -23.0848 -13.7336 -13.5714 -13.4592 -12.2344
   -10.1479 -10.0167  -9.9473  -9.8374  -9.7867  -9.6434  -8.9733  -7.4837
    -7.2692  -7.0872  -6.8511  -6.6069  -6.4576  -6.3041  -5.9588  -5.8409
    -5.6830  -5.4875  -5.2363  -4.8549  -4.6972  -4.6083  -4.5822  -4.5039
    -4.4633  -4.3773  -4.3360  -4.3086  -4.1586  -4.0221  -3.8606  -3.7932
    -3.6938  -3.6684  -3.5527  -3.4735  -3.3734  -2.8855  -1.9791  -1.5007
     1.4963   1.9824   2.4356   2.6209   2.9402   3.3201   3.3315   3.4648
     3.5797   3.7897

          k =-0.0008 0.0012 0.1429 ( 25014 PWs)   bands (ev):

   -43.3009 -23.5551 -23.2673 -23.0848 -13.7331 -13.5716 -13.4597 -12.2348
   -10.1467 -10.0158  -9.9363  -9.8453  -9.7852  -9.6487  -8.9769  -7.4848
    -7.2634  -7.0969  -6.8493  -6.6042  -6.4570  -6.3025  -5.9503  -5.8372
    -5.6834  -5.4841  -5.2419  -4.8392  -4.7003  -4.6204  -4.5766  -4.5048
    -4.4783  -4.3851  -4.3377  -4.3082  -4.1587  -4.0225  -3.8730  -3.7777
    -3.7166  -3.6404  -3.5507  -3.4838  -3.3689  -2.8852  -1.9768  -1.4978
     1.5042   1.9772   2.4661   2.6054   2.9450   3.3260   3.3884   3.4804
     3.5907   3.7852

          k = 0.0016-0.0025-0.2857 ( 25034 PWs)   bands (ev):

   -43.3009 -23.5551 -23.2673 -23.0848 -13.7326 -13.5717 -13.4601 -12.2351
   -10.1456 -10.0148  -9.9220  -9.8565  -9.7837  -9.6539  -8.9805  -7.4859
    -7.2571  -7.1072  -6.8476  -6.6015  -6.4563  -6.3010  -5.9419  -5.8323
    -5.6849  -5.4802  -5.2478  -4.8209  -4.7035  -4.6348  -4.5666  -4.5169
    -4.4871  -4.3914  -4.3426  -4.3060  -4.1588  -4.0229  -3.8824  -3.7641
    -3.7294  -3.6223  -3.5483  -3.4951  -3.3648  -2.8850  -1.9745  -1.4950
     1.5122   1.9725   2.4975   2.5903   2.9515   3.3292   3.4596   3.4884
     3.6163   3.7647

          k =-0.0025 0.1661 0.0015 ( 24978 PWs)   bands (ev):

   -43.3009 -23.5551 -23.2673 -23.0848 -13.7330 -13.5710 -13.4602 -12.2348
   -10.1503 -10.0143  -9.9473  -9.8373  -9.7868  -9.6435  -8.9736  -7.4870
    -7.2552  -7.0636  -6.8819  -6.6045  -6.4606  -6.3072  -6.0090  -5.7825
    -5.6707  -5.5024  -5.2383  -4.8478  -4.6975  -4.6227  -4.5859  -4.5063
    -4.4525  -4.3770  -4.3441  -4.3073  -4.1613  -4.0297  -3.8448  -3.7810
    -3.7177  -3.6818  -3.5225  -3.4686  -3.3821  -2.8836  -1.9836  -1.5045
     1.5049   1.9851   2.4423   2.5984   2.9359   3.3252   3.3904   3.5205
     3.5891   3.7635

          k =-0.0032 0.1673 0.1443 ( 24996 PWs)   bands (ev):

   -43.3009 -23.5551 -23.2673 -23.0848 -13.7326 -13.5711 -13.4606 -12.2351
   -10.1490 -10.0135  -9.9362  -9.8452  -9.7853  -9.6489  -8.9772  -7.4879
    -7.2491  -7.0753  -6.8773  -6.6022  -6.4604  -6.3050  -6.0118  -5.7695
    -5.6630  -5.5053  -5.2437  -4.8267  -4.7011  -4.6384  -4.5832  -4.5050
    -4.4735  -4.3858  -4.3445  -4.3064  -4.1618  -4.0260  -3.8571  -3.7710
    -3.7240  -3.6632  -3.5205  -3.4770  -3.3818  -2.8835  -1.9787  -1.5034
     1.5119   1.9810   2.4733   2.5869   2.9375   3.3556   3.4296   3.5067
     3.6166   3.7593

          k =-0.0009 0.1636-0.2843 ( 25006 PWs)   bands (ev):

   -43.3009 -23.5551 -23.2673 -23.0848 -13.7322 -13.5710 -13.4612 -12.2354
   -10.1477 -10.0128  -9.9216  -9.8568  -9.7836  -9.6541  -8.9808  -7.4891
    -7.2482  -7.0743  -6.8810  -6.5996  -6.4597  -6.3033  -6.0009  -5.7781
    -5.6610  -5.4961  -5.2485  -4.8093  -4.7062  -4.6465  -4.5785  -4.5056
    -4.4840  -4.3879  -4.3464  -4.3159  -4.1639  -4.0268  -3.8674  -3.7595
    -3.7418  -3.6369  -3.5178  -3.4870  -3.3807  -2.8825  -1.9765  -1.5006
     1.5195   1.9749   2.5049   2.5776   2.9425   3.3732   3.4693   3.5262
     3.6341   3.7615

          k =-0.0017 0.1648-0.1414 ( 24988 PWs)   bands (ev):

   -43.3009 -23.5551 -23.2673 -23.0848 -13.7326 -13.5709 -13.4607 -12.2351
   -10.1490 -10.0136  -9.9361  -9.8455  -9.7852  -9.6488  -8.9772  -7.4882
    -7.2543  -7.0624  -6.8858  -6.6019  -6.4598  -6.3054  -5.9975  -5.7921
    -5.6678  -5.4940  -5.2430  -4.8338  -4.7016  -4.6293  -4.5815  -4.5037
    -4.4651  -4.3785  -4.3398  -4.3234  -4.1633  -4.0306  -3.8574  -3.7648
    -3.7446  -3.6494  -3.5209  -3.4770  -3.3809  -2.8825  -1.9814  -1.5017
     1.5124   1.9785   2.4731   2.5895   2.9382   3.3636   3.4072   3.5447
     3.5906   3.7631

          k = 0.0049-0.3322-0.0030 ( 24980 PWs)   bands (ev):

   -43.3009 -23.5551 -23.2673 -23.0848 -13.7325 -13.5705 -13.4612 -12.2352
   -10.1526 -10.0120  -9.9474  -9.8372  -9.7869  -9.6436  -8.9740  -7.4901
    -7.2404  -7.0283  -6.9255  -6.6021  -6.4632  -6.3098  -6.0429  -5.7386
    -5.6574  -5.5208  -5.2405  -4.8384  -4.6982  -4.6314  -4.5972  -4.5075
    -4.4418  -4.3783  -4.3487  -4.3088  -4.1641  -4.0374  -3.8281  -3.7629
    -3.7390  -3.6999  -3.4914  -3.4641  -3.3954  -2.8819  -1.9882  -1.5083
     1.5130   1.9877   2.4506   2.5789   2.9321   3.3237   3.4433   3.5801
     3.6513   3.7097

          k = 0.0042-0.3309 0.1399 ( 25001 PWs)   bands (ev):

   -43.3009 -23.5551 -23.2673 -23.0848 -13.7321 -13.5704 -13.4617 -12.2355
   -10.1512 -10.0114  -9.9361  -9.8454  -9.7853  -9.6490  -8.9776  -7.4911
    -7.2397  -7.0250  -6.9299  -6.5999  -6.4630  -6.3075  -6.0423  -5.7382
    -5.6482  -5.5180  -5.2451  -4.8190  -4.7027  -4.6441  -4.5944  -4.5042
    -4.4586  -4.3803  -4.3447  -4.3221  -4.1665  -4.0343  -3.8380  -3.7735
    -3.7327  -3.6751  -3.4908  -3.4694  -3.3989  -2.8808  -1.9832  -1.5073
     1.5196   1.9823   2.4816   2.5725   2.9314   3.3680   3.4712   3.5656
     3.6714   3.7005

          k = 0.0065-0.3347-0.2887 ( 24976 PWs)   bands (ev):

   -43.3009 -23.5551 -23.2673 -23.0848 -13.7317 -13.5703 -13.4623 -12.2358
   -10.1498 -10.0108  -9.9212  -9.8571  -9.7836  -9.6543  -8.9812  -7.4921
    -7.2391  -7.0215  -6.9346  -6.5977  -6.4629  -6.3052  -6.0415  -5.7375
    -5.6390  -5.5151  -5.2498  -4.7943  -4.7091  -4.6592  -4.5924  -4.5011
    -4.4748  -4.3823  -4.3439  -4.3324  -4.1692  -4.0312  -3.8482  -3.7770
    -3.7279  -3.6551  -3.4898  -3.4755  -3.4025  -2.8798  -1.9783  -1.5063
     1.5264   1.9773   2.5135   2.5656   2.9332   3.4099   3.4996   3.5616
     3.6820   3.7134

          k = 0.2491 0.0646-0.0008 ( 25006 PWs)   bands (ev):

   -43.3009 -23.5551 -23.2675 -23.0848 -13.7230 -13.5601 -13.4503 -12.2247
   -10.1887 -10.0575  -9.9518  -9.8866  -9.7994  -9.6581  -8.9864  -7.5712
    -7.2611  -7.0685  -6.8700  -6.5586  -6.4330  -6.2653  -5.8636  -5.8081
    -5.5891  -5.4248  -5.1919  -4.7985  -4.7205  -4.6514  -4.5870  -4.4991
    -4.4915  -4.4035  -4.3710  -4.2972  -4.1778  -4.0020  -3.8281  -3.7946
    -3.7274  -3.6309  -3.5384  -3.4791  -3.3756  -2.9256  -1.9569  -1.5166
     1.5213   1.9986   2.4888   2.6154   2.8829   3.3369   3.3700   3.5114
     3.6048   3.6779

          k = 0.2483 0.0659 0.1421 ( 25012 PWs)   bands (ev):

   -43.3009 -23.5551 -23.2675 -23.0848 -13.7228 -13.5602 -13.4505 -12.2249
   -10.1880 -10.0569  -9.9608  -9.8747  -9.7985  -9.6618  -8.9890  -7.5676
    -7.2585  -7.0736  -6.8690  -6.5573  -6.4331  -6.2668  -5.8621  -5.8027
    -5.5868  -5.4312  -5.2059  -4.7951  -4.7308  -4.6551  -4.5726  -4.4992
    -4.4876  -4.4242  -4.3632  -4.2856  -4.1763  -3.9986  -3.8377  -3.7837
    -3.7122  -3.6551  -3.5125  -3.5032  -3.3693  -2.9227  -1.9575  -1.5162
     1.5226   1.9963   2.4840   2.6065   2.8794   3.3413   3.4042   3.5192
     3.5846   3.6613

          k = 0.2506 0.0622-0.2865 ( 25011 PWs)   bands (ev):

   -43.3009 -23.5551 -23.2675 -23.0848 -13.7224 -13.5602 -13.4509 -12.2250
   -10.1891 -10.0576  -9.9498  -9.8823  -9.7972  -9.6648  -8.9884  -7.5685
    -7.2535  -7.0811  -6.8680  -6.5554  -6.4346  -6.2653  -5.8682  -5.7973
    -5.5876  -5.4293  -5.2071  -4.7955  -4.7096  -4.6528  -4.5774  -4.5130
    -4.4934  -4.4351  -4.3536  -4.2768  -4.1891  -3.9976  -3.8286  -3.7790
    -3.7314  -3.6442  -3.5346  -3.4804  -3.3707  -2.9176  -1.9604  -1.5168
     1.5274   1.9936   2.5022   2.6088   2.8766   3.3480   3.3847   3.5389
     3.5911   3.6571

          k = 0.2499 0.0634-0.1436 ( 25028 PWs)   bands (ev):

   -43.3009 -23.5552 -23.2675 -23.0848 -13.7227 -13.5601 -13.4507 -12.2248
   -10.1898 -10.0582  -9.9359  -9.8991  -9.7981  -9.6610  -8.9858  -7.5722
    -7.2563  -7.0758  -6.8689  -6.5568  -6.4345  -6.2639  -5.8699  -5.8025
    -5.5900  -5.4226  -5.1936  -4.7979  -4.7043  -4.6254  -4.6074  -4.5251
    -4.4920  -4.4181  -4.3564  -4.2869  -4.1907  -4.0010  -3.8141  -3.7940
    -3.7438  -3.6225  -3.5504  -3.4668  -3.3776  -2.9204  -1.9598  -1.5172
     1.5261   1.9959   2.5075   2.6165   2.8807   3.3354   3.3538   3.5358
     3.6053   3.6781

          k = 0.2466 0.2307 0.0007 ( 24973 PWs)   bands (ev):

   -43.3009 -23.5551 -23.2675 -23.0848 -13.7225 -13.5597 -13.4512 -12.2249
   -10.1910 -10.0579  -9.9504  -9.8854  -9.7998  -9.6583  -8.9865  -7.5758
    -7.2464  -7.0256  -6.9190  -6.5560  -6.4339  -6.2661  -5.9050  -5.7730
    -5.5941  -5.4186  -5.1889  -4.7983  -4.7091  -4.6399  -4.6035  -4.5111
    -4.4914  -4.4130  -4.3693  -4.2938  -4.1750  -4.0027  -3.8345  -3.7692
    -3.7589  -3.6282  -3.5073  -3.4971  -3.3743  -2.9227  -1.9610  -1.5205
     1.5261   1.9992   2.4987   2.6164   2.8835   3.3162   3.4107   3.5434
     3.5996   3.6873

          k = 0.2458 0.2320 0.1436 ( 24973 PWs)   bands (ev):

   -43.3009 -23.5551 -23.2675 -23.0848 -13.7223 -13.5597 -13.4514 -12.2250
   -10.1903 -10.0578  -9.9586  -9.8737  -9.7989  -9.6621  -8.9892  -7.5721
    -7.2452  -7.0296  -6.9176  -6.5545  -6.4341  -6.2674  -5.9073  -5.7658
    -5.5870  -5.4286  -5.2022  -4.7975  -4.7088  -4.6635  -4.5952  -4.5087
    -4.4655  -4.4228  -4.3708  -4.2895  -4.1796  -3.9965  -3.8330  -3.7725
    -3.7351  -3.6519  -3.5208  -3.4737  -3.3797  -2.9202  -1.9613  -1.5203
     1.5273   1.9972   2.4953   2.6107   2.8790   3.3427   3.4172   3.5327
     3.6116   3.6562

          k = 0.2482 0.2282-0.2850 ( 24989 PWs)   bands (ev):

   -43.3009 -23.5551 -23.2675 -23.0848 -13.7220 -13.5596 -13.4518 -12.2252
   -10.1914 -10.0588  -9.9475  -9.8807  -9.7977  -9.6652  -8.9887  -7.5730
    -7.2440  -7.0285  -6.9205  -6.5531  -6.4356  -6.2662  -5.9049  -5.7741
    -5.5880  -5.4226  -5.2026  -4.7868  -4.7037  -4.6689  -4.5944  -4.5147
    -4.4791  -4.4167  -4.3595  -4.2914  -4.1902  -3.9992  -3.8238  -3.7789
    -3.7348  -3.6466  -3.5315  -3.4625  -3.3848  -2.9138  -1.9623  -1.5224
     1.5318   1.9954   2.5058   2.6188   2.8752   3.3720   3.4039   3.5121
     3.6123   3.6491

          k = 0.2474 0.2295-0.1422 ( 25013 PWs)   bands (ev):

   -43.3009 -23.5552 -23.2675 -23.0848 -13.7222 -13.5596 -13.4516 -12.2250
   -10.1921 -10.0589  -9.9348  -9.8970  -9.7986  -9.6613  -8.9861  -7.5767
    -7.2452  -7.0244  -6.9220  -6.5546  -6.4354  -6.2649  -5.9025  -5.7814
    -5.5948  -5.4126  -5.1898  -4.7888  -4.7077  -4.6292  -4.6061  -4.5322
    -4.4972  -4.4050  -4.3609  -4.2957  -4.1852  -4.0053  -3.8216  -3.7830
    -3.7544  -3.6225  -3.5279  -3.4774  -3.3786  -2.9163  -1.9620  -1.5226
     1.5305   1.9974   2.5099   2.6239   2.8795   3.3195   3.4125   3.5367
     3.5988   3.6821

          k = 0.2540-0.2675-0.0037 ( 24978 PWs)   bands (ev):

   -43.3009 -23.5551 -23.2675 -23.0848 -13.7222 -13.5600 -13.4510 -12.2251
   -10.1932 -10.0567  -9.9498  -9.8847  -9.7992  -9.6584  -8.9864  -7.5769
    -7.2577  -7.0503  -6.8805  -6.5541  -6.4343  -6.2672  -5.9430  -5.7224
    -5.5737  -5.4459  -5.1910  -4.8258  -4.7001  -4.6329  -4.5820  -4.5309
    -4.4887  -4.3982  -4.3646  -4.2953  -4.1712  -4.0085  -3.8469  -3.7776
    -3.7237  -3.6332  -3.5333  -3.4916  -3.3828  -2.9240  -1.9653  -1.5205
     1.5301   2.0048   2.5110   2.6021   2.8881   3.3107   3.4372   3.5224
     3.6060   3.7234

          k = 0.2532-0.2663 0.1392 ( 24983 PWs)   bands (ev):

   -43.3009 -23.5551 -23.2675 -23.0848 -13.7220 -13.5600 -13.4513 -12.2252
   -10.1922 -10.0572  -9.9574  -9.8732  -9.7986  -9.6621  -8.9890  -7.5733
    -7.2586  -7.0449  -6.8870  -6.5525  -6.4344  -6.2683  -5.9430  -5.7196
    -5.5640  -5.4566  -5.2039  -4.8282  -4.6971  -4.6458  -4.5935  -4.5156
    -4.4621  -4.4015  -4.3697  -4.3030  -4.1752  -3.9968  -3.8429  -3.7744
    -3.6995  -3.6654  -3.5436  -3.4714  -3.3904  -2.9205  -1.9680  -1.5188
     1.5325   2.0016   2.5078   2.5966   2.8813   3.3273   3.4276   3.5461
     3.6066   3.7045

          k = 0.2556-0.2700-0.2895 ( 25007 PWs)   bands (ev):

   -43.3009 -23.5551 -23.2675 -23.0848 -13.7217 -13.5600 -13.4517 -12.2254
   -10.1934 -10.0579  -9.9461  -9.8806  -9.7974  -9.6653  -8.9886  -7.5740
    -7.2560  -7.0472  -6.8879  -6.5514  -6.4360  -6.2668  -5.9443  -5.7246
    -5.5642  -5.4478  -5.2055  -4.8224  -4.6894  -4.6450  -4.5956  -4.5185
    -4.4856  -4.3992  -4.3587  -4.3023  -4.1812  -3.9978  -3.8293  -3.7805
    -3.7083  -3.6534  -3.5536  -3.4671  -3.3920  -2.9141  -1.9688  -1.5214
     1.5377   1.9999   2.5148   2.6121   2.8719   3.3634   3.4049   3.5439
     3.6101   3.6902

          k = 0.2548-0.2688-0.1466 ( 24990 PWs)   bands (ev):

   -43.3009 -23.5551 -23.2675 -23.0848 -13.7219 -13.5600 -13.4514 -12.2252
   -10.1944 -10.0575  -9.9339  -9.8968  -9.7980  -9.6615  -8.9860  -7.5776
    -7.2551  -7.0527  -6.8815  -6.5531  -6.4360  -6.2658  -5.9442  -5.7274
    -5.5735  -5.4375  -5.1929  -4.8208  -4.6927  -4.6274  -4.5772  -4.5419
    -4.5118  -4.3980  -4.3540  -4.2949  -4.1778  -4.0088  -3.8315  -3.7842
    -3.7292  -3.6245  -3.5478  -3.4839  -3.3842  -2.9176  -1.9661  -1.5230
     1.5352   2.0031   2.5196   2.6163   2.8780   3.3112   3.4631   3.5168
     3.6087   3.6974

          k = 0.2515-0.1014-0.0022 ( 25017 PWs)   bands (ev):

   -43.3009 -23.5551 -23.2675 -23.0848 -13.7227 -13.5605 -13.4502 -12.2249
   -10.1910 -10.0561  -9.9512  -9.8859  -9.7988  -9.6582  -8.9863  -7.5722
    -7.2727  -7.0805  -6.8441  -6.5567  -6.4336  -6.2664  -5.9216  -5.7363
    -5.5676  -5.4539  -5.1939  -4.8305  -4.7079  -4.6343  -4.5810  -4.5094
    -4.4920  -4.3890  -4.3654  -4.2989  -4.1737  -4.0078  -3.8489  -3.7762
    -3.7139  -3.6324  -3.5551  -3.4845  -3.3834  -2.9268  -1.9611  -1.5166
     1.5255   2.0042   2.5012   2.5991   2.8882   3.3240   3.4189   3.4715
     3.6138   3.7104

          k = 0.2508-0.1002 0.1406 ( 25023 PWs)   bands (ev):

   -43.3009 -23.5551 -23.2675 -23.0848 -13.7225 -13.5605 -13.4504 -12.2251
   -10.1899 -10.0561  -9.9596  -9.8743  -9.7981  -9.6618  -8.9888  -7.5688
    -7.2718  -7.0794  -6.8479  -6.5553  -6.4334  -6.2676  -5.9178  -5.7363
    -5.5635  -5.4593  -5.2077  -4.8322  -4.7086  -4.6404  -4.5703  -4.5058
    -4.4845  -4.4070  -4.3611  -4.2972  -4.1722  -3.9984  -3.8564  -3.7631
    -3.6957  -3.6650  -3.5368  -3.4996  -3.3785  -2.9232  -1.9641  -1.5148
     1.5280   2.0006   2.4970   2.5903   2.8822   3.3327   3.4092   3.5168
     3.6056   3.6914

          k = 0.2531-0.1039-0.2880 ( 25021 PWs)   bands (ev):

   -43.3009 -23.5552 -23.2675 -23.0848 -13.7222 -13.5606 -13.4507 -12.2252
   -10.1911 -10.0566  -9.9483  -9.8822  -9.7968  -9.6649  -8.9882  -7.5695
    -7.2658  -7.0887  -6.8462  -6.5538  -6.4351  -6.2661  -5.9221  -5.7337
    -5.5607  -5.4576  -5.2100  -4.8266  -4.6970  -4.6314  -4.5734  -4.5248
    -4.4963  -4.4217  -4.3521  -4.2851  -4.1802  -3.9955  -3.8429  -3.7645
    -3.7159  -3.6484  -3.5543  -3.4857  -3.3788  -2.9179  -1.9668  -1.5159
     1.5335   1.9981   2.5136   2.5981   2.8735   3.3469   3.3842   3.5648
     3.6006   3.6888

          k = 0.2523-0.1027-0.1451 ( 24996 PWs)   bands (ev):

   -43.3009 -23.5551 -23.2675 -23.0848 -13.7224 -13.5605 -13.4505 -12.2250
   -10.1922 -10.0567  -9.9349  -9.8989  -9.7975  -9.6612  -8.9857  -7.5729
    -7.2666  -7.0896  -6.8425  -6.5552  -6.4353  -6.2649  -5.9258  -5.7339
    -5.5652  -5.4515  -5.1967  -4.8255  -4.6943  -4.6173  -4.5910  -4.5314
    -4.5033  -4.4103  -4.3505  -4.2853  -4.1831  -4.0043  -3.8314  -3.7828
    -3.7249  -3.6213  -3.5705  -3.4750  -3.3839  -2.9215  -1.9638  -1.5177
     1.5310   2.0016   2.5193   2.6053   2.8794   3.3196   3.3992   3.5234
     3.6304   3.6785

          k =-0.4982-0.1293 0.0015 ( 24966 PWs)   bands (ev):

   -43.3009 -23.5552 -23.2676 -23.0849 -13.7122 -13.5485 -13.4414 -12.2148
   -10.2346 -10.1044  -9.9560  -9.9313  -9.8037  -9.6674  -9.0007  -7.6487
    -7.2483  -7.0233  -6.9186  -6.5284  -6.4128  -6.2321  -5.8291  -5.7240
    -5.4686  -5.3866  -5.1697  -4.7968  -4.6981  -4.6356  -4.5404  -4.5111
    -4.4816  -4.4507  -4.4001  -4.2766  -4.1647  -4.0079  -3.8511  -3.8147
    -3.7467  -3.6203  -3.5132  -3.5023  -3.3646  -2.9593  -1.9464  -1.5272
     1.5397   1.9818   2.5429   2.6025   2.8197   3.2824   3.3384   3.5178
     3.5310   3.6510

          k =-0.4989-0.1280 0.1444 ( 25001 PWs)   bands (ev):

   -43.3009 -23.5552 -23.2676 -23.0849 -13.7122 -13.5485 -13.4415 -12.2148
   -10.2356 -10.1051  -9.9747  -9.9111  -9.8038  -9.6674  -8.9992  -7.6452
    -7.2471  -7.0261  -6.9185  -6.5275  -6.4152  -6.2351  -5.8292  -5.7274
    -5.4705  -5.3941  -5.1761  -4.7928  -4.7031  -4.6528  -4.5594  -4.4855
    -4.4638  -4.4502  -4.3876  -4.2652  -4.1717  -4.0056  -3.8418  -3.8011
    -3.7541  -3.6410  -3.5334  -3.4725  -3.3687  -2.9529  -1.9518  -1.5302
     1.5389   1.9824   2.5426   2.5863   2.8092   3.2740   3.3434   3.5043
     3.5334   3.6190

          k =-0.4966-0.1318-0.2842 ( 25046 PWs)   bands (ev):

   -43.3009 -23.5552 -23.2676 -23.0849 -13.7121 -13.5485 -13.4415 -12.2148
   -10.2366 -10.1057  -9.9855  -9.8986  -9.8039  -9.6675  -8.9977  -7.6417
    -7.2459  -7.0290  -6.9183  -6.5266  -6.4177  -6.2381  -5.8293  -5.7307
    -5.4725  -5.4016  -5.1822  -4.7890  -4.7078  -4.6659  -4.5680  -4.4835
    -4.4498  -4.4362  -4.3746  -4.2552  -4.1789  -4.0031  -3.8317  -3.7859
    -3.7590  -3.6659  -3.5410  -3.4554  -3.3736  -2.9463  -1.9572  -1.5332
     1.5380   1.9829   2.5426   2.5700   2.7993   3.2613   3.3546   3.4909
     3.5247   3.6091

          k =-0.5006 0.0368 0.0030 ( 25009 PWs)   bands (ev):

   -43.3009 -23.5552 -23.2676 -23.0849 -13.7120 -13.5490 -13.4411 -12.2148
   -10.2369 -10.1057  -9.9525  -9.9307  -9.8038  -9.6676  -9.0003  -7.6501
    -7.2590  -7.0483  -6.8786  -6.5259  -6.4136  -6.2327  -5.8351  -5.7170
    -5.4930  -5.3580  -5.1720  -4.8147  -4.7001  -4.6209  -4.5368  -4.5087
    -4.4896  -4.4388  -4.3979  -4.2754  -4.1575  -4.0089  -3.8783  -3.7805
    -3.7531  -3.6135  -3.5571  -3.4820  -3.3762  -2.9594  -1.9495  -1.5295
     1.5443   1.9905   2.5457   2.6143   2.8163   3.2981   3.3330   3.4876
     3.5444   3.6673

          k =-0.5014 0.0380 0.1459 ( 25013 PWs)   bands (ev):

   -43.3009 -23.5552 -23.2676 -23.0849 -13.7119 -13.5490 -13.4412 -12.2148
   -10.2381 -10.1065  -9.9706  -9.9107  -9.8038  -9.6677  -8.9990  -7.6467
    -7.2569  -7.0503  -6.8805  -6.5248  -6.4156  -6.2358  -5.8340  -5.7221
    -5.4943  -5.3653  -5.1808  -4.8107  -4.7067  -4.6207  -4.5486  -4.4942
    -4.4816  -4.4401  -4.3867  -4.2658  -4.1655  -4.0060  -3.8539  -3.7731
    -3.7607  -3.6363  -3.5726  -3.4517  -3.3861  -2.9528  -1.9570  -1.5313
     1.5442   1.9899   2.5478   2.5993   2.8041   3.2820   3.3521   3.5009
     3.5252   3.6179

          k =-0.4991 0.0343-0.2827 ( 25035 PWs)   bands (ev):

   -43.3009 -23.5552 -23.2676 -23.0849 -13.7119 -13.5490 -13.4412 -12.2148
   -10.2388 -10.1081  -9.9809  -9.8980  -9.8040  -9.6678  -8.9975  -7.6432
    -7.2569  -7.0477  -6.8847  -6.5241  -6.4179  -6.2392  -5.8341  -5.7253
    -5.4977  -5.3712  -5.1874  -4.8051  -4.7120  -4.6406  -4.5669  -4.4806
    -4.4545  -4.4316  -4.3691  -4.2682  -4.1672  -4.0001  -3.8483  -3.7816
    -3.7338  -3.6720  -3.5673  -3.4593  -3.3767  -2.9457  -1.9628  -1.5342
     1.5436   1.9905   2.5441   2.5845   2.7978   3.2628   3.3572   3.4893
     3.5016   3.6158

          k =-0.4998 0.0356-0.1399 ( 25017 PWs)   bands (ev):

   -43.3009 -23.5552 -23.2676 -23.0849 -13.7119 -13.5490 -13.4411 -12.2148
   -10.2377 -10.1072  -9.9709  -9.9100  -9.8040  -9.6677  -8.9989  -7.6466
    -7.2590  -7.0457  -6.8827  -6.5252  -6.4158  -6.2360  -5.8353  -5.7201
    -5.4964  -5.3640  -5.1790  -4.8089  -4.7046  -4.6434  -4.5626  -4.4807
    -4.4690  -4.4291  -4.3797  -4.2778  -4.1599  -4.0011  -3.8756  -3.7787
    -3.7447  -3.6402  -3.5513  -3.4866  -3.3694  -2.9524  -1.9551  -1.5324
     1.5436   1.9911   2.5407   2.6004   2.8099   3.2742   3.3444   3.4750
     3.5282   3.6502

          k =-0.4932-0.4615-0.0014 ( 24988 PWs)   bands (ev):

   -43.3009 -23.5552 -23.2676 -23.0849 -13.7117 -13.5494 -13.4408 -12.2148
   -10.2391 -10.1069  -9.9492  -9.9300  -9.8040  -9.6679  -8.9999  -7.6514
    -7.2696  -7.0636  -6.8483  -6.5236  -6.4144  -6.2334  -5.8407  -5.7097
    -5.5101  -5.3369  -5.1745  -4.8360  -4.7015  -4.5908  -4.5388  -4.5127
    -4.4947  -4.4301  -4.3973  -4.2732  -4.1495  -4.0049  -3.9016  -3.7678
    -3.7459  -3.6084  -3.5804  -3.4824  -3.3878  -2.9592  -1.9526  -1.5317
     1.5489   1.9994   2.5449   2.6298   2.8125   3.3112   3.3372   3.4601
     3.5446   3.6843

          k =-0.4940-0.4602 0.1414 ( 25019 PWs)   bands (ev):

   -43.3009 -23.5552 -23.2676 -23.0849 -13.7117 -13.5495 -13.4408 -12.2148
   -10.2401 -10.1086  -9.9670  -9.9095  -9.8041  -9.6679  -8.9986  -7.6481
    -7.2685  -7.0618  -6.8530  -6.5227  -6.4163  -6.2368  -5.8396  -5.7158
    -5.5108  -5.3432  -5.1845  -4.8280  -4.7088  -4.5948  -4.5640  -4.4934
    -4.4805  -4.4221  -4.3817  -4.2775  -4.1528  -3.9995  -3.8840  -3.7716
    -3.7363  -3.6303  -3.5920  -3.4719  -3.3845  -2.9524  -1.9604  -1.5335
     1.5490   1.9990   2.5417   2.6172   2.8051   3.2867   3.3502   3.4623
     3.5256   3.6515

          k =-0.4917-0.4639-0.2872 ( 25010 PWs)   bands (ev):

   -43.3009 -23.5552 -23.2676 -23.0849 -13.7116 -13.5495 -13.4409 -12.2148
   -10.2410 -10.1103  -9.9765  -9.8973  -9.8041  -9.6680  -8.9972  -7.6448
    -7.2675  -7.0599  -6.8578  -6.5217  -6.4182  -6.2403  -5.8383  -5.7220
    -5.5115  -5.3492  -5.1940  -4.8206  -4.7161  -4.5983  -4.5777  -4.4766
    -4.4743  -4.4172  -4.3641  -4.2819  -4.1553  -3.9972  -3.8611  -3.7805
    -3.7110  -3.6696  -3.5973  -3.4650  -3.3807  -2.9454  -1.9683  -1.5353
     1.5491   1.9985   2.5399   2.6040   2.7972   3.2699   3.3547   3.4614
     3.5037   3.6282

     the Fermi energy is     1.4118 ev

!    total energy              =    -306.24107201 Ry
     Harris-Foulkes estimate   =    -306.24107200 Ry
     estimated scf accuracy    <          4.5E-09 Ry

     The total energy is the sum of the following terms:

     one-electron contribution =    -162.20071154 Ry
     hartree contribution      =     100.16687267 Ry
     xc contribution           =     -94.16574383 Ry
     ewald contribution        =     -71.88537640 Ry
     one-center paw contrib.   =     -78.15671152 Ry
     smearing contrib. (-TS)   =       0.00059861 Ry

     convergence has been achieved in  10 iterations

     Writing output data file YB3H85.save

     init_run     :    391.66s CPU    155.60s WALL (       1 calls)
     electrons    :   5424.27s CPU   1716.41s WALL (       1 calls)

     Called by init_run:
     wfcinit      :    306.47s CPU     75.56s WALL (       1 calls)
     potinit      :     30.09s CPU     29.69s WALL (       1 calls)

     Called by electrons:
     c_bands      :   4492.38s CPU   1440.70s WALL (      10 calls)
     sum_band     :    829.58s CPU    240.09s WALL (      10 calls)
     v_of_rho     :     15.02s CPU      9.24s WALL (      11 calls)
     newd         :     82.64s CPU     22.49s WALL (      11 calls)
     PAW_pot      :     10.75s CPU      5.43s WALL (      11 calls)
     mix_rho      :      1.58s CPU      1.02s WALL (      10 calls)

     Called by c_bands:
     init_us_2    :     30.36s CPU     28.15s WALL (     756 calls)
     cegterg      :   4440.45s CPU   1383.74s WALL (     360 calls)

     Called by sum_band:
     sum_band:bec :      4.22s CPU      3.34s WALL (     360 calls)
     addusdens    :    147.61s CPU     25.73s WALL (      10 calls)

     Called by *egterg:
     h_psi        :   3318.41s CPU    979.11s WALL (    1547 calls)
     s_psi        :    490.05s CPU     92.80s WALL (    1547 calls)
     g_psi        :      5.05s CPU      5.87s WALL (    1151 calls)
     cdiaghg      :    111.88s CPU    123.10s WALL (    1511 calls)

     Called by h_psi:
     h_psi:pot    :   3310.97s CPU    970.45s WALL (    1547 calls)
     h_psi:calbec :    452.69s CPU     92.62s WALL (    1547 calls)
     vloc_psi     :   2330.73s CPU    780.81s WALL (    1547 calls)
     add_vuspsi   :    527.47s CPU     97.02s WALL (    1547 calls)

     General routines
     calbec       :    625.44s CPU    112.01s WALL (    1907 calls)
     fft          :      9.33s CPU      3.07s WALL (     172 calls)
     ffts         :      0.42s CPU      0.15s WALL (      21 calls)
     fftw         :   2031.58s CPU    571.29s WALL (  144692 calls)
     interpolate  :      1.83s CPU      0.83s WALL (      21 calls)
     davcio       :      0.14s CPU      0.59s WALL (      36 calls)

     Parallel routines
     fft_scatter  :     85.56s CPU    162.98s WALL (  144885 calls)

     PWSCF        :     1h36m CPU        0h31m WALL


   This run was terminated on:  21:20:14  23Nov2025            

=------------------------------------------------------------------------------=
   JOB DONE.
=------------------------------------------------------------------------------=
