
     Program PWSCF v.6.1 starts on 23Nov2025 at 21:20:14 

     This program is part of the open-source Quantum ESPRESSO suite
     for quantum simulation of materials; please cite
         "P. Giannozzi et al., J. Phys.:Condens. Matter 21 395502 (2009);
          URL http://www.quantum-espresso.org", 
     in publications or presentations arising from this work. More details at
     http://www.quantum-espresso.org/quote

     Parallel version (MPI & OpenMP), running on      12 processor cores
     Number of MPI processes:                 1
     Threads/MPI process:                    12
     Waiting for input...
     Reading input from standard input

     Current dimensions of program PWSCF are:
     Max number of different atomic species (ntypx) = 10
     Max number of k-points (npk) =  40000
     Max angular momentum in pseudopotentials (lmaxx) =  3

     Atomic positions and unit cell read from directory:
     ./tmp/YB3H85.save/

               file H.UPF: wavefunction(s)  1S renormalized

     Subspace diagonalization in iterative solution of the eigenvalue problem:
     a serial algorithm will be used


     G-vector sticks info
     --------------------
     sticks:   dense  smooth     PW     G-vecs:    dense   smooth      PW
     Sum        6531    3263    907               565721   199997   29431



     bravais-lattice index     =            0
     lattice parameter (alat)  =      11.6718  a.u.
     unit-cell volume          =    4187.7797 (a.u.)^3
     number of atoms/cell      =           56
     number of atomic types    =            3
     number of electrons       =        96.00
     number of Kohn-Sham states=           58
     kinetic-energy cutoff     =      50.0000  Ry
     charge density cutoff     =     400.0000  Ry
     Exchange-correlation      =  SLA  PW   PBE  PBE ( 1  4  3  4 0 0)

     celldm(1)=  11.671755  celldm(2)=   0.000000  celldm(3)=   0.000000
     celldm(4)=   0.000000  celldm(5)=   0.000000  celldm(6)=   0.000000

     crystal axes: (cart. coord. in units of alat)
               a(1) = (   0.999876   0.014840   0.005296 )  
               a(2) = (  -0.389236   1.499571  -0.015141 )  
               a(3) = (   0.009355  -0.015415   1.750001 )  

     reciprocal axes: (cart. coord. in units 2 pi/alat)
               b(1) = (  0.996303  0.258575 -0.003048 )  
               b(2) = ( -0.009892  0.664350  0.005905 )  
               b(3) = ( -0.003101  0.004966  0.571489 )  


     PseudoPot. # 1 for  B read from file:
     C:/Users/Acer/Desktop/Quantum_Espresso/pseudo/B.UPF
     MD5 check sum: 07a2b2e539a360f5bda43965cc3a01bd
     Pseudo is Projector augmented-wave + core cor, Zval =  3.0
     Generated using "atomic" code by A. Dal Corso  v.5.1.2
     Shape of augmentation charge: PSQ
     Using radial grid of 1059 points,  4 beta functions with: 
                l(1) =   0
                l(2) =   0
                l(3) =   1
                l(4) =   1
     Q(r) pseudized with 0 coefficients 


     PseudoPot. # 2 for  H read from file:
     C:/Users/Acer/Desktop/Quantum_Espresso/pseudo/H.UPF
     MD5 check sum: f872269930354f4c44a8fadb7eac41ed
     Pseudo is Projector augmented-wave, Zval =  1.0
     Generated using "atomic" code by A. Dal Corso  v.5.1.2
     Shape of augmentation charge: PSQ
     Using radial grid of  929 points,  2 beta functions with: 
                l(1) =   0
                l(2) =   0
     Q(r) pseudized with 0 coefficients 


     PseudoPot. # 3 for Y  read from file:
     C:/Users/Acer/Desktop/Quantum_Espresso/pseudo/Y.UPF
     MD5 check sum: 3b2d2de21dfc3047ddb0f22bc419bc04
     Pseudo is Ultrasoft + core correction, Zval = 11.0
     Generated by new atomic code, or converted to UPF format
     Using radial grid of  885 points,  6 beta functions with: 
                l(1) =   0
                l(2) =   0
                l(3) =   1
                l(4) =   1
                l(5) =   2
                l(6) =   2
     Q(r) pseudized with  6 coefficients,  rinner =    1.200   1.200   1.200
                                                       1.200   1.200

     atomic species   valence    mass     pseudopotential
        B              3.00     1.00000      B( 1.00)
        H              1.00     1.00000      H( 1.00)
        Y             11.00     1.00000     Y ( 1.00)

     No symmetry found



   Cartesian axes

     site n.     atom                  positions (alat units)
         1           B   tau(   1) = (   0.0551435   0.4077989   0.7070965  )
         2           B   tau(   2) = (   0.2616480   0.3333837   1.5799961  )
         3           B   tau(   3) = (   0.5686330   1.0689951   1.0194600  )
         4           B   tau(   4) = (   0.3569491   1.1647090   0.1462949  )
         5           B   tau(   5) = (   0.1263012   0.1898752   0.5177233  )
         6           B   tau(   6) = (   0.2076670   0.5719666   1.4102863  )
         7           Y   tau(   7) = (   0.4464620   1.3943855   1.2816035  )
         8           B   tau(   8) = (   0.4316314   0.9452990   0.3333821  )
         9           B   tau(   9) = (  -0.0836584   0.3946214   0.4672847  )
        10           B   tau(  10) = (   0.4063822   0.3614987   1.3455191  )
        11           B   tau(  11) = (   0.7167688   1.0583417   1.2639509  )
        12           B   tau(  12) = (   0.2254362   1.1518537   0.3903632  )
        13           B   tau(  13) = (   0.7641344   0.3707564   0.7261529  )
        14           B   tau(  14) = (   0.5569191   0.3667655   1.5995268  )
        15           B   tau(  15) = (  -0.1427557   1.1216404   1.0109437  )
        16           B   tau(  16) = (   0.0619792   1.1235088   0.1439165  )
        17           H   tau(  17) = (   0.1501111   0.5722160   0.7410838  )
        18           H   tau(  18) = (   0.1600618   0.1692241   1.5965024  )
        19           H   tau(  19) = (   0.4780369   0.9016459   0.9800375  )
        20           H   tau(  20) = (   0.4551758   1.3285254   0.1142959  )
        21           H   tau(  21) = (   0.1789125   0.2453198   0.7323765  )
        22           H   tau(  22) = (   0.1443197   0.4969637   1.6189862  )
        23           H   tau(  23) = (   0.4536927   1.2242872   0.9672550  )
        24           H   tau(  24) = (   0.4754966   0.9997528   0.1143687  )
        25           H   tau(  25) = (   0.2916168   0.2121647   0.4185057  )
        26           H   tau(  26) = (   0.0442295   0.5679708   1.3071830  )
        27           H   tau(  27) = (   0.1656735   1.3172276   1.4128055  )
        28           H   tau(  28) = (   0.6011583   0.9688514   0.4243165  )
        29           H   tau(  29) = (  -0.3190809   1.5081730   0.5465264  )
        30           H   tau(  30) = (   0.2730883   0.7435189   1.4746471  )
        31           H   tau(  31) = (   0.8830445   0.1926535   1.1913765  )
        32           H   tau(  32) = (   0.3749336   0.7634948   0.2928344  )
        33           H   tau(  33) = (  -0.0393529   0.2233120   0.3624345  )
        34           H   tau(  34) = (   0.3736869   0.5421662   1.2540325  )
        35           H   tau(  35) = (   0.7183393   1.2063609   1.3986485  )
        36           H   tau(  36) = (   0.2731353   0.9804747   0.4939830  )
        37           H   tau(  37) = (  -0.0708759   0.5507748   0.3549447  )
        38           H   tau(  38) = (   0.3886600   0.2147374   1.2215331  )
        39           H   tau(  39) = (   0.7026344   0.8865984   1.3533925  )
        40           H   tau(  40) = (   0.2414843   1.3069498   0.5032764  )
        41           H   tau(  41) = (   0.7203291   0.3550143   0.5004576  )
        42           H   tau(  42) = (   0.6057807   0.4023281   1.3793153  )
        43           H   tau(  43) = (  -0.0803361   1.0436844   1.2120989  )
        44           H   tau(  44) = (   0.0283772   1.0965062   0.3681627  )
        45           H   tau(  45) = (   0.6537243   0.5187660   0.7849069  )
        46           H   tau(  46) = (   0.6574950   0.2059654   1.6452004  )
        47           H   tau(  47) = (  -0.0001943   1.0221444   0.9215118  )
        48           H   tau(  48) = (  -0.0435009   1.2788624   0.0968149  )
        49           H   tau(  49) = (   0.7051148   0.1895206   0.7668107  )
        50           H   tau(  50) = (   0.6270535   0.5369091   1.6626571  )
        51           H   tau(  51) = (  -0.1232039   1.3162789   1.0067164  )
        52           H   tau(  52) = (  -0.0050531   0.9474410   0.0947166  )
        53           H   tau(  53) = (  -0.0608572   0.3529856   0.8687450  )
        54           H   tau(  54) = (   0.3702141   0.3783142  -0.0038032  )
        55           H   tau(  55) = (   0.7059567   1.0713962   0.8623724  )
        56           H   tau(  56) = (   0.2411006   1.1069993   1.7387934  )

     number of k points=   260 (tetrahedron method)

     Number of k-points >= 100: set verbosity='high' to print them.

     Dense  grid:   565721 G-vectors     FFT dimensions: (  75, 120, 135)

     Smooth grid:   199997 G-vectors     FFT dimensions: (  54,  81,  96)

     Estimated max dynamical RAM per process >     452.64MB

     The potential is recalculated from file :
     ./tmp/YB3H85.save/charge-density.dat


     negative rho (up, down):  4.368E-02 0.000E+00
     Starting wfc are  113 randomized atomic wfcs
     Checking if some PAW data can be deallocated... 

     Band Structure Calculation
     Davidson diagonalization with overlap

     ethr =  1.04E-11,  avg # of iterations = 33.3

     total cpu time spent up to now is     7245.5 secs

     End of band structure calculation

     Number of k-points >= 100: set verbosity='high' to print the bands.

     the Fermi energy is    -1.4952 ev

     Writing output data file YB3H85.save

     init_run     :     60.16s CPU     54.61s WALL (       1 calls)
     electrons    :  23536.00s CPU   7190.46s WALL (       1 calls)

     Called by init_run:
     wfcinit      :      0.00s CPU      0.00s WALL (       1 calls)
     potinit      :      2.09s CPU      1.29s WALL (       1 calls)

     Called by electrons:
     c_bands      :  23535.88s CPU   7190.32s WALL (       1 calls)
     v_of_rho     :      1.03s CPU      0.73s WALL (       1 calls)
     newd         :      6.62s CPU      1.71s WALL (       1 calls)
     PAW_pot      :      1.00s CPU      0.45s WALL (       1 calls)

     Called by c_bands:
     init_us_2    :      7.42s CPU      9.78s WALL (     260 calls)
     cegterg      :  21125.62s CPU   6511.46s WALL (     525 calls)

     Called by sum_band:

     Called by *egterg:
     h_psi        :  14617.91s CPU   4245.08s WALL (    9437 calls)
     s_psi        :   2153.56s CPU    407.66s WALL (    9437 calls)
     g_psi        :     33.50s CPU     35.71s WALL (    8652 calls)
     cdiaghg      :    740.27s CPU   1061.76s WALL (    8912 calls)

     Called by h_psi:
     h_psi:pot    :  14582.30s CPU   4207.30s WALL (    9437 calls)
     h_psi:calbec :   1970.02s CPU    397.69s WALL (    9437 calls)
     vloc_psi     :  10250.05s CPU   3378.91s WALL (    9437 calls)
     add_vuspsi   :   2361.97s CPU    430.62s WALL (    9437 calls)

     General routines
     calbec       :   1969.88s CPU    397.67s WALL (    9437 calls)
     fft          :      0.52s CPU      0.25s WALL (      13 calls)
     ffts         :      0.00s CPU      0.01s WALL (       1 calls)
     fftw         :   7607.92s CPU   2116.78s WALL (  517094 calls)
     interpolate  :      0.00s CPU      0.04s WALL (       1 calls)
     davcio       :      1.95s CPU      6.16s WALL (     260 calls)

     Parallel routines
     fft_scatter  :    307.47s CPU    563.19s WALL (  517108 calls)

     PWSCF        :     6h33m CPU        2h 0m WALL


   This run was terminated on:  23:21: 1  23Nov2025            

=------------------------------------------------------------------------------=
   JOB DONE.
=------------------------------------------------------------------------------=
