
     Program PWSCF v.6.7MaX starts on 15Feb2026 at 14: 6:31 

     This program is part of the open-source Quantum ESPRESSO suite
     for quantum simulation of materials; please cite
         "P. Giannozzi et al., J. Phys.:Condens. Matter 21 395502 (2009);
         "P. Giannozzi et al., J. Phys.:Condens. Matter 29 465901 (2017);
          URL http://www.quantum-espresso.org", 
     in publications or presentations arising from this work. More details at
     http://www.quantum-espresso.org/quote

     Parallel version (MPI), running on     2 processors

     MPI processes distributed on     1 nodes
     R & G space division:  proc/nbgrp/npool/nimage =       2
     Waiting for input...
     Reading input from standard input

     Current dimensions of program PWSCF are:
     Max number of different atomic species (ntypx) = 10
     Max number of k-points (npk) =  40000
     Max angular momentum in pseudopotentials (lmaxx) =  3
     Message from routine read_pp_mesh:
     mismatch in mesh size, discarding the one in header
     file Ga.UPF: wavefunction(s)  4S renormalized
     file H.UPF: wavefunction(s)  1S renormalized

     Subspace diagonalization in iterative solution of the eigenvalue problem:
     a serial algorithm will be used


     Parallelization info
     --------------------
     sticks:   dense  smooth     PW     G-vecs:    dense   smooth      PW
     Min        2666    1335    367               168600    59597    8794
     Max        2667    1336    368               168601    59598    8797
     Sum        5333    2671    735               337201   119195   17591



     bravais-lattice index     =            0
     lattice parameter (alat)  =      13.3834  a.u.
     unit-cell volume          =    2495.6392 (a.u.)^3
     number of atoms/cell      =           28
     number of atomic types    =            4
     number of electrons       =       100.00
     number of Kohn-Sham states=           60
     kinetic-energy cutoff     =      50.0000  Ry
     charge density cutoff     =     400.0000  Ry
     scf convergence threshold =      1.0E-06
     mixing beta               =       0.7000
     number of iterations used =            8  plain     mixing
     energy convergence thresh.=      1.0E-04
     force convergence thresh. =      1.0E-03
     press convergence thresh. =      5.0E-01
     Exchange-correlation= SLA PW PBX PBC
                           (   1   4   3   4   0   0   0)
     nstep                     =           50


     celldm(1)=  13.383406  celldm(2)=   0.000000  celldm(3)=   0.000000
     celldm(4)=   0.000000  celldm(5)=   0.000000  celldm(6)=   0.000000

     crystal axes: (cart. coord. in units of alat)
               a(1) = (   0.999984  -0.003710  -0.004167 )  
               a(2) = (  -0.003508   0.935293  -0.001585 )  
               a(3) = (  -0.008190   0.926346   1.111584 )  

     reciprocal axes: (cart. coord. in units 2 pi/alat)
               b(1) = (  1.000047  0.003758  0.004237 )  
               b(2) = (  0.000253  1.067678 -0.889755 )  
               b(3) = (  0.003750  0.001536  0.898365 )  


     PseudoPot. # 1 for Ga read from file:
     /home/marco/ZOS_Cloud_Compute/pseudo/Ga.UPF
     MD5 check sum: 79e63b61437c88080bf469cc04ca4be8
     Pseudo is Projector augmented-wave + core cor, Zval = 13.0
     Generated using "atomic" code by A. Dal Corso  v.5.1.2
     Shape of augmentation charge: PSQ
     Using radial grid of 1205 points,  6 beta functions with: 
                l(1) =   0
                l(2) =   0
                l(3) =   1
                l(4) =   1
                l(5) =   2
                l(6) =   2
     Q(r) pseudized with 0 coefficients 


     PseudoPot. # 2 for H  read from file:
     /home/marco/ZOS_Cloud_Compute/pseudo/H.UPF
     MD5 check sum: 850d63dcbcc06c5de8b44e0ab9f952da
     Pseudo is Projector augmented-wave, Zval =  1.0
     Generated using "atomic" code by A. Dal Corso  v.5.1.2
     Shape of augmentation charge: PSQ
     Using radial grid of  929 points,  2 beta functions with: 
                l(1) =   0
                l(2) =   0
     Q(r) pseudized with 0 coefficients 


     PseudoPot. # 3 for Li read from file:
     /home/marco/ZOS_Cloud_Compute/pseudo/Li.UPF
     MD5 check sum: 057edeeab9105e5446fd9e29ea3f9c2f
     Pseudo is Ultrasoft + core correction, Zval =  1.0
     Generated by new atomic code, or converted to UPF format
     Using radial grid of  751 points,  2 beta functions with: 
                l(1) =   1
                l(2) =   1
     Q(r) pseudized with  8 coefficients,  rinner =    1.000   1.000   1.000


     PseudoPot. # 4 for Mg read from file:
     /home/marco/ZOS_Cloud_Compute/pseudo/Mg.UPF
     MD5 check sum: a77e51077e70c6c73445c6cac60d158f
     Pseudo is Projector augmented-wave + core cor, Zval = 10.0
     Generated using ATOMPAW code
     Shape of augmentation charge: BESSEL
     Using radial grid of 1171 points,  6 beta functions with: 
                l(1) =   0
                l(2) =   0
                l(3) =   0
                l(4) =   0
                l(5) =   1
                l(6) =   1
     Q(r) pseudized with 0 coefficients 


     atomic species   valence    mass     pseudopotential
        Ga            13.00     1.00000     Ga( 1.00)
        H              1.00     1.00000     H ( 1.00)
        Li             1.00     1.00000     Li( 1.00)
        Mg            10.00     1.00000     Mg( 1.00)

     No symmetry found



   Cartesian axes

     site n.     atom                  positions (alat units)
         1           Mg  tau(   1) = (   0.3527580   1.1680602   0.8237063  )
         2           Mg  tau(   2) = (   0.6252775   0.6899675   0.2734921  )
         3           Mg  tau(   3) = (   0.8736658   1.1506482   0.7994066  )
         4           Mg  tau(   4) = (   0.1241315   0.7037761   0.2830152  )
         5           Ga  tau(   5) = (   0.3610487   1.6253212   0.9759378  )
         6           Ga  tau(   6) = (   0.6280936   0.2319918   0.1247630  )
         7           Ga  tau(   7) = (   0.8684119   0.6963854   0.6893012  )
         8           Li  tau(   8) = (   0.1211691   1.1645998   0.4026716  )
         9           H   tau(   9) = (   0.0635802   0.7174516   0.5784315  )
        10           H   tau(  10) = (   0.9092947   1.1416390   0.5477999  )
        11           H   tau(  11) = (   0.5499143   1.6117938   1.1000536  )
        12           H   tau(  12) = (   0.4372117   0.2442317   0.0038653  )
        13           H   tau(  13) = (   0.3589237   1.4537734   0.8292907  )
        14           H   tau(  14) = (   0.6329025   0.4071425   0.2713952  )
        15           H   tau(  15) = (   0.8540449   0.8642824   0.8410687  )
        16           H   tau(  16) = (   0.1326942   0.9560788   0.2560076  )
        17           H   tau(  17) = (   0.8693358   1.4468696   0.8166754  )
        18           H   tau(  18) = (   0.1216770   0.4484430   0.2746792  )
        19           H   tau(  19) = (   0.3741222   0.8773775   0.8529940  )
        20           H   tau(  20) = (   0.6166540   0.9795639   0.2523057  )
        21           H   tau(  21) = (   0.1087076   1.1585806   0.9119675  )
        22           H   tau(  22) = (   0.8707853   0.7042574   0.2052041  )
        23           H   tau(  23) = (   0.6139416   1.1680893   0.8074918  )
        24           H   tau(  24) = (   0.3804487   0.6938320   0.3479034  )
        25           H   tau(  25) = (   0.3190421   1.1562115   0.5705079  )
        26           H   tau(  26) = (   0.6866139   0.6967217   0.5539026  )
        27           H   tau(  27) = (   0.8014543   1.1593945   1.1057104  )
        28           H   tau(  28) = (   0.1801064   0.6945173  -0.0179065  )

     number of k points=     8  Methfessel-Paxton smearing, width (Ry)=  0.0200
                       cart. coord. in units 2pi/alat
        k(    1) = (   0.0000000   0.0000000   0.0000000), wk =   0.2500000
        k(    2) = (  -0.0018748  -0.0007680  -0.4491825), wk =   0.2500000
        k(    3) = (  -0.0001264  -0.5338388   0.4448773), wk =   0.2500000
        k(    4) = (  -0.0020012  -0.5346069  -0.0043052), wk =   0.2500000
        k(    5) = (  -0.5000236  -0.0018789  -0.0021183), wk =   0.2500000
        k(    6) = (  -0.5018984  -0.0026469  -0.4513008), wk =   0.2500000
        k(    7) = (  -0.5001500  -0.5357178   0.4427590), wk =   0.2500000
        k(    8) = (  -0.5020248  -0.5364858  -0.0064235), wk =   0.2500000

     Dense  grid:   337201 G-vectors     FFT dimensions: (  90,  80, 125)

     Smooth grid:   119195 G-vectors     FFT dimensions: (  64,  60,  90)

     Estimated max dynamical RAM per process >     835.09 MB

     Estimated total dynamical RAM >       1.63 GB

     Initial potential from superposition of free atoms

     starting charge   99.98294, renormalised to  100.00000
     Starting wfcs are   91 randomized atomic wfcs
     Checking if some PAW data can be deallocated... 

     total cpu time spent up to now is       39.4 secs

     Self-consistent Calculation

     iteration #  1     ecut=    50.00 Ry     beta= 0.70
     Davidson diagonalization with overlap
     ethr =  1.00E-02,  avg # of iterations =  4.0

     total cpu time spent up to now is       58.1 secs

     total energy              =   -1423.12797938 Ry
     estimated scf accuracy    <       1.05955450 Ry

     iteration #  2     ecut=    50.00 Ry     beta= 0.70
     Davidson diagonalization with overlap
     ethr =  1.06E-03,  avg # of iterations =  3.2

     total cpu time spent up to now is       75.9 secs

     total energy              =   -1423.06665897 Ry
     estimated scf accuracy    <       0.57381243 Ry

     iteration #  3     ecut=    50.00 Ry     beta= 0.70
     Davidson diagonalization with overlap
     ethr =  5.74E-04,  avg # of iterations =  7.0

     total cpu time spent up to now is       96.0 secs

     total energy              =   -1423.33193655 Ry
     estimated scf accuracy    <       0.68031608 Ry

     iteration #  4     ecut=    50.00 Ry     beta= 0.70
     Davidson diagonalization with overlap
     ethr =  5.74E-04,  avg # of iterations =  2.0

     total cpu time spent up to now is      112.7 secs

     total energy              =   -1423.29715554 Ry
     estimated scf accuracy    <       0.58262929 Ry

     iteration #  5     ecut=    50.00 Ry     beta= 0.70
     Davidson diagonalization with overlap
     ethr =  5.74E-04,  avg # of iterations =  1.9

     total cpu time spent up to now is      128.0 secs

     total energy              =   -1423.37658757 Ry
     estimated scf accuracy    <       0.25388555 Ry

     iteration #  6     ecut=    50.00 Ry     beta= 0.70
     Davidson diagonalization with overlap
     ethr =  2.54E-04,  avg # of iterations =  1.9

     total cpu time spent up to now is      143.8 secs

     total energy              =   -1423.37370838 Ry
     estimated scf accuracy    <       0.12313839 Ry

     iteration #  7     ecut=    50.00 Ry     beta= 0.70
     Davidson diagonalization with overlap
     c_bands:  1 eigenvalues not converged
     ethr =  1.23E-04,  avg # of iterations =  8.0

     total cpu time spent up to now is      164.3 secs

     total energy              =   -1423.40301123 Ry
     estimated scf accuracy    <       0.01325463 Ry

     iteration #  8     ecut=    50.00 Ry     beta= 0.70
     Davidson diagonalization with overlap
     c_bands:  1 eigenvalues not converged
     c_bands:  1 eigenvalues not converged
     ethr =  1.33E-05,  avg # of iterations = 14.1

     total cpu time spent up to now is      193.6 secs

     total energy              =   -1423.41329557 Ry
     estimated scf accuracy    <       0.01022709 Ry

     iteration #  9     ecut=    50.00 Ry     beta= 0.70
     Davidson diagonalization with overlap
     c_bands:  1 eigenvalues not converged
     ethr =  1.02E-05,  avg # of iterations =  4.0

     total cpu time spent up to now is      209.3 secs

     total energy              =   -1423.41349320 Ry
     estimated scf accuracy    <       0.01004970 Ry

     iteration # 10     ecut=    50.00 Ry     beta= 0.70
     Davidson diagonalization with overlap
     ethr =  1.00E-05,  avg # of iterations =  1.1

     total cpu time spent up to now is      224.4 secs

     total energy              =   -1423.41098383 Ry
     estimated scf accuracy    <       0.01098885 Ry

     iteration # 11     ecut=    50.00 Ry     beta= 0.70
     Davidson diagonalization with overlap
     ethr =  1.00E-05,  avg # of iterations =  2.0

     total cpu time spent up to now is      240.6 secs

     total energy              =   -1423.41230654 Ry
     estimated scf accuracy    <       0.00942959 Ry

     iteration # 12     ecut=    50.00 Ry     beta= 0.70
     Davidson diagonalization with overlap
     ethr =  9.43E-06,  avg # of iterations =  1.0

     total cpu time spent up to now is      255.6 secs

     total energy              =   -1423.41261550 Ry
     estimated scf accuracy    <       0.00100381 Ry

     iteration # 13     ecut=    50.00 Ry     beta= 0.70
     Davidson diagonalization with overlap
     ethr =  1.00E-06,  avg # of iterations =  8.6

     total cpu time spent up to now is      274.1 secs

     total energy              =   -1423.41270558 Ry
     estimated scf accuracy    <       0.00014358 Ry

     iteration # 14     ecut=    50.00 Ry     beta= 0.70
     Davidson diagonalization with overlap
     ethr =  1.44E-07,  avg # of iterations =  8.6

     total cpu time spent up to now is      298.0 secs

     total energy              =   -1423.41277030 Ry
     estimated scf accuracy    <       0.00011358 Ry

     iteration # 15     ecut=    50.00 Ry     beta= 0.70
     Davidson diagonalization with overlap
     ethr =  1.14E-07,  avg # of iterations =  3.2

     total cpu time spent up to now is      313.6 secs

     total energy              =   -1423.41276750 Ry
     estimated scf accuracy    <       0.00005035 Ry

     iteration # 16     ecut=    50.00 Ry     beta= 0.70
     Davidson diagonalization with overlap
     ethr =  5.04E-08,  avg # of iterations =  2.6

     total cpu time spent up to now is      330.1 secs

     total energy              =   -1423.41276922 Ry
     estimated scf accuracy    <       0.00001495 Ry

     iteration # 17     ecut=    50.00 Ry     beta= 0.70
     Davidson diagonalization with overlap
     ethr =  1.49E-08,  avg # of iterations =  6.4

     total cpu time spent up to now is      353.8 secs

     total energy              =   -1423.41277528 Ry
     estimated scf accuracy    <       0.00001362 Ry

     iteration # 18     ecut=    50.00 Ry     beta= 0.70
     Davidson diagonalization with overlap
     ethr =  1.36E-08,  avg # of iterations =  1.1

     total cpu time spent up to now is      369.1 secs

     total energy              =   -1423.41277357 Ry
     estimated scf accuracy    <       0.00000791 Ry

     iteration # 19     ecut=    50.00 Ry     beta= 0.70
     Davidson diagonalization with overlap
     ethr =  7.91E-09,  avg # of iterations =  4.0

     total cpu time spent up to now is      386.3 secs

     total energy              =   -1423.41277396 Ry
     estimated scf accuracy    <       0.00000139 Ry

     iteration # 20     ecut=    50.00 Ry     beta= 0.70
     Davidson diagonalization with overlap
     ethr =  1.39E-09,  avg # of iterations =  6.5

     total cpu time spent up to now is      409.8 secs

     End of self-consistent calculation

          k = 0.0000 0.0000 0.0000 ( 14897 PWs)   bands (ev):

   -74.2576 -73.6797 -73.6551 -73.4299 -41.3682 -41.3663 -41.3016 -40.8047
   -40.7782 -40.7623 -40.7395 -40.7337 -40.7080 -40.5675 -40.5031 -40.4790
   -13.2379 -13.2248 -13.2144 -13.2050 -13.2026 -13.1871 -13.0922 -13.0846
   -13.0636 -13.0632 -13.0594 -13.0575 -13.0460 -12.9144 -12.9092  -7.1276
    -6.3584  -6.0811  -4.1877  -3.2762  -2.8073  -2.6374  -2.5799  -2.2138
    -2.1510  -2.1333  -1.9741  -1.8347  -1.7590  -1.5280  -1.2245  -1.1204
    -0.8458  -0.7444  -0.0145   4.0107   4.1004   4.3443   5.0569   5.4189
     5.5993   5.9159   6.1905   6.2622

          k =-0.0019-0.0008-0.4492 ( 14876 PWs)   bands (ev):

   -74.2576 -73.6797 -73.6551 -73.4299 -41.3682 -41.3663 -41.3016 -40.8047
   -40.7782 -40.7623 -40.7395 -40.7337 -40.7080 -40.5675 -40.5031 -40.4790
   -13.2379 -13.2248 -13.2144 -13.2051 -13.2026 -13.1870 -13.0922 -13.0846
   -13.0636 -13.0632 -13.0593 -13.0575 -13.0460 -12.9144 -12.9092  -6.9625
    -6.6340  -6.0288  -4.0473  -3.5152  -2.7857  -2.5105  -2.4837  -2.3257
    -2.3056  -2.0554  -1.8115  -1.7725  -1.7132  -1.5859  -1.3376  -1.1368
    -0.8191  -0.4936  -0.2693   4.3704   4.5358   4.9085   5.2056   5.2932
     5.4299   5.6934   5.9478   5.9691

          k =-0.0001-0.5338 0.4449 ( 14884 PWs)   bands (ev):

   -74.2576 -73.6797 -73.6551 -73.4299 -41.3682 -41.3663 -41.3016 -40.8047
   -40.7782 -40.7623 -40.7395 -40.7337 -40.7080 -40.5675 -40.5031 -40.4790
   -13.2383 -13.2244 -13.2143 -13.2052 -13.2024 -13.1870 -13.0921 -13.0845
   -13.0636 -13.0632 -13.0593 -13.0577 -13.0459 -12.9143 -12.9092  -6.6729
    -6.5170  -6.2982  -4.2896  -4.1339  -2.8637  -2.8016  -2.4658  -2.2448
    -2.1201  -1.9044  -1.8491  -1.7679  -1.6147  -1.4839  -1.0824  -0.9387
    -0.4516  -0.3496  -0.1306   3.8668   4.4431   5.1138   5.2601   5.3645
     5.4628   5.7376   5.8391   5.9203

          k =-0.0020-0.5346-0.0043 ( 14900 PWs)   bands (ev):

   -74.2576 -73.6797 -73.6551 -73.4299 -41.3682 -41.3663 -41.3016 -40.8047
   -40.7782 -40.7623 -40.7395 -40.7337 -40.7080 -40.5675 -40.5031 -40.4790
   -13.2383 -13.2244 -13.2144 -13.2052 -13.2024 -13.1870 -13.0922 -13.0845
   -13.0636 -13.0632 -13.0593 -13.0577 -13.0459 -12.9144 -12.9092  -6.7910
    -6.5397  -6.1424  -4.1181  -4.0819  -3.0365  -2.8957  -2.4862  -2.4483
    -1.9992  -1.9674  -1.7454  -1.6181  -1.5653  -1.5187  -1.2092  -1.0162
    -0.5087  -0.2524  -0.1924   4.4295   4.4801   4.7074   4.8811   4.9582
     5.1893   5.2632   6.0510   6.2986

          k =-0.5000-0.0019-0.0021 ( 14878 PWs)   bands (ev):

   -74.2576 -73.6797 -73.6551 -73.4299 -41.3682 -41.3663 -41.3016 -40.8047
   -40.7782 -40.7623 -40.7394 -40.7335 -40.7084 -40.5675 -40.5031 -40.4790
   -13.2379 -13.2247 -13.2144 -13.2051 -13.2026 -13.1872 -13.0922 -13.0846
   -13.0644 -13.0627 -13.0598 -13.0568 -13.0458 -12.9144 -12.9092  -6.9222
    -6.5948  -6.0874  -3.7700  -3.6194  -3.3218  -2.8348  -2.4878  -2.3588
    -2.1754  -1.9884  -1.9537  -1.7926  -1.6606  -1.2053  -1.1368  -1.0393
    -0.8276  -0.3580  -0.2514   3.8288   4.4378   4.7468   5.1074   5.2497
     5.5755   5.9750   6.2810   6.6610

          k =-0.5019-0.0026-0.4513 ( 14886 PWs)   bands (ev):

   -74.2576 -73.6797 -73.6551 -73.4299 -41.3682 -41.3663 -41.3016 -40.8047
   -40.7782 -40.7623 -40.7394 -40.7335 -40.7084 -40.5675 -40.5031 -40.4790
   -13.2379 -13.2248 -13.2144 -13.2051 -13.2027 -13.1872 -13.0922 -13.0845
   -13.0644 -13.0626 -13.0597 -13.0568 -13.0459 -12.9144 -12.9092  -6.8404
    -6.5909  -6.1834  -4.0542  -3.7574  -3.1133  -2.7370  -2.4209  -2.1631
    -2.0570  -2.0444  -1.8411  -1.7533  -1.5672  -1.3652  -1.2445  -1.0561
    -0.7520  -0.4127  -0.3830   4.1537   4.4805   4.7955   5.0645   5.3735
     5.4984   5.5810   5.7964   6.0487

          k =-0.5001-0.5357 0.4428 ( 14934 PWs)   bands (ev):

   -74.2576 -73.6797 -73.6551 -73.4299 -41.3682 -41.3663 -41.3016 -40.8047
   -40.7782 -40.7623 -40.7394 -40.7335 -40.7084 -40.5675 -40.5031 -40.4790
   -13.2383 -13.2244 -13.2143 -13.2053 -13.2025 -13.1871 -13.0921 -13.0845
   -13.0645 -13.0626 -13.0597 -13.0570 -13.0458 -12.9143 -12.9093  -6.5110
    -6.4780  -6.4186  -4.0868  -3.8228  -3.7901  -3.7747  -2.4766  -2.0836
    -1.7993  -1.7708  -1.6580  -1.4864  -1.2037  -1.0348  -0.9978  -0.8150
    -0.6196  -0.4561  -0.2947   4.1653   4.2193   4.5570   5.0179   5.2420
     5.3176   5.4046   5.9366   5.9953

          k =-0.5020-0.5365-0.0064 ( 14940 PWs)   bands (ev):

   -74.2576 -73.6797 -73.6551 -73.4299 -41.3682 -41.3663 -41.3016 -40.8047
   -40.7782 -40.7623 -40.7394 -40.7335 -40.7084 -40.5675 -40.5031 -40.4790
   -13.2383 -13.2244 -13.2144 -13.2052 -13.2025 -13.1871 -13.0922 -13.0845
   -13.0645 -13.0626 -13.0598 -13.0570 -13.0457 -12.9144 -12.9093  -6.5228
    -6.5099  -6.4429  -3.8803  -3.8085  -3.6063  -3.5061  -2.6665  -2.4239
    -2.1857  -1.9336  -1.7393  -1.4031  -1.1931  -1.0420  -0.9727  -0.8507
    -0.6167  -0.2664  -0.2510   4.7045   4.7681   4.8866   5.2864   5.4250
     5.6212   5.6694   5.7852   6.0607

     the Fermi energy is    -0.3101 ev

!    total energy              =   -1423.41277426 Ry
     estimated scf accuracy    <       0.00000065 Ry
     smearing contrib. (-TS)   =      -0.00502169 Ry
     internal energy E=F+TS    =   -1423.40775258 Ry

     The total energy is F=E-TS. E is the sum of the following terms:
     one-electron contribution =    -986.33698282 Ry
     hartree contribution      =     407.40078135 Ry
     xc contribution           =    -178.91079467 Ry
     ewald contribution        =    -361.65905677 Ry
     one-center paw contrib.   =    -303.90169967 Ry

     convergence has been achieved in  20 iterations

     Forces acting on atoms (cartesian axes, Ry/au):

     atom    1 type  4   force =     0.00250322   -0.00212235    0.01646102
     atom    2 type  4   force =    -0.00316230    0.00198205   -0.00553788
     atom    3 type  4   force =    -0.00212835    0.00200944    0.01337866
     atom    4 type  4   force =     0.00173189   -0.00244210   -0.00085587
     atom    5 type  1   force =    -0.00099355    0.00181240   -0.00745556
     atom    6 type  1   force =    -0.00125620   -0.00157744    0.00117765
     atom    7 type  1   force =     0.00863029    0.00087978    0.00448898
     atom    8 type  3   force =    -0.00227278   -0.00044016    0.00800654
     atom    9 type  2   force =    -0.00401191   -0.00038606   -0.00367139
     atom   10 type  2   force =    -0.00197767   -0.00004237   -0.01349927
     atom   11 type  2   force =     0.00389734   -0.00054575    0.00686596
     atom   12 type  2   force =    -0.00679432    0.00051349   -0.00030125
     atom   13 type  2   force =     0.00252639   -0.00261950   -0.00060813
     atom   14 type  2   force =    -0.00033550    0.00125369   -0.00112763
     atom   15 type  2   force =    -0.00170124    0.00351283   -0.00197655
     atom   16 type  2   force =     0.00059195    0.01050598   -0.00351644
     atom   17 type  2   force =    -0.00179642   -0.00575740    0.00009199
     atom   18 type  2   force =    -0.00077824   -0.00775189   -0.00295401
     atom   19 type  2   force =     0.00213652    0.00257720   -0.00055044
     atom   20 type  2   force =     0.00037971   -0.00161074   -0.00068175
     atom   21 type  2   force =    -0.00027824    0.00049244    0.00336843
     atom   22 type  2   force =     0.01181909    0.00033507   -0.00346020
     atom   23 type  2   force =    -0.00162636   -0.00008907   -0.00757768
     atom   24 type  2   force =    -0.01084088    0.00017388    0.00447008
     atom   25 type  2   force =     0.00278590   -0.00017262   -0.01001643
     atom   26 type  2   force =    -0.00207380   -0.00005973   -0.00271252
     atom   27 type  2   force =     0.00836776   -0.00022343   -0.00168151
     atom   28 type  2   force =    -0.00334229   -0.00020763    0.00987518

     Total force =     0.044951     Total SCF correction =     0.001593


     Computing stress (Cartesian axis) and pressure

          total   stress  (Ry/bohr**3)                   (kbar)     P=        9.27
   0.00010159   0.00000228  -0.00002272           14.94        0.34       -3.34
   0.00000228   0.00005151   0.00000673            0.34        7.58        0.99
  -0.00002272   0.00000673   0.00003596           -3.34        0.99        5.29


     BFGS Geometry Optimization
     Energy error            =      0.0E+00
     Gradient error          =      1.6E-02
     Cell gradient error     =      1.0E-04


     number of scf cycles    =   1
     number of bfgs steps    =   0

     enthalpy new            =   -1423.4127742648 Ry

     new trust radius        =       0.0260076431 bohr
     new conv_thr            =       0.0000010000 Ry

     new unit-cell volume =   2507.44999 a.u.^3 (   371.56575 Ang^3 )
     density =      0.12513 g/cm^3

CELL_PARAMETERS (angstrom)
   7.100084295  -0.025908409  -0.033569168
  -0.024522427   6.632448979  -0.010103514
  -0.062249839   6.570328912   7.880663364

ATOMIC_POSITIONS (angstrom)
Mg            2.5031249978        8.2830807684        5.8475811735
Mg            4.4370844797        4.8944028022        1.9340395668
Mg            6.1992988522        8.1619770093        5.6715841539
Mg            0.8814199059        4.9897893105        2.0060548685
Ga            2.5597153044       11.5279290699        6.9145287314
Ga            4.4585018664        1.6446928972        0.8827636921
Ga            6.1679654135        4.9399250759        4.8858632702
Li            0.8579639351        8.2588375317        2.8595030344
H             0.4472654833        5.0881835905        4.0989021333
H             6.4533672908        8.0967148633        3.8736650806
H             3.9027798291       11.4309777201        7.8011386601
H             3.1007603693        1.7323760588        0.0257741322
H             2.5470130933       10.3089064995        5.8784415904
H             4.4926163025        2.8884177439        1.9211425217
H             6.0599350569        6.1321044934        5.9585131765
H             0.9418237776        6.7857788035        1.8134684327
H             6.1687848443       10.2584776925        5.7873273614
H             0.8625920863        3.1763182075        1.9455594287
H             2.6543908848        6.2242910158        6.0457466666
H             4.3779359787        6.9460898884        1.7868091326
H             0.7684928998        8.2172492613        6.4672631984
H             6.1884620391        4.9948827558        1.4501009070
H             4.3554574324        8.2844481620        5.7188624263
H             2.6943813865        4.9208395348        2.4678007982
H             2.2649084700        8.1997731480        4.0388670152
H             4.8720348138        4.9415766979        3.9230029521
H             5.6909280842        8.2231514935        7.8351580917
H             1.2773635208        4.9249816461       -0.1215966493



     Writing output data file ./tmp/LiMg4Ga3H20.save/
     NEW-OLD atomic charge density approx. for the potential
     extrapolated charge  100.47095, renormalised to  100.00000

     total cpu time spent up to now is      543.8 secs

     Self-consistent Calculation

     iteration #  1     ecut=    50.00 Ry     beta= 0.70
     Davidson diagonalization with overlap
     c_bands:  1 eigenvalues not converged
     ethr =  1.00E-06,  avg # of iterations = 16.1

     total cpu time spent up to now is      595.5 secs

     total energy              =   -1423.37795746 Ry
     estimated scf accuracy    <       0.03563318 Ry

     iteration #  2     ecut=    50.00 Ry     beta= 0.70
     Davidson diagonalization with overlap
     ethr =  3.56E-05,  avg # of iterations =  9.1

     total cpu time spent up to now is      623.8 secs

     total energy              =   -1423.39596716 Ry
     estimated scf accuracy    <       0.19390650 Ry

     iteration #  3     ecut=    50.00 Ry     beta= 0.70
     Davidson diagonalization with overlap
     ethr =  3.56E-05,  avg # of iterations =  2.2

     total cpu time spent up to now is      641.1 secs

     total energy              =   -1423.40162389 Ry
     estimated scf accuracy    <       0.23995305 Ry

     iteration #  4     ecut=    50.00 Ry     beta= 0.70
     Davidson diagonalization with overlap
     ethr =  3.56E-05,  avg # of iterations =  2.0

     total cpu time spent up to now is      657.0 secs

     total energy              =   -1423.41630110 Ry
     estimated scf accuracy    <       0.01953340 Ry

     iteration #  5     ecut=    50.00 Ry     beta= 0.70
     Davidson diagonalization with overlap
     ethr =  1.95E-05,  avg # of iterations =  1.0

     total cpu time spent up to now is      671.8 secs

     total energy              =   -1423.41622459 Ry
     estimated scf accuracy    <       0.01320547 Ry

     iteration #  6     ecut=    50.00 Ry     beta= 0.70
     Davidson diagonalization with overlap
     ethr =  1.32E-05,  avg # of iterations =  1.0

     total cpu time spent up to now is      686.6 secs

     total energy              =   -1423.41548614 Ry
     estimated scf accuracy    <       0.01010593 Ry

     iteration #  7     ecut=    50.00 Ry     beta= 0.70
     Davidson diagonalization with overlap
     ethr =  1.01E-05,  avg # of iterations =  1.8

     total cpu time spent up to now is      702.0 secs

     total energy              =   -1423.41457013 Ry
     estimated scf accuracy    <       0.00628115 Ry

     iteration #  8     ecut=    50.00 Ry     beta= 0.70
     Davidson diagonalization with overlap
     ethr =  6.28E-06,  avg # of iterations =  4.4

     total cpu time spent up to now is      719.1 secs

     total energy              =   -1423.41495645 Ry
     estimated scf accuracy    <       0.00171801 Ry

     iteration #  9     ecut=    50.00 Ry     beta= 0.70
     Davidson diagonalization with overlap
     c_bands:  1 eigenvalues not converged
     ethr =  1.72E-06,  avg # of iterations =  7.9

     total cpu time spent up to now is      740.2 secs

     total energy              =   -1423.41539214 Ry
     estimated scf accuracy    <       0.00042614 Ry

     iteration # 10     ecut=    50.00 Ry     beta= 0.70
     Davidson diagonalization with overlap
     ethr =  4.26E-07,  avg # of iterations =  4.9

     total cpu time spent up to now is      758.1 secs

     total energy              =   -1423.41538511 Ry
     estimated scf accuracy    <       0.00031340 Ry

     iteration # 11     ecut=    50.00 Ry     beta= 0.70
     Davidson diagonalization with overlap
     ethr =  3.13E-07,  avg # of iterations =  6.6

     total cpu time spent up to now is      781.7 secs

     total energy              =   -1423.41589008 Ry
     estimated scf accuracy    <       0.00161247 Ry

     iteration # 12     ecut=    50.00 Ry     beta= 0.70
     Davidson diagonalization with overlap
     ethr =  3.13E-07,  avg # of iterations =  3.8

     total cpu time spent up to now is      799.0 secs

     total energy              =   -1423.41588417 Ry
     estimated scf accuracy    <       0.00236194 Ry

     iteration # 13     ecut=    50.00 Ry     beta= 0.70
     Davidson diagonalization with overlap
     ethr =  3.13E-07,  avg # of iterations =  2.0

     total cpu time spent up to now is      814.6 secs

     total energy              =   -1423.41812386 Ry
     estimated scf accuracy    <       0.00247457 Ry

     iteration # 14     ecut=    50.00 Ry     beta= 0.70
     Davidson diagonalization with overlap
     ethr =  3.13E-07,  avg # of iterations = 10.0

     total cpu time spent up to now is      845.2 secs

     total energy              =   -1423.41397910 Ry
     estimated scf accuracy    <       0.02070973 Ry

     iteration # 15     ecut=    50.00 Ry     beta= 0.70
     Davidson diagonalization with overlap
     ethr =  3.13E-07,  avg # of iterations = 11.8

     total cpu time spent up to now is      877.1 secs

     total energy              =   -1423.41540172 Ry
     estimated scf accuracy    <       0.00058652 Ry

     iteration # 16     ecut=    50.00 Ry     beta= 0.70
     Davidson diagonalization with overlap
     ethr =  3.13E-07,  avg # of iterations =  1.4

     total cpu time spent up to now is      892.2 secs

     total energy              =   -1423.41531327 Ry
     estimated scf accuracy    <       0.00036523 Ry

     iteration # 17     ecut=    50.00 Ry     beta= 0.70
     Davidson diagonalization with overlap
     ethr =  3.13E-07,  avg # of iterations =  6.0

     total cpu time spent up to now is      912.2 secs

     total energy              =   -1423.41537043 Ry
     estimated scf accuracy    <       0.00000436 Ry

     iteration # 18     ecut=    50.00 Ry     beta= 0.70
     Davidson diagonalization with overlap
     ethr =  4.36E-09,  avg # of iterations = 12.2

     total cpu time spent up to now is      945.0 secs

     total energy              =   -1423.41539365 Ry
     estimated scf accuracy    <       0.00004070 Ry

     iteration # 19     ecut=    50.00 Ry     beta= 0.70
     Davidson diagonalization with overlap
     ethr =  4.36E-09,  avg # of iterations =  2.0

     total cpu time spent up to now is      961.3 secs

     total energy              =   -1423.41538999 Ry
     estimated scf accuracy    <       0.00002328 Ry

     iteration # 20     ecut=    50.00 Ry     beta= 0.70
     Davidson diagonalization with overlap
     ethr =  4.36E-09,  avg # of iterations =  6.0

     total cpu time spent up to now is      983.1 secs

     total energy              =   -1423.41539067 Ry
     estimated scf accuracy    <       0.00000443 Ry

     iteration # 21     ecut=    50.00 Ry     beta= 0.70
     Davidson diagonalization with overlap
     ethr =  4.36E-09,  avg # of iterations =  2.0

     total cpu time spent up to now is      998.9 secs

     total energy              =   -1423.41539074 Ry
     estimated scf accuracy    <       0.00000249 Ry

     iteration # 22     ecut=    50.00 Ry     beta= 0.70
     Davidson diagonalization with overlap
     ethr =  2.49E-09,  avg # of iterations =  2.0

     total cpu time spent up to now is     1014.5 secs

     total energy              =   -1423.41539056 Ry
     estimated scf accuracy    <       0.00000231 Ry

     iteration # 23     ecut=    50.00 Ry     beta= 0.70
     Davidson diagonalization with overlap
     ethr =  2.31E-09,  avg # of iterations =  4.0

     total cpu time spent up to now is     1030.6 secs

     total energy              =   -1423.41539055 Ry
     estimated scf accuracy    <       0.00000128 Ry

     iteration # 24     ecut=    50.00 Ry     beta= 0.70
     Davidson diagonalization with overlap
     ethr =  1.28E-09,  avg # of iterations =  6.5

     total cpu time spent up to now is     1048.2 secs

     End of self-consistent calculation

          k = 0.0000 0.0000 0.0000 ( 14897 PWs)   bands (ev):

   -74.3016 -73.7227 -73.7022 -73.4616 -41.4115 -41.4105 -41.3460 -40.8478
   -40.8258 -40.8054 -40.7864 -40.7765 -40.7547 -40.5994 -40.5342 -40.5109
   -13.2700 -13.2563 -13.2434 -13.2303 -13.2268 -13.2127 -13.1259 -13.1181
   -13.0993 -13.0949 -13.0904 -13.0867 -13.0795 -12.9532 -12.9481  -7.1328
    -6.3668  -6.0923  -4.1949  -3.2871  -2.8193  -2.6605  -2.6021  -2.2325
    -2.1778  -2.1443  -1.9908  -1.8722  -1.7827  -1.5460  -1.2339  -1.1341
    -0.8664  -0.7564  -0.0298   3.9606   4.0417   4.3239   5.0105   5.3819
     5.5463   5.8676   6.1596   6.2350

          k =-0.0021-0.0007-0.4488 ( 14876 PWs)   bands (ev):

   -74.3016 -73.7227 -73.7022 -73.4616 -41.4115 -41.4105 -41.3460 -40.8478
   -40.8258 -40.8054 -40.7864 -40.7765 -40.7547 -40.5994 -40.5342 -40.5109
   -13.2700 -13.2563 -13.2434 -13.2303 -13.2268 -13.2127 -13.1259 -13.1181
   -13.0993 -13.0949 -13.0904 -13.0866 -13.0795 -12.9532 -12.9481  -6.9702
    -6.6382  -6.0403  -4.0586  -3.5273  -2.7925  -2.5362  -2.5023  -2.3505
    -2.3246  -2.0709  -1.8489  -1.7805  -1.7353  -1.6081  -1.3573  -1.1515
    -0.8319  -0.5129  -0.2803   4.3128   4.4827   4.8593   5.1778   5.2677
     5.3810   5.6656   5.9110   5.9395

          k = 0.0002-0.5332 0.4446 ( 14884 PWs)   bands (ev):

   -74.3016 -73.7227 -73.7022 -73.4616 -41.4115 -41.4105 -41.3460 -40.8478
   -40.8258 -40.8054 -40.7864 -40.7765 -40.7547 -40.5994 -40.5342 -40.5109
   -13.2704 -13.2559 -13.2433 -13.2305 -13.2266 -13.2126 -13.1259 -13.1180
   -13.0995 -13.0951 -13.0904 -13.0866 -13.0794 -12.9531 -12.9481  -6.6784
    -6.5276  -6.3053  -4.2993  -4.1462  -2.8852  -2.8334  -2.4706  -2.2625
    -2.1331  -1.9238  -1.8633  -1.7908  -1.6350  -1.5077  -1.1053  -0.9572
    -0.4716  -0.3672  -0.1432   3.8291   4.4048   5.0686   5.2235   5.3221
     5.4248   5.7095   5.7967   5.8716

          k =-0.0020-0.5339-0.0042 ( 14900 PWs)   bands (ev):

   -74.3016 -73.7227 -73.7022 -73.4616 -41.4115 -41.4105 -41.3460 -40.8478
   -40.8258 -40.8054 -40.7864 -40.7765 -40.7547 -40.5994 -40.5342 -40.5109
   -13.2704 -13.2559 -13.2434 -13.2305 -13.2266 -13.2126 -13.1259 -13.1180
   -13.0995 -13.0951 -13.0904 -13.0866 -13.0794 -12.9531 -12.9481  -6.7953
    -6.5502  -6.1516  -4.1276  -4.0934  -3.0547  -2.9257  -2.4966  -2.4618
    -2.0134  -1.9815  -1.7640  -1.6409  -1.5882  -1.5438  -1.2311  -1.0380
    -0.5263  -0.2688  -0.2055   4.3914   4.4330   4.6613   4.8334   4.9245
     5.1394   5.2269   6.0296   6.2614

          k =-0.4988-0.0018-0.0024 ( 14878 PWs)   bands (ev):

   -74.3016 -73.7227 -73.7022 -73.4616 -41.4115 -41.4105 -41.3460 -40.8478
   -40.8258 -40.8053 -40.7864 -40.7762 -40.7551 -40.5994 -40.5342 -40.5109
   -13.2700 -13.2563 -13.2434 -13.2303 -13.2268 -13.2128 -13.1259 -13.1181
   -13.0994 -13.0953 -13.0900 -13.0867 -13.0793 -12.9532 -12.9481  -6.9294
    -6.6021  -6.0975  -3.7775  -3.6329  -3.3321  -2.8507  -2.5139  -2.3720
    -2.2052  -2.0191  -1.9721  -1.8012  -1.6776  -1.2199  -1.1567  -1.0617
    -0.8449  -0.3759  -0.2670   3.7675   4.3813   4.7251   5.0759   5.2080
     5.5297   5.9239   6.2361   6.6026

          k =-0.5009-0.0025-0.4512 ( 14886 PWs)   bands (ev):

   -74.3016 -73.7227 -73.7022 -73.4616 -41.4115 -41.4105 -41.3460 -40.8478
   -40.8258 -40.8053 -40.7864 -40.7762 -40.7551 -40.5994 -40.5342 -40.5109
   -13.2700 -13.2563 -13.2434 -13.2303 -13.2268 -13.2128 -13.1259 -13.1181
   -13.0994 -13.0953 -13.0899 -13.0866 -13.0793 -12.9532 -12.9481  -6.8500
    -6.5949  -6.1940  -4.0653  -3.7673  -3.1218  -2.7468  -2.4482  -2.1893
    -2.0908  -2.0673  -1.8634  -1.7741  -1.5813  -1.3741  -1.2561  -1.0771
    -0.7739  -0.4259  -0.3977   4.0930   4.4288   4.7490   5.0101   5.3450
     5.4703   5.5455   5.7703   6.0045

          k =-0.4986-0.5351 0.4422 ( 14934 PWs)   bands (ev):

   -74.3016 -73.7227 -73.7022 -73.4616 -41.4115 -41.4105 -41.3460 -40.8478
   -40.8258 -40.8053 -40.7864 -40.7762 -40.7551 -40.5994 -40.5342 -40.5109
   -13.2703 -13.2559 -13.2433 -13.2305 -13.2266 -13.2128 -13.1259 -13.1180
   -13.0995 -13.0955 -13.0900 -13.0866 -13.0793 -12.9531 -12.9481  -6.5180
    -6.4866  -6.4279  -4.0944  -3.8353  -3.8090  -3.7876  -2.4926  -2.0924
    -1.8260  -1.7937  -1.6768  -1.5004  -1.2326  -1.0575  -1.0279  -0.8393
    -0.6303  -0.4692  -0.3073   4.1167   4.1752   4.5093   4.9708   5.2046
     5.2739   5.3652   5.8959   5.9546

          k =-0.5007-0.5358-0.0066 ( 14940 PWs)   bands (ev):

   -74.3016 -73.7227 -73.7022 -73.4616 -41.4115 -41.4105 -41.3460 -40.8478
   -40.8258 -40.8053 -40.7864 -40.7762 -40.7551 -40.5994 -40.5342 -40.5109
   -13.2704 -13.2559 -13.2434 -13.2305 -13.2266 -13.2128 -13.1259 -13.1180
   -13.0995 -13.0955 -13.0900 -13.0867 -13.0792 -12.9531 -12.9481  -6.5265
    -6.5204  -6.4530  -3.8964  -3.8196  -3.6228  -3.5196  -2.6700  -2.4457
    -2.1998  -1.9553  -1.7573  -1.4208  -1.2168  -1.0641  -1.0050  -0.8753
    -0.6331  -0.2807  -0.2661   4.6516   4.7181   4.8302   5.2376   5.3855
     5.5716   5.6308   5.7393   5.9995

     the Fermi energy is    -0.3250 ev

!    total energy              =   -1423.41539044 Ry
     estimated scf accuracy    <       0.00000060 Ry
     smearing contrib. (-TS)   =      -0.00499080 Ry
     internal energy E=F+TS    =   -1423.41039964 Ry

     The total energy is F=E-TS. E is the sum of the following terms:
     one-electron contribution =    -987.16310589 Ry
     hartree contribution      =     407.68487857 Ry
     xc contribution           =    -178.87777698 Ry
     ewald contribution        =    -361.15507260 Ry
     one-center paw contrib.   =    -303.89932274 Ry

     convergence has been achieved in  24 iterations

     Forces acting on atoms (cartesian axes, Ry/au):

     atom    1 type  4   force =     0.00159875   -0.00206796    0.01270272
     atom    2 type  4   force =    -0.00255050    0.00194926   -0.00500495
     atom    3 type  4   force =    -0.00181457    0.00196579    0.01106829
     atom    4 type  4   force =     0.00166545   -0.00170457   -0.00118395
     atom    5 type  1   force =    -0.00213360    0.00100612   -0.00385810
     atom    6 type  1   force =    -0.00010034   -0.00102770   -0.00075751
     atom    7 type  1   force =     0.00599828    0.00022312    0.00330618
     atom    8 type  3   force =    -0.00236339   -0.00035113    0.00786829
     atom    9 type  2   force =    -0.00423964   -0.00042372   -0.00317320
     atom   10 type  2   force =    -0.00256124    0.00005108   -0.00994394
     atom   11 type  2   force =     0.00115194   -0.00031516    0.00496272
     atom   12 type  2   force =    -0.00455758    0.00037076    0.00068061
     atom   13 type  2   force =     0.00240551   -0.00191873    0.00000174
     atom   14 type  2   force =    -0.00029845    0.00059640   -0.00183260
     atom   15 type  2   force =    -0.00143553    0.00289368   -0.00228388
     atom   16 type  2   force =     0.00053630    0.00863469   -0.00332008
     atom   17 type  2   force =    -0.00161392   -0.00440748   -0.00056113
     atom   18 type  2   force =    -0.00077935   -0.00676940   -0.00290263
     atom   19 type  2   force =     0.00201166    0.00218713   -0.00032813
     atom   20 type  2   force =     0.00044378   -0.00113398   -0.00106278
     atom   21 type  2   force =     0.00014420    0.00047527    0.00279267
     atom   22 type  2   force =     0.00938965    0.00023059   -0.00279086
     atom   23 type  2   force =    -0.00150768   -0.00016251   -0.00771013
     atom   24 type  2   force =    -0.00865152    0.00014652    0.00395424
     atom   25 type  2   force =     0.00336712   -0.00006975   -0.00686948
     atom   26 type  2   force =     0.00050793   -0.00005877   -0.00122888
     atom   27 type  2   force =     0.00481482   -0.00023722    0.00041873
     atom   28 type  2   force =     0.00057188   -0.00008233    0.00705605

     Total force =     0.035380     Total SCF correction =     0.000244


     Computing stress (Cartesian axis) and pressure

          total   stress  (Ry/bohr**3)                   (kbar)     P=        6.35
   0.00007395   0.00000206  -0.00001968           10.88        0.30       -2.89
   0.00000206   0.00004027   0.00000638            0.30        5.92        0.94
  -0.00001968   0.00000638   0.00001520           -2.89        0.94        2.24

     Energy error            =      2.6E-03
     Gradient error          =      1.3E-02
     Cell gradient error     =      7.4E-05


     number of scf cycles    =   2
     number of bfgs steps    =   1

     enthalpy old            =   -1423.4127742648 Ry
     enthalpy new            =   -1423.4153904393 Ry

     CASE: enthalpy_new < enthalpy_old

     new trust radius        =       0.0389982318 bohr
     new conv_thr            =       0.0000001270 Ry

     new unit-cell volume =   2524.13932 a.u.^3 (   374.03886 Ang^3 )
     density =      0.12431 g/cm^3

CELL_PARAMETERS (angstrom)
   7.126855709  -0.025242237  -0.040591212
  -0.023923015   6.645977181  -0.007984550
  -0.069561771   6.586227606   7.889408744

ATOMIC_POSITIONS (angstrom)
Mg            2.5093893806        8.2999242287        5.8662923221
Mg            4.4496620935        4.9075070296        1.9275556870
Mg            6.2159399727        8.1831441128        5.6846420973
Mg            0.8850448367        4.9988410927        2.0072319593
Ga            2.5615957269       11.5550321473        6.9171010061
Ga            4.4743884409        1.6476582242        0.8790118200
Ga            6.1934515519        4.9524834281        4.8890119561
Li            0.8567273726        8.2763126376        2.8719445535
H             0.4409926324        5.0994663505        4.1001451483
H             6.4720640719        8.1151659083        3.8623907438
H             3.9124247604       11.4568294185        7.8128271222
H             3.1075836708        1.7366394887        0.0239330858
H             2.5544317414       10.3299898909        5.8840703641
H             4.5076295593        2.8960654901        1.9173873641
H             6.0759941711        6.1502228382        5.9571220390
H             0.9448646246        6.8095349930        1.8127170437
H             6.1856600952       10.2771275127        5.7888272288
H             0.8634356952        3.1763013898        1.9442950141
H             2.6612156896        6.2415144902        6.0498060170
H             4.3938456198        6.9600458468        1.7851175945
H             0.7659787019        8.2366489700        6.4775098001
H             6.2209863699        5.0064224950        1.4438037409
H             4.3655018855        8.3034435053        5.7139202537
H             2.6932751858        4.9320970621        2.4729899192
H             2.2738266779        8.2179319432        4.0351329533
H             4.8873455515        4.9533417918        3.9216427214
H             5.7108918370        8.2427528769        7.8389738510
H             1.2830450156        4.9350315406       -0.1137456521



     Writing output data file ./tmp/LiMg4Ga3H20.save/
     NEW-OLD atomic charge density approx. for the potential
     extrapolated charge  100.66108, renormalised to  100.00000

     total cpu time spent up to now is     1181.5 secs

     Self-consistent Calculation

     iteration #  1     ecut=    50.00 Ry     beta= 0.70
     Davidson diagonalization with overlap
     c_bands:  2 eigenvalues not converged
     c_bands:  1 eigenvalues not converged
     ethr =  1.00E-06,  avg # of iterations = 18.2

     total cpu time spent up to now is     1242.7 secs

     total energy              =   -1423.34241160 Ry
     estimated scf accuracy    <       0.07190641 Ry

     iteration #  2     ecut=    50.00 Ry     beta= 0.70
     Davidson diagonalization with overlap
     ethr =  7.19E-05,  avg # of iterations =  9.6

     total cpu time spent up to now is     1270.7 secs

     total energy              =   -1423.39071512 Ry
     estimated scf accuracy    <       0.31715425 Ry

     iteration #  3     ecut=    50.00 Ry     beta= 0.70
     Davidson diagonalization with overlap
     ethr =  7.19E-05,  avg # of iterations =  3.0

     total cpu time spent up to now is     1287.9 secs

     total energy              =   -1423.39933420 Ry
     estimated scf accuracy    <       0.35262323 Ry

     iteration #  4     ecut=    50.00 Ry     beta= 0.70
     Davidson diagonalization with overlap
     ethr =  7.19E-05,  avg # of iterations =  2.0

     total cpu time spent up to now is     1303.3 secs

     total energy              =   -1423.42014011 Ry
     estimated scf accuracy    <       0.04212687 Ry

     iteration #  5     ecut=    50.00 Ry     beta= 0.70
     Davidson diagonalization with overlap
     ethr =  4.21E-05,  avg # of iterations =  1.0

     total cpu time spent up to now is     1318.1 secs

     total energy              =   -1423.41976656 Ry
     estimated scf accuracy    <       0.02824987 Ry

     iteration #  6     ecut=    50.00 Ry     beta= 0.70
     Davidson diagonalization with overlap
     ethr =  2.82E-05,  avg # of iterations =  1.1

     total cpu time spent up to now is     1332.7 secs

     total energy              =   -1423.41789132 Ry
     estimated scf accuracy    <       0.02157851 Ry

     iteration #  7     ecut=    50.00 Ry     beta= 0.70
     Davidson diagonalization with overlap
     ethr =  2.16E-05,  avg # of iterations =  1.6

     total cpu time spent up to now is     1347.7 secs

     total energy              =   -1423.41613392 Ry
     estimated scf accuracy    <       0.01255408 Ry

     iteration #  8     ecut=    50.00 Ry     beta= 0.70
     Davidson diagonalization with overlap
     ethr =  1.26E-05,  avg # of iterations =  5.0

     total cpu time spent up to now is     1366.2 secs

     total energy              =   -1423.41776356 Ry
     estimated scf accuracy    <       0.00223818 Ry

     iteration #  9     ecut=    50.00 Ry     beta= 0.70
     Davidson diagonalization with overlap
     ethr =  2.24E-06,  avg # of iterations =  8.2

     total cpu time spent up to now is     1387.3 secs

     total energy              =   -1423.41841318 Ry
     estimated scf accuracy    <       0.00063189 Ry

     iteration # 10     ecut=    50.00 Ry     beta= 0.70
     Davidson diagonalization with overlap
     ethr =  6.32E-07,  avg # of iterations =  1.0

     total cpu time spent up to now is     1401.9 secs

     total energy              =   -1423.41821907 Ry
     estimated scf accuracy    <       0.00061566 Ry

     iteration # 11     ecut=    50.00 Ry     beta= 0.70
     Davidson diagonalization with overlap
     ethr =  6.16E-07,  avg # of iterations =  5.1

     total cpu time spent up to now is     1425.3 secs

     total energy              =   -1423.41863542 Ry
     estimated scf accuracy    <       0.00266987 Ry

     iteration # 12     ecut=    50.00 Ry     beta= 0.70
     Davidson diagonalization with overlap
     ethr =  6.16E-07,  avg # of iterations =  2.0

     total cpu time spent up to now is     1440.7 secs

     total energy              =   -1423.41839318 Ry
     estimated scf accuracy    <       0.00218094 Ry

     iteration # 13     ecut=    50.00 Ry     beta= 0.70
     Davidson diagonalization with overlap
     ethr =  6.16E-07,  avg # of iterations =  1.0

     total cpu time spent up to now is     1455.2 secs

     total energy              =   -1423.41870440 Ry
     estimated scf accuracy    <       0.00113931 Ry

     iteration # 14     ecut=    50.00 Ry     beta= 0.70
     Davidson diagonalization with overlap
     ethr =  6.16E-07,  avg # of iterations =  1.0

     total cpu time spent up to now is     1469.9 secs

     total energy              =   -1423.41856615 Ry
     estimated scf accuracy    <       0.00214302 Ry

     iteration # 15     ecut=    50.00 Ry     beta= 0.70
     Davidson diagonalization with overlap
     ethr =  6.16E-07,  avg # of iterations =  1.0

     total cpu time spent up to now is     1484.7 secs

     total energy              =   -1423.41819530 Ry
     estimated scf accuracy    <       0.00169034 Ry

     iteration # 16     ecut=    50.00 Ry     beta= 0.70
     Davidson diagonalization with overlap
     ethr =  6.16E-07,  avg # of iterations =  3.9

     total cpu time spent up to now is     1502.1 secs

     total energy              =   -1423.41810377 Ry
     estimated scf accuracy    <       0.00052783 Ry

     iteration # 17     ecut=    50.00 Ry     beta= 0.70
     Davidson diagonalization with overlap
     ethr =  5.28E-07,  avg # of iterations =  6.0

     total cpu time spent up to now is     1524.1 secs

     total energy              =   -1423.41826286 Ry
     estimated scf accuracy    <       0.00072823 Ry

     iteration # 18     ecut=    50.00 Ry     beta= 0.70
     Davidson diagonalization with overlap
     ethr =  5.28E-07,  avg # of iterations =  1.0

     total cpu time spent up to now is     1538.6 secs

     total energy              =   -1423.41824568 Ry
     estimated scf accuracy    <       0.00017477 Ry

     iteration # 19     ecut=    50.00 Ry     beta= 0.70
     Davidson diagonalization with overlap
     ethr =  1.75E-07,  avg # of iterations =  6.0

     total cpu time spent up to now is     1561.0 secs

     total energy              =   -1423.41829171 Ry
     estimated scf accuracy    <       0.00001076 Ry

     iteration # 20     ecut=    50.00 Ry     beta= 0.70
     Davidson diagonalization with overlap
     ethr =  1.08E-08,  avg # of iterations =  7.0

     total cpu time spent up to now is     1580.9 secs

     total energy              =   -1423.41829919 Ry
     estimated scf accuracy    <       0.00001104 Ry

     iteration # 21     ecut=    50.00 Ry     beta= 0.70
     Davidson diagonalization with overlap
     ethr =  1.08E-08,  avg # of iterations =  1.0

     total cpu time spent up to now is     1595.6 secs

     total energy              =   -1423.41829865 Ry
     estimated scf accuracy    <       0.00000618 Ry

     iteration # 22     ecut=    50.00 Ry     beta= 0.70
     Davidson diagonalization with overlap
     ethr =  6.18E-09,  avg # of iterations =  1.0

     total cpu time spent up to now is     1610.2 secs

     total energy              =   -1423.41829806 Ry
     estimated scf accuracy    <       0.00000322 Ry

     iteration # 23     ecut=    50.00 Ry     beta= 0.70
     Davidson diagonalization with overlap
     ethr =  3.22E-09,  avg # of iterations =  3.2

     total cpu time spent up to now is     1626.2 secs

     total energy              =   -1423.41829809 Ry
     estimated scf accuracy    <       0.00000069 Ry

     iteration # 24     ecut=    50.00 Ry     beta= 0.70
     Davidson diagonalization with overlap
     ethr =  6.93E-10,  avg # of iterations =  6.0

     total cpu time spent up to now is     1649.1 secs

     total energy              =   -1423.41829850 Ry
     estimated scf accuracy    <       0.00000015 Ry

     iteration # 25     ecut=    50.00 Ry     beta= 0.70
     Davidson diagonalization with overlap
     ethr =  1.54E-10,  avg # of iterations =  3.0

     total cpu time spent up to now is     1664.2 secs

     End of self-consistent calculation

          k = 0.0000 0.0000 0.0000 ( 14897 PWs)   bands (ev):

   -74.3670 -73.7856 -73.7694 -73.5074 -41.4764 -41.4750 -41.4121 -40.9109
   -40.8935 -40.8686 -40.8534 -40.8390 -40.8211 -40.6455 -40.5790 -40.5572
   -13.3193 -13.3054 -13.2899 -13.2617 -13.2575 -13.2451 -13.1780 -13.1696
   -13.1487 -13.1455 -13.1274 -13.1243 -13.1204 -13.0061 -13.0012  -7.1428
    -6.3806  -6.1125  -4.2044  -3.3027  -2.8388  -2.6934  -2.6321  -2.2591
    -2.2153  -2.1582  -2.0174  -1.9245  -1.8183  -1.5728  -1.2462  -1.1503
    -0.8952  -0.7736  -0.0496   3.8905   3.9584   4.2958   4.9493   5.3327
     5.4686   5.8048   6.1132   6.1962

          k =-0.0026-0.0005-0.4484 ( 14876 PWs)   bands (ev):

   -74.3670 -73.7856 -73.7694 -73.5074 -41.4764 -41.4750 -41.4121 -40.9109
   -40.8935 -40.8685 -40.8534 -40.8390 -40.8211 -40.6455 -40.5790 -40.5572
   -13.3193 -13.3054 -13.2898 -13.2617 -13.2575 -13.2450 -13.1780 -13.1696
   -13.1487 -13.1455 -13.1273 -13.1243 -13.1204 -13.0060 -13.0012  -6.9847
    -6.6449  -6.0613  -4.0745  -3.5448  -2.7999  -2.5728  -2.5308  -2.3840
    -2.3553  -2.0977  -1.9013  -1.7898  -1.7623  -1.6401  -1.3881  -1.1688
    -0.8495  -0.5397  -0.2936   4.2303   4.4086   4.7947   5.1383   5.2336
     5.3158   5.6241   5.8493   5.9070

          k = 0.0006-0.5323 0.4444 ( 14884 PWs)   bands (ev):

   -74.3670 -73.7856 -73.7694 -73.5074 -41.4764 -41.4750 -41.4121 -40.9109
   -40.8935 -40.8686 -40.8534 -40.8390 -40.8211 -40.6455 -40.5790 -40.5572
   -13.3196 -13.3050 -13.2897 -13.2619 -13.2573 -13.2450 -13.1780 -13.1695
   -13.1489 -13.1456 -13.1272 -13.1243 -13.1203 -13.0060 -13.0013  -6.6882
    -6.5467  -6.3194  -4.3114  -4.1602  -2.9180  -2.8806  -2.4771  -2.2898
    -2.1515  -1.9519  -1.8806  -1.8271  -1.6625  -1.5409  -1.1387  -0.9826
    -0.4977  -0.3912  -0.1586   3.7760   4.3509   5.0078   5.1745   5.2613
     5.3732   5.6685   5.7414   5.8044

          k =-0.0019-0.5328-0.0040 ( 14900 PWs)   bands (ev):

   -74.3670 -73.7856 -73.7694 -73.5074 -41.4764 -41.4750 -41.4121 -40.9109
   -40.8935 -40.8686 -40.8534 -40.8390 -40.8211 -40.6455 -40.5790 -40.5572
   -13.3196 -13.3050 -13.2898 -13.2619 -13.2573 -13.2450 -13.1780 -13.1695
   -13.1489 -13.1456 -13.1272 -13.1243 -13.1203 -13.0060 -13.0012  -6.8037
    -6.5692  -6.1687  -4.1399  -4.1056  -3.0819  -2.9707  -2.5106  -2.4796
    -2.0366  -1.9987  -1.7924  -1.6765  -1.6216  -1.5777  -1.2641  -1.0681
    -0.5495  -0.2903  -0.2211   4.3377   4.3681   4.5970   4.7683   4.8800
     5.0694   5.1743   6.0016   6.2069

          k =-0.4969-0.0018-0.0029 ( 14878 PWs)   bands (ev):

   -74.3670 -73.7856 -73.7694 -73.5074 -41.4764 -41.4750 -41.4121 -40.9109
   -40.8935 -40.8685 -40.8534 -40.8385 -40.8216 -40.6455 -40.5790 -40.5572
   -13.3193 -13.3054 -13.2899 -13.2617 -13.2575 -13.2452 -13.1780 -13.1696
   -13.1487 -13.1456 -13.1274 -13.1242 -13.1201 -13.0060 -13.0012  -6.9429
    -6.6144  -6.1153  -3.7873  -3.6510  -3.3498  -2.8733  -2.5493  -2.3939
    -2.2477  -2.0621  -1.9940  -1.8142  -1.7043  -1.2386  -1.1871  -1.0916
    -0.8700  -0.4010  -0.2869   3.6815   4.3013   4.6955   5.0282   5.1528
     5.4688   5.8532   6.1733   6.5207

          k =-0.4994-0.0023-0.4513 ( 14886 PWs)   bands (ev):

   -74.3670 -73.7856 -73.7694 -73.5074 -41.4764 -41.4750 -41.4121 -40.9109
   -40.8935 -40.8685 -40.8534 -40.8385 -40.8216 -40.6455 -40.5790 -40.5572
   -13.3193 -13.3054 -13.2899 -13.2617 -13.2576 -13.2452 -13.1780 -13.1695
   -13.1487 -13.1456 -13.1273 -13.1242 -13.1202 -13.0060 -13.0012  -6.8679
    -6.6012  -6.2127  -4.0812  -3.7820  -3.1344  -2.7627  -2.4850  -2.2270
    -2.1391  -2.0981  -1.8994  -1.8015  -1.6014  -1.3867  -1.2691  -1.1076
    -0.8066  -0.4425  -0.4164   4.0074   4.3568   4.6833   4.9320   5.3054
     5.4334   5.4999   5.7328   5.9440

          k =-0.4962-0.5341 0.4415 ( 14934 PWs)   bands (ev):

   -74.3670 -73.7856 -73.7694 -73.5074 -41.4764 -41.4750 -41.4121 -40.9109
   -40.8935 -40.8685 -40.8534 -40.8385 -40.8216 -40.6455 -40.5790 -40.5572
   -13.3196 -13.3050 -13.2898 -13.2619 -13.2574 -13.2452 -13.1780 -13.1695
   -13.1489 -13.1457 -13.1272 -13.1242 -13.1202 -13.0060 -13.0013  -6.5318
    -6.5008  -6.4453  -4.1023  -3.8521  -3.8366  -3.8049  -2.5174  -2.1032
    -1.8673  -1.8240  -1.7021  -1.5239  -1.2771  -1.0882  -1.0695  -0.8757
    -0.6427  -0.4857  -0.3219   4.0474   4.1136   4.4409   4.9028   5.1552
     5.2114   5.3131   5.8389   5.8956

          k =-0.4988-0.5346-0.0069 ( 14940 PWs)   bands (ev):

   -74.3670 -73.7856 -73.7694 -73.5074 -41.4764 -41.4750 -41.4121 -40.9109
   -40.8935 -40.8685 -40.8534 -40.8386 -40.8216 -40.6455 -40.5790 -40.5572
   -13.3196 -13.3050 -13.2898 -13.2619 -13.2573 -13.2451 -13.1780 -13.1695
   -13.1489 -13.1457 -13.1273 -13.1242 -13.1201 -13.0060 -13.0013  -6.5395
    -6.5329  -6.4723  -3.9207  -3.8322  -3.6441  -3.5370  -2.6732  -2.4792
    -2.2212  -1.9904  -1.7811  -1.4457  -1.2533  -1.0953  -1.0490  -0.9120
    -0.6563  -0.2986  -0.2850   4.5769   4.6494   4.7511   5.1673   5.3298
     5.5002   5.5768   5.6797   5.9108

     the Fermi energy is    -0.3441 ev

!    total energy              =   -1423.41829847 Ry
     estimated scf accuracy    <       0.00000009 Ry
     smearing contrib. (-TS)   =      -0.00493834 Ry
     internal energy E=F+TS    =   -1423.41336014 Ry

     The total energy is F=E-TS. E is the sum of the following terms:
     one-electron contribution =    -988.42649334 Ry
     hartree contribution      =     408.12537566 Ry
     xc contribution           =    -178.83120920 Ry
     ewald contribution        =    -360.38539075 Ry
     one-center paw contrib.   =    -303.89564250 Ry

     convergence has been achieved in  25 iterations

     Forces acting on atoms (cartesian axes, Ry/au):

     atom    1 type  4   force =     0.00097283   -0.00188387    0.00856834
     atom    2 type  4   force =    -0.00186853    0.00187422   -0.00401019
     atom    3 type  4   force =    -0.00166285    0.00179470    0.00661219
     atom    4 type  4   force =     0.00157265   -0.00069940   -0.00143863
     atom    5 type  1   force =    -0.00222991    0.00012800    0.00006935
     atom    6 type  1   force =     0.00104046   -0.00038329   -0.00192494
     atom    7 type  1   force =     0.00224835   -0.00040204    0.00154499
     atom    8 type  3   force =    -0.00232942   -0.00026598    0.00758413
     atom    9 type  2   force =    -0.00428115   -0.00047728   -0.00248844
     atom   10 type  2   force =    -0.00345375    0.00019119   -0.00498978
     atom   11 type  2   force =    -0.00218784   -0.00002400    0.00253894
     atom   12 type  2   force =    -0.00175367    0.00017365    0.00172302
     atom   13 type  2   force =     0.00213917   -0.00079832    0.00096454
     atom   14 type  2   force =    -0.00023905   -0.00023647   -0.00279450
     atom   15 type  2   force =    -0.00100664    0.00193808   -0.00260042
     atom   16 type  2   force =     0.00042070    0.00585218   -0.00301572
     atom   17 type  2   force =    -0.00129203   -0.00258211   -0.00126017
     atom   18 type  2   force =    -0.00080277   -0.00513125   -0.00284126
     atom   19 type  2   force =     0.00172212    0.00120445    0.00022585
     atom   20 type  2   force =     0.00053568   -0.00039278   -0.00166677
     atom   21 type  2   force =     0.00063500    0.00044227    0.00200070
     atom   22 type  2   force =     0.00576818    0.00007120   -0.00192822
     atom   23 type  2   force =    -0.00135538   -0.00027215   -0.00785838
     atom   24 type  2   force =    -0.00526320    0.00008872    0.00319874
     atom   25 type  2   force =     0.00406782    0.00006441   -0.00266203
     atom   26 type  2   force =     0.00326898   -0.00007498    0.00012990
     atom   27 type  2   force =     0.00087573   -0.00026339    0.00246706
     atom   28 type  2   force =     0.00445849    0.00006424    0.00385168

     Total force =     0.025616     Total SCF correction =     0.000201


     Computing stress (Cartesian axis) and pressure

          total   stress  (Ry/bohr**3)                   (kbar)     P=        2.74
   0.00004105   0.00000167  -0.00001547            6.04        0.25       -2.28
   0.00000167   0.00002410   0.00000578            0.25        3.55        0.85
  -0.00001547   0.00000578  -0.00000935           -2.28        0.85       -1.38

     Energy error            =      2.9E-03
     Gradient error          =      8.6E-03
     Cell gradient error     =      4.1E-05


     number of scf cycles    =   3
     number of bfgs steps    =   2

     enthalpy old            =   -1423.4153904393 Ry
     enthalpy new            =   -1423.4182984720 Ry

     CASE: enthalpy_new < enthalpy_old

     new trust radius        =       0.0584543781 bohr
     new conv_thr            =       0.0000000857 Ry

     new unit-cell volume =   2546.97899 a.u.^3 (   377.42335 Ang^3 )
     density =      0.12319 g/cm^3

CELL_PARAMETERS (angstrom)
   7.166604510  -0.024079955  -0.052560115
  -0.022863544   6.666543629  -0.004093064
  -0.081990397   6.611174624   7.896239843

ATOMIC_POSITIONS (angstrom)
Mg            2.5177002251        8.3254955193        5.8909159873
Mg            4.4675410554        4.9284680736        1.9145801930
Mg            6.2387989723        8.2166974630        5.6989103118
Mg            0.8908236804        5.0131416438        2.0067723214
Ga            2.5621728976       11.5964992852        6.9178445700
Ga            4.4989512434        1.6525723717        0.8704281046
Ga            6.2292059397        4.9716599257        4.8882301887
Li            0.8533232458        8.3031324348        2.8919714846
H             0.4288573166        5.1167833270        4.0981549681
H             6.4970183352        8.1438922008        3.8423827357
H             3.9223256628       11.4971625974        7.8235232681
H             3.1184998796        1.7431440800        0.0220815339
H             2.5652699269       10.3630505242        5.8888661336
H             4.5295033296        2.9073563553        1.9076046103
H             6.0984623945        6.1787139969        5.9478211569
H             0.9493092479        6.8466258141        1.8093617371
H             6.2092676665       10.3061989629        5.7847887891
H             0.8639513196        3.1753029735        1.9395937075
H             2.6708218160        6.2682206737        6.0510911998
H             4.4175671845        6.9818322299        1.7797040539
H             0.7615937781        8.2669737075        6.4882561639
H             6.2697407883        5.0241728307        1.4319339541
H             4.3788481480        8.3327734287        5.6978356931
H             2.6906552398        4.9495178412        2.4795528035
H             2.2887736726        8.2460909239        4.0276763536
H             4.9124448077        4.9716769245        3.9164386034
H             5.7372155144        8.2733230544        7.8396833520
H             1.2958646930        4.9504579984       -0.1017946828



     Writing output data file ./tmp/LiMg4Ga3H20.save/
     NEW-OLD atomic charge density approx. for the potential
     extrapolated charge  100.89658, renormalised to  100.00000

     total cpu time spent up to now is     1797.3 secs

     Self-consistent Calculation

     iteration #  1     ecut=    50.00 Ry     beta= 0.70
     Davidson diagonalization with overlap
     c_bands:  1 eigenvalues not converged
     c_bands:  1 eigenvalues not converged
     c_bands:  2 eigenvalues not converged
     c_bands:  1 eigenvalues not converged
     c_bands:  2 eigenvalues not converged
     ethr =  1.00E-06,  avg # of iterations = 19.1

     total cpu time spent up to now is     1866.4 secs

     total energy              =   -1423.28179262 Ry
     estimated scf accuracy    <       0.12884231 Ry

     iteration #  2     ecut=    50.00 Ry     beta= 0.70
     Davidson diagonalization with overlap
     ethr =  1.29E-04,  avg # of iterations =  9.1

     total cpu time spent up to now is     1894.9 secs

     total energy              =   -1423.38564621 Ry
     estimated scf accuracy    <       0.48743659 Ry

     iteration #  3     ecut=    50.00 Ry     beta= 0.70
     Davidson diagonalization with overlap
     ethr =  1.29E-04,  avg # of iterations =  2.0

     total cpu time spent up to now is     1911.5 secs

     total energy              =   -1423.39932179 Ry
     estimated scf accuracy    <       0.45933063 Ry

     iteration #  4     ecut=    50.00 Ry     beta= 0.70
     Davidson diagonalization with overlap
     ethr =  1.29E-04,  avg # of iterations =  2.0

     total cpu time spent up to now is     1926.6 secs

     total energy              =   -1423.42451288 Ry
     estimated scf accuracy    <       0.07729762 Ry

     iteration #  5     ecut=    50.00 Ry     beta= 0.70
     Davidson diagonalization with overlap
     ethr =  7.73E-05,  avg # of iterations =  1.0

     total cpu time spent up to now is     1941.2 secs

     total energy              =   -1423.42363730 Ry
     estimated scf accuracy    <       0.05110470 Ry

     iteration #  6     ecut=    50.00 Ry     beta= 0.70
     Davidson diagonalization with overlap
     ethr =  5.11E-05,  avg # of iterations =  1.0

     total cpu time spent up to now is     1955.8 secs

     total energy              =   -1423.41983859 Ry
     estimated scf accuracy    <       0.03873321 Ry

     iteration #  7     ecut=    50.00 Ry     beta= 0.70
     Davidson diagonalization with overlap
     ethr =  3.87E-05,  avg # of iterations =  1.8

     total cpu time spent up to now is     1971.1 secs

     total energy              =   -1423.41681145 Ry
     estimated scf accuracy    <       0.02211204 Ry

     iteration #  8     ecut=    50.00 Ry     beta= 0.70
     Davidson diagonalization with overlap
     ethr =  2.21E-05,  avg # of iterations =  7.2

     total cpu time spent up to now is     1990.1 secs

     total energy              =   -1423.41978984 Ry
     estimated scf accuracy    <       0.00396079 Ry

     iteration #  9     ecut=    50.00 Ry     beta= 0.70
     Davidson diagonalization with overlap
     ethr =  3.96E-06,  avg # of iterations =  5.8

     total cpu time spent up to now is     2011.0 secs

     total energy              =   -1423.42104999 Ry
     estimated scf accuracy    <       0.00107493 Ry

     iteration # 10     ecut=    50.00 Ry     beta= 0.70
     Davidson diagonalization with overlap
     ethr =  1.07E-06,  avg # of iterations =  2.4

     total cpu time spent up to now is     2026.2 secs

     total energy              =   -1423.42093854 Ry
     estimated scf accuracy    <       0.00099161 Ry

     iteration # 11     ecut=    50.00 Ry     beta= 0.70
     Davidson diagonalization with overlap
     ethr =  9.92E-07,  avg # of iterations =  7.0

     total cpu time spent up to now is     2052.5 secs

     total energy              =   -1423.42090669 Ry
     estimated scf accuracy    <       0.00678246 Ry

     iteration # 12     ecut=    50.00 Ry     beta= 0.70
     Davidson diagonalization with overlap
     ethr =  9.92E-07,  avg # of iterations =  2.0

     total cpu time spent up to now is     2069.0 secs

     total energy              =   -1423.42031311 Ry
     estimated scf accuracy    <       0.00284383 Ry

     iteration # 13     ecut=    50.00 Ry     beta= 0.70
     Davidson diagonalization with overlap
     ethr =  9.92E-07,  avg # of iterations =  6.0

     total cpu time spent up to now is     2090.9 secs

     total energy              =   -1423.42084083 Ry
     estimated scf accuracy    <       0.00013083 Ry

     iteration # 14     ecut=    50.00 Ry     beta= 0.70
     Davidson diagonalization with overlap
     ethr =  1.31E-07,  avg # of iterations =  5.4

     total cpu time spent up to now is     2112.7 secs

     total energy              =   -1423.42099568 Ry
     estimated scf accuracy    <       0.00049727 Ry

     iteration # 15     ecut=    50.00 Ry     beta= 0.70
     Davidson diagonalization with overlap
     ethr =  1.31E-07,  avg # of iterations =  5.5

     total cpu time spent up to now is     2130.9 secs

     total energy              =   -1423.42081945 Ry
     estimated scf accuracy    <       0.00094263 Ry

     iteration # 16     ecut=    50.00 Ry     beta= 0.70
     Davidson diagonalization with overlap
     ethr =  1.31E-07,  avg # of iterations =  5.0

     total cpu time spent up to now is     2148.8 secs

     total energy              =   -1423.42075198 Ry
     estimated scf accuracy    <       0.00034488 Ry

     iteration # 17     ecut=    50.00 Ry     beta= 0.70
     Davidson diagonalization with overlap
     ethr =  1.31E-07,  avg # of iterations =  6.2

     total cpu time spent up to now is     2171.9 secs

     total energy              =   -1423.42079992 Ry
     estimated scf accuracy    <       0.00026910 Ry

     iteration # 18     ecut=    50.00 Ry     beta= 0.70
     Davidson diagonalization with overlap
     ethr =  1.31E-07,  avg # of iterations =  2.8

     total cpu time spent up to now is     2188.9 secs

     total energy              =   -1423.42082293 Ry
     estimated scf accuracy    <       0.00001271 Ry

     iteration # 19     ecut=    50.00 Ry     beta= 0.70
     Davidson diagonalization with overlap
     ethr =  1.27E-08,  avg # of iterations =  6.0

     total cpu time spent up to now is     2211.5 secs

     total energy              =   -1423.42083440 Ry
     estimated scf accuracy    <       0.00000561 Ry

     iteration # 20     ecut=    50.00 Ry     beta= 0.70
     Davidson diagonalization with overlap
     ethr =  5.61E-09,  avg # of iterations =  1.1

     total cpu time spent up to now is     2226.2 secs

     total energy              =   -1423.42083404 Ry
     estimated scf accuracy    <       0.00000257 Ry

     iteration # 21     ecut=    50.00 Ry     beta= 0.70
     Davidson diagonalization with overlap
     ethr =  2.57E-09,  avg # of iterations =  1.2

     total cpu time spent up to now is     2240.9 secs

     total energy              =   -1423.42083394 Ry
     estimated scf accuracy    <       0.00000088 Ry

     iteration # 22     ecut=    50.00 Ry     beta= 0.70
     Davidson diagonalization with overlap
     ethr =  8.81E-10,  avg # of iterations =  6.1

     total cpu time spent up to now is     2262.5 secs

     End of self-consistent calculation

          k = 0.0000 0.0000 0.0000 ( 14897 PWs)   bands (ev):

   -74.4617 -73.8734 -73.8612 -73.5702 -41.5713 -41.5676 -41.5082 -40.9986
   -40.9860 -40.9569 -40.9451 -40.9259 -40.9120 -40.7087 -40.6401 -40.6209
   -13.3855 -13.3720 -13.3537 -13.3017 -13.2978 -13.2871 -13.2481 -13.2383
   -13.2206 -13.2183 -13.1980 -13.1676 -13.1640 -13.0820 -13.0776  -7.1625
    -6.4042  -6.1487  -4.2155  -3.3250  -2.8710  -2.7408  -2.6702  -2.2991
    -2.2658  -2.1761  -2.0584  -1.9955  -1.8657  -1.6102  -1.2622  -1.1660
    -0.9324  -0.7963  -0.0724   3.7957   3.8445   4.2595   4.8721   5.2706
     5.3562   5.7303   6.0446   6.1436

          k =-0.0033-0.0003-0.4482 ( 14876 PWs)   bands (ev):

   -74.4617 -73.8734 -73.8612 -73.5702 -41.5713 -41.5676 -41.5082 -40.9986
   -40.9860 -40.9569 -40.9451 -40.9259 -40.9120 -40.7087 -40.6401 -40.6209
   -13.3855 -13.3720 -13.3536 -13.3017 -13.2978 -13.2871 -13.2481 -13.2383
   -13.2206 -13.2184 -13.1979 -13.1676 -13.1639 -13.0820 -13.0776  -7.0118
    -6.6569  -6.0989  -4.0954  -3.5693  -2.8087  -2.6246  -2.5751  -2.4287
    -2.4053  -2.1397  -1.9726  -1.8073  -1.7838  -1.6830  -1.4338  -1.1854
    -0.8723  -0.5744  -0.3067   4.1153   4.3090   4.7161   5.0849   5.1853
     5.2368   5.5651   5.7616   5.8647

          k = 0.0015-0.5309 0.4445 ( 14884 PWs)   bands (ev):

   -74.4617 -73.8734 -73.8612 -73.5702 -41.5713 -41.5676 -41.5082 -40.9986
   -40.9860 -40.9569 -40.9451 -40.9259 -40.9120 -40.7087 -40.6401 -40.6209
   -13.3858 -13.3716 -13.3536 -13.3019 -13.2976 -13.2871 -13.2481 -13.2382
   -13.2207 -13.2185 -13.1978 -13.1676 -13.1639 -13.0819 -13.0776  -6.7063
    -6.5814  -6.3463  -4.3259  -4.1744  -2.9712  -2.9460  -2.4880  -2.3299
    -2.1763  -1.9909  -1.9005  -1.8803  -1.6986  -1.5847  -1.1860  -1.0166
    -0.5297  -0.4196  -0.1746   3.7049   4.2774   4.9298   5.1027   5.1817
     5.3061   5.6098   5.6683   5.7204

          k =-0.0018-0.5312-0.0037 ( 14900 PWs)   bands (ev):

   -74.4617 -73.8734 -73.8612 -73.5702 -41.5713 -41.5676 -41.5082 -40.9986
   -40.9860 -40.9569 -40.9451 -40.9259 -40.9120 -40.7087 -40.6401 -40.6209
   -13.3858 -13.3717 -13.3536 -13.3019 -13.2976 -13.2871 -13.2481 -13.2382
   -13.2207 -13.2185 -13.1978 -13.1676 -13.1639 -13.0820 -13.0776  -6.8202
    -6.6035  -6.1995  -4.1560  -4.1152  -3.1226  -3.0373  -2.5277  -2.5044
    -2.0736  -2.0147  -1.8334  -1.7347  -1.6677  -1.6196  -1.3114  -1.1080
    -0.5791  -0.3143  -0.2370   4.2572   4.2874   4.5112   4.6836   4.8237
     4.9752   5.0991   5.9672   6.1305

          k =-0.4941-0.0017-0.0037 ( 14878 PWs)   bands (ev):

   -74.4617 -73.8734 -73.8612 -73.5702 -41.5713 -41.5676 -41.5082 -40.9986
   -40.9860 -40.9568 -40.9451 -40.9254 -40.9125 -40.7087 -40.6402 -40.6209
   -13.3855 -13.3720 -13.3537 -13.3018 -13.2978 -13.2873 -13.2481 -13.2383
   -13.2205 -13.2184 -13.1979 -13.1675 -13.1639 -13.0820 -13.0776  -6.9693
    -6.6348  -6.1468  -3.7999  -3.6730  -3.3790  -2.9030  -2.5993  -2.4302
    -2.3062  -2.1202  -2.0196  -1.8354  -1.7418  -1.2670  -1.2224  -1.1309
    -0.9028  -0.4336  -0.3101   3.5649   4.1923   4.6573   4.9578   5.0839
     5.3901   5.7581   6.0865   6.4103

          k =-0.4974-0.0020-0.4520 ( 14886 PWs)   bands (ev):

   -74.4617 -73.8734 -73.8612 -73.5702 -41.5713 -41.5676 -41.5082 -40.9986
   -40.9860 -40.9568 -40.9451 -40.9254 -40.9125 -40.7087 -40.6402 -40.6209
   -13.3855 -13.3720 -13.3537 -13.3018 -13.2978 -13.2873 -13.2481 -13.2382
   -13.2205 -13.2184 -13.1979 -13.1675 -13.1639 -13.0820 -13.0776  -6.9010
    -6.6119  -6.2458  -4.1024  -3.8035  -3.1523  -2.7866  -2.5369  -2.2794
    -2.2032  -2.1423  -1.9545  -1.8374  -1.6305  -1.4005  -1.2796  -1.1507
    -0.8522  -0.4599  -0.4377   3.8905   4.2588   4.5936   4.8234   5.2520
     5.3884   5.4448   5.6805   5.8644

          k =-0.4927-0.5326 0.4408 ( 14934 PWs)   bands (ev):

   -74.4617 -73.8734 -73.8612 -73.5702 -41.5713 -41.5676 -41.5082 -40.9986
   -40.9860 -40.9568 -40.9451 -40.9254 -40.9125 -40.7087 -40.6402 -40.6209
   -13.3858 -13.3717 -13.3536 -13.3019 -13.2977 -13.2873 -13.2481 -13.2382
   -13.2207 -13.2185 -13.1977 -13.1676 -13.1639 -13.0819 -13.0777  -6.5614
    -6.5236  -6.4759  -4.1102  -3.8765  -3.8730  -3.8266  -2.5540  -2.1188
    -1.9283  -1.8637  -1.7376  -1.5584  -1.3418  -1.1312  -1.1232  -0.9283
    -0.6533  -0.5035  -0.3352   3.9528   4.0299   4.3467   4.8084   5.0871
     5.1267   5.2471   5.7606   5.8136

          k =-0.4960-0.5329-0.0074 ( 14940 PWs)   bands (ev):

   -74.4617 -73.8734 -73.8612 -73.5702 -41.5713 -41.5676 -41.5082 -40.9986
   -40.9860 -40.9568 -40.9451 -40.9254 -40.9125 -40.7087 -40.6402 -40.6209
   -13.3858 -13.3717 -13.3536 -13.3019 -13.2977 -13.2872 -13.2481 -13.2382
   -13.2207 -13.2185 -13.1977 -13.1676 -13.1639 -13.0820 -13.0777  -6.5743
    -6.5446  -6.5077  -3.9558  -3.8458  -3.6709  -3.5575  -2.6775  -2.5276
    -2.2532  -2.0443  -1.8094  -1.4834  -1.3061  -1.1400  -1.1057  -0.9646
    -0.6850  -0.3195  -0.3046   4.4750   4.5574   4.6466   5.0690   5.2523
     5.4012   5.4969   5.6087   5.7866

     the Fermi energy is    -0.3655 ev

!    total energy              =   -1423.42083420 Ry
     estimated scf accuracy    <       0.00000004 Ry
     smearing contrib. (-TS)   =      -0.00483899 Ry
     internal energy E=F+TS    =   -1423.41599520 Ry

     The total energy is F=E-TS. E is the sum of the following terms:
     one-electron contribution =    -990.35509725 Ry
     hartree contribution      =     408.83560531 Ry
     xc contribution           =    -178.77302158 Ry
     ewald contribution        =    -359.22724776 Ry
     one-center paw contrib.   =    -303.89623393 Ry

     convergence has been achieved in  22 iterations

     Forces acting on atoms (cartesian axes, Ry/au):

     atom    1 type  4   force =     0.00053224   -0.00157991    0.00305048
     atom    2 type  4   force =    -0.00095606    0.00163166   -0.00216686
     atom    3 type  4   force =    -0.00168564    0.00148932    0.00092807
     atom    4 type  4   force =     0.00131298    0.00057667   -0.00154889
     atom    5 type  1   force =    -0.00141229   -0.00076412    0.00330633
     atom    6 type  1   force =     0.00175778    0.00037467   -0.00238733
     atom    7 type  1   force =    -0.00198347   -0.00095956   -0.00005257
     atom    8 type  3   force =    -0.00226956   -0.00022130    0.00703036
     atom    9 type  2   force =    -0.00398274   -0.00055025   -0.00150900
     atom   10 type  2   force =    -0.00461517    0.00040538    0.00124030
     atom   11 type  2   force =    -0.00562990    0.00030106   -0.00020361
     atom   12 type  2   force =     0.00171424   -0.00009173    0.00275734
     atom   13 type  2   force =     0.00166056    0.00077279    0.00232507
     atom   14 type  2   force =    -0.00012937   -0.00105626   -0.00385631
     atom   15 type  2   force =    -0.00033119    0.00053447   -0.00280771
     atom   16 type  2   force =     0.00025949    0.00209400   -0.00250389
     atom   17 type  2   force =    -0.00075114   -0.00017368   -0.00186708
     atom   18 type  2   force =    -0.00082629   -0.00263897   -0.00271368
     atom   19 type  2   force =     0.00120258   -0.00051408    0.00119290
     atom   20 type  2   force =     0.00065688    0.00052803   -0.00240894
     atom   21 type  2   force =     0.00108021    0.00037792    0.00087873
     atom   22 type  2   force =     0.00069119   -0.00014405   -0.00087081
     atom   23 type  2   force =    -0.00122054   -0.00042353   -0.00793977
     atom   24 type  2   force =    -0.00027966   -0.00000054    0.00215523
     atom   25 type  2   force =     0.00490858    0.00021741    0.00262403
     atom   26 type  2   force =     0.00566041   -0.00011531    0.00089556
     atom   27 type  2   force =    -0.00328881   -0.00029994    0.00416774
     atom   28 type  2   force =     0.00792469    0.00022987    0.00028433

     Total force =     0.022290     Total SCF correction =     0.000453


     Computing stress (Cartesian axis) and pressure

