
     Program PWSCF v.6.7MaX starts on  3Apr2026 at 19:16:33 

     This program is part of the open-source Quantum ESPRESSO suite
     for quantum simulation of materials; please cite
         "P. Giannozzi et al., J. Phys.:Condens. Matter 21 395502 (2009);
         "P. Giannozzi et al., J. Phys.:Condens. Matter 29 465901 (2017);
          URL http://www.quantum-espresso.org", 
     in publications or presentations arising from this work. More details at
     http://www.quantum-espresso.org/quote

     Parallel version (MPI), running on     2 processors

     MPI processes distributed on     1 nodes
     R & G space division:  proc/nbgrp/npool/nimage =       2
     Waiting for input...
     Reading input from standard input

     Current dimensions of program PWSCF are:
     Max number of different atomic species (ntypx) = 10
     Max number of k-points (npk) =  40000
     Max angular momentum in pseudopotentials (lmaxx) =  3
     Message from routine read_pp_mesh:
     mismatch in mesh size, discarding the one in header
     file H.UPF: wavefunction(s)  1S renormalized

     Subspace diagonalization in iterative solution of the eigenvalue problem:
     a serial algorithm will be used


     Parallelization info
     --------------------
     sticks:   dense  smooth     PW     G-vecs:    dense   smooth      PW
     Min        6053    3029    819               495857   175294   24636
     Max        6054    3030    820               495858   175295   24637
     Sum       12107    6059   1639               991715   350589   49273



     bravais-lattice index     =            0
     lattice parameter (alat)  =      22.0562  a.u.
     unit-cell volume          =   10258.4432 (a.u.)^3
     number of atoms/cell      =          128
     number of atomic types    =            5
     number of electrons       =       263.00
     number of Kohn-Sham states=          158
     kinetic-energy cutoff     =      40.0000  Ry
     charge density cutoff     =     320.0000  Ry
     scf convergence threshold =      1.0E-06
     mixing beta               =       0.4000
     number of iterations used =            6  plain     mixing
     energy convergence thresh.=      1.0E-04
     force convergence thresh. =      1.0E-03
     press convergence thresh. =      5.0E-01
     Exchange-correlation=  SLA  PW   PBE  PBE
                           (   1   4   3   4   0   0   0)
     nstep                     =          100


     celldm(1)=  22.056227  celldm(2)=   0.000000  celldm(3)=   0.000000
     celldm(4)=   0.000000  celldm(5)=   0.000000  celldm(6)=   0.000000

     crystal axes: (cart. coord. in units of alat)
               a(1) = (   0.999991  -0.001642   0.003953 )  
               a(2) = (  -0.001642   0.978133   0.000997 )  
               a(3) = (   0.003953   0.000997   0.977467 )  

     reciprocal axes: (cart. coord. in units 2 pi/alat)
               b(1) = (  1.000028  0.001683 -0.004046 )  
               b(2) = (  0.001683  1.022359 -0.001050 )  
               b(3) = ( -0.004046 -0.001050  1.023069 )  


     PseudoPot. # 1 for B  read from file:
     /home/marco/ZOS_Cloud_Compute/pseudo/B.UPF
     MD5 check sum: d9c678ba5d3b2fd7b74e61139c9288d8
     Pseudo is Projector augmented-wave + core cor, Zval =  3.0
     Generated using "atomic" code by A. Dal Corso  v.5.1.2
     Shape of augmentation charge: PSQ
     Using radial grid of 1059 points,  4 beta functions with: 
                l(1) =   0
                l(2) =   0
                l(3) =   1
                l(4) =   1
     Q(r) pseudized with 0 coefficients 


     PseudoPot. # 2 for H  read from file:
     /home/marco/ZOS_Cloud_Compute/pseudo/H.UPF
     MD5 check sum: 850d63dcbcc06c5de8b44e0ab9f952da
     Pseudo is Projector augmented-wave, Zval =  1.0
     Generated using "atomic" code by A. Dal Corso  v.5.1.2
     Shape of augmentation charge: PSQ
     Using radial grid of  929 points,  2 beta functions with: 
                l(1) =   0
                l(2) =   0
     Q(r) pseudized with 0 coefficients 


     PseudoPot. # 3 for La read from file:
     /home/marco/ZOS_Cloud_Compute/pseudo/La.UPF
     MD5 check sum: b2f11743f52dde65f77d1302becd7929
     Pseudo is Ultrasoft + core correction, Zval = 11.0
     Generated by new atomic code, or converted to UPF format
     Using radial grid of  907 points,  6 beta functions with: 
                l(1) =   0
                l(2) =   0
                l(3) =   1
                l(4) =   1
                l(5) =   2
                l(6) =   2
     Q(r) pseudized with  6 coefficients,  rinner =    1.200   1.200   1.200
                                                       1.200   1.200

     PseudoPot. # 4 for Mg read from file:
     /home/marco/ZOS_Cloud_Compute/pseudo/Mg.UPF
     MD5 check sum: a77e51077e70c6c73445c6cac60d158f
     Pseudo is Projector augmented-wave + core cor, Zval = 10.0
     Generated using ATOMPAW code
     Shape of augmentation charge: BESSEL
     Using radial grid of 1171 points,  6 beta functions with: 
                l(1) =   0
                l(2) =   0
                l(3) =   0
                l(4) =   0
                l(5) =   1
                l(6) =   1
     Q(r) pseudized with 0 coefficients 


     PseudoPot. # 5 for Y  read from file:
     /home/marco/ZOS_Cloud_Compute/pseudo/Y.UPF
     MD5 check sum: e11e343c2e9fd2e6ee9cb5aa0e490caa
     Pseudo is Ultrasoft + core correction, Zval = 11.0
     Generated by new atomic code, or converted to UPF format
     Using radial grid of  885 points,  6 beta functions with: 
                l(1) =   0
                l(2) =   0
                l(3) =   1
                l(4) =   1
                l(5) =   2
                l(6) =   2
     Q(r) pseudized with  6 coefficients,  rinner =    1.200   1.200   1.200
                                                       1.200   1.200

     atomic species   valence    mass     pseudopotential
        B              3.00     1.00000     B ( 1.00)
        H              1.00     1.00000     H ( 1.00)
        La            11.00     1.00000     La( 1.00)
        Mg            10.00     1.00000     Mg( 1.00)
        Y             11.00     1.00000     Y ( 1.00)

     No symmetry found



   Cartesian axes

     site n.     atom                  positions (alat units)
         1           La  tau(   1) = (   0.7809306   0.7014959   0.2777658  )
         2           La  tau(   2) = (   0.7192039   0.2122802   0.2760594  )
         3           La  tau(   3) = (   0.2805472   0.7021660   0.2162097  )
         4           Y   tau(   4) = (   0.2182568   0.2128158   0.2125781  )
         5           La  tau(   5) = (   0.2122483   0.2754441   0.7022299  )
         6           La  tau(   6) = (   0.2832938   0.7653083   0.7056828  )
         7           La  tau(   7) = (   0.7826819   0.7632104   0.7662418  )
         8           La  tau(   8) = (   0.7297500   0.2728036   0.7668221  )
         9           B   tau(   9) = (   0.2557217   0.0322554   0.6751398  )
        10           B   tau(  10) = (   0.2454973   0.9540207   0.1885322  )
        11           B   tau(  11) = (   0.2527558   0.4497402   0.1886286  )
        12           Mg  tau(  12) = (   0.4709965   0.3088132   0.7364159  )
        13           B   tau(  13) = (   0.8109234   0.7295070   0.5238249  )
        14           B   tau(  14) = (   0.0334454   0.7932189   0.7378746  )
        15           B   tau(  15) = (   0.7466761   0.9460178   0.3073969  )
        16           B   tau(  16) = (   0.0320799   0.6758449   0.2487089  )
        17           B   tau(  17) = (   0.7545000   0.4562225   0.3067071  )
        18           B   tau(  18) = (   0.9704458   0.3023344   0.7335029  )
        19           B   tau(  19) = (   0.2457576   0.5228950   0.6756753  )
        20           B   tau(  20) = (   0.5333174   0.7925171   0.7330536  )
        21           B   tau(  21) = (   0.6924533   0.2408498   0.5213507  )
        22           B   tau(  22) = (   0.9760979   0.1852985   0.2439325  )
        23           B   tau(  23) = (   0.1901754   0.2459289   0.4491174  )
        24           B   tau(  24) = (   0.7503476   0.5208249   0.7957391  )
        25           B   tau(  25) = (   0.1927863   0.2412750   0.9550094  )
        26           B   tau(  26) = (   0.5311643   0.6748599   0.2442742  )
        27           B   tau(  27) = (   0.3131248   0.7307390   0.9483859  )
        28           B   tau(  28) = (   0.3113275   0.7368855   0.4590263  )
        29           B   tau(  29) = (   0.6885291   0.2469562   0.0343761  )
        30           B   tau(  30) = (   0.4620698   0.1864144   0.2483205  )
        31           B   tau(  31) = (   0.8087785   0.7353684   0.0355196  )
        32           B   tau(  32) = (   0.7589085   0.0291666   0.7959807  )
        33           H   tau(  33) = (   0.2690984   0.5152352   0.1070914  )
        34           H   tau(  34) = (   0.3336162   0.1032942   0.6801930  )
        35           H   tau(  35) = (   0.9262960   0.3169534   0.8283762  )
        36           H   tau(  36) = (   0.3264748   0.8253127   0.9026033  )
        37           H   tau(  37) = (   0.8235415   0.6412509   0.0804961  )
        38           H   tau(  38) = (   0.7505589   0.5068203   0.2138199  )
        39           H   tau(  39) = (   0.0782006   0.6607057   0.1544468  )
        40           H   tau(  40) = (   0.7394916   0.4565961   0.8792553  )
        41           H   tau(  41) = (   0.7304894   0.0339864   0.3867884  )
        42           H   tau(  42) = (   0.1660204   0.8841557   0.1926670  )
        43           H   tau(  43) = (   0.9289096   0.1716166   0.3379424  )
        44           H   tau(  44) = (   0.7014690   0.1597260   0.5872765  )
        45           H   tau(  45) = (   0.6749972   0.1523228   0.0794929  )
        46           H   tau(  46) = (   0.0795840   0.8068461   0.6433587  )
        47           H   tau(  47) = (   0.3881149   0.3161507   0.6146100  )
        48           H   tau(  48) = (   0.2499425   0.5031666   0.2801493  )
        49           H   tau(  49) = (   0.2765106   0.2404337   0.0371089  )
        50           H   tau(  50) = (   0.1005835   0.6794778   0.3281175  )
        51           H   tau(  51) = (   0.3407299   0.5678348   0.6617782  )
        52           H   tau(  52) = (   0.7865280   0.2445321   0.9640491  )
        53           H   tau(  53) = (   0.2788663   0.2392515   0.5009698  )
        54           H   tau(  54) = (   0.8911577   0.7117016   0.4581069  )
        55           H   tau(  55) = (   0.3886576   0.7121556   0.0362246  )
        56           H   tau(  56) = (   0.8045374   0.8158784   0.1037632  )
        57           H   tau(  57) = (   0.6019360   0.7871552   0.6528020  )
        58           H   tau(  58) = (   0.7502449   0.0182798   0.2131588  )
        59           H   tau(  59) = (   0.4807636   0.7670769   0.2462806  )
        60           H   tau(  60) = (   0.5146629   0.2785053   0.2464015  )
        61           H   tau(  61) = (   0.1618242   0.0755810   0.6612574  )
        62           H   tau(  62) = (   0.1679997   0.5914916   0.6818984  )
        63           H   tau(  63) = (   0.2524695   0.9607520   0.7694399  )
        64           H   tau(  64) = (   0.1590594   0.4031529   0.1748956  )
        65           H   tau(  65) = (   0.5822132   0.4035305   0.7671716  )
        66           H   tau(  66) = (   0.1972627   0.3259681   0.3802022  )
        67           H   tau(  67) = (   0.2492795   0.4719349   0.7680832  )
        68           H   tau(  68) = (   0.6928875   0.3273495   0.1023858  )
        69           H   tau(  69) = (   0.6681193   0.0748757   0.8131705  )
        70           H   tau(  70) = (   0.8397948   0.0969965   0.7906984  )
        71           H   tau(  71) = (   0.9682369   0.8719886   0.7584891  )
        72           H   tau(  72) = (   0.3249792   0.6425803   0.4134879  )
        73           H   tau(  73) = (   0.7710687   0.5222260   0.3873483  )
        74           H   tau(  74) = (   0.7595994   0.4721670   0.7018086  )
        75           H   tau(  75) = (   0.5560531   0.1859738   0.7430559  )
        76           H   tau(  76) = (   0.5778846   0.6601680   0.3375916  )
        77           H   tau(  77) = (   0.6668333   0.8771054   0.3024792  )
        78           H   tau(  78) = (   0.2490993   0.0284777   0.2798533  )
        79           H   tau(  79) = (   0.5262085   0.1053752   0.2656907  )
        80           H   tau(  80) = (   0.4685570   0.8726806   0.7154371  )
        81           H   tau(  81) = (   0.6145470   0.2651276   0.9450818  )
        82           H   tau(  82) = (   0.7207438   0.7342083   0.9627486  )
        83           H   tau(  83) = (   0.9064684   0.1899500   0.1654655  )
        84           H   tau(  84) = (   0.2255562   0.4594194   0.5944062  )
        85           H   tau(  85) = (   0.6745663   0.5937794   0.7919004  )
        86           H   tau(  86) = (   0.0421452   0.1067487   0.2231945  )
        87           H   tau(  87) = (   0.1021740   0.7883006   0.8169193  )
        88           H   tau(  88) = (   0.8396257   0.9003713   0.3211253  )
        89           H   tau(  89) = (   0.6126508   0.2232026   0.4558982  )
        90           H   tau(  90) = (   0.1088016   0.2223934   0.0444443  )
        91           H   tau(  91) = (   0.7737846   0.9414164   0.8769643  )
        92           H   tau(  92) = (   0.7186998   0.7322720   0.4742686  )
        93           H   tau(  93) = (   0.8438263   0.5672078   0.8096258  )
        94           H   tau(  94) = (   0.3917404   0.1926283   0.3274722  )
        95           H   tau(  95) = (   0.8071698   0.6492513   0.5923517  )
        96           H   tau(  96) = (   0.4139810   0.1735346   0.1551978  )
        97           H   tau(  97) = (   0.9666784   0.5925070   0.2695759  )
        98           H   tau(  98) = (   0.0282000   0.2795249   0.2432510  )
        99           H   tau(  99) = (   0.0192619   0.2111793   0.7327411  )
       100           H   tau( 100) = (   0.1957782   0.1600284   0.8870905  )
       101           H   tau( 101) = (   0.3907480   0.7538793   0.5250479  )
       102           H   tau( 102) = (   0.9812458   0.7661288   0.2495898  )
       103           H   tau( 103) = (   0.7527081   0.9581752   0.7032091  )
       104           H   tau( 104) = (   0.6599893   0.4109196   0.3207475  )
       105           H   tau( 105) = (   0.5794473   0.8060172   0.8266090  )
       106           H   tau( 106) = (   0.3083454   0.6505449   0.8797926  )
       107           H   tau( 107) = (   0.1084609   0.2643752   0.5134062  )
       108           H   tau( 108) = (   0.3059184   0.8170895   0.3905425  )
       109           H   tau( 109) = (   0.8248649   0.8236896   0.5697210  )
       110           H   tau( 110) = (   0.7853869   0.2441509   0.4719005  )
       111           H   tau( 111) = (   0.4663611   0.5933903   0.2261345  )
       112           H   tau( 112) = (   0.2160798   0.7329581   0.0207600  )
       113           H   tau( 113) = (   0.9831978   0.6982400   0.7382633  )
       114           H   tau( 114) = (   0.6003499   0.6785324   0.1640041  )
       115           H   tau( 115) = (   0.2288695   0.0421693   0.1072801  )
       116           H   tau( 116) = (   0.2182556   0.7344011   0.5092791  )
       117           H   tau( 117) = (   0.3381884   0.9069274   0.1744651  )
       118           H   tau( 118) = (   0.3563035   0.2932212   0.8319724  )
       119           H   tau( 119) = (   0.9031611   0.2986059   0.6535443  )
       120           H   tau( 120) = (   0.4834118   0.6990231   0.7352026  )
       121           H   tau( 121) = (   0.2725867   0.9448053   0.5956233  )
       122           H   tau( 122) = (   0.8329766   0.3872673   0.3019715  )
       123           H   tau( 123) = (   0.1722432   0.3347540   0.9109777  )
       124           H   tau( 124) = (   0.6787556   0.3348543   0.5675597  )
       125           H   tau( 125) = (   0.8931128   0.7535343   0.9468800  )
       126           H   tau( 126) = (   0.1779846   0.1523018   0.4016312  )
       127           H   tau( 127) = (   0.3307706   0.3801905   0.1940831  )
       128           H   tau( 128) = (   0.0349781   0.3857617   0.7129449  )

     number of k points=     8  Methfessel-Paxton smearing, width (Ry)=  0.0200
                       cart. coord. in units 2pi/alat
        k(    1) = (   0.0000000   0.0000000   0.0000000), wk =   0.2500000
        k(    2) = (   0.0020231   0.0005248  -0.5115347), wk =   0.2500000
        k(    3) = (  -0.0008416  -0.5111797   0.0005248), wk =   0.2500000
        k(    4) = (   0.0011815  -0.5106549  -0.5110099), wk =   0.2500000
        k(    5) = (  -0.5000140  -0.0008416   0.0020231), wk =   0.2500000
        k(    6) = (  -0.4979909  -0.0003168  -0.5095117), wk =   0.2500000
        k(    7) = (  -0.5008555  -0.5120213   0.0025479), wk =   0.2500000
        k(    8) = (  -0.4988325  -0.5114965  -0.5089869), wk =   0.2500000

     Dense  grid:   991715 G-vectors     FFT dimensions: ( 125, 125, 125)

     Smooth grid:   350589 G-vectors     FFT dimensions: (  90,  90,  90)

     Estimated max dynamical RAM per process >       4.44 GB

     Estimated total dynamical RAM >       8.87 GB
--------------------------------------------------------------------------
MPI_ABORT was invoked on rank 1 in communicator MPI_COMM_WORLD
with errorcode 14.

NOTE: invoking MPI_ABORT causes Open MPI to kill all MPI processes.
You may or may not see output from other processes, depending on
exactly when Open MPI kills them.
--------------------------------------------------------------------------
